<?xml version="1.0"?>
<VTKFile type="UnstructuredGrid" version="0.1" byte_order="LittleEndian">
<UnstructuredGrid>
<Piece NumberOfPoints="31898" NumberOfCells="11152">
<Points>
<DataArray type="Float64" NumberOfComponents="3" format="ascii">
-0.5 -0.5 0 -0.47620991077874902 -0.44978878706170539 0 -0.49999999999999473 -0.42132396840504388 0 -0.5 -0.5 0 -0.47160970827802529 -0.4793630013852106 0 -0.47620991077874902 -0.44978878706170539 0 -0.5 -0.5 0 -0.47160970827802529 -0.4793630013852106 0 -0.44860394795025399 -0.5 0 -0.47160970827802529 -0.4793630013852106 0 -0.44860394795025399 -0.5 0 -0.4490820238307246 -0.45820516232899983 0 -0.44860394795025399 -0.5 0 -0.4490820238307246 -0.45820516232899983 0 -0.42881687682924802 -0.47781464288736519 0 -0.4490820238307246 -0.45820516232899983 0 -0.45555437223955858 -0.42914059360647611 0 -0.4490820238307246 -0.45820516232899983 0 -0.45555437223955858 -0.42914059360647611 0 -0.43867285131603428 -0.4271457417558665 0 -0.4490820238307246 -0.45820516232899983 0 -0.43867285131603428 -0.4271457417558665 0 -0.4263356171060747 -0.44269880333887462 0 -0.47160970827802529 -0.4793630013852106 0 -0.4490820238307246 -0.45820516232899983 0 -0.47620991077874902 -0.44978878706170539 0 -0.4490820238307246 -0.45820516232899983 0 -0.47620991077874902 -0.44978878706170539 0 -0.45555437223955858 -0.42914059360647611 0 -0.47620991077874902 -0.44978878706170539 0 -0.48101336032419229 -0.41069999664450008 0 -0.45555437223955858 -0.42914059360647611 0 -0.47620991077874902 -0.44978878706170539 0 -0.49999999999999473 -0.42132396840504388 0 -0.48101336032419229 -0.41069999664450008 0 -0.49999999999999473 -0.42132396840504388 0 -0.48101336032419229 -0.41069999664450008 0 -0.5 -0.393886241813306 0 -0.49999999999999473 -0.42132396840504388 0 -0.48101336032419229 -0.41069999664450008 0 -0.5 -0.393886241813306 0 -0.47854472220918332 -0.38978458738689759 0 -0.48422759779560409 -0.37130120630367158 0 -0.5 -0.393886241813306 0 -0.5 -0.36644851522156802 0 -0.48422759779560409 -0.37130120630367158 0 -0.48101336032419229 -0.41069999664450008 0 -0.5 -0.393886241813306 0 -0.47854472220918332 -0.38978458738689759 0 -0.48101336032419229 -0.41069999664450008 0 -0.47854472220918332 -0.38978458738689759 0 -0.46202672064839212 -0.40007602488395211 0 -0.48101336032419229 -0.41069999664450008 0 -0.46202672064839212 -0.40007602488395211 0 -0.47854472220918332 -0.38978458738689759 0 -0.46725442735267431 -0.37660061361585562 0 -0.46202672064839212 -0.40007602488395211 0 -0.47854472220918332 -0.38978458738689759 0 -0.46725442735267431 -0.37660061361585562 0 -0.48422759779560409 -0.37130120630367158 0 -0.46725442735267431 -0.37660061361585562 0 -0.46202672064839212 -0.40007602488395211 0 -0.46725442735267431 -0.37660061361585562 0 -0.45645674801697989 -0.38644133236760531 0 -0.46202672064839212 -0.40007602488395211 0 -0.46725442735267431 -0.37660061361585562 0 -0.45645674801697989 -0.38644133236760531 0 -0.4540003998136638 -0.37455519391687309 0 -0.45645674801697989 -0.38644133236760531 0 -0.46202672064839212 -0.40007602488395211 0 -0.44257020456291563 -0.38918913383950271 0 -0.46202672064839212 -0.40007602488395211 0 -0.44257020456291563 -0.38918913383950271 0 -0.44727608925983742 -0.41095911152778891 0 -0.46202672064839212 -0.40007602488395211 0 -0.44257020456291563 -0.38918913383950271 0 -0.44257020456291563 -0.38918913383950271 0 -0.44727608925983742 -0.41095911152778891 0 -0.43479358559901082 -0.4041454901736512 0 -0.44257020456291563 -0.38918913383950271 0 -0.4540003998136638 -0.37455519391687309 0 -0.44172858264042247 -0.37082207246888088 0 -0.45645674801697989 -0.38644133236760531 0 -0.44257020456291563 -0.38918913383950271 0 -0.4540003998136638 -0.37455519391687309 0 -0.46202672064839212 -0.40007602488395211 0 -0.45555437223955858 -0.42914059360647611 0 -0.44727608925983742 -0.41095911152778891 0 -0.46202672064839212 -0.40007602488395211 0 -0.45555437223955858 -0.42914059360647611 0 -0.48101336032419229 -0.41069999664450008 0 -0.46202672064839212 -0.40007602488395211 0 -0.45555437223955858 -0.42914059360647611 0 -0.44727608925983742 -0.41095911152778891 0 -0.43867285131603428 -0.4271457417558665 0 -0.43676601469929588 -0.41441201227470881 0 -0.44727608925983742 -0.41095911152778891 0 -0.43676601469929588 -0.41441201227470881 0 -0.43479358559901082 -0.4041454901736512 0 -0.45555437223955858 -0.42914059360647611 0 -0.44727608925983742 -0.41095911152778891 0 -0.43867285131603428 -0.4271457417558665 0 -0.43867285131603428 -0.4271457417558665 0 -0.42681803064840879 -0.42717069814352421 0 -0.4263356171060747 -0.44269880333887462 0 -0.42681803064840879 -0.42717069814352421 0 -0.41531815884496182 -0.42985383783075998 0 -0.4263356171060747 -0.44269880333887462 0 -0.42681803064840879 -0.42717069814352421 0 -0.42624289495594048 -0.42089725947505818 0 -0.42083332353326591 -0.42146747131641099 0 -0.42681803064840879 -0.42717069814352421 0 -0.43096994786351572 -0.41951492446283251 0 -0.42624289495594048 -0.42089725947505818 0 -0.43867285131603428 -0.4271457417558665 0 -0.42681803064840879 -0.42717069814352421 0 -0.43096994786351572 -0.41951492446283251 0 -0.43867285131603428 -0.4271457417558665 0 -0.43676601469929588 -0.41441201227470881 0 -0.43096994786351572 -0.41951492446283251 0 -0.43676601469929588 -0.41441201227470881 0 -0.43096994786351572 -0.41951492446283251 0 -0.42907264086257813 -0.41311715872526122 0 -0.43676601469929588 -0.41441201227470881 0 -0.42907264086257813 -0.41311715872526122 0 -0.43479358559901082 -0.4041454901736512 0 -0.42907264086257813 -0.41311715872526122 0 -0.43479358559901082 -0.4041454901736512 0 -0.42460885511582858 -0.40417321677700252 0 -0.42907264086257813 -0.41311715872526122 0 -0.41997834854398469 -0.41180534796019508 0 -0.42907264086257813 -0.41311715872526122 0 -0.42635027777857132 -0.41543594397746519 0 -0.41997834854398469 -0.41180534796019508 0 -0.42907264086257813 -0.41311715872526122 0 -0.41997834854398469 -0.41180534796019508 0 -0.42460885511582858 -0.40417321677700252 0 -0.42635027777857132 -0.41543594397746519 0 -0.41997834854398469 -0.41180534796019508 0 -0.42635027777857132 -0.41543594397746519 0 -0.42083332353326591 -0.42146747131641099 0 -0.41997834854398469 -0.41180534796019508 0 -0.43096994786351572 -0.41951492446283251 0 -0.42624289495594048 -0.42089725947505818 0 -0.42635027777857132 -0.41543594397746519 0 -0.43096994786351572 -0.41951492446283251 0 -0.42907264086257813 -0.41311715872526122 0 -0.42635027777857132 -0.41543594397746519 0 -0.42624289495594048 -0.42089725947505818 0 -0.42635027777857132 -0.41543594397746519 0 -0.42083332353326591 -0.42146747131641099 0 -0.42083332353326591 -0.42146747131641099 0 -0.41997834854398469 -0.41180534796019508 0 -0.40992282953163789 -0.42011435591993562 0 -0.41997834854398469 -0.41180534796019508 0 -0.39756877647335259 -0.40857286797681719 0 -0.41997834854398469 -0.41180534796019508 0 -0.40992282953163789 -0.42011435591993562 0 -0.39756877647335259 -0.40857286797681719 0 -0.40992282953163789 -0.42011435591993562 0 -0.41531815884496182 -0.42985383783075998 0 -0.39591554026262499 -0.42887225451549271 0 -0.41531815884496182 -0.42985383783075998 0 -0.39591554026262499 -0.42887225451549271 0 -0.41160927495564159 -0.44339431233754628 0 -0.42083332353326591 -0.42146747131641099 0 -0.40992282953163789 -0.42011435591993562 0 -0.41531815884496182 -0.42985383783075998 0 -0.42681803064840879 -0.42717069814352421 0 -0.42083332353326591 -0.42146747131641099 0 -0.41531815884496182 -0.42985383783075998 0 -0.44257020456291563 -0.38918913383950271 0 -0.42311368847744002 -0.37830224279505142 0 -0.42594061475171041 -0.39368797999533162 0 -0.44257020456291563 -0.38918913383950271 0 -0.42311368847744002 -0.37830224279505142 0 -0.44172858264042247 -0.37082207246888088 0 -0.44257020456291563 -0.38918913383950271 0 -0.42311368847744002 -0.37830224279505142 0 -0.42311368847744002 -0.37830224279505142 0 -0.42594061475171041 -0.39368797999533162 0 -0.416587075656149 -0.38785930376960043 0 -0.44257020456291563 -0.38918913383950271 0 -0.42594061475171041 -0.39368797999533162 0 -0.43479358559901082 -0.4041454901736512 0 -0.42594061475171041 -0.39368797999533162 0 -0.43479358559901082 -0.4041454901736512 0 -0.42460885511582858 -0.40417321677700252 0 -0.41997834854398469 -0.41180534796019508 0 -0.41325908582185972 -0.39811010703057192 0 -0.39770572831670092 -0.39911486077581648 0 -0.41997834854398469 -0.41180534796019508 0 -0.39770572831670092 -0.39911486077581648 0 -0.42594061475171041 -0.39368797999533162 0 -0.42460885511582858 -0.40417321677700252 0 -0.41325908582185972 -0.39811010703057192 0 -0.41997834854398469 -0.41180534796019508 0 -0.42460885511582858 -0.40417321677700252 0 -0.41325908582185972 -0.39811010703057192 0 -0.42594061475171041 -0.39368797999533162 0 -0.41325908582185972 -0.39811010703057192 0 -0.416587075656149 -0.38785930376960043 0 -0.41325908582185972 -0.39811010703057192 0 -0.416587075656149 -0.38785930376960043 0 -0.40403491357358612 -0.38133688525744702 0 -0.42311368847744002 -0.37830224279505142 0 -0.40403491357358612 -0.38133688525744702 0 -0.40365717239196519 -0.36741535175059892 0 -0.42311368847744002 -0.37830224279505142 0 -0.416587075656149 -0.38785930376960043 0 -0.40403491357358612 -0.38133688525744702 0 -0.40403491357358612 -0.38133688525744702 0 -0.39190790742475001 -0.38540387676521748 0 -0.39770572831670092 -0.39911486077581648 0 -0.40403491357358612 -0.38133688525744702 0 -0.39190790742475001 -0.38540387676521748 0 -0.3904578797192948 -0.37473938743617019 0 -0.41325908582185972 -0.39811010703057192 0 -0.40403491357358612 -0.38133688525744702 0 -0.39770572831670092 -0.39911486077581648 0 -0.39770572831670092 -0.39911486077581648 0 -0.37543310808941849 -0.38642437359143528 0 -0.39770572831670092 -0.39911486077581648 0 -0.37515920440272033 -0.40534038799344108 0 -0.37543310808941849 -0.38642437359143528 0 -0.39770572831670092 -0.39911486077581648 0 -0.37515920440272033 -0.40534038799344108 0 -0.39756877647335259 -0.40857286797681719 0 -0.37515920440272033 -0.40534038799344108 0 -0.37543310808941849 -0.38642437359143528 0 -0.37543310808941849 -0.38642437359143528 0 -0.3904578797192948 -0.37473938743617019 0 -0.37568304780698558 -0.36916333065311507 0 -0.39190790742475001 -0.38540387676521748 0 -0.37543310808941849 -0.38642437359143528 0 -0.3904578797192948 -0.37473938743617019 0 -0.37543310808941849 -0.38642437359143528 0 -0.37568304780698558 -0.36916333065311507 0 -0.39190790742475001 -0.38540387676521748 0 -0.39770572831670092 -0.39911486077581648 0 -0.37543310808941849 -0.38642437359143528 0 -0.41997834854398469 -0.41180534796019508 0 -0.39770572831670092 -0.39911486077581648 0 -0.39756877647335259 -0.40857286797681719 0 -0.40992282953163789 -0.42011435591993562 0 -0.39591554026262499 -0.42887225451549271 0 -0.39756877647335259 -0.40857286797681719 0 -0.37515920440272033 -0.40534038799344108 0 -0.39591554026262499 -0.42887225451549271 0 -0.39756877647335259 -0.40857286797681719 0 -0.37515920440272033 -0.40534038799344108 0 -0.39756877647335259 -0.40857286797681719 0 -0.37515920440272033 -0.40534038799344108 0 -0.39591554026262499 -0.42887225451549271 0 -0.37472313619600889 -0.43545561783144832 0 -0.39591554026262499 -0.42887225451549271 0 -0.39301703415267508 -0.44654444244683272 0 -0.37472313619600889 -0.43545561783144832 0 -0.39301703415267508 -0.44654444244683272 0 -0.37428706798929601 -0.46557084766945539 0 -0.37472313619600889 -0.43545561783144832 0 -0.39591554026262499 -0.42887225451549271 0 -0.39301703415267508 -0.44654444244683272 0 -0.41160927495564159 -0.44339431233754628 0 -0.39301703415267508 -0.44654444244683272 0 -0.40396056051613372 -0.45751466911048011 0 -0.41160927495564159 -0.44339431233754628 0 -0.40396056051613372 -0.45751466911048011 0 -0.39245383412573559 -0.47875733455523922 0 -0.41207507163844148 -0.46917161410542801 0 -0.40396056051613372 -0.45751466911048011 0 -0.38912381425271458 -0.46154275838996711 0 -0.39245383412573559 -0.47875733455523922 0 -0.40396056051613372 -0.45751466911048011 0 -0.39245383412573559 -0.47875733455523922 0 -0.40396056051613372 -0.45751466911048011 0 -0.40649676728151513 -0.45682610390212369 0 -0.40396056051613372 -0.45751466911048011 0 -0.38912381425271458 -0.46154275838996711 0 -0.39301703415267508 -0.44654444244683272 0 -0.40396056051613372 -0.45751466911048011 0 -0.38912381425271458 -0.46154275838996711 0 -0.39301703415267508 -0.44654444244683272 0 -0.38912381425271458 -0.46154275838996711 0 -0.37428706798929601 -0.46557084766945539 0 -0.38912381425271458 -0.46154275838996711 0 -0.37428706798929601 -0.46557084766945539 0 -0.38912381425271458 -0.46154275838996711 0 -0.38378714202547332 -0.47159002408209011 0 -0.37428706798929601 -0.46557084766945539 0 -0.38378714202547332 -0.47159002408209011 0 -0.39245383412573559 -0.47875733455523922 0 -0.37411677223754131 -0.47733161267270968 0 -0.39245383412573559 -0.47875733455523922 0 -0.37240076261097882 -0.48974555046165519 0 -0.37411677223754131 -0.47733161267270968 0 -0.38378714202547332 -0.47159002408209011 0 -0.37411677223754131 -0.47733161267270968 0 -0.37428706798929601 -0.46557084766945539 0 -0.38912381425271458 -0.46154275838996711 0 -0.38378714202547332 -0.47159002408209011 0 -0.39245383412573559 -0.47875733455523922 0 -0.38094710773533791 -0.49999999999999839 0 -0.39245383412573559 -0.47875733455523922 0 -0.38094710773533791 -0.49999999999999839 0 -0.39245383412573559 -0.47875733455523922 0 -0.37240076261097882 -0.48974555046165519 0 -0.38094710773533791 -0.49999999999999839 0 -0.39245383412573559 -0.47875733455523922 0 -0.40997732063196057 -0.5 0 -0.39245383412573559 -0.47875733455523922 0 -0.41207507163844148 -0.46917161410542801 0 -0.40997732063196057 -0.5 0 -0.41207507163844148 -0.46917161410542801 0 -0.40997732063196057 -0.5 0 -0.42881687682924802 -0.47781464288736519 0 -0.44860394795025399 -0.5 0 -0.40997732063196057 -0.5 0 -0.42881687682924802 -0.47781464288736519 0 -0.41207507163844148 -0.46917161410542801 0 -0.42881687682924802 -0.47781464288736519 0 -0.42627766738448791 -0.46032764904509182 0 -0.4490820238307246 -0.45820516232899983 0 -0.42881687682924802 -0.47781464288736519 0 -0.42627766738448791 -0.46032764904509182 0 -0.4490820238307246 -0.45820516232899983 0 -0.42627766738448791 -0.46032764904509182 0 -0.4263356171060747 -0.44269880333887462 0 -0.42627766738448791 -0.46032764904509182 0 -0.4263356171060747 -0.44269880333887462 0 -0.41655419253802572 -0.45404861160063659 0 -0.4263356171060747 -0.44269880333887462 0 -0.41160927495564159 -0.44339431233754628 0 -0.41655419253802572 -0.45404861160063659 0 -0.41531815884496182 -0.42985383783075998 0 -0.4263356171060747 -0.44269880333887462 0 -0.41160927495564159 -0.44339431233754628 0 -0.40396056051613372 -0.45751466911048011 0 -0.41160927495564159 -0.44339431233754628 0 -0.40649676728151513 -0.45682610390212369 0 -0.41160927495564159 -0.44339431233754628 0 -0.40649676728151513 -0.45682610390212369 0 -0.41655419253802572 -0.45404861160063659 0 -0.40396056051613372 -0.45751466911048011 0 -0.41160927495564159 -0.44339431233754628 0 -0.41207507163844148 -0.46917161410542801 0 -0.40649676728151513 -0.45682610390212369 0 -0.41655419253802572 -0.45404861160063659 0 -0.40396056051613372 -0.45751466911048011 0 -0.41207507163844148 -0.46917161410542801 0 -0.40649676728151513 -0.45682610390212369 0 -0.41207507163844148 -0.46917161410542801 0 -0.42627766738448791 -0.46032764904509182 0 -0.41655419253802572 -0.45404861160063659 0 -0.45662330498375908 -0.25656877445722759 0 -0.43445882011373449 -0.25478651907497341 0 -0.45662330498375908 -0.25656877445722759 0 -0.43445882011373449 -0.25478651907497341 0 -0.45034617445999431 -0.24335722649563979 0 -0.44999384684511368 -0.2755750489792308 0 -0.45662330498375908 -0.25656877445722759 0 -0.43445882011373449 -0.25478651907497341 0 -0.44999384684511368 -0.2755750489792308 0 -0.43077531442077321 -0.27459050524281542 0 -0.43445882011373449 -0.25478651907497341 0 -0.44999384684511368 -0.2755750489792308 0 -0.441361257405879 -0.29303276451920029 0 -0.43077531442077321 -0.27459050524281542 0 -0.44999384684511368 -0.2755750489792308 0 -0.4670541169931961 -0.26846056693166809 0 -0.46910519348062618 -0.28320526693770848 0 -0.44999384684511368 -0.2755750489792308 0 -0.4670541169931961 -0.26846056693166809 0 -0.45662330498375908 -0.25656877445722759 0 -0.45662330498375908 -0.25656877445722759 0 -0.47878778985378329 -0.25835102983948688 0 -0.4670541169931961 -0.26846056693166809 0 -0.45662330498375908 -0.25656877445722759 0 -0.47878778985378329 -0.25835102983948688 0 -0.45662330498375908 -0.25656877445722759 0 -0.47878778985378329 -0.25835102983948688 0 -0.47142395938804471 -0.23802335247430181 0 -0.47878778985378329 -0.25835102983948688 0 -0.5 -0.25669760885461612 0 -0.48361763707807442 -0.27426406281091331 0 -0.47878778985378329 -0.25835102983948688 0 -0.5 -0.25669760885461612 0 -0.4875835208682564 -0.24248539692068891 0 -0.5 -0.25669760885461612 0 -0.48361763707807442 -0.27426406281091331 0 -0.5 -0.28413533544635422 0 -0.4670541169931961 -0.26846056693166809 0 -0.47878778985378329 -0.25835102983948688 0 -0.48361763707807442 -0.27426406281091331 0 -0.4670541169931961 -0.26846056693166809 0 -0.48361763707807442 -0.27426406281091331 0 -0.46910519348062618 -0.28320526693770848 0 -0.46910519348062618 -0.28320526693770848 0 -0.48580896399913942 -0.29193665231809679 0 -0.47164434439118558 -0.29859902487093259 0 -0.48361763707807442 -0.27426406281091331 0 -0.46910519348062618 -0.28320526693770848 0 -0.48580896399913942 -0.29193665231809679 0 -0.5 -0.28413533544635422 0 -0.48580896399913942 -0.29193665231809679 0 -0.5 -0.3115730620380921 0 -0.48361763707807442 -0.27426406281091331 0 -0.5 -0.28413533544635422 0 -0.48580896399913942 -0.29193665231809679 0 -0.48580896399913942 -0.29193665231809679 0 -0.5 -0.3115730620380921 0 -0.48293754746551898 -0.30617437981156609 0 -0.48293754746551898 -0.30617437981156609 0 -0.47164434439118558 -0.29859902487093259 0 -0.47203566342767839 -0.31514771464943409 0 -0.48580896399913942 -0.29193665231809679 0 -0.48293754746551898 -0.30617437981156609 0 -0.47164434439118558 -0.29859902487093259 0 -0.47164434439118558 -0.29859902487093259 0 -0.46096111539772322 -0.3069557537098867 0 -0.47203566342767839 -0.31514771464943409 0 -0.46096111539772322 -0.3069557537098867 0 -0.44739706002137658 -0.30395698434733032 0 -0.45229582611609759 -0.31444164243390338 0 -0.46096111539772322 -0.3069557537098867 0 -0.45682111422556548 -0.29317658806621089 0 -0.44739706002137658 -0.30395698434733032 0 -0.47164434439118558 -0.29859902487093259 0 -0.46096111539772322 -0.3069557537098867 0 -0.45682111422556548 -0.29317658806621089 0 -0.44999384684511368 -0.2755750489792308 0 -0.46910519348062618 -0.28320526693770848 0 -0.45682111422556548 -0.29317658806621089 0 -0.46910519348062618 -0.28320526693770848 0 -0.47164434439118558 -0.29859902487093259 0 -0.45682111422556548 -0.29317658806621089 0 -0.44999384684511368 -0.2755750489792308 0 -0.45682111422556548 -0.29317658806621089 0 -0.441361257405879 -0.29303276451920029 0 -0.45682111422556548 -0.29317658806621089 0 -0.441361257405879 -0.29303276451920029 0 -0.44739706002137658 -0.30395698434733032 0 -0.441361257405879 -0.29303276451920029 0 -0.44739706002137658 -0.30395698434733032 0 -0.43527018611072049 -0.30465000121327751 0 -0.44739706002137658 -0.30395698434733032 0 -0.44024276041750632 -0.31887045497680111 0 -0.43527018611072049 -0.30465000121327751 0 -0.44739706002137658 -0.30395698434733032 0 -0.45229582611609759 -0.31444164243390338 0 -0.44024276041750632 -0.31887045497680111 0 -0.44024276041750632 -0.31887045497680111 0 -0.45653421084860168 -0.32646185290925811 0 -0.44024276041750632 -0.31887045497680111 0 -0.43930980958642257 -0.33554338078202212 0 -0.45653421084860168 -0.32646185290925811 0 -0.45229582611609759 -0.31444164243390338 0 -0.44024276041750632 -0.31887045497680111 0 -0.45653421084860168 -0.32646185290925811 0 -0.43930980958642257 -0.33554338078202212 0 -0.44966367396753332 -0.33841986907325933 0 -0.46855294336124231 -0.32873531729210143 0 -0.43930980958642257 -0.33554338078202212 0 -0.4507851133594416 -0.34910720111649318 0 -0.43930980958642257 -0.33554338078202212 0 -0.44966367396753332 -0.33841986907325933 0 -0.4507851133594416 -0.34910720111649318 0 -0.44966367396753332 -0.33841986907325933 0 -0.46855294336124231 -0.32873531729210143 0 -0.46386644800117471 -0.33586508895417932 0 -0.43930980958642257 -0.33554338078202212 0 -0.46855294336124231 -0.32873531729210143 0 -0.43930980958642257 -0.33554338078202212 0 -0.46855294336124231 -0.32873531729210143 0 -0.45653421084860168 -0.32646185290925811 0 -0.44966367396753332 -0.33841986907325933 0 -0.4586808436472537 -0.3401528003513713 0 -0.45711636988675219 -0.34547487934353349 0 -0.44966367396753332 -0.33841986907325933 0 -0.4586808436472537 -0.3401528003513713 0 -0.46386644800117471 -0.33586508895417932 0 -0.4586808436472537 -0.3401528003513713 0 -0.46472493826860672 -0.34236766697450172 0 -0.45711636988675219 -0.34547487934353349 0 -0.4586808436472537 -0.3401528003513713 0 -0.46472493826860672 -0.34236766697450172 0 -0.46386644800117471 -0.33586508895417932 0 -0.46855294336124231 -0.32873531729210143 0 -0.46207595183026873 -0.31834845619891672 0 -0.47203566342767839 -0.31514771464943409 0 -0.46855294336124231 -0.32873531729210143 0 -0.45653421084860168 -0.32646185290925811 0 -0.46207595183026873 -0.31834845619891672 0 -0.46096111539772322 -0.3069557537098867 0 -0.45229582611609759 -0.31444164243390338 0 -0.46207595183026873 -0.31834845619891672 0 -0.45229582611609759 -0.31444164243390338 0 -0.45653421084860168 -0.32646185290925811 0 -0.46207595183026873 -0.31834845619891672 0 -0.46096111539772322 -0.3069557537098867 0 -0.46207595183026873 -0.31834845619891672 0 -0.47203566342767839 -0.31514771464943409 0 -0.48293754746551898 -0.30617437981156609 0 -0.47203566342767839 -0.31514771464943409 0 -0.47770984076123751 -0.32964979107966252 0 -0.48293754746551898 -0.30617437981156609 0 -0.47770984076123751 -0.32964979107966252 0 -0.48293754746551898 -0.30617437981156609 0 -0.48763303240419292 -0.31981883507337211 0 -0.47770984076123751 -0.32964979107966252 0 -0.46855294336124231 -0.32873531729210143 0 -0.47203566342767839 -0.31514771464943409 0 -0.47770984076123751 -0.32964979107966252 0 -0.5 -0.3115730620380921 0 -0.5 -0.33901078862982997 0 -0.49048543526404831 -0.32960291085151988 0 -0.5 -0.3115730620380921 0 -0.48763303240419292 -0.31981883507337211 0 -0.49048543526404831 -0.32960291085151988 0 -0.5 -0.3115730620380921 0 -0.48293754746551898 -0.30617437981156609 0 -0.48763303240419292 -0.31981883507337211 0 -0.48763303240419292 -0.31981883507337211 0 -0.49048543526404831 -0.32960291085151988 0 -0.47770984076123751 -0.32964979107966252 0 -0.49048543526404831 -0.32960291085151988 0 -0.47770984076123751 -0.32964979107966252 0 -0.48708430315481122 -0.3479620774366432 0 -0.5 -0.33901078862982997 0 -0.49048543526404831 -0.32960291085151988 0 -0.48708430315481122 -0.3479620774366432 0 -0.47770984076123751 -0.32964979107966252 0 -0.47248213405695583 -0.35312520234775913 0 -0.47770984076123751 -0.32964979107966252 0 -0.47248213405695583 -0.35312520234775913 0 -0.48708430315481122 -0.3479620774366432 0 -0.46472493826860672 -0.34236766697450172 0 -0.47770984076123751 -0.32964979107966252 0 -0.47248213405695583 -0.35312520234775913 0 -0.46855294336124231 -0.32873531729210143 0 -0.46386644800117471 -0.33586508895417932 0 -0.47770984076123751 -0.32964979107966252 0 -0.46472493826860672 -0.34236766697450172 0 -0.46386644800117471 -0.33586508895417932 0 -0.47770984076123751 -0.32964979107966252 0 -0.47248213405695583 -0.35312520234775913 0 -0.48708430315481122 -0.3479620774366432 0 -0.48422759779560409 -0.37130120630367158 0 -0.5 -0.33901078862982997 0 -0.48708430315481122 -0.3479620774366432 0 -0.5 -0.36644851522156802 0 -0.48708430315481122 -0.3479620774366432 0 -0.5 -0.36644851522156802 0 -0.48422759779560409 -0.37130120630367158 0 -0.46725442735267431 -0.37660061361585562 0 -0.47248213405695583 -0.35312520234775913 0 -0.48422759779560409 -0.37130120630367158 0 -0.46725442735267431 -0.37660061361585562 0 -0.47248213405695583 -0.35312520234775913 0 -0.46725442735267431 -0.37660061361585562 0 -0.4540003998136638 -0.37455519391687309 0 -0.46226041713245919 -0.36267102145096558 0 -0.46725442735267431 -0.37660061361585562 0 -0.47248213405695583 -0.35312520234775913 0 -0.46226041713245919 -0.36267102145096558 0 -0.4540003998136638 -0.37455519391687309 0 -0.46226041713245919 -0.36267102145096558 0 -0.45167034254705118 -0.36337553476545958 0 -0.47248213405695583 -0.35312520234775913 0 -0.46226041713245919 -0.36267102145096558 0 -0.46130034509645268 -0.35111989715704561 0 -0.46472493826860672 -0.34236766697450172 0 -0.47248213405695583 -0.35312520234775913 0 -0.46130034509645268 -0.35111989715704561 0 -0.46472493826860672 -0.34236766697450172 0 -0.46130034509645268 -0.35111989715704561 0 -0.45711636988675219 -0.34547487934353349 0 -0.46130034509645268 -0.35111989715704561 0 -0.45711636988675219 -0.34547487934353349 0 -0.4507851133594416 -0.34910720111649318 0 -0.46226041713245919 -0.36267102145096558 0 -0.4507851133594416 -0.34910720111649318 0 -0.45167034254705118 -0.36337553476545958 0 -0.46226041713245919 -0.36267102145096558 0 -0.46130034509645268 -0.35111989715704561 0 -0.4507851133594416 -0.34910720111649318 0 -0.46226041713245919 -0.36267102145096558 0 -0.4507851133594416 -0.34910720111649318 0 -0.4507851133594416 -0.34910720111649318 0 -0.44504098357239391 -0.35771747353496869 0 -0.45167034254705118 -0.36337553476545958 0 -0.44966367396753332 -0.33841986907325933 0 -0.45711636988675219 -0.34547487934353349 0 -0.4507851133594416 -0.34910720111649318 0 -0.4507851133594416 -0.34910720111649318 0 -0.44408457896710762 -0.34741130507322732 0 -0.44504098357239391 -0.35771747353496869 0 -0.43930980958642257 -0.33554338078202212 0 -0.4507851133594416 -0.34910720111649318 0 -0.44408457896710762 -0.34741130507322732 0 -0.44408457896710762 -0.34741130507322732 0 -0.43834809566141358 -0.35386966642967582 0 -0.4310745521241639 -0.35060051531725012 0 -0.44408457896710762 -0.34741130507322732 0 -0.43834809566141358 -0.35386966642967582 0 -0.44504098357239391 -0.35771747353496869 0 -0.43834809566141358 -0.35386966642967582 0 -0.44504098357239391 -0.35771747353496869 0 -0.43256408976529492 -0.36260533289695268 0 -0.44504098357239391 -0.35771747353496869 0 -0.44172858264042247 -0.37082207246888088 0 -0.43256408976529492 -0.36260533289695268 0 -0.4540003998136638 -0.37455519391687309 0 -0.44172858264042247 -0.37082207246888088 0 -0.45167034254705118 -0.36337553476545958 0 -0.44504098357239391 -0.35771747353496869 0 -0.44172858264042247 -0.37082207246888088 0 -0.45167034254705118 -0.36337553476545958 0 -0.42311368847744002 -0.37830224279505142 0 -0.44172858264042247 -0.37082207246888088 0 -0.43256408976529492 -0.36260533289695268 0 -0.42311368847744002 -0.37830224279505142 0 -0.43256408976529492 -0.36260533289695268 0 -0.41867380740831611 -0.36398836527224071 0 -0.43256408976529492 -0.36260533289695268 0 -0.42210656065146929 -0.35476551363046099 0 -0.41867380740831611 -0.36398836527224071 0 -0.44408457896710762 -0.34741130507322732 0 -0.4310745521241639 -0.35060051531725012 0 -0.42443636388738298 -0.3390060521705498 0 -0.43834809566141358 -0.35386966642967582 0 -0.43256408976529492 -0.36260533289695268 0 -0.4310745521241639 -0.35060051531725012 0 -0.4310745521241639 -0.35060051531725012 0 -0.42266042161335821 -0.34652378860874011 0 -0.42210656065146929 -0.35476551363046099 0 -0.4310745521241639 -0.35060051531725012 0 -0.42266042161335821 -0.34652378860874011 0 -0.42443636388738298 -0.3390060521705498 0 -0.43256408976529492 -0.36260533289695268 0 -0.4310745521241639 -0.35060051531725012 0 -0.42210656065146929 -0.35476551363046099 0 -0.42210656065146929 -0.35476551363046099 0 -0.41243440171204931 -0.35621682403100541 0 -0.41867380740831611 -0.36398836527224071 0 -0.41243440171204931 -0.35621682403100541 0 -0.40365717239196519 -0.36741535175059892 0 -0.40302160193259851 -0.3439916005776541 0 -0.42210656065146929 -0.35476551363046099 0 -0.41714587076776338 -0.34786779488983011 0 -0.41243440171204931 -0.35621682403100541 0 -0.42266042161335821 -0.34652378860874011 0 -0.42210656065146929 -0.35476551363046099 0 -0.41714587076776338 -0.34786779488983011 0 -0.42266042161335821 -0.34652378860874011 0 -0.41714587076776338 -0.34786779488983011 0 -0.41853876063601031 -0.34037906703560689 0 -0.41714587076776338 -0.34786779488983011 0 -0.41853876063601031 -0.34037906703560689 0 -0.41714587076776338 -0.34786779488983011 0 -0.41243440171204931 -0.35621682403100541 0 -0.40302160193259851 -0.3439916005776541 0 -0.41714587076776338 -0.34786779488983011 0 -0.40302160193259851 -0.3439916005776541 0 -0.41853876063601031 -0.34037906703560689 0 -0.42311368847744002 -0.37830224279505142 0 -0.41867380740831611 -0.36398836527224071 0 -0.40365717239196519 -0.36741535175059892 0 -0.42311368847744002 -0.37830224279505142 0 -0.40365717239196519 -0.36741535175059892 0 -0.41243440171204931 -0.35621682403100541 0 -0.41867380740831611 -0.36398836527224071 0 -0.40365717239196519 -0.36741535175059892 0 -0.40403491357358612 -0.38133688525744702 0 -0.40365717239196519 -0.36741535175059892 0 -0.40403491357358612 -0.38133688525744702 0 -0.40365717239196519 -0.36741535175059892 0 -0.3904578797192948 -0.37473938743617019 0 -0.40365717239196519 -0.36741535175059892 0 -0.38979507995825918 -0.35965881973269581 0 -0.40365717239196519 -0.36741535175059892 0 -0.3904578797192948 -0.37473938743617019 0 -0.38979507995825918 -0.35965881973269581 0 -0.3904578797192948 -0.37473938743617019 0 -0.38979507995825918 -0.35965881973269581 0 -0.37568304780698558 -0.36916333065311507 0 -0.37568304780698558 -0.36916333065311507 0 -0.37593298752455201 -0.35190228771479481 0 -0.38979507995825918 -0.35965881973269581 0 -0.37568304780698558 -0.36916333065311507 0 -0.37593298752455201 -0.35190228771479481 0 -0.38979507995825918 -0.35965881973269581 0 -0.37595629511297179 -0.35029264644438168 0 -0.40302160193259851 -0.3439916005776541 0 -0.37595629511297179 -0.35029264644438168 0 -0.40302160193259851 -0.3439916005776541 0 -0.38842354837557669 -0.33756560667471242 0 -0.37595629511297179 -0.35029264644438168 0 -0.40302160193259851 -0.3439916005776541 0 -0.37595629511297179 -0.35029264644438168 0 -0.37607676276689278 -0.3419730509543204 0 -0.37390838074359528 -0.35076941925389299 0 -0.37595629511297179 -0.35029264644438168 0 -0.37607676276689278 -0.3419730509543204 0 -0.37595629511297179 -0.35029264644438168 0 -0.37593298752455201 -0.35190228771479481 0 -0.37390838074359528 -0.35076941925389299 0 -0.37595629511297179 -0.35029264644438168 0 -0.37593298752455201 -0.35190228771479481 0 -0.38979507995825918 -0.35965881973269581 0 -0.37595629511297179 -0.35029264644438168 0 -0.37593298752455201 -0.35190228771479481 0 -0.38979507995825918 -0.35965881973269581 0 -0.37593298752455201 -0.35190228771479481 0 -0.40365717239196519 -0.36741535175059892 0 -0.40302160193259851 -0.3439916005776541 0 -0.40365717239196519 -0.36741535175059892 0 -0.38979507995825918 -0.35965881973269581 0 -0.40302160193259851 -0.3439916005776541 0 -0.40302160193259851 -0.3439916005776541 0 -0.40263324863316441 -0.32967896077653092 0 -0.40263324863316441 -0.32967896077653092 0 -0.38842354837557669 -0.33756560667471242 0 -0.38442983343225828 -0.32189177462067481 0 -0.40302160193259851 -0.3439916005776541 0 -0.40263324863316441 -0.32967896077653092 0 -0.38842354837557669 -0.33756560667471242 0 -0.37607676276689278 -0.3419730509543204 0 -0.37641717267996733 -0.3184640617331177 0 -0.38842354837557669 -0.33756560667471242 0 -0.37607676276689278 -0.3419730509543204 0 -0.38442983343225828 -0.32189177462067481 0 -0.37607676276689278 -0.3419730509543204 0 -0.38442983343225828 -0.32189177462067481 0 -0.37595629511297179 -0.35029264644438168 0 -0.38842354837557669 -0.33756560667471242 0 -0.37607676276689278 -0.3419730509543204 0 -0.37607676276689278 -0.3419730509543204 0 -0.37641717267996733 -0.3184640617331177 0 -0.38442983343225828 -0.32189177462067481 0 -0.37641717267996733 -0.3184640617331177 0 -0.38442983343225828 -0.32189177462067481 0 -0.3841914044669909 -0.30132118344037401 0 -0.37641717267996733 -0.3184640617331177 0 -0.38442983343225828 -0.32189177462067481 0 -0.40263324863316441 -0.32967896077653092 0 -0.38442983343225828 -0.32189177462067481 0 -0.40185461233875269 -0.30098256284660307 0 -0.40263324863316441 -0.32967896077653092 0 -0.38442983343225828 -0.32189177462067481 0 -0.40263324863316441 -0.32967896077653092 0 -0.40185461233875269 -0.30098256284660307 0 -0.40263324863316441 -0.32967896077653092 0 -0.41242695344044827 -0.31820451366256841 0 -0.40185461233875269 -0.30098256284660307 0 -0.41242695344044827 -0.31820451366256841 0 -0.41920998916455232 -0.33677027649670849 0 -0.42301959421646518 -0.31628833020920039 0 -0.41920998916455232 -0.33677027649670849 0 -0.42301959421646518 -0.31628833020920039 0 -0.41242695344044827 -0.31820451366256841 0 -0.42301959421646518 -0.31628833020920039 0 -0.41541732284930832 -0.30730243798379953 0 -0.40302160193259851 -0.3439916005776541 0 -0.41920998916455232 -0.33677027649670849 0 -0.41853876063601031 -0.34037906703560689 0 -0.40302160193259851 -0.3439916005776541 0 -0.40263324863316441 -0.32967896077653092 0 -0.41920998916455232 -0.33677027649670849 0 -0.40263324863316441 -0.32967896077653092 0 -0.41920998916455232 -0.33677027649670849 0 -0.40263324863316441 -0.32967896077653092 0 -0.41242695344044827 -0.31820451366256841 0 -0.41920998916455232 -0.33677027649670849 0 -0.40302160193259851 -0.3439916005776541 0 -0.41853876063601031 -0.34037906703560689 0 -0.41853876063601031 -0.34037906703560689 0 -0.42443636388738298 -0.3390060521705498 0 -0.41920998916455232 -0.33677027649670849 0 -0.42443636388738298 -0.3390060521705498 0 -0.41920998916455232 -0.33677027649670849 0 -0.41853876063601031 -0.34037906703560689 0 -0.42443636388738298 -0.3390060521705498 0 -0.41920998916455232 -0.33677027649670849 0 -0.41853876063601031 -0.34037906703560689 0 -0.43930980958642257 -0.33554338078202212 0 -0.44408457896710762 -0.34741130507322732 0 -0.42443636388738298 -0.3390060521705498 0 -0.43930980958642257 -0.33554338078202212 0 -0.42443636388738298 -0.3390060521705498 0 -0.42301959421646518 -0.31628833020920039 0 -0.41920998916455232 -0.33677027649670849 0 -0.42443636388738298 -0.3390060521705498 0 -0.42301959421646518 -0.31628833020920039 0 -0.44408457896710762 -0.34741130507322732 0 -0.42443636388738298 -0.3390060521705498 0 -0.42266042161335821 -0.34652378860874011 0 -0.41853876063601031 -0.34037906703560689 0 -0.42443636388738298 -0.3390060521705498 0 -0.43930980958642257 -0.33554338078202212 0 -0.42443636388738298 -0.3390060521705498 0 -0.43930980958642257 -0.33554338078202212 0 -0.42301959421646518 -0.31628833020920039 0 -0.44024276041750632 -0.31887045497680111 0 -0.42395130998641067 -0.31127905704434472 0 -0.44024276041750632 -0.31887045497680111 0 -0.43930980958642257 -0.33554338078202212 0 -0.42301959421646518 -0.31628833020920039 0 -0.44024276041750632 -0.31887045497680111 0 -0.42301959421646518 -0.31628833020920039 0 -0.42395130998641067 -0.31127905704434472 0 -0.42301959421646518 -0.31628833020920039 0 -0.42395130998641067 -0.31127905704434472 0 -0.42395130998641067 -0.31127905704434472 0 -0.42709180872781188 -0.29439449141065738 0 -0.44024276041750632 -0.31887045497680111 0 -0.42395130998641067 -0.31127905704434472 0 -0.43527018611072049 -0.30465000121327751 0 -0.42395130998641067 -0.31127905704434472 0 -0.42709180872781188 -0.29439449141065738 0 -0.41541732284930832 -0.30730243798379953 0 -0.42395130998641067 -0.31127905704434472 0 -0.43527018611072049 -0.30465000121327751 0 -0.42709180872781188 -0.29439449141065738 0 -0.441361257405879 -0.29303276451920029 0 -0.43527018611072049 -0.30465000121327751 0 -0.42709180872781188 -0.29439449141065738 0 -0.42709180872781188 -0.29439449141065738 0 -0.43077531442077321 -0.27459050524281542 0 -0.42709180872781188 -0.29439449141065738 0 -0.41684225135067149 -0.28376244362903152 0 -0.43077531442077321 -0.27459050524281542 0 -0.441361257405879 -0.29303276451920029 0 -0.42709180872781188 -0.29439449141065738 0 -0.441361257405879 -0.29303276451920029 0 -0.42709180872781188 -0.29439449141065738 0 -0.43077531442077321 -0.27459050524281542 0 -0.42709180872781188 -0.29439449141065738 0 -0.41684225135067149 -0.28376244362903152 0 -0.40618483967714292 -0.29638963380315841 0 -0.42709180872781188 -0.29439449141065738 0 -0.40618483967714292 -0.29638963380315841 0 -0.41684225135067149 -0.28376244362903152 0 -0.40690107601488551 -0.28490397733270861 0 -0.40618483967714292 -0.29638963380315841 0 -0.41541732284930832 -0.30730243798379953 0 -0.40185461233875269 -0.30098256284660307 0 -0.40618483967714292 -0.29638963380315841 0 -0.42709180872781188 -0.29439449141065738 0 -0.41541732284930832 -0.30730243798379953 0 -0.40618483967714292 -0.29638963380315841 0 -0.41541732284930832 -0.30730243798379953 0 -0.40618483967714292 -0.29638963380315841 0 -0.41242695344044827 -0.31820451366256841 0 -0.41541732284930832 -0.30730243798379953 0 -0.40185461233875269 -0.30098256284660307 0 -0.41541732284930832 -0.30730243798379953 0 -0.40185461233875269 -0.30098256284660307 0 -0.42301959421646518 -0.31628833020920039 0 -0.41541732284930832 -0.30730243798379953 0 -0.42395130998641067 -0.31127905704434472 0 -0.41541732284930832 -0.30730243798379953 0 -0.42301959421646518 -0.31628833020920039 0 -0.42395130998641067 -0.31127905704434472 0 -0.41541732284930832 -0.30730243798379953 0 -0.38442983343225828 -0.32189177462067481 0 -0.40185461233875269 -0.30098256284660307 0 -0.39448508010510541 -0.297525044214214 0 -0.40185461233875269 -0.30098256284660307 0 -0.40174149504185092 -0.29681366012781812 0 -0.40618483967714292 -0.29638963380315841 0 -0.40185461233875269 -0.30098256284660307 0 -0.40174149504185092 -0.29681366012781812 0 -0.40185461233875269 -0.30098256284660307 0 -0.39448508010510541 -0.297525044214214 0 -0.40174149504185092 -0.29681366012781812 0 -0.40185461233875269 -0.30098256284660307 0 -0.39448508010510541 -0.297525044214214 0 -0.39448508010510541 -0.297525044214214 0 -0.40174149504185092 -0.29681366012781812 0 -0.37641717267996733 -0.3184640617331177 0 -0.37669606201677502 -0.29920373422444158 0 -0.38442983343225828 -0.32189177462067481 0 -0.39448508010510541 -0.297525044214214 0 -0.38442983343225828 -0.32189177462067481 0 -0.39448508010510541 -0.297525044214214 0 -0.3841914044669909 -0.30132118344037401 0 -0.37641717267996733 -0.3184640617331177 0 -0.3841914044669909 -0.30132118344037401 0 -0.37669606201677502 -0.29920373422444158 0 -0.39448508010510541 -0.297525044214214 0 -0.3841914044669909 -0.30132118344037401 0 -0.37928718982873688 -0.29895646409505849 0 -0.39448508010510541 -0.297525044214214 0 -0.37928718982873688 -0.29895646409505849 0 -0.3841914044669909 -0.30132118344037401 0 -0.37928718982873688 -0.29895646409505849 0 -0.3841914044669909 -0.30132118344037401 0 -0.37928718982873688 -0.29895646409505849 0 -0.37669606201677502 -0.29920373422444158 0 -0.37928718982873688 -0.29895646409505849 0 -0.37669606201677502 -0.29920373422444158 0 -0.37671758341694961 -0.29771744858697219 0 -0.37928718982873688 -0.29895646409505849 0 -0.37671758341694961 -0.29771744858697219 0 -0.37928718982873688 -0.29895646409505849 0 -0.37669606201677502 -0.29920373422444158 0 -0.37669606201677502 -0.29920373422444158 0 -0.37671758341694961 -0.29771744858697219 0 -0.37671758341694961 -0.29771744858697219 0 -0.38607699004493318 -0.28757386461908069 0 -0.38483052758877101 -0.28123782127595193 0 -0.37671758341694961 -0.29771744858697219 0 -0.3770412393053626 -0.27536550612006683 0 -0.37671758341694961 -0.29771744858697219 0 -0.38483052758877101 -0.28123782127595193 0 -0.3770412393053626 -0.27536550612006683 0 -0.37928718982873688 -0.29895646409505849 0 -0.37671758341694961 -0.29771744858697219 0 -0.38467000758835601 -0.29297497791584359 0 -0.37671758341694961 -0.29771744858697219 0 -0.38467000758835601 -0.29297497791584359 0 -0.38607699004493318 -0.28757386461908069 0 -0.39448508010510541 -0.297525044214214 0 -0.37928718982873688 -0.29895646409505849 0 -0.38467000758835601 -0.29297497791584359 0 -0.39448508010510541 -0.297525044214214 0 -0.38467000758835601 -0.29297497791584359 0 -0.39448508010510541 -0.297525044214214 0 -0.38467000758835601 -0.29297497791584359 0 -0.39217701296355612 -0.28987936211692023 0 -0.38467000758835601 -0.29297497791584359 0 -0.38607699004493318 -0.28757386461908069 0 -0.39217701296355612 -0.28987936211692023 0 -0.38607699004493318 -0.28757386461908069 0 -0.39049541959166939 -0.28414526237041138 0 -0.39217701296355612 -0.28987936211692023 0 -0.39049541959166939 -0.28414526237041138 0 -0.39420405367365152 -0.27853706101481662 0 -0.38483052758877101 -0.28123782127595193 0 -0.38607699004493318 -0.28757386461908069 0 -0.39049541959166939 -0.28414526237041138 0 -0.38483052758877101 -0.28123782127595193 0 -0.39597078832761667 -0.28551153658085893 0 -0.40174149504185092 -0.29681366012781812 0 -0.40123596036735593 -0.27818233727432817 0 -0.39049541959166939 -0.28414526237041138 0 -0.39597078832761667 -0.28551153658085893 0 -0.39420405367365152 -0.27853706101481662 0 -0.40174149504185092 -0.29681366012781812 0 -0.40123596036735593 -0.27818233727432817 0 -0.40174149504185092 -0.29681366012781812 0 -0.40322207619149192 -0.29288764445213411 0 -0.40123596036735593 -0.27818233727432817 0 -0.39049541959166939 -0.28414526237041138 0 -0.39597078832761667 -0.28551153658085893 0 -0.39217701296355612 -0.28987936211692023 0 -0.39597078832761667 -0.28551153658085893 0 -0.39217701296355612 -0.28987936211692023 0 -0.40174149504185092 -0.29681366012781812 0 -0.39448508010510541 -0.297525044214214 0 -0.39217701296355612 -0.28987936211692023 0 -0.40174149504185092 -0.29681366012781812 0 -0.40690107601488551 -0.28490397733270861 0 -0.40322207619149192 -0.29288764445213411 0 -0.40618483967714292 -0.29638963380315841 0 -0.40174149504185092 -0.29681366012781812 0 -0.40322207619149192 -0.29288764445213411 0 -0.40618483967714292 -0.29638963380315841 0 -0.40174149504185092 -0.29681366012781812 0 -0.40618483967714292 -0.29638963380315841 0 -0.40322207619149192 -0.29288764445213411 0 -0.40618483967714292 -0.29638963380315841 0 -0.40690107601488551 -0.28490397733270861 0 -0.40322207619149192 -0.29288764445213411 0 -0.40123596036735593 -0.27818233727432817 0 -0.39420405367365152 -0.27853706101481662 0 -0.37710287173325818 -0.2711091198417086 0 -0.40073042569286338 -0.25955101442083811 0 -0.40123596036735593 -0.27818233727432817 0 -0.39420405367365152 -0.27853706101481662 0 -0.40073042569286338 -0.25955101442083811 0 -0.40123596036735593 -0.27818233727432817 0 -0.40073042569286338 -0.25955101442083811 0 -0.40123596036735593 -0.27818233727432817 0 -0.40073042569286338 -0.25955101442083811 0 -0.41341650638623911 -0.27076301679274262 0 -0.39597078832761667 -0.28551153658085893 0 -0.40123596036735593 -0.27818233727432817 0 -0.39420405367365152 -0.27853706101481662 0 -0.39420405367365152 -0.27853706101481662 0 -0.37710287173325818 -0.2711091198417086 0 -0.3770412393053626 -0.27536550612006683 0 -0.39420405367365152 -0.27853706101481662 0 -0.3770412393053626 -0.27536550612006683 0 -0.39420405367365152 -0.27853706101481662 0 -0.38483052758877101 -0.28123782127595193 0 -0.3770412393053626 -0.27536550612006683 0 -0.37710287173325818 -0.2711091198417086 0 -0.3770412393053626 -0.27536550612006683 0 -0.37710287173325818 -0.2711091198417086 0 -0.38543722149146659 -0.25821727905458303 0 -0.40073042569286338 -0.25955101442083811 0 -0.37710287173325818 -0.2711091198417086 0 -0.37747963509906429 -0.24508953120583671 0 -0.37710287173325818 -0.2711091198417086 0 -0.40073042569286338 -0.25955101442083811 0 -0.37710287173325818 -0.2711091198417086 0 -0.38543722149146659 -0.25821727905458303 0 -0.37747963509906429 -0.24508953120583671 0 -0.38543722149146659 -0.25821727905458303 0 -0.3938256931015453 -0.25037754026629511 0 -0.37747963509906429 -0.24508953120583671 0 -0.38543722149146659 -0.25821727905458303 0 -0.3938256931015453 -0.25037754026629511 0 -0.40073042569286338 -0.25955101442083811 0 -0.40073042569286338 -0.25955101442083811 0 -0.40282532782868952 -0.25224285689579767 0 -0.40022281387448849 -0.24084313907701979 0 -0.40073042569286338 -0.25955101442083811 0 -0.40022281387448849 -0.24084313907701979 0 -0.3938256931015453 -0.25037754026629511 0 -0.40073042569286338 -0.25955101442083811 0 -0.40022281387448849 -0.24084313907701979 0 -0.40073042569286338 -0.25955101442083811 0 -0.40282532782868952 -0.25224285689579767 0 -0.41385673751816382 -0.25312989710486528 0 -0.40073042569286338 -0.25955101442083811 0 -0.41385673751816382 -0.25312989710486528 0 -0.40073042569286338 -0.25955101442083811 0 -0.41385673751816382 -0.25312989710486528 0 -0.41341650638623911 -0.27076301679274262 0 -0.41385673751816382 -0.25312989710486528 0 -0.41341650638623911 -0.27076301679274262 0 -0.42312684460972783 -0.26331748455384929 0 -0.41385673751816382 -0.25312989710486528 0 -0.41679144862722167 -0.25169429778568547 0 -0.43445882011373449 -0.25478651907497341 0 -0.40282532782868952 -0.25224285689579767 0 -0.41385673751816382 -0.25312989710486528 0 -0.4086566941719203 -0.24778871483445111 0 -0.40282532782868952 -0.25224285689579767 0 -0.41385673751816382 -0.25312989710486528 0 -0.41385673751816382 -0.25312989710486528 0 -0.41679144862722167 -0.25169429778568547 0 -0.41627810448972868 -0.24641300060905449 0 -0.41385673751816382 -0.25312989710486528 0 -0.41679144862722167 -0.25169429778568547 0 -0.41684225135067149 -0.28376244362903152 0 -0.41341650638623911 -0.27076301679274262 0 -0.43077531442077321 -0.27459050524281542 0 -0.40690107601488551 -0.28490397733270861 0 -0.40123596036735593 -0.27818233727432817 0 -0.41341650638623911 -0.27076301679274262 0 -0.41684225135067149 -0.28376244362903152 0 -0.40690107601488551 -0.28490397733270861 0 -0.41341650638623911 -0.27076301679274262 0 -0.41341650638623911 -0.27076301679274262 0 -0.43077531442077321 -0.27459050524281542 0 -0.42312684460972783 -0.26331748455384929 0 -0.43077531442077321 -0.27459050524281542 0 -0.42312684460972783 -0.26331748455384929 0 -0.43445882011373449 -0.25478651907497341 0 -0.41385673751816382 -0.25312989710486528 0 -0.43445882011373449 -0.25478651907497341 0 -0.43077531442077321 -0.27459050524281542 0 -0.43445882011373449 -0.25478651907497341 0 -0.41385673751816382 -0.25312989710486528 0 -0.42312684460972783 -0.26331748455384929 0 -0.43445882011373449 -0.25478651907497341 0 -0.41679144862722167 -0.25169429778568547 0 -0.43445882011373449 -0.25478651907497341 0 -0.42335340856967768 -0.24893549408922019 0 -0.32580796388430833 -0.26195871891040218 0 -0.34139866608006603 -0.2687790352098644 0 -0.31202674084989918 -0.26335133138269068 0 -0.32580796388430833 -0.26195871891040218 0 -0.33345250408021371 -0.25331871279766999 0 -0.32023222063025569 -0.2489608815952247 0 -0.32580796388430833 -0.26195871891040218 0 -0.31664960680882542 -0.25714232151458272 0 -0.32023222063025569 -0.2489608815952247 0 -0.31664960680882542 -0.25714232151458272 0 -0.30853150187083839 -0.25429835417001312 0 -0.32023222063025569 -0.2489608815952247 0 -0.32580796388430833 -0.26195871891040218 0 -0.31664960680882542 -0.25714232151458272 0 -0.31202674084989918 -0.26335133138269068 0 -0.33223611708196649 -0.27626932861073827 0 -0.31972670239926188 -0.28454160199560091 0 -0.31187737399160442 -0.27618124236115132 0 -0.34139866608006603 -0.2687790352098644 0 -0.31202674084989918 -0.26335133138269068 0 -0.33223611708196649 -0.27626932861073827 0 -0.31202674084989918 -0.26335133138269068 0 -0.3062135479255173 -0.26372173898871692 0 -0.33223611708196649 -0.27626932861073827 0 -0.31187737399160442 -0.27618124236115132 0 -0.3062135479255173 -0.26372173898871692 0 -0.33260241140844943 -0.2743168067351805 0 -0.33223611708196649 -0.27626932861073827 0 -0.31202674084989918 -0.26335133138269068 0 -0.33223611708196649 -0.27626932861073827 0 -0.3062135479255173 -0.26372173898871692 0 -0.33260241140844943 -0.2743168067351805 0 -0.34139866608006603 -0.2687790352098644 0 -0.31202674084989918 -0.26335133138269068 0 -0.33223611708196649 -0.27626932861073827 0 -0.34139866608006603 -0.2687790352098644 0 -0.34951875912658742 -0.28460269103381453 0 -0.33223611708196649 -0.27626932861073827 0 -0.34951875912658742 -0.28460269103381453 0 -0.33260241140844943 -0.2743168067351805 0 -0.33223611708196649 -0.27626932861073827 0 -0.34139866608006603 -0.2687790352098644 0 -0.33260241140844943 -0.2743168067351805 0 -0.33223611708196649 -0.27626932861073827 0 -0.34139866608006603 -0.2687790352098644 0 -0.3363084638556994 -0.26041051377605268 0 -0.34457472137820933 -0.25758558818627408 0 -0.32580796388430833 -0.26195871891040218 0 -0.34139866608006603 -0.2687790352098644 0 -0.3363084638556994 -0.26041051377605268 0 -0.32580796388430833 -0.26195871891040218 0 -0.3363084638556994 -0.26041051377605268 0 -0.33345250408021371 -0.25331871279766999 0 -0.3363084638556994 -0.26041051377605268 0 -0.33345250408021371 -0.25331871279766999 0 -0.34457472137820933 -0.25758558818627408 0 -0.33345250408021371 -0.25331871279766999 0 -0.34457472137820933 -0.25758558818627408 0 -0.34395992200845399 -0.24382677409400949 0 -0.34139866608006603 -0.2687790352098644 0 -0.34457472137820933 -0.25758558818627408 0 -0.35733732661955131 -0.26288598862094092 0 -0.34457472137820933 -0.25758558818627408 0 -0.35872453044413888 -0.25078889886649508 0 -0.34395992200845399 -0.24382677409400949 0 -0.34457472137820933 -0.25758558818627408 0 -0.35733732661955131 -0.26288598862094092 0 -0.35872453044413888 -0.25078889886649508 0 -0.37710287173325818 -0.2711091198417086 0 -0.36828299104124951 -0.26081605551440462 0 -0.37747963509906429 -0.24508953120583671 0 -0.35872453044413888 -0.25078889886649508 0 -0.36828299104124951 -0.26081605551440462 0 -0.37747963509906429 -0.24508953120583671 0 -0.35733732661955131 -0.26288598862094092 0 -0.35872453044413888 -0.25078889886649508 0 -0.36828299104124951 -0.26081605551440462 0 -0.37077059131023282 -0.27420673903703829 0 -0.34951875912658742 -0.28460269103381453 0 -0.37710287173325818 -0.2711091198417086 0 -0.3770412393053626 -0.27536550612006683 0 -0.37077059131023282 -0.27420673903703829 0 -0.3770412393053626 -0.27536550612006683 0 -0.37077059131023282 -0.27420673903703829 0 -0.37710287173325818 -0.2711091198417086 0 -0.36828299104124951 -0.26081605551440462 0 -0.37077059131023282 -0.27420673903703829 0 -0.37710287173325818 -0.2711091198417086 0 -0.37077059131023282 -0.27420673903703829 0 -0.35733732661955131 -0.26288598862094092 0 -0.36828299104124951 -0.26081605551440462 0 -0.37077059131023282 -0.27420673903703829 0 -0.34139866608006603 -0.2687790352098644 0 -0.35733732661955131 -0.26288598862094092 0 -0.37077059131023282 -0.27420673903703829 0 -0.34139866608006603 -0.2687790352098644 0 -0.37077059131023282 -0.27420673903703829 0 -0.34951875912658742 -0.28460269103381453 0 -0.34139866608006603 -0.2687790352098644 0 -0.37077059131023282 -0.27420673903703829 0 -0.34951875912658742 -0.28460269103381453 0 -0.3581763596052473 -0.30097106086504849 0 -0.34010739644885768 -0.2892065328944351 0 -0.34951875912658742 -0.28460269103381453 0 -0.34010739644885768 -0.2892065328944351 0 -0.37671758341694961 -0.29771744858697219 0 -0.37077059131023282 -0.27420673903703829 0 -0.34951875912658742 -0.28460269103381453 0 -0.37671758341694961 -0.29771744858697219 0 -0.34951875912658742 -0.28460269103381453 0 -0.37671758341694961 -0.29771744858697219 0 -0.3770412393053626 -0.27536550612006683 0 -0.37077059131023282 -0.27420673903703829 0 -0.37671758341694961 -0.29771744858697219 0 -0.34951875912658742 -0.28460269103381453 0 -0.3581763596052473 -0.30097106086504849 0 -0.37669606201677502 -0.29920373422444158 0 -0.37671758341694961 -0.29771744858697219 0 -0.3581763596052473 -0.30097106086504849 0 -0.37641717267996733 -0.3184640617331177 0 -0.37669606201677502 -0.29920373422444158 0 -0.36799370156123501 -0.30592930732763762 0 -0.37641717267996733 -0.3184640617331177 0 -0.36799370156123501 -0.30592930732763762 0 -0.35803691493684492 -0.31060122461938489 0 -0.37669606201677502 -0.29920373422444158 0 -0.36799370156123501 -0.30592930732763762 0 -0.3581763596052473 -0.30097106086504849 0 -0.37669606201677502 -0.29920373422444158 0 -0.3581763596052473 -0.30097106086504849 0 -0.36799370156123501 -0.30592930732763762 0 -0.35803691493684492 -0.31060122461938489 0 -0.3581763596052473 -0.30097106086504849 0 -0.35803691493684492 -0.31060122461938489 0 -0.33965665719371979 -0.30273838750565862 0 -0.35803691493684492 -0.31060122461938489 0 -0.33965665719371979 -0.30273838750565862 0 -0.34514704515453298 -0.31300544250539297 0 -0.3581763596052473 -0.30097106086504849 0 -0.33965665719371979 -0.30273838750565862 0 -0.34010739644885768 -0.2892065328944351 0 -0.35803691493684492 -0.31060122461938489 0 -0.3581763596052473 -0.30097106086504849 0 -0.33965665719371979 -0.30273838750565862 0 -0.3581763596052473 -0.30097106086504849 0 -0.33965665719371979 -0.30273838750565862 0 -0.33676996251121621 -0.31158184422573892 0 -0.33965665719371979 -0.30273838750565862 0 -0.34514704515453298 -0.31300544250539297 0 -0.33676996251121621 -0.31158184422573892 0 -0.33965665719371979 -0.30273838750565862 0 -0.32704471803945162 -0.30394193902942662 0 -0.33676996251121621 -0.31158184422573892 0 -0.32594772137393307 -0.30978944971135602 0 -0.32704471803945162 -0.30394193902942662 0 -0.33965665719371979 -0.30273838750565862 0 -0.32704471803945162 -0.30394193902942662 0 -0.32819068517220462 -0.29783339261299951 0 -0.33965665719371979 -0.30273838750565862 0 -0.32704471803945162 -0.30394193902942662 0 -0.32819068517220462 -0.29783339261299951 0 -0.33965665719371979 -0.30273838750565862 0 -0.33223611708196649 -0.27626932861073827 0 -0.32819068517220462 -0.29783339261299951 0 -0.33223611708196649 -0.27626932861073827 0 -0.32819068517220462 -0.29783339261299951 0 -0.34010739644885768 -0.2892065328944351 0 -0.33223611708196649 -0.27626932861073827 0 -0.34951875912658742 -0.28460269103381453 0 -0.34010739644885768 -0.2892065328944351 0 -0.32819068517220462 -0.29783339261299951 0 -0.33965665719371979 -0.30273838750565862 0 -0.34010739644885768 -0.2892065328944351 0 -0.32819068517220462 -0.29783339261299951 0 -0.31972670239926188 -0.28454160199560091 0 -0.31332574866090718 -0.291474364566292 0 -0.32819068517220462 -0.29783339261299951 0 -0.31332574866090718 -0.291474364566292 0 -0.33223611708196649 -0.27626932861073827 0 -0.32819068517220462 -0.29783339261299951 0 -0.31972670239926188 -0.28454160199560091 0 -0.31972670239926188 -0.28454160199560091 0 -0.31332574866090718 -0.291474364566292 0 -0.30937392239009109 -0.28339120160471948 0 -0.31972670239926188 -0.28454160199560091 0 -0.30937392239009109 -0.28339120160471948 0 -0.31187737399160442 -0.27618124236115132 0 -0.31992409361072222 -0.30462145692723192 0 -0.32594772137393307 -0.30978944971135602 0 -0.31307430431717392 -0.31869978567557272 0 -0.31992409361072222 -0.30462145692723192 0 -0.32594772137393307 -0.30978944971135602 0 -0.32594772137393307 -0.30978944971135602 0 -0.32704471803945162 -0.30394193902942662 0 -0.31992409361072222 -0.30462145692723192 0 -0.32594772137393307 -0.30978944971135602 0 -0.32704471803945162 -0.30394193902942662 0 -0.32819068517220462 -0.29783339261299951 0 -0.31332574866090718 -0.291474364566292 0 -0.31992409361072222 -0.30462145692723192 0 -0.32819068517220462 -0.29783339261299951 0 -0.32704471803945162 -0.30394193902942662 0 -0.32819068517220462 -0.29783339261299951 0 -0.31992409361072222 -0.30462145692723192 0 -0.32704471803945162 -0.30394193902942662 0 -0.31992409361072222 -0.30462145692723192 0 -0.32704471803945162 -0.30394193902942662 0 -0.32594772137393307 -0.30978944971135602 0 -0.31307430431717392 -0.31869978567557272 0 -0.32184288384298337 -0.33167017375041419 0 -0.32594772137393307 -0.30978944971135602 0 -0.32184288384298337 -0.33167017375041419 0 -0.32184288384298337 -0.33167017375041419 0 -0.31773804631203251 -0.35355089778947202 0 -0.32184288384298337 -0.33167017375041419 0 -0.34475024534571441 -0.34586667392980902 0 -0.31773804631203251 -0.35355089778947202 0 -0.32184288384298337 -0.33167017375041419 0 -0.34612464597635118 -0.32710031367078812 0 -0.34475024534571441 -0.34586667392980902 0 -0.33676996251121621 -0.31158184422573892 0 -0.32594772137393307 -0.30978944971135602 0 -0.34612464597635118 -0.32710031367078812 0 -0.32594772137393307 -0.30978944971135602 0 -0.34612464597635118 -0.32710031367078812 0 -0.32594772137393307 -0.30978944971135602 0 -0.32184288384298337 -0.33167017375041419 0 -0.34612464597635118 -0.32710031367078812 0 -0.33676996251121621 -0.31158184422573892 0 -0.34514704515453298 -0.31300544250539297 0 -0.34612464597635118 -0.32710031367078812 0 -0.35803691493684492 -0.31060122461938489 0 -0.34514704515453298 -0.31300544250539297 0 -0.34612464597635118 -0.32710031367078812 0 -0.35803691493684492 -0.31060122461938489 0 -0.34612464597635118 -0.32710031367078812 0 -0.35600230731325749 -0.33324145173106873 0 -0.37641717267996733 -0.3184640617331177 0 -0.35803691493684492 -0.31060122461938489 0 -0.37641717267996733 -0.3184640617331177 0 -0.35803691493684492 -0.31060122461938489 0 -0.36719759625642318 -0.33008752154143739 0 -0.35803691493684492 -0.31060122461938489 0 -0.36719759625642318 -0.33008752154143739 0 -0.35600230731325749 -0.33324145173106873 0 -0.37607676276689278 -0.3419730509543204 0 -0.37641717267996733 -0.3184640617331177 0 -0.36719759625642318 -0.33008752154143739 0 -0.37607676276689278 -0.3419730509543204 0 -0.3688763256213185 -0.34309961767568647 0 -0.36719759625642318 -0.33008752154143739 0 -0.36719759625642318 -0.33008752154143739 0 -0.36118874601324108 -0.3436521492952741 0 -0.35600230731325749 -0.33324145173106873 0 -0.3688763256213185 -0.34309961767568647 0 -0.36719759625642318 -0.33008752154143739 0 -0.36118874601324108 -0.3436521492952741 0 -0.34612464597635118 -0.32710031367078812 0 -0.35600230731325749 -0.33324145173106873 0 -0.34475024534571441 -0.34586667392980902 0 -0.36118874601324108 -0.3436521492952741 0 -0.35600230731325749 -0.33324145173106873 0 -0.34475024534571441 -0.34586667392980902 0 -0.36118874601324108 -0.3436521492952741 0 -0.34475024534571441 -0.34586667392980902 0 -0.35925477447714671 -0.35134479444962452 0 -0.34475024534571441 -0.34586667392980902 0 -0.35480891830463612 -0.3592101017575729 0 -0.33937201587241012 -0.36587749477948078 0 -0.34475024534571441 -0.34586667392980902 0 -0.35480891830463612 -0.3592101017575729 0 -0.35925477447714671 -0.35134479444962452 0 -0.36118874601324108 -0.3436521492952741 0 -0.37225797237559449 -0.35115364910559932 0 -0.36118874601324108 -0.3436521492952741 0 -0.35925477447714671 -0.35134479444962452 0 -0.36985982957495511 -0.35171195823109852 0 -0.37568304780698558 -0.36916333065311507 0 -0.37593298752455201 -0.35190228771479481 0 -0.37225797237559449 -0.35115364910559932 0 -0.35480891830463612 -0.3592101017575729 0 -0.35925477447714671 -0.35134479444962452 0 -0.36985982957495511 -0.35171195823109852 0 -0.37607676276689278 -0.3419730509543204 0 -0.3688763256213185 -0.34309961767568647 0 -0.37225797237559449 -0.35115364910559932 0 -0.37607676276689278 -0.3419730509543204 0 -0.37225797237559449 -0.35115364910559932 0 -0.37607676276689278 -0.3419730509543204 0 -0.37390838074359528 -0.35076941925389299 0 -0.37225797237559449 -0.35115364910559932 0 -0.37593298752455201 -0.35190228771479481 0 -0.37390838074359528 -0.35076941925389299 0 -0.37225797237559449 -0.35115364910559932 0 -0.3688763256213185 -0.34309961767568647 0 -0.36118874601324108 -0.3436521492952741 0 -0.37225797237559449 -0.35115364910559932 0 -0.37593298752455201 -0.35190228771479481 0 -0.37390838074359528 -0.35076941925389299 0 -0.36118874601324108 -0.3436521492952741 0 -0.36985982957495511 -0.35171195823109852 0 -0.37225797237559449 -0.35115364910559932 0 -0.37595629511297179 -0.35029264644438168 0 -0.37390838074359528 -0.35076941925389299 0 -0.37390838074359528 -0.35076941925389299 0 -0.37225797237559449 -0.35115364910559932 0 -0.36985982957495511 -0.35171195823109852 0 -0.37225797237559449 -0.35115364910559932 0 -0.37568304780698558 -0.36916333065311507 0 -0.37225797237559449 -0.35115364910559932 0 -0.36100598543278789 -0.37820409176948921 0 -0.35480891830463612 -0.3592101017575729 0 -0.36985982957495511 -0.35171195823109852 0 -0.36100598543278789 -0.37820409176948921 0 -0.36985982957495511 -0.35171195823109852 0 -0.37225797237559449 -0.35115364910559932 0 -0.36100598543278789 -0.37820409176948921 0 -0.37225797237559449 -0.35115364910559932 0 -0.36100598543278789 -0.37820409176948921 0 -0.33937201587241012 -0.36587749477948078 0 -0.36100598543278789 -0.37820409176948921 0 -0.35480891830463612 -0.3592101017575729 0 -0.33937201587241012 -0.36587749477948078 0 -0.36100598543278789 -0.37820409176948921 0 -0.33937201587241012 -0.36587749477948078 0 -0.31773804631203251 -0.35355089778947202 0 -0.33937201587241012 -0.36587749477948078 0 -0.31773804631203251 -0.35355089778947202 0 -0.32803705280137402 -0.37447550275240871 0 -0.34475024534571441 -0.34586667392980902 0 -0.33937201587241012 -0.36587749477948078 0 -0.31773804631203251 -0.35355089778947202 0 -0.31773804631203251 -0.35355089778947202 0 -0.31381007312398762 -0.37448885129246268 0 -0.31773804631203251 -0.35355089778947202 0 -0.31381007312398762 -0.37448885129246268 0 -0.32803705280137402 -0.37447550275240871 0 -0.31381007312398762 -0.37448885129246268 0 -0.29871455833571747 -0.36148408621311728 0 -0.29196992941862432 -0.3825632544476108 0 -0.31773804631203251 -0.35355089778947202 0 -0.31381007312398762 -0.37448885129246268 0 -0.29871455833571747 -0.36148408621311728 0 -0.31773804631203251 -0.35355089778947202 0 -0.29871455833571747 -0.36148408621311728 0 -0.29282778547957722 -0.33935753649529382 0 -0.31773804631203251 -0.35355089778947202 0 -0.29282778547957722 -0.33935753649529382 0 -0.29871455833571747 -0.36148408621311728 0 -0.27675503022224163 -0.36681377825091099 0 -0.29282778547957722 -0.33935753649529382 0 -0.29871455833571747 -0.36148408621311728 0 -0.27675503022224163 -0.36681377825091099 0 -0.29196992941862432 -0.3825632544476108 0 -0.27675503022224163 -0.36681377825091099 0 -0.25757508569408222 -0.36424633604315798 0 -0.26546808025963542 -0.34847395767735678 0 -0.27675503022224163 -0.36681377825091099 0 -0.25757508569408222 -0.36424633604315798 0 -0.25812358553267323 -0.37605355791306738 0 -0.25757508569408222 -0.36424633604315798 0 -0.24839247009954951 -0.37292447016044328 0 -0.24532753696728959 -0.36501789644951049 0 -0.25757508569408222 -0.36424633604315798 0 -0.25812358553267323 -0.37605355791306738 0 -0.24839247009954951 -0.37292447016044328 0 -0.25757508569408222 -0.36424633604315798 0 -0.26546808025963542 -0.34847395767735678 0 -0.24650166737573331 -0.3569693529562265 0 -0.26546808025963542 -0.34847395767735678 0 -0.24650166737573331 -0.3569693529562265 0 -0.24881121389389799 -0.33838995723746451 0 -0.27675503022224163 -0.36681377825091099 0 -0.26546808025963542 -0.34847395767735678 0 -0.29282778547957722 -0.33935753649529382 0 -0.26791752464712137 -0.32516417520111718 0 -0.27544300416693679 -0.31995488319631832 0 -0.29282778547957722 -0.33935753649529382 0 -0.26546808025963542 -0.34847395767735678 0 -0.26791752464712137 -0.32516417520111718 0 -0.29282778547957722 -0.33935753649529382 0 -0.26791752464712137 -0.32516417520111718 0 -0.29282778547957722 -0.33935753649529382 0 -0.26791752464712137 -0.32516417520111718 0 -0.24881121389389799 -0.33838995723746451 0 -0.26546808025963542 -0.34847395767735678 0 -0.26791752464712137 -0.32516417520111718 0 -0.24881121389389799 -0.33838995723746451 0 -0.26791752464712137 -0.32516417520111718 0 -0.24881121389389799 -0.33838995723746451 0 -0.2441082332202735 -0.32380704628422963 0 -0.26791752464712137 -0.32516417520111718 0 -0.2444966906846206 -0.31181945912301329 0 -0.26791752464712137 -0.32516417520111718 0 -0.26963915832665503 -0.30942012505775762 0 -0.2444966906846206 -0.31181945912301329 0 -0.26791752464712137 -0.32516417520111718 0 -0.2441082332202735 -0.32380704628422963 0 -0.2444966906846206 -0.31181945912301329 0 -0.26791752464712137 -0.32516417520111718 0 -0.27544300416693679 -0.31995488319631832 0 -0.26963915832665503 -0.30942012505775762 0 -0.26791752464712137 -0.32516417520111718 0 -0.27544300416693679 -0.31995488319631832 0 -0.27544300416693679 -0.31995488319631832 0 -0.29403167998309421 -0.32125824908992018 0 -0.29478162596868879 -0.30702079099249591 0 -0.27544300416693679 -0.31995488319631832 0 -0.29403167998309421 -0.32125824908992018 0 -0.29282778547957722 -0.33935753649529382 0 -0.31307430431717392 -0.31869978567557272 0 -0.32184288384298337 -0.33167017375041419 0 -0.29282778547957722 -0.33935753649529382 0 -0.32184288384298337 -0.33167017375041419 0 -0.31773804631203251 -0.35355089778947202 0 -0.29282778547957722 -0.33935753649529382 0 -0.31307430431717392 -0.31869978567557272 0 -0.29403167998309421 -0.32125824908992018 0 -0.29282778547957722 -0.33935753649529382 0 -0.31307430431717392 -0.31869978567557272 0 -0.29403167998309421 -0.32125824908992018 0 -0.29478162596868879 -0.30702079099249591 0 -0.31992409361072222 -0.30462145692723192 0 -0.29478162596868879 -0.30702079099249591 0 -0.31992409361072222 -0.30462145692723192 0 -0.31307430431717392 -0.31869978567557272 0 -0.29478162596868879 -0.30702079099249591 0 -0.31992409361072222 -0.30462145692723192 0 -0.30687808727867438 -0.29770175581860719 0 -0.29478162596868879 -0.30702079099249591 0 -0.30687808727867438 -0.29770175581860719 0 -0.29813438661480679 -0.29530641477552327 0 -0.29478162596868879 -0.30702079099249591 0 -0.31992409361072222 -0.30462145692723192 0 -0.2984608121496099 -0.28511533651958437 0 -0.31992409361072222 -0.30462145692723192 0 -0.30687808727867438 -0.29770175581860719 0 -0.2984608121496099 -0.28511533651958437 0 -0.31332574866090718 -0.291474364566292 0 -0.31992409361072222 -0.30462145692723192 0 -0.2984608121496099 -0.28511533651958437 0 -0.31332574866090718 -0.291474364566292 0 -0.30937392239009109 -0.28339120160471948 0 -0.2984608121496099 -0.28511533651958437 0 -0.31332574866090718 -0.291474364566292 0 -0.2984608121496099 -0.28511533651958437 0 -0.30937392239009109 -0.28339120160471948 0 -0.2984608121496099 -0.28511533651958437 0 -0.30347897474907187 -0.279643462580969 0 -0.30687808727867438 -0.29770175581860719 0 -0.29951482580247829 -0.29240083595456018 0 -0.29813438661480679 -0.29530641477552327 0 -0.30687808727867438 -0.29770175581860719 0 -0.2984608121496099 -0.28511533651958437 0 -0.29951482580247829 -0.29240083595456018 0 -0.29951482580247829 -0.29240083595456018 0 -0.29813438661480679 -0.29530641477552327 0 -0.29499124589990039 -0.29073588210889412 0 -0.2984608121496099 -0.28511533651958437 0 -0.29951482580247829 -0.29240083595456018 0 -0.29499124589990039 -0.29073588210889412 0 -0.29499124589990039 -0.29073588210889412 0 -0.29148170063899659 -0.29460773718781319 0 -0.28586576089235322 -0.28577101837165192 0 -0.29813438661480679 -0.29530641477552327 0 -0.29499124589990039 -0.29073588210889412 0 -0.29148170063899659 -0.29460773718781319 0 -0.2984608121496099 -0.28511533651958437 0 -0.29499124589990039 -0.29073588210889412 0 -0.28586576089235322 -0.28577101837165192 0 -0.29148170063899659 -0.29460773718781319 0 -0.28586576089235322 -0.28577101837165192 0 -0.2798353156189245 -0.29508903771003908 0 -0.29148170063899659 -0.29460773718781319 0 -0.29478162596868879 -0.30702079099249591 0 -0.2798353156189245 -0.29508903771003908 0 -0.29478162596868879 -0.30702079099249591 0 -0.26963915832665503 -0.30942012505775762 0 -0.2798353156189245 -0.29508903771003908 0 -0.29478162596868879 -0.30702079099249591 0 -0.26963915832665503 -0.30942012505775762 0 -0.29813438661480679 -0.29530641477552327 0 -0.29148170063899659 -0.29460773718781319 0 -0.29478162596868879 -0.30702079099249591 0 -0.27544300416693679 -0.31995488319631832 0 -0.29478162596868879 -0.30702079099249591 0 -0.26963915832665503 -0.30942012505775762 0 -0.26963915832665503 -0.30942012505775762 0 -0.26057201890547982 -0.29344093798311832 0 -0.2798353156189245 -0.29508903771003908 0 -0.26963915832665503 -0.30942012505775762 0 -0.2444966906846206 -0.31181945912301329 0 -0.26963915832665503 -0.30942012505775762 0 -0.26057201890547982 -0.29344093798311832 0 -0.2444966906846206 -0.31181945912301329 0 -0.26057201890547982 -0.29344093798311832 0 -0.27108878797196961 -0.28331686931735522 0 -0.25298377122075039 -0.27518622721876451 0 -0.26057201890547982 -0.29344093798311832 0 -0.25298377122075039 -0.27518622721876451 0 -0.2435111179254994 -0.29490773243705071 0 -0.26057201890547982 -0.29344093798311832 0 -0.27108878797196961 -0.28331686931735522 0 -0.2798353156189245 -0.29508903771003908 0 -0.28586576089235322 -0.28577101837165192 0 -0.27108878797196961 -0.28331686931735522 0 -0.2798353156189245 -0.29508903771003908 0 -0.27108878797196961 -0.28331686931735522 0 -0.27618707322233982 -0.26709712530320262 0 -0.25298377122075039 -0.27518622721876451 0 -0.28586576089235322 -0.28577101837165192 0 -0.27108878797196961 -0.28331686931735522 0 -0.27618707322233982 -0.26709712530320262 0 -0.27618707322233982 -0.26709712530320262 0 -0.25431856302814809 -0.24833495949118861 0 -0.27618707322233982 -0.26709712530320262 0 -0.25298377122075039 -0.27518622721876451 0 -0.25431856302814809 -0.24833495949118861 0 -0.27618707322233982 -0.26709712530320262 0 -0.27309361240676189 -0.24179026653703889 0 -0.25431856302814809 -0.24833495949118861 0 -0.27618707322233982 -0.26709712530320262 0 -0.2907170577323625 -0.25177677077710309 0 -0.27309361240676189 -0.24179026653703889 0 -0.27618707322233982 -0.26709712530320262 0 -0.2907170577323625 -0.25177677077710309 0 -0.29477899871119112 -0.26293378760569941 0 -0.2984608121496099 -0.28511533651958437 0 -0.28586576089235322 -0.28577101837165192 0 -0.27618707322233982 -0.26709712530320262 0 -0.2984608121496099 -0.28511533651958437 0 -0.27618707322233982 -0.26709712530320262 0 -0.27618707322233982 -0.26709712530320262 0 -0.29477899871119112 -0.26293378760569941 0 -0.29948479845841441 -0.27338487519771032 0 -0.2984608121496099 -0.28511533651958437 0 -0.27618707322233982 -0.26709712530320262 0 -0.29948479845841441 -0.27338487519771032 0 -0.29477899871119112 -0.26293378760569941 0 -0.29948479845841441 -0.27338487519771032 0 -0.30156079933714469 -0.26765617134954151 0 -0.30156079933714469 -0.26765617134954151 0 -0.30403476516136241 -0.27459464834518948 0 -0.30588444940973558 -0.27063474712059482 0 -0.29948479845841441 -0.27338487519771032 0 -0.30156079933714469 -0.26765617134954151 0 -0.30403476516136241 -0.27459464834518948 0 -0.30156079933714469 -0.26765617134954151 0 -0.30588444940973558 -0.27063474712059482 0 -0.3062135479255173 -0.26372173898871692 0 -0.2984608121496099 -0.28511533651958437 0 -0.29948479845841441 -0.27338487519771032 0 -0.30347897474907187 -0.279643462580969 0 -0.29948479845841441 -0.27338487519771032 0 -0.30403476516136241 -0.27459464834518948 0 -0.30347897474907187 -0.279643462580969 0 -0.30937392239009109 -0.28339120160471948 0 -0.30347897474907187 -0.279643462580969 0 -0.31187737399160442 -0.27618124236115132 0 -0.30403476516136241 -0.27459464834518948 0 -0.30347897474907187 -0.279643462580969 0 -0.31187737399160442 -0.27618124236115132 0 -0.30403476516136241 -0.27459464834518948 0 -0.31187737399160442 -0.27618124236115132 0 -0.30588444940973558 -0.27063474712059482 0 -0.31187737399160442 -0.27618124236115132 0 -0.30588444940973558 -0.27063474712059482 0 -0.3062135479255173 -0.26372173898871692 0 -0.31664960680882542 -0.25714232151458272 0 -0.31202674084989918 -0.26335133138269068 0 -0.30853150187083839 -0.25429835417001312 0 -0.2907170577323625 -0.25177677077710309 0 -0.29477899871119112 -0.26293378760569941 0 -0.30853150187083839 -0.25429835417001312 0 -0.31202674084989918 -0.26335133138269068 0 -0.3062135479255173 -0.26372173898871692 0 -0.30853150187083839 -0.25429835417001312 0 -0.29477899871119112 -0.26293378760569941 0 -0.30156079933714469 -0.26765617134954151 0 -0.3062135479255173 -0.26372173898871692 0 -0.29477899871119112 -0.26293378760569941 0 -0.3062135479255173 -0.26372173898871692 0 -0.30853150187083839 -0.25429835417001312 0 -0.33709504481289931 -0.46474263175187808 0 -0.33075086723682939 -0.45093918684289991 0 -0.35302422329502631 -0.44785824460859458 0 -0.33709504481289931 -0.46474263175187808 0 -0.33075086723682939 -0.45093918684289991 0 -0.32054712240525829 -0.47546959342145068 0 -0.33075086723682939 -0.45093918684289991 0 -0.34095461206840061 -0.42640878026434909 0 -0.33075086723682939 -0.45093918684289991 0 -0.35302422329502631 -0.44785824460859458 0 -0.34095461206840061 -0.42640878026434909 0 -0.33075086723682939 -0.45093918684289991 0 -0.32054706720266329 -0.44859283512714471 0 -0.3206124180200437 -0.43193612962395289 0 -0.33075086723682939 -0.45093918684289991 0 -0.32054706720266329 -0.44859283512714471 0 -0.31571728338184601 -0.45752087103574601 0 -0.32054706720266329 -0.44859283512714471 0 -0.31571728338184601 -0.45752087103574601 0 -0.30706080135445341 -0.45057148265483188 0 -0.33075086723682939 -0.45093918684289991 0 -0.32054712240525829 -0.47546959342145068 0 -0.33075086723682939 -0.45093918684289991 0 -0.31571728338184601 -0.45752087103574601 0 -0.32054712240525829 -0.47546959342145068 0 -0.32054712240525829 -0.47546959342145068 0 -0.32750579650535672 -0.48798687004089669 0 -0.32933965142182292 -0.47777380670114528 0 -0.32054712240525829 -0.47546959342145068 0 -0.31034337757368669 -0.50000000000000133 0 -0.32750579650535672 -0.48798687004089669 0 -0.33387795429423722 -0.5 0 -0.31034337757368669 -0.50000000000000133 0 -0.32054712240525829 -0.47546959342145068 0 -0.32750579650535672 -0.48798687004089669 0 -0.31034337757368669 -0.50000000000000133 0 -0.32750579650535672 -0.48798687004089669 0 -0.34342087683177741 -0.48669095008188618 0 -0.33387795429423722 -0.5 0 -0.33709504481289931 -0.46474263175187808 0 -0.32933965142182292 -0.47777380670114528 0 -0.35181335970555933 -0.47167232718529989 0 -0.34342087683177741 -0.48669095008188618 0 -0.32933965142182292 -0.47777380670114528 0 -0.35181335970555933 -0.47167232718529989 0 -0.32750579650535672 -0.48798687004089669 0 -0.34342087683177741 -0.48669095008188618 0 -0.32933965142182292 -0.47777380670114528 0 -0.33709504481289931 -0.46474263175187808 0 -0.32054712240525829 -0.47546959342145068 0 -0.32933965142182292 -0.47777380670114528 0 -0.32933965142182292 -0.47777380670114528 0 -0.35181335970555933 -0.47167232718529989 0 -0.34342087683177741 -0.48669095008188618 0 -0.35181335970555933 -0.47167232718529989 0 -0.35979455825166368 -0.48519290092039941 0 -0.34342087683177741 -0.48669095008188618 0 -0.35741253101478748 -0.5 0 -0.35979455825166368 -0.48519290092039941 0 -0.34342087683177741 -0.48669095008188618 0 -0.33387795429423722 -0.5 0 -0.35741253101478748 -0.5 0 -0.38094710773533791 -0.49999999999999839 0 -0.35741253101478748 -0.5 0 -0.37240076261097882 -0.48974555046165519 0 -0.35741253101478748 -0.5 0 -0.35979455825166368 -0.48519290092039941 0 -0.37240076261097882 -0.48974555046165519 0 -0.35181335970555933 -0.47167232718529989 0 -0.35979455825166368 -0.48519290092039941 0 -0.37411677223754131 -0.47733161267270968 0 -0.35181335970555933 -0.47167232718529989 0 -0.37411677223754131 -0.47733161267270968 0 -0.37428706798929601 -0.46557084766945539 0 -0.35979455825166368 -0.48519290092039941 0 -0.37240076261097882 -0.48974555046165519 0 -0.37411677223754131 -0.47733161267270968 0 -0.37411677223754131 -0.47733161267270968 0 -0.37428706798929601 -0.46557084766945539 0 -0.35181335970555933 -0.47167232718529989 0 -0.37428706798929601 -0.46557084766945539 0 -0.35302422329502631 -0.44785824460859458 0 -0.35181335970555933 -0.47167232718529989 0 -0.37428706798929601 -0.46557084766945539 0 -0.33709504481289931 -0.46474263175187808 0 -0.35181335970555933 -0.47167232718529989 0 -0.35302422329502631 -0.44785824460859458 0 -0.37428706798929601 -0.46557084766945539 0 -0.35302422329502631 -0.44785824460859458 0 -0.37472313619600889 -0.43545561783144832 0 -0.37428706798929601 -0.46557084766945539 0 -0.37472313619600889 -0.43545561783144832 0 -0.35302422329502631 -0.44785824460859458 0 -0.37472313619600889 -0.43545561783144832 0 -0.36076670325611282 -0.42019275678090617 0 -0.37515920440272033 -0.40534038799344108 0 -0.37472313619600889 -0.43545561783144832 0 -0.36076670325611282 -0.42019275678090617 0 -0.37515920440272033 -0.40534038799344108 0 -0.36076670325611282 -0.42019275678090617 0 -0.35115835689997099 -0.40187837368579798 0 -0.37515920440272033 -0.40534038799344108 0 -0.37472313619600889 -0.43545561783144832 0 -0.36076670325611282 -0.42019275678090617 0 -0.35115835689997099 -0.40187837368579798 0 -0.34095461206840061 -0.42640878026434909 0 -0.34815033243380111 -0.40144447968524521 0 -0.35115835689997099 -0.40187837368579798 0 -0.34095461206840061 -0.42640878026434909 0 -0.35115835689997099 -0.40187837368579798 0 -0.34095461206840061 -0.42640878026434909 0 -0.35302422329502631 -0.44785824460859458 0 -0.36076670325611282 -0.42019275678090617 0 -0.34095461206840061 -0.42640878026434909 0 -0.37543310808941849 -0.38642437359143528 0 -0.36100598543278789 -0.37820409176948921 0 -0.35115835689997099 -0.40187837368579798 0 -0.37543310808941849 -0.38642437359143528 0 -0.37568304780698558 -0.36916333065311507 0 -0.36100598543278789 -0.37820409176948921 0 -0.37543310808941849 -0.38642437359143528 0 -0.36100598543278789 -0.37820409176948921 0 -0.37515920440272033 -0.40534038799344108 0 -0.37543310808941849 -0.38642437359143528 0 -0.35115835689997099 -0.40187837368579798 0 -0.37515920440272033 -0.40534038799344108 0 -0.35115835689997099 -0.40187837368579798 0 -0.35115835689997099 -0.40187837368579798 0 -0.34646966066369161 -0.38533898881774881 0 -0.34316085436749 -0.39382471367395527 0 -0.34815033243380111 -0.40144447968524521 0 -0.35115835689997099 -0.40187837368579798 0 -0.34316085436749 -0.39382471367395527 0 -0.34815033243380111 -0.40144447968524521 0 -0.35115835689997099 -0.40187837368579798 0 -0.33937201587241012 -0.36587749477948078 0 -0.36100598543278789 -0.37820409176948921 0 -0.34646966066369161 -0.38533898881774881 0 -0.36100598543278789 -0.37820409176948921 0 -0.35115835689997099 -0.40187837368579798 0 -0.36100598543278789 -0.37820409176948921 0 -0.35115835689997099 -0.40187837368579798 0 -0.34646966066369161 -0.38533898881774881 0 -0.33937201587241012 -0.36587749477948078 0 -0.32803705280137402 -0.37447550275240871 0 -0.34646966066369161 -0.38533898881774881 0 -0.32803705280137402 -0.37447550275240871 0 -0.34646966066369161 -0.38533898881774881 0 -0.32931529664348408 -0.38869437358142001 0 -0.34646966066369161 -0.38533898881774881 0 -0.32931529664348408 -0.38869437358142001 0 -0.34316085436749 -0.39382471367395527 0 -0.34815033243380111 -0.40144447968524521 0 -0.33486919938690762 -0.39884665705885908 0 -0.32944617452305069 -0.41182817437998842 0 -0.32931529664348408 -0.38869437358142001 0 -0.34316085436749 -0.39382471367395527 0 -0.33486919938690762 -0.39884665705885908 0 -0.32931529664348408 -0.38869437358142001 0 -0.33486919938690762 -0.39884665705885908 0 -0.32365381597648563 -0.39942827076698811 0 -0.34815033243380111 -0.40144447968524521 0 -0.34316085436749 -0.39382471367395527 0 -0.33486919938690762 -0.39884665705885908 0 -0.33486919938690762 -0.39884665705885908 0 -0.32365381597648563 -0.39942827076698811 0 -0.32944617452305069 -0.41182817437998842 0 -0.32931529664348408 -0.38869437358142001 0 -0.32365381597648563 -0.39942827076698811 0 -0.30988209993594379 -0.39542680479545339 0 -0.32365381597648563 -0.39942827076698811 0 -0.30595412674790001 -0.41636475829844438 0 -0.30988209993594379 -0.39542680479545339 0 -0.31381007312398762 -0.37448885129246268 0 -0.32931529664348408 -0.38869437358142001 0 -0.30988209993594379 -0.39542680479545339 0 -0.31381007312398762 -0.37448885129246268 0 -0.32803705280137402 -0.37447550275240871 0 -0.32931529664348408 -0.38869437358142001 0 -0.34095461206840061 -0.42640878026434909 0 -0.32944617452305069 -0.41182817437998842 0 -0.3206124180200437 -0.43193612962395289 0 -0.33075086723682939 -0.45093918684289991 0 -0.34095461206840061 -0.42640878026434909 0 -0.3206124180200437 -0.43193612962395289 0 -0.34815033243380111 -0.40144447968524521 0 -0.34095461206840061 -0.42640878026434909 0 -0.32944617452305069 -0.41182817437998842 0 -0.32944617452305069 -0.41182817437998842 0 -0.3206124180200437 -0.43193612962395289 0 -0.30595412674790001 -0.41636475829844438 0 -0.32365381597648563 -0.39942827076698811 0 -0.32944617452305069 -0.41182817437998842 0 -0.30595412674790001 -0.41636475829844438 0 -0.3206124180200437 -0.43193612962395289 0 -0.30595412674790001 -0.41636475829844438 0 -0.29602166034141808 -0.43748304283089118 0 -0.30595412674790001 -0.41636475829844438 0 -0.28680587137917263 -0.41476105187328532 0 -0.29502227998321778 -0.40112933436643161 0 -0.30595412674790001 -0.41636475829844438 0 -0.28680587137917263 -0.41476105187328532 0 -0.29602166034141808 -0.43748304283089118 0 -0.28680587137917263 -0.41476105187328532 0 -0.29602166034141808 -0.43748304283089118 0 -0.27149625348017281 -0.42637325053463759 0 -0.29602166034141808 -0.43748304283089118 0 -0.27149625348017281 -0.42637325053463759 0 -0.29602166034141808 -0.43748304283089118 0 -0.27149625348017281 -0.42637325053463759 0 -0.27906578537949278 -0.44687665772048962 0 -0.31381007312398762 -0.37448885129246268 0 -0.30988209993594379 -0.39542680479545339 0 -0.31381007312398762 -0.37448885129246268 0 -0.30988209993594379 -0.39542680479545339 0 -0.29196992941862432 -0.3825632544476108 0 -0.30595412674790001 -0.41636475829844438 0 -0.30988209993594379 -0.39542680479545339 0 -0.30595412674790001 -0.41636475829844438 0 -0.30988209993594379 -0.39542680479545339 0 -0.29502227998321778 -0.40112933436643161 0 -0.30988209993594379 -0.39542680479545339 0 -0.29502227998321778 -0.40112933436643161 0 -0.29196992941862432 -0.3825632544476108 0 -0.28680587137917263 -0.41476105187328532 0 -0.29502227998321778 -0.40112933436643161 0 -0.2806661672136338 -0.39648987600255969 0 -0.29502227998321778 -0.40112933436643161 0 -0.29196992941862432 -0.3825632544476108 0 -0.2806661672136338 -0.39648987600255969 0 -0.27675503022224163 -0.36681377825091099 0 -0.29196992941862432 -0.3825632544476108 0 -0.26924588117792803 -0.38334910629271668 0 -0.29196992941862432 -0.3825632544476108 0 -0.26924588117792803 -0.38334910629271668 0 -0.2806661672136338 -0.39648987600255969 0 -0.27675503022224163 -0.36681377825091099 0 -0.26924588117792803 -0.38334910629271668 0 -0.25812358553267323 -0.37605355791306738 0 -0.28680587137917263 -0.41476105187328532 0 -0.2806661672136338 -0.39648987600255969 0 -0.26326431180229581 -0.40282557300305732 0 -0.26924588117792803 -0.38334910629271668 0 -0.2806661672136338 -0.39648987600255969 0 -0.26326431180229581 -0.40282557300305732 0 -0.26326431180229581 -0.40282557300305732 0 -0.2504897110532438 -0.38524934403489181 0 -0.24394706363899241 -0.39877073912243299 0 -0.26326431180229581 -0.40282557300305732 0 -0.24697084661892749 -0.41526345823838401 0 -0.24394706363899241 -0.39877073912243299 0 -0.26924588117792803 -0.38334910629271668 0 -0.26326431180229581 -0.40282557300305732 0 -0.2504897110532438 -0.38524934403489181 0 -0.26924588117792803 -0.38334910629271668 0 -0.2504897110532438 -0.38524934403489181 0 -0.25812358553267323 -0.37605355791306738 0 -0.2504897110532438 -0.38524934403489181 0 -0.25812358553267323 -0.37605355791306738 0 -0.24839247009954951 -0.37292447016044328 0 -0.28680587137917263 -0.41476105187328532 0 -0.26326431180229581 -0.40282557300305732 0 -0.27149625348017281 -0.42637325053463759 0 -0.27149625348017281 -0.42637325053463759 0 -0.24697084661892749 -0.41526345823838401 0 -0.26326431180229581 -0.40282557300305732 0 -0.27149625348017281 -0.42637325053463759 0 -0.24697084661892749 -0.41526345823838401 0 -0.27149625348017281 -0.42637325053463759 0 -0.25687425522332558 -0.44642006451091643 0 -0.24697084661892749 -0.41526345823838401 0 -0.25687425522332558 -0.44642006451091643 0 -0.27607931301277078 -0.46657199895299017 0 -0.25409384940020791 -0.47271975939701871 0 -0.25687425522332558 -0.44642006451091643 0 -0.27607931301277078 -0.46657199895299017 0 -0.27906578537949278 -0.44687665772048962 0 -0.27149625348017281 -0.42637325053463759 0 -0.25687425522332558 -0.44642006451091643 0 -0.27906578537949278 -0.44687665772048962 0 -0.29602166034141808 -0.43748304283089118 0 -0.27906578537949278 -0.44687665772048962 0 -0.29968055871002541 -0.46203125713240301 0 -0.27607931301277078 -0.46657199895299017 0 -0.27906578537949278 -0.44687665772048962 0 -0.29968055871002541 -0.46203125713240301 0 -0.31571728338184601 -0.45752087103574601 0 -0.29968055871002541 -0.46203125713240301 0 -0.30706080135445341 -0.45057148265483188 0 -0.31571728338184601 -0.45752087103574601 0 -0.32054712240525829 -0.47546959342145068 0 -0.29968055871002541 -0.46203125713240301 0 -0.32054706720266329 -0.44859283512714471 0 -0.29602166034141808 -0.43748304283089118 0 -0.32054706720266329 -0.44859283512714471 0 -0.3206124180200437 -0.43193612962395289 0 -0.29602166034141808 -0.43748304283089118 0 -0.32054706720266329 -0.44859283512714471 0 -0.29602166034141808 -0.43748304283089118 0 -0.30706080135445341 -0.45057148265483188 0 -0.29602166034141808 -0.43748304283089118 0 -0.29968055871002541 -0.46203125713240301 0 -0.30706080135445341 -0.45057148265483188 0 -0.32054712240525829 -0.47546959342145068 0 -0.31034337757368669 -0.50000000000000133 0 -0.2941570887960146 -0.48201569375099518 0 -0.32054712240525829 -0.47546959342145068 0 -0.29968055871002541 -0.46203125713240301 0 -0.2941570887960146 -0.48201569375099518 0 -0.27607931301277078 -0.46657199895299017 0 -0.29968055871002541 -0.46203125713240301 0 -0.2941570887960146 -0.48201569375099518 0 -0.2941570887960146 -0.48201569375099518 0 -0.28248249767631262 -0.5 0 -0.27039562620846602 -0.48462576079096858 0 -0.31034337757368669 -0.50000000000000133 0 -0.2941570887960146 -0.48201569375099518 0 -0.28248249767631262 -0.5 0 -0.28248249767631262 -0.5 0 -0.27039562620846602 -0.48462576079096858 0 -0.25462161777893849 -0.5 0 -0.27607931301277078 -0.46657199895299017 0 -0.2941570887960146 -0.48201569375099518 0 -0.27039562620846602 -0.48462576079096858 0 -0.27607931301277078 -0.46657199895299017 0 -0.27039562620846602 -0.48462576079096858 0 -0.25409384940020791 -0.47271975939701871 0 -0.27039562620846602 -0.48462576079096858 0 -0.25409384940020791 -0.47271975939701871 0 -0.25462161777893849 -0.5 0 -0.25462161777893849 -0.5 0 -0.23155232774708009 -0.47932355884050398 0 -0.22676073788156451 -0.5 0 -0.25409384940020791 -0.47271975939701871 0 -0.25462161777893849 -0.5 0 -0.23155232774708009 -0.47932355884050398 0 -0.25409384940020791 -0.47271975939701871 0 -0.23155232774708009 -0.47932355884050398 0 -0.2350399564306665 -0.45937717328673289 0 -0.23155232774708009 -0.47932355884050398 0 -0.2350399564306665 -0.45937717328673289 0 -0.2080224731694312 -0.47403962225972662 0 -0.23155232774708009 -0.47932355884050398 0 -0.22676073788156451 -0.5 0 -0.2080224731694312 -0.47403962225972662 0 -0.25687425522332558 -0.44642006451091643 0 -0.2350399564306665 -0.45937717328673289 0 -0.23180750449586429 -0.4343742486430574 0 -0.25687425522332558 -0.44642006451091643 0 -0.25409384940020791 -0.47271975939701871 0 -0.2350399564306665 -0.45937717328673289 0 -0.2350399564306665 -0.45937717328673289 0 -0.21590660946663959 -0.44883644739355771 0 -0.2080224731694312 -0.47403962225972662 0 -0.2350399564306665 -0.45937717328673289 0 -0.21590660946663959 -0.44883644739355771 0 -0.23180750449586429 -0.4343742486430574 0 -0.21590660946663959 -0.44883644739355771 0 -0.1943898331460783 -0.4473597119794826 0 -0.20910912931781811 -0.42543372189632289 0 -0.21590660946663959 -0.44883644739355771 0 -0.1943898331460783 -0.4473597119794826 0 -0.2080224731694312 -0.47403962225972662 0 -0.1943898331460783 -0.4473597119794826 0 -0.2080224731694312 -0.47403962225972662 0 -0.17967053697433849 -0.46928570206264231 0 -0.22676073788156451 -0.5 0 -0.2080224731694312 -0.47403962225972662 0 -0.19889985798419041 -0.5 0 -0.2080224731694312 -0.47403962225972662 0 -0.1821948971586228 -0.48648437486529872 0 -0.17967053697433849 -0.46928570206264231 0 -0.2080224731694312 -0.47403962225972662 0 -0.19889985798419041 -0.5 0 -0.1821948971586228 -0.48648437486529872 0 -0.19889985798419041 -0.5 0 -0.1821948971586228 -0.48648437486529872 0 -0.17103897808681609 -0.49999999999999778 0 -0.1821948971586228 -0.48648437486529872 0 -0.17103897808681609 -0.49999999999999778 0 -0.16495124080259491 -0.49121169214579941 0 -0.17103897808681609 -0.49999999999999778 0 -0.16495124080259491 -0.49121169214579941 0 -0.17103897808681609 -0.49999999999999778 0 -0.16495124080259491 -0.49121169214579941 0 -0.15905149781887321 -0.49999999999999961 0 -0.16495124080259491 -0.49121169214579941 0 -0.15905149781887321 -0.49999999999999961 0 -0.1545750311736096 -0.49062041690426861 0 -0.16495124080259491 -0.49121169214579941 0 -0.15905149781887321 -0.49999999999999961 0 -0.16495124080259491 -0.49121169214579941 0 -0.16530166315622061 -0.47155300009798301 0 -0.17967053697433849 -0.46928570206264231 0 -0.16495124080259491 -0.49121169214579941 0 -0.16530166315622061 -0.47155300009798301 0 -0.15083103946930049 -0.47082765280793248 0 -0.16495124080259491 -0.49121169214579941 0 -0.1545750311736096 -0.49062041690426861 0 -0.15083103946930049 -0.47082765280793248 0 -0.16495124080259491 -0.49121169214579941 0 -0.15083103946930049 -0.47082765280793248 0 -0.16495124080259491 -0.49121169214579941 0 -0.17967053697433849 -0.46928570206264231 0 -0.1821948971586228 -0.48648437486529872 0 -0.16495124080259491 -0.49121169214579941 0 -0.17967053697433849 -0.46928570206264231 0 -0.1943898331460783 -0.4473597119794826 0 -0.17967053697433849 -0.46928570206264231 0 -0.1943898331460783 -0.4473597119794826 0 -0.17967053697433849 -0.46928570206264231 0 -0.1657538353786501 -0.45488695337555668 0 -0.1943898331460783 -0.4473597119794826 0 -0.1657538353786501 -0.45488695337555668 0 -0.1755027511393909 -0.43471579892562301 0 -0.1657538353786501 -0.45488695337555668 0 -0.15761868306950341 -0.43586407366366631 0 -0.1755027511393909 -0.43471579892562301 0 -0.16530166315622061 -0.47155300009798301 0 -0.1657538353786501 -0.45488695337555668 0 -0.15083103946930049 -0.47082765280793248 0 -0.16530166315622061 -0.47155300009798301 0 -0.17967053697433849 -0.46928570206264231 0 -0.1657538353786501 -0.45488695337555668 0 -0.13671083813600751 -0.45044361347006462 0 -0.15083103946930049 -0.47082765280793248 0 -0.13671083813600751 -0.45044361347006462 0 -0.13441782301728619 -0.47175980973682791 0 -0.15083103946930049 -0.47082765280793248 0 -0.1657538353786501 -0.45488695337555668 0 -0.13671083813600751 -0.45044361347006462 0 -0.15083103946930049 -0.47082765280793248 0 -0.13671083813600751 -0.45044361347006462 0 -0.13816776916695811 -0.432543871779144 0 -0.15761868306950341 -0.43586407366366631 0 -0.1657538353786501 -0.45488695337555668 0 -0.13671083813600751 -0.45044361347006462 0 -0.15761868306950341 -0.43586407366366631 0 -0.13671083813600751 -0.45044361347006462 0 -0.13816776916695811 -0.432543871779144 0 -0.1225906368027144 -0.43005957413219659 0 -0.13671083813600751 -0.45044361347006462 0 -0.1225906368027144 -0.43005957413219659 0 -0.13671083813600751 -0.45044361347006462 0 -0.13441782301728619 -0.47175980973682791 0 -0.1201929706126502 -0.46127799294672761 0 -0.13441782301728619 -0.47175980973682791 0 -0.12605423818426559 -0.48707922202292669 0 -0.14429533434837091 -0.48908967660720287 0 -0.13441782301728619 -0.47175980973682791 0 -0.12605423818426559 -0.48707922202292669 0 -0.1201929706126502 -0.46127799294672761 0 -0.1295391708778694 -0.5 0 -0.12605423818426559 -0.48707922202292669 0 -0.14429533434837091 -0.48908967660720287 0 -0.15905149781887321 -0.49999999999999961 0 -0.1295391708778694 -0.5 0 -0.14429533434837091 -0.48908967660720287 0 -0.15905149781887321 -0.49999999999999961 0 -0.14429533434837091 -0.48908967660720287 0 -0.1545750311736096 -0.49062041690426861 0 -0.14429533434837091 -0.48908967660720287 0 -0.1545750311736096 -0.49062041690426861 0 -0.15083103946930049 -0.47082765280793248 0 -0.13441782301728619 -0.47175980973682791 0 -0.14429533434837091 -0.48908967660720287 0 -0.15083103946930049 -0.47082765280793248 0 -0.15345949684661231 -0.4053237642064671 0 -0.15136585988972451 -0.39002590355483568 0 -0.13982663417143551 -0.39933000433158738 0 -0.15136585988972451 -0.39002590355483568 0 -0.1368738238800834 -0.3880397179408614 0 -0.13982663417143551 -0.39933000433158738 0 -0.15345949684661231 -0.4053237642064671 0 -0.13982663417143551 -0.39933000433158738 0 -0.1398029654186671 -0.41064466143528439 0 -0.15136585988972451 -0.39002590355483568 0 -0.1368738238800834 -0.3880397179408614 0 -0.13959568407155781 -0.37291875636350952 0 -0.15136585988972451 -0.39002590355483568 0 -0.15951650330528561 -0.37856285477961621 0 -0.13959568407155781 -0.37291875636350952 0 -0.1368738238800834 -0.3880397179408614 0 -0.12625141541498519 -0.38197991289387551 0 -0.13959568407155781 -0.37291875636350952 0 -0.1368738238800834 -0.3880397179408614 0 -0.12625141541498519 -0.38197991289387551 0 -0.1273295258527142 -0.39594401256049883 0 -0.1368738238800834 -0.3880397179408614 0 -0.1273295258527142 -0.39594401256049883 0 -0.13982663417143551 -0.39933000433158738 0 -0.13982663417143551 -0.39933000433158738 0 -0.1295768038857959 -0.40463739140698729 0 -0.1398029654186671 -0.41064466143528439 0 -0.1273295258527142 -0.39594401256049883 0 -0.13982663417143551 -0.39933000433158738 0 -0.1295768038857959 -0.40463739140698729 0 -0.1273295258527142 -0.39594401256049883 0 -0.1295768038857959 -0.40463739140698729 0 -0.1219584454402414 -0.40406961642135292 0 -0.1295768038857959 -0.40463739140698729 0 -0.1296119374269841 -0.41417592727859581 0 -0.1225700411049412 -0.40994677461386392 0 -0.1296119374269841 -0.41417592727859581 0 -0.12315425937001 -0.41747458531602638 0 -0.1225700411049412 -0.40994677461386392 0 -0.1296119374269841 -0.41417592727859581 0 -0.13713184062407599 -0.42036644340313623 0 -0.12908399078123631 -0.42243277819987513 0 -0.1296119374269841 -0.41417592727859581 0 -0.12908399078123631 -0.42243277819987513 0 -0.12315425937001 -0.41747458531602638 0 -0.1296119374269841 -0.41417592727859581 0 -0.13713184062407599 -0.42036644340313623 0 -0.1398029654186671 -0.41064466143528439 0 -0.1295768038857959 -0.40463739140698729 0 -0.1296119374269841 -0.41417592727859581 0 -0.1398029654186671 -0.41064466143528439 0 -0.12908399078123631 -0.42243277819987513 0 -0.13816776916695811 -0.432543871779144 0 -0.1225906368027144 -0.43005957413219659 0 -0.13713184062407599 -0.42036644340313623 0 -0.12908399078123631 -0.42243277819987513 0 -0.13816776916695811 -0.432543871779144 0 -0.13816776916695811 -0.432543871779144 0 -0.14921107955709881 -0.42003443798493328 0 -0.15761868306950341 -0.43586407366366631 0 -0.13713184062407599 -0.42036644340313623 0 -0.13816776916695811 -0.432543871779144 0 -0.14921107955709881 -0.42003443798493328 0 -0.15345949684661231 -0.4053237642064671 0 -0.1398029654186671 -0.41064466143528439 0 -0.14921107955709881 -0.42003443798493328 0 -0.13713184062407599 -0.42036644340313623 0 -0.1398029654186671 -0.41064466143528439 0 -0.14921107955709881 -0.42003443798493328 0 -0.15345949684661231 -0.4053237642064671 0 -0.14921107955709881 -0.42003443798493328 0 -0.17009787391258249 -0.41611158199907422 0 -0.14921107955709881 -0.42003443798493328 0 -0.17009787391258249 -0.41611158199907422 0 -0.15761868306950341 -0.43586407366366631 0 -0.17009787391258249 -0.41611158199907422 0 -0.15761868306950341 -0.43586407366366631 0 -0.1755027511393909 -0.43471579892562301 0 -0.1943898331460783 -0.4473597119794826 0 -0.1755027511393909 -0.43471579892562301 0 -0.18951413900105801 -0.42212105940109063 0 -0.17009787391258249 -0.41611158199907422 0 -0.1755027511393909 -0.43471579892562301 0 -0.18951413900105801 -0.42212105940109063 0 -0.17009787391258249 -0.41611158199907422 0 -0.18562609472684241 -0.40161550393767448 0 -0.18951413900105801 -0.42212105940109063 0 -0.18562609472684241 -0.40161550393767448 0 -0.16863204450281991 -0.39380366607865908 0 -0.18254917963999329 -0.38971973427100182 0 -0.17009787391258249 -0.41611158199907422 0 -0.18562609472684241 -0.40161550393767448 0 -0.16863204450281991 -0.39380366607865908 0 -0.18562609472684241 -0.40161550393767448 0 -0.18254917963999329 -0.38971973427100182 0 -0.19364364155811911 -0.391297223908462 0 -0.15345949684661231 -0.4053237642064671 0 -0.17009787391258249 -0.41611158199907422 0 -0.16863204450281991 -0.39380366607865908 0 -0.15345949684661231 -0.4053237642064671 0 -0.15136585988972451 -0.39002590355483568 0 -0.16863204450281991 -0.39380366607865908 0 -0.15951650330528561 -0.37856285477961621 0 -0.17625218554490921 -0.38180729220612769 0 -0.1663610822414904 -0.3702523776444529 0 -0.16863204450281991 -0.39380366607865908 0 -0.15951650330528561 -0.37856285477961621 0 -0.17625218554490921 -0.38180729220612769 0 -0.15136585988972451 -0.39002590355483568 0 -0.16863204450281991 -0.39380366607865908 0 -0.15951650330528561 -0.37856285477961621 0 -0.17625218554490921 -0.38180729220612769 0 -0.1663610822414904 -0.3702523776444529 0 -0.18579747934449059 -0.37379744869579251 0 -0.16863204450281991 -0.39380366607865908 0 -0.17625218554490921 -0.38180729220612769 0 -0.18254917963999329 -0.38971973427100182 0 -0.17625218554490921 -0.38180729220612769 0 -0.18254917963999329 -0.38971973427100182 0 -0.18859193186727599 -0.38007498522408562 0 -0.17625218554490921 -0.38180729220612769 0 -0.18859193186727599 -0.38007498522408562 0 -0.18579747934449059 -0.37379744869579251 0 -0.18859193186727599 -0.38007498522408562 0 -0.2014200033848125 -0.37119512976538899 0 -0.18859193186727599 -0.38007498522408562 0 -0.2014200033848125 -0.37119512976538899 0 -0.18579747934449059 -0.37379744869579251 0 -0.18859193186727599 -0.38007498522408562 0 -0.1989719328316337 -0.38216032023399737 0 -0.2014200033848125 -0.37119512976538899 0 -0.1989719328316337 -0.38216032023399737 0 -0.20694960464083431 -0.38128159833907621 0 -0.2014200033848125 -0.37119512976538899 0 -0.1989719328316337 -0.38216032023399737 0 -0.19364364155811911 -0.391297223908462 0 -0.20620014074293039 -0.39180645285032889 0 -0.18859193186727599 -0.38007498522408562 0 -0.1989719328316337 -0.38216032023399737 0 -0.19364364155811911 -0.391297223908462 0 -0.18254917963999329 -0.38971973427100182 0 -0.18859193186727599 -0.38007498522408562 0 -0.19364364155811911 -0.391297223908462 0 -0.18562609472684241 -0.40161550393767448 0 -0.19364364155811911 -0.391297223908462 0 -0.20208872018367391 -0.4070926974887904 0 -0.19364364155811911 -0.391297223908462 0 -0.20620014074293039 -0.39180645285032889 0 -0.20208872018367391 -0.4070926974887904 0 -0.20620014074293039 -0.39180645285032889 0 -0.21479853281951461 -0.38638530273916921 0 -0.22382842548955789 -0.4035077318131633 0 -0.20620014074293039 -0.39180645285032889 0 -0.20208872018367391 -0.4070926974887904 0 -0.22382842548955789 -0.4035077318131633 0 -0.21479853281951461 -0.38638530273916921 0 -0.20694960464083431 -0.38128159833907621 0 -0.21335741342528061 -0.3748607861064962 0 -0.21479853281951461 -0.38638530273916921 0 -0.22412886374227589 -0.38235217247817599 0 -0.21335741342528061 -0.3748607861064962 0 -0.20694960464083431 -0.38128159833907621 0 -0.2014200033848125 -0.37119512976538899 0 -0.21335741342528061 -0.3748607861064962 0 -0.20620014074293039 -0.39180645285032889 0 -0.21479853281951461 -0.38638530273916921 0 -0.20694960464083431 -0.38128159833907621 0 -0.1989719328316337 -0.38216032023399737 0 -0.20620014074293039 -0.39180645285032889 0 -0.20694960464083431 -0.38128159833907621 0 -0.1943898331460783 -0.4473597119794826 0 -0.20910912931781811 -0.42543372189632289 0 -0.1943898331460783 -0.4473597119794826 0 -0.18951413900105801 -0.42212105940109063 0 -0.20910912931781811 -0.42543372189632289 0 -0.18951413900105801 -0.42212105940109063 0 -0.20208872018367391 -0.4070926974887904 0 -0.20910912931781811 -0.42543372189632289 0 -0.18562609472684241 -0.40161550393767448 0 -0.18951413900105801 -0.42212105940109063 0 -0.20208872018367391 -0.4070926974887904 0 -0.20208872018367391 -0.4070926974887904 0 -0.20910912931781811 -0.42543372189632289 0 -0.22382842548955789 -0.4035077318131633 0 -0.20910912931781811 -0.42543372189632289 0 -0.22382842548955789 -0.4035077318131633 0 -0.21590660946663959 -0.44883644739355771 0 -0.20910912931781811 -0.42543372189632289 0 -0.23180750449586429 -0.4343742486430574 0 -0.20910912931781811 -0.42543372189632289 0 -0.23180750449586429 -0.4343742486430574 0 -0.22382842548955789 -0.4035077318131633 0 -0.23180750449586429 -0.4343742486430574 0 -0.24697084661892749 -0.41526345823838401 0 -0.22382842548955789 -0.4035077318131633 0 -0.25687425522332558 -0.44642006451091643 0 -0.23180750449586429 -0.4343742486430574 0 -0.24697084661892749 -0.41526345823838401 0 -0.22412886374227589 -0.38235217247817599 0 -0.2351820232309369 -0.38700758852266848 0 -0.22952037500089251 -0.37311519752493849 0 -0.22412886374227589 -0.38235217247817599 0 -0.22186900287429051 -0.37074082218821958 0 -0.21335741342528061 -0.3748607861064962 0 -0.22412886374227589 -0.38235217247817599 0 -0.22952037500089251 -0.37311519752493849 0 -0.22186900287429051 -0.37074082218821958 0 -0.22382842548955789 -0.4035077318131633 0 -0.24394706363899241 -0.39877073912243299 0 -0.2351820232309369 -0.38700758852266848 0 -0.21479853281951461 -0.38638530273916921 0 -0.22412886374227589 -0.38235217247817599 0 -0.22382842548955789 -0.4035077318131633 0 -0.22412886374227589 -0.38235217247817599 0 -0.22382842548955789 -0.4035077318131633 0 -0.2351820232309369 -0.38700758852266848 0 -0.24697084661892749 -0.41526345823838401 0 -0.22382842548955789 -0.4035077318131633 0 -0.24394706363899241 -0.39877073912243299 0 -0.2504897110532438 -0.38524934403489181 0 -0.24394706363899241 -0.39877073912243299 0 -0.2351820232309369 -0.38700758852266848 0 -0.2504897110532438 -0.38524934403489181 0 -0.2351820232309369 -0.38700758852266848 0 -0.24036284435674521 -0.37772398595485779 0 -0.2351820232309369 -0.38700758852266848 0 -0.24036284435674521 -0.37772398595485779 0 -0.22952037500089251 -0.37311519752493849 0 -0.2504897110532438 -0.38524934403489181 0 -0.24036284435674521 -0.37772398595485779 0 -0.24839247009954951 -0.37292447016044328 0 -0.24839247009954951 -0.37292447016044328 0 -0.24532753696728959 -0.36501789644951049 0 -0.23861636880082099 -0.36955921174380651 0 -0.24036284435674521 -0.37772398595485779 0 -0.24839247009954951 -0.37292447016044328 0 -0.23861636880082099 -0.36955921174380651 0 -0.25757508569408222 -0.36424633604315798 0 -0.24532753696728959 -0.36501789644951049 0 -0.24650166737573331 -0.3569693529562265 0 -0.24532753696728959 -0.36501789644951049 0 -0.24234943749700691 -0.36154613291017651 0 -0.24650166737573331 -0.3569693529562265 0 -0.24532753696728959 -0.36501789644951049 0 -0.24234943749700691 -0.36154613291017651 0 -0.23928568589256061 -0.36455139619594779 0 -0.24234943749700691 -0.36154613291017651 0 -0.23928568589256061 -0.36455139619594779 0 -0.23696933381926599 -0.3585493042599866 0 -0.24532753696728959 -0.36501789644951049 0 -0.23928568589256061 -0.36455139619594779 0 -0.23861636880082099 -0.36955921174380651 0 -0.23928568589256061 -0.36455139619594779 0 -0.23861636880082099 -0.36955921174380651 0 -0.23345080570298909 -0.36409891217005902 0 -0.23928568589256061 -0.36455139619594779 0 -0.23345080570298909 -0.36409891217005902 0 -0.23696933381926599 -0.3585493042599866 0 -0.24036284435674521 -0.37772398595485779 0 -0.23861636880082099 -0.36955921174380651 0 -0.22952037500089251 -0.37311519752493849 0 -0.23345080570298909 -0.36409891217005902 0 -0.22186900287429051 -0.37074082218821958 0 -0.21424807490234879 -0.36231527430669241 0 -0.22952037500089251 -0.37311519752493849 0 -0.23345080570298909 -0.36409891217005902 0 -0.22186900287429051 -0.37074082218821958 0 -0.23696933381926599 -0.3585493042599866 0 -0.21424807490234879 -0.36231527430669241 0 -0.23861636880082099 -0.36955921174380651 0 -0.22952037500089251 -0.37311519752493849 0 -0.23345080570298909 -0.36409891217005902 0 -0.23345080570298909 -0.36409891217005902 0 -0.23696933381926599 -0.3585493042599866 0 -0.21424807490234879 -0.36231527430669241 0 -0.22913587473404851 -0.35200963246311751 0 -0.2097464541822805 -0.33582260124732738 0 -0.22913587473404851 -0.35200963246311751 0 -0.23696933381926599 -0.3585493042599866 0 -0.21424807490234879 -0.36231527430669241 0 -0.22913587473404851 -0.35200963246311751 0 -0.21998707993494029 -0.33959044394559312 0 -0.22913587473404851 -0.35200963246311751 0 -0.21424807490234879 -0.36231527430669241 0 -0.22913587473404851 -0.35200963246311751 0 -0.23696933381926599 -0.3585493042599866 0 -0.22913587473404851 -0.35200963246311751 0 -0.24881121389389799 -0.33838995723746451 0 -0.22913587473404851 -0.35200963246311751 0 -0.23696933381926599 -0.3585493042599866 0 -0.24650166737573331 -0.3569693529562265 0 -0.22913587473404851 -0.35200963246311751 0 -0.24650166737573331 -0.3569693529562265 0 -0.24881121389389799 -0.33838995723746451 0 -0.23696933381926599 -0.3585493042599866 0 -0.24650166737573331 -0.3569693529562265 0 -0.24234943749700691 -0.36154613291017651 0 -0.23696933381926599 -0.3585493042599866 0 -0.24650166737573331 -0.3569693529562265 0 -0.22913587473404851 -0.35200963246311751 0 -0.24881121389389799 -0.33838995723746451 0 -0.2325545649384867 -0.33453283978227571 0 -0.24881121389389799 -0.33838995723746451 0 -0.2441082332202735 -0.32380704628422963 0 -0.2325545649384867 -0.33453283978227571 0 -0.23613058105125781 -0.31890710479075163 0 -0.2279063026952847 -0.3135077128279592 0 -0.2444966906846206 -0.31181945912301329 0 -0.2441082332202735 -0.32380704628422963 0 -0.23498207165859719 -0.32537142019391418 0 -0.23613058105125781 -0.31890710479075163 0 -0.2441082332202735 -0.32380704628422963 0 -0.23498207165859719 -0.32537142019391418 0 -0.2325545649384867 -0.33453283978227571 0 -0.2441082332202735 -0.32380704628422963 0 -0.23613058105125781 -0.31890710479075163 0 -0.2444966906846206 -0.31181945912301329 0 -0.2279063026952847 -0.3135077128279592 0 -0.2193464910840433 -0.31976030368968739 0 -0.21134622408423179 -0.310554889255794 0 -0.23613058105125781 -0.31890710479075163 0 -0.2279063026952847 -0.3135077128279592 0 -0.22829430606921119 -0.32293804105388452 0 -0.23498207165859719 -0.32537142019391418 0 -0.22829430606921119 -0.32293804105388452 0 -0.2325545649384867 -0.33453283978227571 0 -0.23498207165859719 -0.32537142019391418 0 -0.23613058105125781 -0.31890710479075163 0 -0.22829430606921119 -0.32293804105388452 0 -0.22829430606921119 -0.32293804105388452 0 -0.2193464910840433 -0.31976030368968739 0 -0.22209033975117781 -0.32887735541776358 0 -0.2279063026952847 -0.3135077128279592 0 -0.22829430606921119 -0.32293804105388452 0 -0.2193464910840433 -0.31976030368968739 0 -0.22913587473404851 -0.35200963246311751 0 -0.2325545649384867 -0.33453283978227571 0 -0.21998707993494029 -0.33959044394559312 0 -0.22913587473404851 -0.35200963246311751 0 -0.21998707993494029 -0.33959044394559312 0 -0.2097464541822805 -0.33582260124732738 0 -0.22829430606921119 -0.32293804105388452 0 -0.2325545649384867 -0.33453283978227571 0 -0.22209033975117781 -0.32887735541776358 0 -0.2325545649384867 -0.33453283978227571 0 -0.22209033975117781 -0.32887735541776358 0 -0.21998707993494029 -0.33959044394559312 0 -0.21998707993494029 -0.33959044394559312 0 -0.21026925672920721 -0.32756514861737779 0 -0.22209033975117781 -0.32887735541776358 0 -0.21998707993494029 -0.33959044394559312 0 -0.21026925672920721 -0.32756514861737779 0 -0.21998707993494029 -0.33959044394559312 0 -0.2097464541822805 -0.33582260124732738 0 -0.21026925672920721 -0.32756514861737779 0 -0.2097464541822805 -0.33582260124732738 0 -0.21026925672920721 -0.32756514861737779 0 -0.21026925672920721 -0.32756514861737779 0 -0.21134622408423179 -0.310554889255794 0 -0.19267178705524021 -0.30578920503631912 0 -0.21026925672920721 -0.32756514861737779 0 -0.21134622408423179 -0.310554889255794 0 -0.2097464541822805 -0.33582260124732738 0 -0.21026925672920721 -0.32756514861737779 0 -0.19254159852174429 -0.31996122112867409 0 -0.2193464910840433 -0.31976030368968739 0 -0.21026925672920721 -0.32756514861737779 0 -0.21134622408423179 -0.310554889255794 0 -0.2193464910840433 -0.31976030368968739 0 -0.22209033975117781 -0.32887735541776358 0 -0.21026925672920721 -0.32756514861737779 0 -0.2097464541822805 -0.33582260124732738 0 -0.1943588054861482 -0.32297640251143073 0 -0.19254159852174429 -0.31996122112867409 0 -0.21026925672920721 -0.32756514861737779 0 -0.19267178705524021 -0.30578920503631912 0 -0.21026925672920721 -0.32756514861737779 0 -0.19254159852174429 -0.31996122112867409 0 -0.19267178705524021 -0.30578920503631912 0 -0.2097464541822805 -0.33582260124732738 0 -0.19254159852174429 -0.31996122112867409 0 -0.1943588054861482 -0.32297640251143073 0 -0.18737083868624629 -0.33075534874643497 0 -0.18479650728396149 -0.32227615663527998 0 -0.1943588054861482 -0.32297640251143073 0 -0.19254159852174429 -0.31996122112867409 0 -0.1789711567900161 -0.3101302037755338 0 -0.2097464541822805 -0.33582260124732738 0 -0.19466829689393059 -0.33824472710720138 0 -0.19565175395430129 -0.3512554891803924 0 -0.2097464541822805 -0.33582260124732738 0 -0.1943588054861482 -0.32297640251143073 0 -0.19466829689393059 -0.33824472710720138 0 -0.2097464541822805 -0.33582260124732738 0 -0.1943588054861482 -0.32297640251143073 0 -0.1943588054861482 -0.32297640251143073 0 -0.19466829689393059 -0.33824472710720138 0 -0.18737083868624629 -0.33075534874643497 0 -0.19466829689393059 -0.33824472710720138 0 -0.18164424501215659 -0.34621916084723381 0 -0.18737083868624629 -0.33075534874643497 0 -0.19466829689393059 -0.33824472710720138 0 -0.19565175395430129 -0.3512554891803924 0 -0.18164424501215659 -0.34621916084723381 0 -0.20800359978069241 -0.36335027445133922 0 -0.18480326185087809 -0.36719565018674682 0 -0.19565175395430129 -0.3512554891803924 0 -0.20800359978069241 -0.36335027445133922 0 -0.18480326185087809 -0.36719565018674682 0 -0.2014200033848125 -0.37119512976538899 0 -0.18480326185087809 -0.36719565018674682 0 -0.18579747934449059 -0.37379744869579251 0 -0.2014200033848125 -0.37119512976538899 0 -0.20800359978069241 -0.36335027445133922 0 -0.18480326185087809 -0.36719565018674682 0 -0.2014200033848125 -0.37119512976538899 0 -0.20800359978069241 -0.36335027445133922 0 -0.20803809997708481 -0.36661394692190907 0 -0.20800359978069241 -0.36335027445133922 0 -0.20803809997708481 -0.36661394692190907 0 -0.21424807490234879 -0.36231527430669241 0 -0.20800359978069241 -0.36335027445133922 0 -0.20803809997708481 -0.36661394692190907 0 -0.2014200033848125 -0.37119512976538899 0 -0.20803809997708481 -0.36661394692190907 0 -0.21335741342528061 -0.3748607861064962 0 -0.2014200033848125 -0.37119512976538899 0 -0.20803809997708481 -0.36661394692190907 0 -0.20803809997708481 -0.36661394692190907 0 -0.21335741342528061 -0.3748607861064962 0 -0.21424807490234879 -0.36231527430669241 0 -0.22186900287429051 -0.37074082218821958 0 -0.21335741342528061 -0.3748607861064962 0 -0.21424807490234879 -0.36231527430669241 0 -0.20800359978069241 -0.36335027445133922 0 -0.21424807490234879 -0.36231527430669241 0 -0.20803809997708481 -0.36661394692190907 0 -0.21424807490234879 -0.36231527430669241 0 -0.2097464541822805 -0.33582260124732738 0 -0.19565175395430129 -0.3512554891803924 0 -0.20800359978069241 -0.36335027445133922 0 -0.2097464541822805 -0.33582260124732738 0 -0.20800359978069241 -0.36335027445133922 0 -0.2097464541822805 -0.33582260124732738 0 -0.20800359978069241 -0.36335027445133922 0 -0.21424807490234879 -0.36231527430669241 0 -0.22913587473404851 -0.35200963246311751 0 -0.2097464541822805 -0.33582260124732738 0 -0.21424807490234879 -0.36231527430669241 0 -0.2335542019388327 -0.26090262277066528 0 -0.21472073189145299 -0.25725591714607071 0 -0.22837296648480071 -0.23789375384220129 0 -0.2335542019388327 -0.26090262277066528 0 -0.21357196166535461 -0.27540027352014051 0 -0.21472073189145299 -0.25725591714607071 0 -0.25298377122075039 -0.27518622721876451 0 -0.2335542019388327 -0.26090262277066528 0 -0.25431856302814809 -0.24833495949118861 0 -0.25298377122075039 -0.27518622721876451 0 -0.2335542019388327 -0.26090262277066528 0 -0.23093648268818689 -0.28342115129973 0 -0.2335542019388327 -0.26090262277066528 0 -0.23093648268818689 -0.28342115129973 0 -0.21357196166535461 -0.27540027352014051 0 -0.23093648268818689 -0.28342115129973 0 -0.21242319143925911 -0.29354462989421048 0 -0.21357196166535461 -0.27540027352014051 0 -0.23093648268818689 -0.28342115129973 0 -0.2435111179254994 -0.29490773243705071 0 -0.2284599410619414 -0.30268204450860919 0 -0.23093648268818689 -0.28342115129973 0 -0.2284599410619414 -0.30268204450860919 0 -0.21242319143925911 -0.29354462989421048 0 -0.25298377122075039 -0.27518622721876451 0 -0.23093648268818689 -0.28342115129973 0 -0.2435111179254994 -0.29490773243705071 0 -0.2444966906846206 -0.31181945912301329 0 -0.2284599410619414 -0.30268204450860919 0 -0.2435111179254994 -0.29490773243705071 0 -0.2444966906846206 -0.31181945912301329 0 -0.2284599410619414 -0.30268204450860919 0 -0.26057201890547982 -0.29344093798311832 0 -0.2435111179254994 -0.29490773243705071 0 -0.2444966906846206 -0.31181945912301329 0 -0.2279063026952847 -0.3135077128279592 0 -0.2444966906846206 -0.31181945912301329 0 -0.2284599410619414 -0.30268204450860919 0 -0.2284599410619414 -0.30268204450860919 0 -0.21242319143925911 -0.29354462989421048 0 -0.2279063026952847 -0.3135077128279592 0 -0.2284599410619414 -0.30268204450860919 0 -0.21134622408423179 -0.310554889255794 0 -0.2284599410619414 -0.30268204450860919 0 -0.21134622408423179 -0.310554889255794 0 -0.21242319143925911 -0.29354462989421048 0 -0.21134622408423179 -0.310554889255794 0 -0.19267178705524021 -0.30578920503631912 0 -0.21242319143925911 -0.29354462989421048 0 -0.21134622408423179 -0.310554889255794 0 -0.21242319143925911 -0.29354462989421048 0 -0.19267178705524021 -0.30578920503631912 0 -0.19410774352861071 -0.2831088592208712 0 -0.21242319143925911 -0.29354462989421048 0 -0.19410774352861071 -0.2831088592208712 0 -0.21242319143925911 -0.29354462989421048 0 -0.21357196166535461 -0.27540027352014051 0 -0.19410774352861071 -0.2831088592208712 0 -0.21242319143925911 -0.29354462989421048 0 -0.21242319143925911 -0.29354462989421048 0 -0.21357196166535461 -0.27540027352014051 0 -0.21357196166535461 -0.27540027352014051 0 -0.21472073189145299 -0.25725591714607071 0 -0.19410774352861071 -0.2831088592208712 0 -0.21357196166535461 -0.27540027352014051 0 -0.1965391795889786 -0.26204425282134669 0 -0.19410774352861071 -0.2831088592208712 0 -0.1965391795889786 -0.26204425282134669 0 -0.17579229561796161 -0.27267308854753308 0 -0.1965391795889786 -0.26204425282134669 0 -0.20565562739327201 -0.24334207984173631 0 -0.18863044441395099 -0.24733650333174401 0 -0.1965391795889786 -0.26204425282134669 0 -0.18340152769721799 -0.25642831405215172 0 -0.18863044441395099 -0.24733650333174401 0 -0.1965391795889786 -0.26204425282134669 0 -0.21472073189145299 -0.25725591714607071 0 -0.20565562739327201 -0.24334207984173631 0 -0.21357196166535461 -0.27540027352014051 0 -0.1965391795889786 -0.26204425282134669 0 -0.21472073189145299 -0.25725591714607071 0 -0.15747684770731041 -0.26223731787419863 0 -0.16344648285301799 -0.25937253054906129 0 -0.17579229561796161 -0.27267308854753308 0 -0.1593809120407062 -0.25278805690175971 0 -0.16344648285301799 -0.25937253054906129 0 -0.1534429259631987 -0.25724555178864622 0 -0.1593809120407062 -0.25278805690175971 0 -0.16344648285301799 -0.25937253054906129 0 -0.16709258238786229 -0.25188408856254202 0 -0.1593809120407062 -0.25278805690175971 0 -0.16709258238786229 -0.25188408856254202 0 -0.1601832428566283 -0.24550858739866141 0 -0.15747684770731041 -0.26223731787419863 0 -0.16344648285301799 -0.25937253054906129 0 -0.1534429259631987 -0.25724555178864622 0 -0.16344648285301799 -0.25937253054906129 0 -0.1534429259631987 -0.25724555178864622 0 -0.16344648285301799 -0.25937253054906129 0 -0.17379217291466831 -0.25992581321180469 0 -0.17579229561796161 -0.27267308854753308 0 -0.16344648285301799 -0.25937253054906129 0 -0.16709258238786229 -0.25188408856254202 0 -0.17379217291466831 -0.25992581321180469 0 -0.16709258238786229 -0.25188408856254202 0 -0.17679077873490559 -0.25046109420941731 0 -0.17379217291466831 -0.25992581321180469 0 -0.1965391795889786 -0.26204425282134669 0 -0.18340152769721799 -0.25642831405215172 0 -0.17579229561796161 -0.27267308854753308 0 -0.17679077873490559 -0.25046109420941731 0 -0.18340152769721799 -0.25642831405215172 0 -0.17379217291466831 -0.25992581321180469 0 -0.18340152769721799 -0.25642831405215172 0 -0.17379217291466831 -0.25992581321180469 0 -0.17579229561796161 -0.27267308854753308 0 -0.17679077873490559 -0.25046109420941731 0 -0.18340152769721799 -0.25642831405215172 0 -0.18863044441395099 -0.24733650333174401 0 -0.19410774352861071 -0.2831088592208712 0 -0.17579229561796161 -0.27267308854753308 0 -0.17507431738127369 -0.28401326145526029 0 -0.19410774352861071 -0.2831088592208712 0 -0.17579229561796161 -0.27267308854753308 0 -0.15747684770731041 -0.26223731787419863 0 -0.17507431738127369 -0.28401326145526029 0 -0.15747684770731041 -0.26223731787419863 0 -0.17579229561796161 -0.27267308854753308 0 -0.15747684770731041 -0.26223731787419863 0 -0.17579229561796161 -0.27267308854753308 0 -0.17507431738127369 -0.28401326145526029 0 -0.15747684770731041 -0.26223731787419863 0 -0.1596399504195592 -0.27820623095404468 0 -0.17507431738127369 -0.28401326145526029 0 -0.1596399504195592 -0.27820623095404468 0 -0.1624028041075358 -0.29248408411088062 0 -0.1494793968803598 -0.28070198605355251 0 -0.1624028041075358 -0.29248408411088062 0 -0.15973767967650701 -0.30493196891575292 0 -0.15108397830665751 -0.29236825921418419 0 -0.1624028041075358 -0.29248408411088062 0 -0.17507431738127369 -0.28401326145526029 0 -0.17391538329452061 -0.29489800819007239 0 -0.1596399504195592 -0.27820623095404468 0 -0.1624028041075358 -0.29248408411088062 0 -0.17507431738127369 -0.28401326145526029 0 -0.19267178705524021 -0.30578920503631912 0 -0.19410774352861071 -0.2831088592208712 0 -0.17507431738127369 -0.28401326145526029 0 -0.19267178705524021 -0.30578920503631912 0 -0.17507431738127369 -0.28401326145526029 0 -0.17391538329452061 -0.29489800819007239 0 -0.19267178705524021 -0.30578920503631912 0 -0.17507431738127369 -0.28401326145526029 0 -0.17391538329452061 -0.29489800819007239 0 -0.17532621133471249 -0.30426618216820789 0 -0.19254159852174429 -0.31996122112867409 0 -0.19267178705524021 -0.30578920503631912 0 -0.17532621133471249 -0.30426618216820789 0 -0.19267178705524021 -0.30578920503631912 0 -0.17391538329452061 -0.29489800819007239 0 -0.17532621133471249 -0.30426618216820789 0 -0.19254159852174429 -0.31996122112867409 0 -0.17532621133471249 -0.30426618216820789 0 -0.1789711567900161 -0.3101302037755338 0 -0.19254159852174429 -0.31996122112867409 0 -0.17532621133471249 -0.30426618216820789 0 -0.17532621133471249 -0.30426618216820789 0 -0.15973767967650701 -0.30493196891575292 0 -0.16582550601247259 -0.31644195918285489 0 -0.1624028041075358 -0.29248408411088062 0 -0.17532621133471249 -0.30426618216820789 0 -0.15973767967650701 -0.30493196891575292 0 -0.1624028041075358 -0.29248408411088062 0 -0.17532621133471249 -0.30426618216820789 0 -0.1624028041075358 -0.29248408411088062 0 -0.17391538329452061 -0.29489800819007239 0 -0.17532621133471249 -0.30426618216820789 0 -0.144593184228827 -0.30237793828586917 0 -0.15261731536399281 -0.31699983390472031 0 -0.1327552185807534 -0.31482398186879779 0 -0.15973767967650701 -0.30493196891575292 0 -0.144593184228827 -0.30237793828586917 0 -0.15261731536399281 -0.31699983390472031 0 -0.15973767967650701 -0.30493196891575292 0 -0.144593184228827 -0.30237793828586917 0 -0.15108397830665751 -0.29236825921418419 0 -0.144593184228827 -0.30237793828586917 0 -0.1304175251842298 -0.30012492429455973 0 -0.1327552185807534 -0.31482398186879779 0 -0.1304175251842298 -0.30012492429455973 0 -0.1327552185807534 -0.31482398186879779 0 -0.11567190875339491 -0.3081878681979589 0 -0.1304175251842298 -0.30012492429455973 0 -0.13697378053928061 -0.28594316463020741 0 -0.11725087491461519 -0.29108504565108578 0 -0.144593184228827 -0.30237793828586917 0 -0.1304175251842298 -0.30012492429455973 0 -0.13697378053928061 -0.28594316463020741 0 -0.13697378053928061 -0.28594316463020741 0 -0.15108397830665751 -0.29236825921418419 0 -0.1494793968803598 -0.28070198605355251 0 -0.144593184228827 -0.30237793828586917 0 -0.13697378053928061 -0.28594316463020741 0 -0.15108397830665751 -0.29236825921418419 0 -0.1624028041075358 -0.29248408411088062 0 -0.15108397830665751 -0.29236825921418419 0 -0.1494793968803598 -0.28070198605355251 0 -0.1624028041075358 -0.29248408411088062 0 -0.1494793968803598 -0.28070198605355251 0 -0.15747684770731041 -0.26223731787419863 0 -0.1596399504195592 -0.27820623095404468 0 -0.1503927610565664 -0.27179087804580171 0 -0.1596399504195592 -0.27820623095404468 0 -0.1494793968803598 -0.28070198605355251 0 -0.1503927610565664 -0.27179087804580171 0 -0.15747684770731041 -0.26223731787419863 0 -0.1503927610565664 -0.27179087804580171 0 -0.1469785187108 -0.2635474229235048 0 -0.1503927610565664 -0.27179087804580171 0 -0.13966748117377659 -0.26847157538705668 0 -0.1469785187108 -0.2635474229235048 0 -0.1503927610565664 -0.27179087804580171 0 -0.14153524490660671 -0.2763029116229278 0 -0.13966748117377659 -0.26847157538705668 0 -0.1494793968803598 -0.28070198605355251 0 -0.1503927610565664 -0.27179087804580171 0 -0.14153524490660671 -0.2763029116229278 0 -0.13697378053928061 -0.28594316463020741 0 -0.1494793968803598 -0.28070198605355251 0 -0.14153524490660671 -0.2763029116229278 0 -0.13697378053928061 -0.28594316463020741 0 -0.14153524490660671 -0.2763029116229278 0 -0.13219795163187159 -0.27110871778552531 0 -0.13697378053928061 -0.28594316463020741 0 -0.1173011125765811 -0.2721428964285707 0 -0.13697378053928061 -0.28594316463020741 0 -0.13219795163187159 -0.27110871778552531 0 -0.1173011125765811 -0.2721428964285707 0 -0.13219795163187159 -0.27110871778552531 0 -0.1333337708168415 -0.26377523499205202 0 -0.12600056203783161 -0.26301541000095829 0 -0.13219795163187159 -0.27110871778552531 0 -0.12600056203783161 -0.26301541000095829 0 -0.1173011125765811 -0.2721428964285707 0 -0.13219795163187159 -0.27110871778552531 0 -0.13966748117377659 -0.26847157538705668 0 -0.1333337708168415 -0.26377523499205202 0 -0.14153524490660671 -0.2763029116229278 0 -0.13219795163187159 -0.27110871778552531 0 -0.13966748117377659 -0.26847157538705668 0 -0.13966748117377659 -0.26847157538705668 0 -0.13807993829988649 -0.25979154560904222 0 -0.1333337708168415 -0.26377523499205202 0 -0.13807993829988649 -0.25979154560904222 0 -0.1333337708168415 -0.26377523499205202 0 -0.13072292094084129 -0.25648892617767749 0 -0.12600056203783161 -0.26301541000095829 0 -0.13072292094084129 -0.25648892617767749 0 -0.1187556211832122 -0.25814451816493872 0 -0.1333337708168415 -0.26377523499205202 0 -0.12600056203783161 -0.26301541000095829 0 -0.13072292094084129 -0.25648892617767749 0 -0.13072292094084129 -0.25648892617767749 0 -0.13218950310710981 -0.25272660122947088 0 -0.1187556211832122 -0.25814451816493872 0 -0.13072292094084129 -0.25648892617767749 0 -0.13218950310710981 -0.25272660122947088 0 -0.13218950310710981 -0.25272660122947088 0 -0.1459019403517107 -0.25564217047089421 0 -0.13375162957080131 -0.24871916986845621 0 -0.13218950310710981 -0.25272660122947088 0 -0.1459019403517107 -0.25564217047089421 0 -0.13218950310710981 -0.25272660122947088 0 -0.13375162957080131 -0.24871916986845621 0 -0.1459019403517107 -0.25564217047089421 0 -0.13375162957080131 -0.24871916986845621 0 -0.13807993829988649 -0.25979154560904222 0 -0.13218950310710981 -0.25272660122947088 0 -0.1459019403517107 -0.25564217047089421 0 -0.13807993829988649 -0.25979154560904222 0 -0.13072292094084129 -0.25648892617767749 0 -0.13218950310710981 -0.25272660122947088 0 -0.1459019403517107 -0.25564217047089421 0 -0.1534429259631987 -0.25724555178864622 0 -0.1378886282313006 -0.2381062402767252 0 -0.13966748117377659 -0.26847157538705668 0 -0.13807993829988649 -0.25979154560904222 0 -0.1469785187108 -0.2635474229235048 0 -0.13807993829988649 -0.25979154560904222 0 -0.1459019403517107 -0.25564217047089421 0 -0.1469785187108 -0.2635474229235048 0 -0.15747684770731041 -0.26223731787419863 0 -0.1459019403517107 -0.25564217047089421 0 -0.1534429259631987 -0.25724555178864622 0 -0.15747684770731041 -0.26223731787419863 0 -0.1459019403517107 -0.25564217047089421 0 -0.1469785187108 -0.2635474229235048 0 -0.15747684770731041 -0.26223731787419863 0 -0.1459019403517107 -0.25564217047089421 0 -0.15747684770731041 -0.26223731787419863 0 -0.1534429259631987 -0.25724555178864622 0 -0.1593809120407062 -0.25278805690175971 0 -0.1534429259631987 -0.25724555178864622 0 -0.15289321433053751 -0.246830478479277 0 -0.1459019403517107 -0.25564217047089421 0 -0.1534429259631987 -0.25724555178864622 0 -0.17143624801538501 -0.35840063883308271 0 -0.1580141783998408 -0.34710035810185619 0 -0.15489216358121211 -0.36256913283011211 0 -0.17143624801538501 -0.35840063883308271 0 -0.1580141783998408 -0.34710035810185619 0 -0.18164424501215659 -0.34621916084723381 0 -0.17143624801538501 -0.35840063883308271 0 -0.1663610822414904 -0.3702523776444529 0 -0.15489216358121211 -0.36256913283011211 0 -0.15951650330528561 -0.37856285477961621 0 -0.1663610822414904 -0.3702523776444529 0 -0.15489216358121211 -0.36256913283011211 0 -0.17143624801538501 -0.35840063883308271 0 -0.1663610822414904 -0.3702523776444529 0 -0.18480326185087809 -0.36719565018674682 0 -0.1663610822414904 -0.3702523776444529 0 -0.18480326185087809 -0.36719565018674682 0 -0.1663610822414904 -0.3702523776444529 0 -0.18480326185087809 -0.36719565018674682 0 -0.18579747934449059 -0.37379744869579251 0 -0.18480326185087809 -0.36719565018674682 0 -0.18579747934449059 -0.37379744869579251 0 -0.18480326185087809 -0.36719565018674682 0 -0.18164424501215659 -0.34621916084723381 0 -0.19565175395430129 -0.3512554891803924 0 -0.18480326185087809 -0.36719565018674682 0 -0.18164424501215659 -0.34621916084723381 0 -0.17143624801538501 -0.35840063883308271 0 -0.18480326185087809 -0.36719565018674682 0 -0.18164424501215659 -0.34621916084723381 0 -0.18164424501215659 -0.34621916084723381 0 -0.17848522817343529 -0.32524267150772068 0 -0.1629610955137164 -0.33076913941787212 0 -0.18164424501215659 -0.34621916084723381 0 -0.17848522817343529 -0.32524267150772068 0 -0.18164424501215659 -0.34621916084723381 0 -0.18737083868624629 -0.33075534874643497 0 -0.17848522817343529 -0.32524267150772068 0 -0.17532621133471249 -0.30426618216820789 0 -0.17848522817343529 -0.32524267150772068 0 -0.17532621133471249 -0.30426618216820789 0 -0.1789711567900161 -0.3101302037755338 0 -0.17848522817343529 -0.32524267150772068 0 -0.17532621133471249 -0.30426618216820789 0 -0.17848522817343529 -0.32524267150772068 0 -0.16582550601247259 -0.31644195918285489 0 -0.1943588054861482 -0.32297640251143073 0 -0.1789711567900161 -0.3101302037755338 0 -0.18479650728396149 -0.32227615663527998 0 -0.1789711567900161 -0.3101302037755338 0 -0.18479650728396149 -0.32227615663527998 0 -0.17848522817343529 -0.32524267150772068 0 -0.1943588054861482 -0.32297640251143073 0 -0.1789711567900161 -0.3101302037755338 0 -0.18737083868624629 -0.33075534874643497 0 -0.18479650728396149 -0.32227615663527998 0 -0.17848522817343529 -0.32524267150772068 0 -0.17848522817343529 -0.32524267150772068 0 -0.16582550601247259 -0.31644195918285489 0 -0.1629610955137164 -0.33076913941787212 0 -0.16582550601247259 -0.31644195918285489 0 -0.1629610955137164 -0.33076913941787212 0 -0.15261731536399281 -0.31699983390472031 0 -0.15973767967650701 -0.30493196891575292 0 -0.16582550601247259 -0.31644195918285489 0 -0.15261731536399281 -0.31699983390472031 0 -0.1580141783998408 -0.34710035810185619 0 -0.18164424501215659 -0.34621916084723381 0 -0.1629610955137164 -0.33076913941787212 0 -0.1580141783998408 -0.34710035810185619 0 -0.1629610955137164 -0.33076913941787212 0 -0.14559484309128301 -0.3331209990743299 0 -0.14559484309128301 -0.3331209990743299 0 -0.15261731536399281 -0.31699983390472031 0 -0.1327552185807534 -0.31482398186879779 0 -0.1629610955137164 -0.33076913941787212 0 -0.14559484309128301 -0.3331209990743299 0 -0.15261731536399281 -0.31699983390472031 0 -0.14559484309128301 -0.3331209990743299 0 -0.1327552185807534 -0.31482398186879779 0 -0.12678352480283511 -0.3369129194106073 0 -0.14559484309128301 -0.3331209990743299 0 -0.12678352480283511 -0.3369129194106073 0 -0.14043772588655989 -0.35211976174212622 0 -0.12678352480283511 -0.3369129194106073 0 -0.14043772588655989 -0.35211976174212622 0 -0.1203130985899742 -0.35955571918490481 0 -0.1580141783998408 -0.34710035810185619 0 -0.14043772588655989 -0.35211976174212622 0 -0.15489216358121211 -0.36256913283011211 0 -0.1580141783998408 -0.34710035810185619 0 -0.14559484309128301 -0.3331209990743299 0 -0.14043772588655989 -0.35211976174212622 0 -0.14043772588655989 -0.35211976174212622 0 -0.15489216358121211 -0.36256913283011211 0 -0.13959568407155781 -0.37291875636350952 0 -0.15951650330528561 -0.37856285477961621 0 -0.15489216358121211 -0.36256913283011211 0 -0.13959568407155781 -0.37291875636350952 0 -0.12625141541498519 -0.38197991289387551 0 -0.13959568407155781 -0.37291875636350952 0 -0.1203130985899742 -0.35955571918490481 0 -0.14043772588655989 -0.35211976174212622 0 -0.13959568407155781 -0.37291875636350952 0 -0.1203130985899742 -0.35955571918490481 0 -0.1203130985899742 -0.35955571918490481 0 -0.11384267237711319 -0.38219851895920232 0 -0.1203130985899742 -0.35955571918490481 0 -0.10849363524981311 -0.36442991456039969 0 -0.11384267237711319 -0.38219851895920232 0 -0.12625141541498519 -0.38197991289387551 0 -0.1203130985899742 -0.35955571918490481 0 -0.11384267237711319 -0.38219851895920232 0 -0.10849363524981311 -0.36442991456039969 0 -0.096157591159299352 -0.35547454281719221 0 -0.10176491866177829 -0.38015793077534599 0 -0.096157591159299352 -0.35547454281719221 0 -0.10176491866177829 -0.38015793077534599 0 -0.096157591159299352 -0.35547454281719221 0 -0.10176491866177829 -0.38015793077534599 0 -0.085276019388031976 -0.37619188405436782 0 -0.096157591159299352 -0.35547454281719221 0 -0.10964553082547281 -0.34513317088572909 0 -0.090550263656820479 -0.33079115485903843 0 -0.10849363524981311 -0.36442991456039969 0 -0.096157591159299352 -0.35547454281719221 0 -0.10964553082547281 -0.34513317088572909 0 -0.1203130985899742 -0.35955571918490481 0 -0.10849363524981311 -0.36442991456039969 0 -0.10964553082547281 -0.34513317088572909 0 -0.12678352480283511 -0.3369129194106073 0 -0.1203130985899742 -0.35955571918490481 0 -0.10964553082547281 -0.34513317088572909 0 -0.12678352480283511 -0.3369129194106073 0 -0.1203130985899742 -0.35955571918490481 0 -0.12678352480283511 -0.3369129194106073 0 -0.10964553082547281 -0.34513317088572909 0 -0.1112875311940303 -0.32576775904759792 0 -0.1327552185807534 -0.31482398186879779 0 -0.12678352480283511 -0.3369129194106073 0 -0.1112875311940303 -0.32576775904759792 0 -0.1327552185807534 -0.31482398186879779 0 -0.1112875311940303 -0.32576775904759792 0 -0.11567190875339491 -0.3081878681979589 0 -0.1112875311940303 -0.32576775904759792 0 -0.1011365257202933 -0.31403431577096802 0 -0.11567190875339491 -0.3081878681979589 0 -0.1112875311940303 -0.32576775904759792 0 -0.1011365257202933 -0.31403431577096802 0 -0.090550263656820479 -0.33079115485903843 0 -0.10964553082547281 -0.34513317088572909 0 -0.1112875311940303 -0.32576775904759792 0 -0.090550263656820479 -0.33079115485903843 0 -0.096157591159299352 -0.35547454281719221 0 -0.090550263656820479 -0.33079115485903843 0 -0.096157591159299352 -0.35547454281719221 0 -0.090550263656820479 -0.33079115485903843 0 -0.073144777225565616 -0.33606175945158517 0 -0.090550263656820479 -0.33079115485903843 0 -0.084942936154341619 -0.30610776690088481 0 -0.090550263656820479 -0.33079115485903843 0 -0.073144777225565616 -0.33606175945158517 0 -0.084942936154341619 -0.30610776690088481 0 -0.1011365257202933 -0.31403431577096802 0 -0.090550263656820479 -0.33079115485903843 0 -0.084942936154341619 -0.30610776690088481 0 -0.073144777225565616 -0.33606175945158517 0 -0.084942936154341619 -0.30610776690088481 0 -0.060613113796085999 -0.32288269869712272 0 -0.073144777225565616 -0.33606175945158517 0 -0.076755031766953086 -0.35884624094615858 0 -0.063306301319701316 -0.35299520754669739 0 -0.076755031766953086 -0.35884624094615858 0 -0.063306301319701316 -0.35299520754669739 0 -0.065890469742167113 -0.37350781086095058 0 -0.076755031766953086 -0.35884624094615858 0 -0.065890469742167113 -0.37350781086095058 0 -0.085276019388031976 -0.37619188405436782 0 -0.096157591159299352 -0.35547454281719221 0 -0.076755031766953086 -0.35884624094615858 0 -0.085276019388031976 -0.37619188405436782 0 -0.096157591159299352 -0.35547454281719221 0 -0.073144777225565616 -0.33606175945158517 0 -0.076755031766953086 -0.35884624094615858 0 -0.097628444613881649 -0.25834262822693399 0 -0.1173011125765811 -0.2721428964285707 0 -0.097628444613881649 -0.25834262822693399 0 -0.1187556211832122 -0.25814451816493872 0 -0.1098930818979398 -0.24798588601512411 0 -0.13218950310710981 -0.25272660122947088 0 -0.1187556211832122 -0.25814451816493872 0 -0.1098930818979398 -0.24798588601512411 0 -0.097628444613881649 -0.25834262822693399 0 -0.1187556211832122 -0.25814451816493872 0 -0.1173011125765811 -0.2721428964285707 0 -0.13218950310710981 -0.25272660122947088 0 -0.1098930818979398 -0.24798588601512411 0 -0.12600056203783161 -0.26301541000095829 0 -0.1187556211832122 -0.25814451816493872 0 -0.1173011125765811 -0.2721428964285707 0 -0.097628444613881649 -0.25834262822693399 0 -0.1173011125765811 -0.2721428964285707 0 -0.090762408808148426 -0.27102181932101072 0 -0.1173011125765811 -0.2721428964285707 0 -0.096655829275762523 -0.28444542957314378 0 -0.090762408808148426 -0.27102181932101072 0 -0.096655829275762523 -0.28444542957314378 0 -0.10322998884287909 -0.29931702984935987 0 -0.084942936154341619 -0.30610776690088481 0 -0.096655829275762523 -0.28444542957314378 0 -0.11725087491461519 -0.29108504565108578 0 -0.10322998884287909 -0.29931702984935987 0 -0.13697378053928061 -0.28594316463020741 0 -0.1173011125765811 -0.2721428964285707 0 -0.11725087491461519 -0.29108504565108578 0 -0.1173011125765811 -0.2721428964285707 0 -0.096655829275762523 -0.28444542957314378 0 -0.11725087491461519 -0.29108504565108578 0 -0.11725087491461519 -0.29108504565108578 0 -0.11567190875339491 -0.3081878681979589 0 -0.10322998884287909 -0.29931702984935987 0 -0.1304175251842298 -0.30012492429455973 0 -0.11725087491461519 -0.29108504565108578 0 -0.11567190875339491 -0.3081878681979589 0 -0.1011365257202933 -0.31403431577096802 0 -0.10322998884287909 -0.29931702984935987 0 -0.084942936154341619 -0.30610776690088481 0 -0.1011365257202933 -0.31403431577096802 0 -0.11567190875339491 -0.3081878681979589 0 -0.10322998884287909 -0.29931702984935987 0 -0.084942936154341619 -0.30610776690088481 0 -0.066237696895848033 -0.30175990202967712 0 -0.078368201618682937 -0.28822753231137022 0 -0.084942936154341619 -0.30610776690088481 0 -0.066237696895848033 -0.30175990202967712 0 -0.060613113796085999 -0.32288269869712272 0 -0.066237696895848033 -0.30175990202967712 0 -0.078368201618682937 -0.28822753231137022 0 -0.057136779716869042 -0.28712205926022771 0 -0.078368201618682937 -0.28822753231137022 0 -0.072744725061100565 -0.27289296274949931 0 -0.057136779716869042 -0.28712205926022771 0 -0.096655829275762523 -0.28444542957314378 0 -0.084942936154341619 -0.30610776690088481 0 -0.078368201618682937 -0.28822753231137022 0 -0.096655829275762523 -0.28444542957314378 0 -0.078368201618682937 -0.28822753231137022 0 -0.090762408808148426 -0.27102181932101072 0 -0.078368201618682937 -0.28822753231137022 0 -0.090762408808148426 -0.27102181932101072 0 -0.072744725061100565 -0.27289296274949931 0 -0.090762408808148426 -0.27102181932101072 0 -0.072744725061100565 -0.27289296274949931 0 -0.081281336266817772 -0.26097832242812891 0 -0.072744725061100565 -0.27289296274949931 0 -0.067161912638977472 -0.25903173736147111 0 -0.055745381016590281 -0.2682223094504298 0 -0.072744725061100565 -0.27289296274949931 0 -0.067161912638977472 -0.25903173736147111 0 -0.081281336266817772 -0.26097832242812891 0 -0.067161912638977472 -0.25903173736147111 0 -0.081281336266817772 -0.26097832242812891 0 -0.077955776651182085 -0.24454236002529731 0 -0.067161912638977472 -0.25903173736147111 0 -0.056939497423126581 -0.24878681181634871 0 -0.077955776651182085 -0.24454236002529731 0 -0.097628444613881649 -0.25834262822693399 0 -0.081281336266817772 -0.26097832242812891 0 -0.077955776651182085 -0.24454236002529731 0 -0.097628444613881649 -0.25834262822693399 0 -0.090762408808148426 -0.27102181932101072 0 -0.081281336266817772 -0.26097832242812891 0 -0.097628444613881649 -0.25834262822693399 0 -0.077955776651182085 -0.24454236002529731 0 -0.025857267464119819 -0.25506418495113531 0 -0.050191684441297867 -0.2485850187836515 0 -0.034199021844566052 -0.25740496373097072 0 -0.056939497423126581 -0.24878681181634871 0 -0.034199021844566052 -0.25740496373097072 0 -0.041398382443623198 -0.25192549838374201 0 -0.056939497423126581 -0.24878681181634871 0 -0.041398382443623198 -0.25192549838374201 0 -0.025857267464119819 -0.25506418495113531 0 -0.050191684441297867 -0.2485850187836515 0 -0.034199021844566052 -0.25740496373097072 0 -0.048255079716108998 -0.25800015923011232 0 -0.056939497423126581 -0.24878681181634871 0 -0.034199021844566052 -0.25740496373097072 0 -0.041398382443623198 -0.25192549838374201 0 -0.025857267464119819 -0.25506418495113531 0 -0.041398382443623198 -0.25192549838374201 0 -0.025857267464119819 -0.25506418495113531 0 -0.034199021844566052 -0.25740496373097072 0 -0.037307574571523318 -0.26201401924185519 0 -0.024854767991187229 -0.26705994663832661 0 -0.037307574571523318 -0.26201401924185519 0 -0.048255079716108998 -0.25800015923011232 0 -0.046606779304586107 -0.26584835010199509 0 -0.034199021844566052 -0.25740496373097072 0 -0.037307574571523318 -0.26201401924185519 0 -0.048255079716108998 -0.25800015923011232 0 -0.05702546769870083 -0.25851025446459042 0 -0.048255079716108998 -0.25800015923011232 0 -0.056939497423126581 -0.24878681181634871 0 -0.041398382443623198 -0.25192549838374201 0 -0.056939497423126581 -0.24878681181634871 0 -0.067161912638977472 -0.25903173736147111 0 -0.05702546769870083 -0.25851025446459042 0 -0.056939497423126581 -0.24878681181634871 0 -0.067161912638977472 -0.25903173736147111 0 -0.05702546769870083 -0.25851025446459042 0 -0.055745381016590281 -0.2682223094504298 0 -0.05702546769870083 -0.25851025446459042 0 -0.048255079716108998 -0.25800015923011232 0 -0.055745381016590281 -0.2682223094504298 0 -0.048255079716108998 -0.25800015923011232 0 -0.055745381016590281 -0.2682223094504298 0 -0.046606779304586107 -0.26584835010199509 0 -0.055745381016590281 -0.2682223094504298 0 -0.045119081914121867 -0.27515691248558288 0 -0.046606779304586107 -0.26584835010199509 0 -0.055745381016590281 -0.2682223094504298 0 -0.045119081914121867 -0.27515691248558288 0 -0.057136779716869042 -0.28712205926022771 0 -0.072744725061100565 -0.27289296274949931 0 -0.055745381016590281 -0.2682223094504298 0 -0.057136779716869042 -0.28712205926022771 0 -0.037307574571523318 -0.26201401924185519 0 -0.034478529498429812 -0.28951379058442123 0 -0.037307574571523318 -0.26201401924185519 0 -0.034478529498429812 -0.28951379058442123 0 -0.024854767991187229 -0.26705994663832661 0 -0.037307574571523318 -0.26201401924185519 0 -0.045119081914121867 -0.27515691248558288 0 -0.034478529498429812 -0.28951379058442123 0 -0.037307574571523318 -0.26201401924185519 0 -0.045119081914121867 -0.27515691248558288 0 -0.046606779304586107 -0.26584835010199509 0 -0.045119081914121867 -0.27515691248558288 0 -0.034478529498429812 -0.28951379058442123 0 -0.057136779716869042 -0.28712205926022771 0 -0.034478529498429812 -0.28951379058442123 0 -0.057136779716869042 -0.28712205926022771 0 -0.05012745319326059 -0.30445945297878008 0 -0.066237696895848033 -0.30175990202967712 0 -0.05012745319326059 -0.30445945297878008 0 -0.060613113796085999 -0.32288269869712272 0 -0.066237696895848033 -0.30175990202967712 0 -0.057136779716869042 -0.28712205926022771 0 -0.05012745319326059 -0.30445945297878008 0 -0.034478529498429812 -0.28951379058442123 0 -0.05012745319326059 -0.30445945297878008 0 -0.031649484425336299 -0.31701356192698721 0 -0.034478529498429812 -0.28951379058442123 0 -0.031649484425336299 -0.31701356192698721 0 -0.034478529498429812 -0.28951379058442123 0 -0.020284114256294641 -0.29759304008048471 0 -0.031649484425336299 -0.31701356192698721 0 -0.020284114256294641 -0.29759304008048471 0 -0.01007927323019326 -0.3103345258507364 0 -0.031649484425336299 -0.31701356192698721 0 -0.020284114256294641 -0.29759304008048471 0 -0.01007927323019326 -0.3103345258507364 0 -0.0080748459131490501 -0.2914060437848453 0 -0.01007927323019326 -0.3103345258507364 0 -0.0080748459131490501 -0.2914060437848453 0 0.0017563221397047381 -0.2997067901486577 0 -0.020284114256294641 -0.29759304008048471 0 -0.0080748459131490501 -0.2914060437848453 0 -0.017138438214364771 -0.27969727825543328 0 -0.0080748459131490501 -0.2914060437848453 0 -0.002848760243290064 -0.27761611820401882 0 0.0066437179820165657 -0.2861171845936395 0 -0.0080748459131490501 -0.2914060437848453 0 -0.017138438214364771 -0.27969727825543328 0 -0.002848760243290064 -0.27761611820401882 0 -0.034478529498429812 -0.28951379058442123 0 -0.020284114256294641 -0.29759304008048471 0 -0.017138438214364771 -0.27969727825543328 0 -0.034478529498429812 -0.28951379058442123 0 -0.024854767991187229 -0.26705994663832661 0 -0.017138438214364771 -0.27969727825543328 0 -0.024854767991187229 -0.26705994663832661 0 -0.01588915841142927 -0.27169793716392882 0 -0.01145854626600548 -0.26602311564559261 0 -0.024854767991187229 -0.26705994663832661 0 -0.01588915841142927 -0.27169793716392882 0 -0.017138438214364771 -0.27969727825543328 0 -0.017138438214364771 -0.27969727825543328 0 -0.011833725783772399 -0.27375861231724341 0 -0.002848760243290064 -0.27761611820401882 0 -0.01145854626600548 -0.26602311564559261 0 0.01128192931255503 -0.27464126756021451 0 -0.002848760243290064 -0.27761611820401882 0 -0.01145854626600548 -0.26602311564559261 0 0.01128192931255503 -0.27464126756021451 0 -0.01588915841142927 -0.27169793716392882 0 -0.017138438214364771 -0.27969727825543328 0 -0.011833725783772399 -0.27375861231724341 0 -0.011833725783772399 -0.27375861231724341 0 -0.002848760243290064 -0.27761611820401882 0 -0.01145854626600548 -0.26602311564559261 0 -0.01588915841142927 -0.27169793716392882 0 -0.011833725783772399 -0.27375861231724341 0 -0.01145854626600548 -0.26602311564559261 0 -0.01269776775011346 -0.25850600500130039 0 -0.0051360078472848583 -0.25701396995817721 0 0.0057158633005241696 -0.26337829885565528 0 -0.01145854626600548 -0.26602311564559261 0 -0.01269776775011346 -0.25850600500130039 0 0.0057158633005241696 -0.26337829885565528 0 -0.01269776775011346 -0.25850600500130039 0 0.0057158633005241696 -0.26337829885565528 0 -0.0009620894167222515 -0.25496392916579452 0 -0.0051360078472848583 -0.25701396995817721 0 0.0057158633005241696 -0.26337829885565528 0 -0.0071971320314794382 -0.2528457057960789 0 -0.01082738352359053 -0.24876902592697839 0 -0.0029313858115674811 -0.24854412401401971 0 -0.0009620894167222515 -0.25496392916579452 0 -0.0071971320314794382 -0.2528457057960789 0 -0.0029313858115674811 -0.24854412401401971 0 -0.0009620894167222515 -0.25496392916579452 0 -0.0051360078472848583 -0.25701396995817721 0 -0.0071971320314794382 -0.2528457057960789 0 -0.0051360078472848583 -0.25701396995817721 0 -0.0071971320314794382 -0.2528457057960789 0 -0.0094143843739788544 -0.25459574361389747 0 -0.0071971320314794382 -0.2528457057960789 0 -0.0094143843739788544 -0.25459574361389747 0 -0.01082738352359053 -0.24876902592697839 0 -0.01269776775011346 -0.25850600500130039 0 -0.0094143843739788544 -0.25459574361389747 0 -0.01082738352359053 -0.24876902592697839 0 -0.01269776775011346 -0.25850600500130039 0 -0.0051360078472848583 -0.25701396995817721 0 -0.0094143843739788544 -0.25459574361389747 0 -0.01269776775011346 -0.25850600500130039 0 -0.025857267464119819 -0.25506418495113531 0 -0.034199021844566052 -0.25740496373097072 0 -0.01145854626600548 -0.26602311564559261 0 -0.025857267464119819 -0.25506418495113531 0 -0.01269776775011346 -0.25850600500130039 0 -0.025857267464119819 -0.25506418495113531 0 -0.02368513365757598 -0.23851275990414511 0 -0.034199021844566052 -0.25740496373097072 0 -0.024854767991187229 -0.26705994663832661 0 -0.01145854626600548 -0.26602311564559261 0 -0.034199021844566052 -0.25740496373097072 0 -0.01145854626600548 -0.26602311564559261 0 -0.01145854626600548 -0.26602311564559261 0 -0.01269776775011346 -0.25850600500130039 0 -0.025857267464119819 -0.25506418495113531 0 -0.046940286889098168 -0.35955036210978841 0 -0.050269733973634309 -0.3392354021108881 0 -0.02882043935224279 -0.34451333326955308 0 -0.046940286889098168 -0.35955036210978841 0 -0.02882043935224279 -0.34451333326955308 0 -0.026419717968229769 -0.36867473508972981 0 -0.046940286889098168 -0.35955036210978841 0 -0.026419717968229769 -0.36867473508972981 0 -0.046935058978613817 -0.3783756837809118 0 -0.065890469742167113 -0.37350781086095058 0 -0.046940286889098168 -0.35955036210978841 0 -0.046935058978613817 -0.3783756837809118 0 -0.063306301319701316 -0.35299520754669739 0 -0.065890469742167113 -0.37350781086095058 0 -0.046940286889098168 -0.35955036210978841 0 -0.063306301319701316 -0.35299520754669739 0 -0.046940286889098168 -0.35955036210978841 0 -0.050269733973634309 -0.3392354021108881 0 -0.073144777225565616 -0.33606175945158517 0 -0.063306301319701316 -0.35299520754669739 0 -0.050269733973634309 -0.3392354021108881 0 -0.073144777225565616 -0.33606175945158517 0 -0.050269733973634309 -0.3392354021108881 0 -0.060613113796085999 -0.32288269869712272 0 -0.050269733973634309 -0.3392354021108881 0 -0.060613113796085999 -0.32288269869712272 0 -0.031649484425336299 -0.31701356192698721 0 -0.05012745319326059 -0.30445945297878008 0 -0.060613113796085999 -0.32288269869712272 0 -0.031649484425336299 -0.31701356192698721 0 -0.050269733973634309 -0.3392354021108881 0 -0.031649484425336299 -0.31701356192698721 0 -0.02882043935224279 -0.34451333326955308 0 -0.031649484425336299 -0.31701356192698721 0 -0.02882043935224279 -0.34451333326955308 0 -0.031649484425336299 -0.31701356192698721 0 -0.0038616663111063101 -0.33241552487502413 0 -0.02882043935224279 -0.34451333326955308 0 -0.01007927323019326 -0.3103345258507364 0 -0.031649484425336299 -0.31701356192698721 0 -0.0038616663111063101 -0.33241552487502413 0 -0.01007927323019326 -0.3103345258507364 0 -0.0038616663111063101 -0.33241552487502413 0 0.0094652366165251054 -0.31053241408104548 0 -0.0038616663111063101 -0.33241552487502413 0 -0.0043130761299947744 -0.35643483176966217 0 -0.02882043935224279 -0.34451333326955308 0 -0.0043130761299947744 -0.35643483176966217 0 -0.02882043935224279 -0.34451333326955308 0 -0.026419717968229769 -0.36867473508972981 0 -0.0043130761299947744 -0.35643483176966217 0 -0.026419717968229769 -0.36867473508972981 0 -0.0064694903547723136 -0.38059021958606692 0 -0.0064694903547723136 -0.38059021958606692 0 -0.0080625817845775948 -0.40608726553411861 0 -0.026496984295852101 -0.39226102623928111 0 -0.0064694903547723136 -0.38059021958606692 0 -0.0080625817845775948 -0.40608726553411861 0 0.009690974369139977 -0.39295199195252922 0 -0.0080625817845775948 -0.40608726553411861 0 -0.026496984295852101 -0.39226102623928111 0 -0.029852467816379728 -0.41236872525256307 0 -0.026419717968229769 -0.36867473508972981 0 -0.0064694903547723136 -0.38059021958606692 0 -0.026496984295852101 -0.39226102623928111 0 -0.026496984295852101 -0.39226102623928111 0 -0.048213792324517578 -0.39768762776665978 0 -0.046935058978613817 -0.3783756837809118 0 -0.026419717968229769 -0.36867473508972981 0 -0.026496984295852101 -0.39226102623928111 0 -0.046935058978613817 -0.3783756837809118 0 -0.026496984295852101 -0.39226102623928111 0 -0.048213792324517578 -0.39768762776665978 0 -0.029852467816379728 -0.41236872525256307 0 -0.048213792324517578 -0.39768762776665978 0 -0.065379196062645584 -0.39052657147488062 0 -0.06528413140028641 -0.40548789039177052 0 -0.048213792324517578 -0.39768762776665978 0 -0.046935058978613817 -0.3783756837809118 0 -0.065379196062645584 -0.39052657147488062 0 -0.065890469742167113 -0.37350781086095058 0 -0.046935058978613817 -0.3783756837809118 0 -0.065379196062645584 -0.39052657147488062 0 -0.052630130657334448 -0.42871109396582502 0 -0.036803499053157718 -0.43392585985635063 0 -0.055908543568221357 -0.44353945242809251 0 -0.052630130657334448 -0.42871109396582502 0 -0.048282499091199083 -0.41684649723306111 0 -0.065713266975248902 -0.42040157794015642 0 -0.052630130657334448 -0.42871109396582502 0 -0.055908543568221357 -0.44353945242809251 0 -0.077753046024815156 -0.43509142098737241 0 -0.048282499091199083 -0.41684649723306111 0 -0.06528413140028641 -0.40548789039177052 0 -0.065713266975248902 -0.42040157794015642 0 -0.048213792324517578 -0.39768762776665978 0 -0.048282499091199083 -0.41684649723306111 0 -0.06528413140028641 -0.40548789039177052 0 -0.048213792324517578 -0.39768762776665978 0 -0.048282499091199083 -0.41684649723306111 0 -0.029852467816379728 -0.41236872525256307 0 -0.048282499091199083 -0.41684649723306111 0 -0.036803499053157718 -0.43392585985635063 0 -0.029852467816379728 -0.41236872525256307 0 -0.052630130657334448 -0.42871109396582502 0 -0.048282499091199083 -0.41684649723306111 0 -0.036803499053157718 -0.43392585985635063 0 -0.036803499053157718 -0.43392585985635063 0 -0.01686747062211669 -0.42668809062348251 0 -0.022482277956740859 -0.44034230556013138 0 -0.036803499053157718 -0.43392585985635063 0 -0.01686747062211669 -0.42668809062348251 0 -0.029852467816379728 -0.41236872525256307 0 -0.0080625817845775948 -0.40608726553411861 0 -0.01686747062211669 -0.42668809062348251 0 -0.029852467816379728 -0.41236872525256307 0 -0.0080625817845775948 -0.40608726553411861 0 -0.01686747062211669 -0.42668809062348251 0 0.01224976062295041 -0.42183763890738629 0 -0.01686747062211669 -0.42668809062348251 0 -0.008216644178786571 -0.4466179140804285 0 0.01224976062295041 -0.42183763890738629 0 -0.008216644178786571 -0.4466179140804285 0 -0.0021957942935651631 -0.46571035637089769 0 -0.016151777162071251 -0.46269316979172348 0 -0.0021957942935651631 -0.46571035637089769 0 -0.016151777162071251 -0.46269316979172348 0 -0.01292321871024151 -0.47600360382280887 0 -0.008216644178786571 -0.4466179140804285 0 -0.016151777162071251 -0.46269316979172348 0 -0.028753682251359231 -0.45370767630375852 0 -0.016151777162071251 -0.46269316979172348 0 -0.030722049445265721 -0.46513815794063051 0 -0.025757536927686689 -0.47561542944709773 0 -0.016151777162071251 -0.46269316979172348 0 -0.030722049445265721 -0.46513815794063051 0 -0.028753682251359231 -0.45370767630375852 0 -0.036803499053157718 -0.43392585985635063 0 -0.028753682251359231 -0.45370767630375852 0 -0.022482277956740859 -0.44034230556013138 0 -0.01686747062211669 -0.42668809062348251 0 -0.008216644178786571 -0.4466179140804285 0 -0.022482277956740859 -0.44034230556013138 0 -0.008216644178786571 -0.4466179140804285 0 -0.028753682251359231 -0.45370767630375852 0 -0.022482277956740859 -0.44034230556013138 0 -0.011489863113854141 -0.5 0 -0.010144146689038991 -0.48941639725935437 0 0.012735562036971701 -0.48508522326900949 0 -0.010144146689038991 -0.48941639725935437 0 -0.00065605929082254884 -0.47874224407546379 0 -0.01292321871024151 -0.47600360382280887 0 -0.010144146689038991 -0.48941639725935437 0 -0.01292321871024151 -0.47600360382280887 0 -0.022633997898264431 -0.48384402599231691 0 -0.0021957942935651631 -0.46571035637089769 0 -0.00065605929082254884 -0.47874224407546379 0 -0.01292321871024151 -0.47600360382280887 0 -0.016151777162071251 -0.46269316979172348 0 -0.01292321871024151 -0.47600360382280887 0 -0.025757536927686689 -0.47561542944709773 0 -0.025757536927686689 -0.47561542944709773 0 -0.022633997898264431 -0.48384402599231691 0 -0.032724513000240443 -0.48384135401243772 0 -0.01292321871024151 -0.47600360382280887 0 -0.025757536927686689 -0.47561542944709773 0 -0.022633997898264431 -0.48384402599231691 0 -0.011489863113854141 -0.5 0 -0.010144146689038991 -0.48941639725935437 0 -0.033023855415049652 -0.49374757124969931 0 -0.010144146689038991 -0.48941639725935437 0 -0.022633997898264431 -0.48384402599231691 0 -0.033023855415049652 -0.49374757124969931 0 -0.011489863113854141 -0.5 0 -0.041002190054857779 -0.5 0 -0.033023855415049652 -0.49374757124969931 0 -0.010144146689038991 -0.48941639725935437 0 -0.033023855415049652 -0.49374757124969931 0 -0.022633997898264431 -0.48384402599231691 0 -0.033023855415049652 -0.49374757124969931 0 -0.032724513000240443 -0.48384135401243772 0 -0.041002190054857779 -0.5 0 -0.040644419244316249 -0.48874723383863622 0 -0.055758353525359711 -0.48944453406372251 0 -0.041002190054857779 -0.5 0 -0.033023855415049652 -0.49374757124969931 0 -0.040644419244316249 -0.48874723383863622 0 -0.033023855415049652 -0.49374757124969931 0 -0.040644419244316249 -0.48874723383863622 0 -0.032724513000240443 -0.48384135401243772 0 -0.040644419244316249 -0.48874723383863622 0 -0.040713184226073652 -0.47670270986732172 0 -0.055758353525359711 -0.48944453406372251 0 -0.040644419244316249 -0.48874723383863622 0 -0.040713184226073652 -0.47670270986732172 0 -0.032724513000240443 -0.48384135401243772 0 -0.025757536927686689 -0.47561542944709773 0 -0.040713184226073652 -0.47670270986732172 0 -0.032724513000240443 -0.48384135401243772 0 -0.030722049445265721 -0.46513815794063051 0 -0.025757536927686689 -0.47561542944709773 0 -0.040713184226073652 -0.47670270986732172 0 -0.040713184226073652 -0.47670270986732172 0 -0.05604151524233808 -0.47085547185542692 0 -0.042137987481662489 -0.46199998676314519 0 -0.040713184226073652 -0.47670270986732172 0 -0.05604151524233808 -0.47085547185542692 0 -0.055758353525359711 -0.48944453406372251 0 -0.05604151524233808 -0.47085547185542692 0 -0.055758353525359711 -0.48944453406372251 0 -0.068357021366280857 -0.47830767763467641 0 -0.041002190054857779 -0.5 0 -0.055758353525359711 -0.48944453406372251 0 -0.070514516995861642 -0.5 0 -0.036803499053157718 -0.43392585985635063 0 -0.028753682251359231 -0.45370767630375852 0 -0.042591220718736618 -0.44931976272637059 0 -0.036803499053157718 -0.43392585985635063 0 -0.042591220718736618 -0.44931976272637059 0 -0.055908543568221357 -0.44353945242809251 0 -0.028753682251359231 -0.45370767630375852 0 -0.042591220718736618 -0.44931976272637059 0 -0.042137987481662489 -0.46199998676314519 0 -0.030722049445265721 -0.46513815794063051 0 -0.028753682251359231 -0.45370767630375852 0 -0.042137987481662489 -0.46199998676314519 0 -0.030722049445265721 -0.46513815794063051 0 -0.040713184226073652 -0.47670270986732172 0 -0.042137987481662489 -0.46199998676314519 0 -0.042591220718736618 -0.44931976272637059 0 -0.042137987481662489 -0.46199998676314519 0 -0.054601469153056192 -0.45704509188174619 0 -0.05604151524233808 -0.47085547185542692 0 -0.054601469153056192 -0.45704509188174619 0 -0.071896784036839162 -0.45711427830285839 0 -0.05604151524233808 -0.47085547185542692 0 -0.042137987481662489 -0.46199998676314519 0 -0.054601469153056192 -0.45704509188174619 0 -0.054601469153056192 -0.45704509188174619 0 -0.055908543568221357 -0.44353945242809251 0 -0.071896784036839162 -0.45711427830285839 0 -0.042591220718736618 -0.44931976272637059 0 -0.054601469153056192 -0.45704509188174619 0 -0.055908543568221357 -0.44353945242809251 0 -0.055908543568221357 -0.44353945242809251 0 -0.071896784036839162 -0.45711427830285839 0 -0.077753046024815156 -0.43509142098737241 0 -0.071896784036839162 -0.45711427830285839 0 -0.087573937031005744 -0.47412410395137422 0 -0.093954286744555499 -0.45179652052777369 0 -0.087573937031005744 -0.47412410395137422 0 -0.093954286744555499 -0.45179652052777369 0 -0.071896784036839162 -0.45711427830285839 0 -0.093954286744555499 -0.45179652052777369 0 -0.077753046024815156 -0.43509142098737241 0 -0.093954286744555499 -0.45179652052777369 0 -0.10033463645810529 -0.42946893710417328 0 -0.077753046024815156 -0.43509142098737241 0 -0.055758353525359711 -0.48944453406372251 0 -0.070514516995861642 -0.5 0 -0.068357021366280857 -0.47830767763467641 0 -0.05604151524233808 -0.47085547185542692 0 -0.071896784036839162 -0.45711427830285839 0 -0.068357021366280857 -0.47830767763467641 0 -0.071896784036839162 -0.45711427830285839 0 -0.068357021366280857 -0.47830767763467641 0 -0.087573937031005744 -0.47412410395137422 0 -0.070514516995861642 -0.5 0 -0.068357021366280857 -0.47830767763467641 0 -0.087573937031005744 -0.47412410395137422 0 -0.070514516995861642 -0.5 0 -0.087573937031005744 -0.47412410395137422 0 -0.10002684393686551 -0.5 0 -0.087573937031005744 -0.47412410395137422 0 -0.10002684393686551 -0.5 0 -0.10780494223314389 -0.47765854937150709 0 -0.087573937031005744 -0.47412410395137422 0 -0.10780494223314389 -0.47765854937150709 0 -0.1029954147344513 -0.46359439800738522 0 -0.12605423818426559 -0.48707922202292669 0 -0.10780494223314389 -0.47765854937150709 0 -0.1201929706126502 -0.46127799294672761 0 -0.12605423818426559 -0.48707922202292669 0 -0.1201929706126502 -0.46127799294672761 0 -0.12605423818426559 -0.48707922202292669 0 -0.10002684393686551 -0.5 0 -0.10780494223314389 -0.47765854937150709 0 -0.1295391708778694 -0.5 0 -0.12605423818426559 -0.48707922202292669 0 -0.10002684393686551 -0.5 0 -0.093954286744555499 -0.45179652052777369 0 -0.10033463645810529 -0.42946893710417328 0 -0.10636180231815941 -0.44832292249131772 0 -0.11433170304103479 -0.43547676387052858 0 -0.10033463645810529 -0.42946893710417328 0 -0.10636180231815941 -0.44832292249131772 0 -0.093954286744555499 -0.45179652052777369 0 -0.10033463645810529 -0.42946893710417328 0 -0.087573937031005744 -0.47412410395137422 0 -0.093954286744555499 -0.45179652052777369 0 -0.1029954147344513 -0.46359439800738522 0 -0.10636180231815941 -0.44832292249131772 0 -0.093954286744555499 -0.45179652052777369 0 -0.1029954147344513 -0.46359439800738522 0 -0.10780494223314389 -0.47765854937150709 0 -0.1029954147344513 -0.46359439800738522 0 -0.1201929706126502 -0.46127799294672761 0 -0.10636180231815941 -0.44832292249131772 0 -0.1029954147344513 -0.46359439800738522 0 -0.1201929706126502 -0.46127799294672761 0 -0.13671083813600751 -0.45044361347006462 0 -0.1201929706126502 -0.46127799294672761 0 -0.11433170304103479 -0.43547676387052858 0 -0.10636180231815941 -0.44832292249131772 0 -0.1201929706126502 -0.46127799294672761 0 -0.11433170304103479 -0.43547676387052858 0 -0.13671083813600751 -0.45044361347006462 0 -0.1225906368027144 -0.43005957413219659 0 -0.11433170304103479 -0.43547676387052858 0 -0.1201929706126502 -0.46127799294672761 0 -0.11433170304103479 -0.43547676387052858 0 -0.1225906368027144 -0.43005957413219659 0 -0.11433170304103479 -0.43547676387052858 0 -0.10847043546942051 -0.40967553479432928 0 -0.11433170304103479 -0.43547676387052858 0 -0.10847043546942051 -0.40967553479432928 0 -0.12908399078123631 -0.42243277819987513 0 -0.1225906368027144 -0.43005957413219659 0 -0.12315425937001 -0.41747458531602638 0 -0.11433170304103479 -0.43547676387052858 0 -0.10033463645810529 -0.42946893710417328 0 -0.10847043546942051 -0.40967553479432928 0 -0.10033463645810529 -0.42946893710417328 0 -0.094107383989168333 -0.41562629379671062 0 -0.1067149861716557 -0.40714135368057303 0 -0.10033463645810529 -0.42946893710417328 0 -0.1067149861716557 -0.40714135368057303 0 -0.10847043546942051 -0.40967553479432928 0 -0.10033463645810529 -0.42946893710417328 0 -0.1067149861716557 -0.40714135368057303 0 -0.094107383989168333 -0.41562629379671062 0 -0.1067149861716557 -0.40714135368057303 0 -0.093615658715422545 -0.40476526464288082 0 -0.10847043546942051 -0.40967553479432928 0 -0.1105756132387118 -0.40676785322215941 0 -0.1073722461642546 -0.40484131873350049 0 -0.10847043546942051 -0.40967553479432928 0 -0.1073722461642546 -0.40484131873350049 0 -0.1067149861716557 -0.40714135368057303 0 -0.10847043546942051 -0.40967553479432928 0 -0.1073722461642546 -0.40484131873350049 0 -0.1067149861716557 -0.40714135368057303 0 -0.10847043546942051 -0.40967553479432928 0 -0.1225906368027144 -0.43005957413219659 0 -0.1163272184937543 -0.41351727508190028 0 -0.12315425937001 -0.41747458531602638 0 -0.10847043546942051 -0.40967553479432928 0 -0.1125412123036873 -0.40894162881917728 0 -0.1163272184937543 -0.41351727508190028 0 -0.1125412123036873 -0.40894162881917728 0 -0.1105756132387118 -0.40676785322215941 0 -0.1147915820128618 -0.40580585217832088 0 -0.1225906368027144 -0.43005957413219659 0 -0.10847043546942051 -0.40967553479432928 0 -0.1163272184937543 -0.41351727508190028 0 -0.10847043546942051 -0.40967553479432928 0 -0.1125412123036873 -0.40894162881917728 0 -0.1105756132387118 -0.40676785322215941 0 -0.1225906368027144 -0.43005957413219659 0 -0.10847043546942051 -0.40967553479432928 0 -0.1125412123036873 -0.40894162881917728 0 -0.1163272184937543 -0.41351727508190028 0 -0.1147915820128618 -0.40580585217832088 0 -0.1225700411049412 -0.40994677461386392 0 -0.1219584454402414 -0.40406961642135292 0 -0.1147915820128618 -0.40580585217832088 0 -0.1163272184937543 -0.41351727508190028 0 -0.1225700411049412 -0.40994677461386392 0 -0.1147915820128618 -0.40580585217832088 0 -0.1163272184937543 -0.41351727508190028 0 -0.12315425937001 -0.41747458531602638 0 -0.1225700411049412 -0.40994677461386392 0 -0.1273295258527142 -0.39594401256049883 0 -0.1219584454402414 -0.40406961642135292 0 -0.1190781430676657 -0.39944145851713192 0 -0.11305295545189779 -0.39895005080087959 0 -0.11384267237711319 -0.38219851895920232 0 -0.1073722461642546 -0.40484131873350049 0 -0.1295768038857959 -0.40463739140698729 0 -0.1225700411049412 -0.40994677461386392 0 -0.1219584454402414 -0.40406961642135292 0 -0.1182582065806136 -0.392437760624607 0 -0.11305295545189779 -0.39895005080087959 0 -0.11384267237711319 -0.38219851895920232 0 -0.11384267237711319 -0.38219851895920232 0 -0.1073722461642546 -0.40484131873350049 0 -0.1219584454402414 -0.40406961642135292 0 -0.1190781430676657 -0.39944145851713192 0 -0.1147915820128618 -0.40580585217832088 0 -0.1273295258527142 -0.39594401256049883 0 -0.1190781430676657 -0.39944145851713192 0 -0.1182582065806136 -0.392437760624607 0 -0.1190781430676657 -0.39944145851713192 0 -0.1182582065806136 -0.392437760624607 0 -0.11305295545189779 -0.39895005080087959 0 -0.1105756132387118 -0.40676785322215941 0 -0.1114480992169309 -0.40409126873371493 0 -0.1073722461642546 -0.40484131873350049 0 -0.1105756132387118 -0.40676785322215941 0 -0.1114480992169309 -0.40409126873371493 0 -0.1147915820128618 -0.40580585217832088 0 -0.11305295545189779 -0.39895005080087959 0 -0.1114480992169309 -0.40409126873371493 0 -0.1147915820128618 -0.40580585217832088 0 -0.11305295545189779 -0.39895005080087959 0 -0.1114480992169309 -0.40409126873371493 0 -0.1073722461642546 -0.40484131873350049 0 -0.1190781430676657 -0.39944145851713192 0 -0.11305295545189779 -0.39895005080087959 0 -0.1147915820128618 -0.40580585217832088 0 -0.12625141541498519 -0.38197991289387551 0 -0.1182582065806136 -0.392437760624607 0 -0.11384267237711319 -0.38219851895920232 0 -0.12625141541498519 -0.38197991289387551 0 -0.1273295258527142 -0.39594401256049883 0 -0.1182582065806136 -0.392437760624607 0 -0.11384267237711319 -0.38219851895920232 0 -0.10176491866177829 -0.38015793077534599 0 -0.1073722461642546 -0.40484131873350049 0 -0.10176491866177829 -0.38015793077534599 0 -0.095995502779844255 -0.39166661886747001 0 -0.085276019388031976 -0.37619188405436782 0 -0.10849363524981311 -0.36442991456039969 0 -0.11384267237711319 -0.38219851895920232 0 -0.10176491866177829 -0.38015793077534599 0 -0.10176491866177829 -0.38015793077534599 0 -0.1073722461642546 -0.40484131873350049 0 -0.095995502779844255 -0.39166661886747001 0 -0.10176491866177829 -0.38015793077534599 0 -0.1073722461642546 -0.40484131873350049 0 -0.1067149861716557 -0.40714135368057303 0 -0.1073722461642546 -0.40484131873350049 0 -0.095995502779844255 -0.39166661886747001 0 -0.1067149861716557 -0.40714135368057303 0 -0.1073722461642546 -0.40484131873350049 0 -0.1067149861716557 -0.40714135368057303 0 -0.095995502779844255 -0.39166661886747001 0 -0.1067149861716557 -0.40714135368057303 0 -0.095995502779844255 -0.39166661886747001 0 -0.093615658715422545 -0.40476526464288082 0 -0.093615658715422545 -0.40476526464288082 0 -0.081664681120336771 -0.39582842074610342 0 -0.082451352827770552 -0.41163664718976212 0 -0.095995502779844255 -0.39166661886747001 0 -0.093615658715422545 -0.40476526464288082 0 -0.081664681120336771 -0.39582842074610342 0 -0.095995502779844255 -0.39166661886747001 0 -0.081664681120336771 -0.39582842074610342 0 -0.085276019388031976 -0.37619188405436782 0 -0.081664681120336771 -0.39582842074610342 0 -0.085276019388031976 -0.37619188405436782 0 -0.074552591578295357 -0.38401367178407558 0 -0.095995502779844255 -0.39166661886747001 0 -0.085276019388031976 -0.37619188405436782 0 -0.081664681120336771 -0.39582842074610342 0 -0.065379196062645584 -0.39052657147488062 0 -0.074552591578295357 -0.38401367178407558 0 -0.065890469742167113 -0.37350781086095058 0 -0.085276019388031976 -0.37619188405436782 0 -0.074552591578295357 -0.38401367178407558 0 -0.065890469742167113 -0.37350781086095058 0 -0.065379196062645584 -0.39052657147488062 0 -0.074552591578295357 -0.38401367178407558 0 -0.081664681120336771 -0.39582842074610342 0 -0.06528413140028641 -0.40548789039177052 0 -0.082451352827770552 -0.41163664718976212 0 -0.081664681120336771 -0.39582842074610342 0 -0.065379196062645584 -0.39052657147488062 0 -0.06528413140028641 -0.40548789039177052 0 -0.065713266975248902 -0.42040157794015642 0 -0.085028608260126398 -0.42320905853578622 0 -0.082451352827770552 -0.41163664718976212 0 -0.06528413140028641 -0.40548789039177052 0 -0.065713266975248902 -0.42040157794015642 0 -0.082451352827770552 -0.41163664718976212 0 -0.065713266975248902 -0.42040157794015642 0 -0.077753046024815156 -0.43509142098737241 0 -0.085028608260126398 -0.42320905853578622 0 -0.052630130657334448 -0.42871109396582502 0 -0.065713266975248902 -0.42040157794015642 0 -0.077753046024815156 -0.43509142098737241 0 -0.10033463645810529 -0.42946893710417328 0 -0.077753046024815156 -0.43509142098737241 0 -0.085028608260126398 -0.42320905853578622 0 -0.10033463645810529 -0.42946893710417328 0 -0.094107383989168333 -0.41562629379671062 0 -0.085028608260126398 -0.42320905853578622 0 -0.094107383989168333 -0.41562629379671062 0 -0.085028608260126398 -0.42320905853578622 0 -0.082451352827770552 -0.41163664718976212 0 -0.094107383989168333 -0.41562629379671062 0 -0.093615658715422545 -0.40476526464288082 0 -0.082451352827770552 -0.41163664718976212 0 -0.080832567710134945 -0.085265223789800185 0 -0.09573268077664969 -0.090624673380050064 0 -0.094924188455715333 -0.074372309221374736 0 -0.080832567710134945 -0.085265223789800185 0 -0.0944050220014645 -0.1050702242089397 0 -0.09573268077664969 -0.090624673380050064 0 -0.094924188455715333 -0.074372309221374736 0 -0.077079431972146645 -0.050953682142663811 0 -0.080832567710134945 -0.085265223789800185 0 -0.077460787511610923 -0.070469280456870842 0 -0.094924188455715333 -0.074372309221374736 0 -0.077460787511610923 -0.070469280456870842 0 -0.094924188455715333 -0.074372309221374736 0 -0.078535685693175539 -0.061573663464548622 0 -0.080832567710134945 -0.085265223789800185 0 -0.072736864716213656 -0.076885636419884412 0 -0.077460787511610923 -0.070469280456870842 0 -0.072736864716213656 -0.076885636419884412 0 -0.077460787511610923 -0.070469280456870842 0 -0.067174029152377468 -0.071022972744677337 0 -0.077460787511610923 -0.070469280456870842 0 -0.067174029152377468 -0.071022972744677337 0 -0.070308423821052124 -0.061023041189074957 0 -0.077460787511610923 -0.070469280456870842 0 -0.078535685693175539 -0.061573663464548622 0 -0.070308423821052124 -0.061023041189074957 0 -0.067174029152377468 -0.071022972744677337 0 -0.070308423821052124 -0.061023041189074957 0 -0.060830035872249492 -0.064558057335980773 0 -0.072736864716213656 -0.076885636419884412 0 -0.067174029152377468 -0.071022972744677337 0 -0.063732237529271596 -0.080733089011810297 0 -0.067174029152377468 -0.071022972744677337 0 -0.063732237529271596 -0.080733089011810297 0 -0.058000192015007383 -0.073011667883306972 0 -0.080832567710134945 -0.085265223789800185 0 -0.063732237529271596 -0.080733089011810297 0 -0.066023591375222151 -0.09957098179305135 0 -0.080832567710134945 -0.085265223789800185 0 -0.072736864716213656 -0.076885636419884412 0 -0.063732237529271596 -0.080733089011810297 0 -0.066023591375222151 -0.09957098179305135 0 -0.069466171350113709 -0.1135628440840601 0 -0.0944050220014645 -0.1050702242089397 0 -0.066023591375222151 -0.09957098179305135 0 -0.069466171350113709 -0.1135628440840601 0 -0.054384952187449757 -0.110609208962567 0 -0.077516787342341589 -0.1242022911324857 0 -0.069466171350113709 -0.1135628440840601 0 -0.059238207921678762 -0.13024384051707169 0 -0.077516787342341589 -0.1242022911324857 0 -0.093262550211769629 -0.1231040070079162 0 -0.0944050220014645 -0.1050702242089397 0 -0.077516787342341589 -0.1242022911324857 0 -0.069466171350113709 -0.1135628440840601 0 -0.0944050220014645 -0.1050702242089397 0 -0.066023591375222151 -0.09957098179305135 0 -0.0944050220014645 -0.1050702242089397 0 -0.080832567710134945 -0.085265223789800185 0 -0.066023591375222151 -0.09957098179305135 0 -0.0944050220014645 -0.1050702242089397 0 -0.0944050220014645 -0.1050702242089397 0 -0.1071147179002416 -0.1244919901550422 0 -0.11276894493928399 -0.097790936300085646 0 -0.0944050220014645 -0.1050702242089397 0 -0.11276894493928399 -0.097790936300085646 0 -0.09573268077664969 -0.090624673380050064 0 -0.093262550211769629 -0.1231040070079162 0 -0.0944050220014645 -0.1050702242089397 0 -0.1071147179002416 -0.1244919901550422 0 -0.1071147179002416 -0.1244919901550422 0 -0.11276894493928399 -0.097790936300085646 0 -0.1306137014228527 -0.1212095633787966 0 -0.11276894493928399 -0.097790936300085646 0 -0.1306137014228527 -0.1212095633787966 0 -0.112702195828283 -0.076339248342475546 0 -0.13438499311011279 -0.096174695905308166 0 -0.11276894493928399 -0.097790936300085646 0 -0.112702195828283 -0.076339248342475546 0 -0.13438499311011279 -0.096174695905308166 0 -0.11276894493928399 -0.097790936300085646 0 -0.094924188455715333 -0.074372309221374736 0 -0.112702195828283 -0.076339248342475546 0 -0.11276894493928399 -0.097790936300085646 0 -0.094924188455715333 -0.074372309221374736 0 -0.11276894493928399 -0.097790936300085646 0 -0.09573268077664969 -0.090624673380050064 0 -0.094924188455715333 -0.074372309221374736 0 -0.094924188455715333 -0.074372309221374736 0 -0.1026030192468113 -0.064894788769428779 0 -0.112702195828283 -0.076339248342475546 0 -0.094924188455715333 -0.074372309221374736 0 -0.1026030192468113 -0.064894788769428779 0 -0.090333769324138391 -0.059362086744932152 0 -0.1026030192468113 -0.064894788769428779 0 -0.112702195828283 -0.076339248342475546 0 -0.1158705629695205 -0.060236298698018297 0 -0.112702195828283 -0.076339248342475546 0 -0.1158705629695205 -0.060236298698018297 0 -0.13497135686491851 -0.078315161523928284 0 -0.1158705629695205 -0.060236298698018297 0 -0.1150956899200111 -0.045830426672337207 0 -0.1070798181065768 -0.041876824406217303 0 -0.1158705629695205 -0.060236298698018297 0 -0.1150956899200111 -0.045830426672337207 0 -0.12809376798702951 -0.047905065599393698 0 -0.1163329610324388 -0.034474533447810513 0 -0.12530131535501859 -0.034952786400489197 0 -0.12809376798702951 -0.047905065599393698 0 -0.11023593420079281 -0.033339602888773932 0 -0.1150956899200111 -0.045830426672337207 0 -0.12809376798702951 -0.047905065599393698 0 -0.11023593420079281 -0.033339602888773932 0 -0.1163329610324388 -0.034474533447810513 0 -0.12809376798702951 -0.047905065599393698 0 -0.11023593420079281 -0.033339602888773932 0 -0.12809376798702951 -0.047905065599393698 0 -0.1163329610324388 -0.034474533447810513 0 -0.1221370268088495 -0.025998648103035 0 -0.12530131535501859 -0.034952786400489197 0 -0.11023593420079281 -0.033339602888773932 0 -0.1150956899200111 -0.045830426672337207 0 -0.1070798181065768 -0.041876824406217303 0 -0.11023593420079281 -0.033339602888773932 0 -0.1163329610324388 -0.034474533447810513 0 -0.097427134368436918 -0.027820357899848831 0 -0.11023593420079281 -0.033339602888773932 0 -0.1070798181065768 -0.041876824406217303 0 -0.097427134368436918 -0.027820357899848831 0 -0.1070798181065768 -0.041876824406217303 0 -0.096769769074122519 -0.04215743587210824 0 -0.097427134368436918 -0.027820357899848831 0 -0.1158705629695205 -0.060236298698018297 0 -0.1070798181065768 -0.041876824406217303 0 -0.096769769074122519 -0.04215743587210824 0 -0.1026030192468113 -0.064894788769428779 0 -0.1158705629695205 -0.060236298698018297 0 -0.099264754381345577 -0.055060356505970513 0 -0.1158705629695205 -0.060236298698018297 0 -0.096769769074122519 -0.04215743587210824 0 -0.099264754381345577 -0.055060356505970513 0 -0.096769769074122519 -0.04215743587210824 0 -0.099264754381345577 -0.055060356505970513 0 -0.090746651292135133 -0.048651172445365112 0 -0.1158705629695205 -0.060236298698018297 0 -0.096769769074122519 -0.04215743587210824 0 -0.1026030192468113 -0.064894788769428779 0 -0.099264754381345577 -0.055060356505970513 0 -0.090333769324138391 -0.059362086744932152 0 -0.1029392013539359 -0.0085751277431150782 0 -0.12735709500343681 0.004015926865657337 0 -0.1236693299605585 -0.0137973575501921 0 -0.1110604598185659 -0.0207882196779367 0 -0.1029392013539359 -0.0085751277431150782 0 -0.1236693299605585 -0.0137973575501921 0 -0.1029392013539359 -0.0085751277431150782 0 -0.12735709500343681 0.004015926865657337 0 -0.1236693299605585 -0.0137973575501921 0 -0.1110604598185659 -0.0207882196779367 0 -0.1221370268088495 -0.025998648103035 0 -0.1163329610324388 -0.034474533447810513 0 -0.1221370268088495 -0.025998648103035 0 -0.11173939550707281 -0.027270439782157759 0 -0.1110604598185659 -0.0207882196779367 0 -0.1221370268088495 -0.025998648103035 0 -0.11173939550707281 -0.027270439782157759 0 -0.1163329610324388 -0.034474533447810513 0 -0.097427134368436918 -0.027820357899848831 0 -0.1110604598185659 -0.0207882196779367 0 -0.097427134368436918 -0.027820357899848831 0 -0.1029392013539359 -0.0085751277431150782 0 -0.1163329610324388 -0.034474533447810513 0 -0.11173939550707281 -0.027270439782157759 0 -0.097427134368436918 -0.027820357899848831 0 -0.1110604598185659 -0.0207882196779367 0 -0.11173939550707281 -0.027270439782157759 0 -0.097427134368436918 -0.027820357899848831 0 -0.1029392013539359 -0.0085751277431150782 0 -0.086097875964997059 -0.0058870606910941042 0 -0.078521307704434995 -0.021166182351887271 0 -0.1029392013539359 -0.0085751277431150782 0 -0.078521307704434995 -0.021166182351887271 0 -0.1029392013539359 -0.0085751277431150782 0 -0.086097875964997059 -0.0058870606910941042 0 -0.091682611010439896 0.0063963380850077774 0 -0.086097875964997059 -0.0058870606910941042 0 -0.073830544796709738 -0.0078542708917730738 0 -0.078933949510919491 0.00072378658541613432 0 -0.086097875964997059 -0.0058870606910941042 0 -0.078521307704434995 -0.021166182351887271 0 -0.073830544796709738 -0.0078542708917730738 0 -0.097427134368436918 -0.027820357899848831 0 -0.078521307704434995 -0.021166182351887271 0 -0.097427134368436918 -0.027820357899848831 0 -0.078521307704434995 -0.021166182351887271 0 -0.077668975178724509 -0.024078573046198169 0 -0.097427134368436918 -0.027820357899848831 0 -0.1029392013539359 -0.0085751277431150782 0 -0.078521307704434995 -0.021166182351887271 0 -0.078521307704434995 -0.021166182351887271 0 -0.055132092173872667 -0.033226800447327051 0 -0.05822397002114936 -0.01402224463886402 0 -0.078521307704434995 -0.021166182351887271 0 -0.055132092173872667 -0.033226800447327051 0 -0.077668975178724509 -0.024078573046198169 0 -0.075465350998538308 -0.032772608828030472 0 -0.055132092173872667 -0.033226800447327051 0 -0.078521307704434995 -0.021166182351887271 0 -0.077668975178724509 -0.024078573046198169 0 -0.055132092173872667 -0.033226800447327051 0 -0.078521307704434995 -0.021166182351887271 0 -0.05822397002114936 -0.01402224463886402 0 -0.078521307704434995 -0.021166182351887271 0 -0.073830544796709738 -0.0078542708917730738 0 -0.05822397002114936 -0.01402224463886402 0 -0.073830544796709738 -0.0078542708917730738 0 -0.05822397002114936 -0.01402224463886402 0 -0.068462160169621672 0.0025537029525893409 0 -0.073830544796709738 -0.0078542708917730738 0 -0.078933949510919491 0.00072378658541613432 0 -0.068462160169621672 0.0025537029525893409 0 -0.094924188455715333 -0.074372309221374736 0 -0.090333769324138391 -0.059362086744932152 0 -0.077079431972146645 -0.050953682142663811 0 -0.094924188455715333 -0.074372309221374736 0 -0.078535685693175539 -0.061573663464548622 0 -0.077079431972146645 -0.050953682142663811 0 -0.084868245962835154 -0.053326759561897898 0 -0.090333769324138391 -0.059362086744932152 0 -0.077079431972146645 -0.050953682142663811 0 -0.084868245962835154 -0.053326759561897898 0 -0.080876314157704687 -0.04955372347343575 0 -0.082849096915408454 -0.045583035938281863 0 -0.080876314157704687 -0.04955372347343575 0 -0.078708481780428496 -0.048351416250899462 0 -0.082849096915408454 -0.045583035938281863 0 -0.080876314157704687 -0.04955372347343575 0 -0.078708481780428496 -0.048351416250899462 0 -0.077079431972146645 -0.050953682142663811 0 -0.084868245962835154 -0.053326759561897898 0 -0.080876314157704687 -0.04955372347343575 0 -0.077079431972146645 -0.050953682142663811 0 -0.084868245962835154 -0.053326759561897898 0 -0.090746651292135133 -0.048651172445365112 0 -0.082849096915408454 -0.045583035938281863 0 -0.084868245962835154 -0.053326759561897898 0 -0.090333769324138391 -0.059362086744932152 0 -0.090746651292135133 -0.048651172445365112 0 -0.099264754381345577 -0.055060356505970513 0 -0.090333769324138391 -0.059362086744932152 0 -0.090746651292135133 -0.048651172445365112 0 -0.096769769074122519 -0.04215743587210824 0 -0.088481073739883592 -0.043344290748051233 0 -0.083558777677868248 -0.036985518736449702 0 -0.096769769074122519 -0.04215743587210824 0 -0.097427134368436918 -0.027820357899848831 0 -0.077668975178724509 -0.024078573046198169 0 -0.096769769074122519 -0.04215743587210824 0 -0.077668975178724509 -0.024078573046198169 0 -0.083558777677868248 -0.036985518736449702 0 -0.096769769074122519 -0.04215743587210824 0 -0.077668975178724509 -0.024078573046198169 0 -0.090746651292135133 -0.048651172445365112 0 -0.088481073739883592 -0.043344290748051233 0 -0.082849096915408454 -0.045583035938281863 0 -0.096769769074122519 -0.04215743587210824 0 -0.090746651292135133 -0.048651172445365112 0 -0.088481073739883592 -0.043344290748051233 0 -0.077668975178724509 -0.024078573046198169 0 -0.083558777677868248 -0.036985518736449702 0 -0.075465350998538308 -0.032772608828030472 0 -0.083558777677868248 -0.036985518736449702 0 -0.082849096915408454 -0.045583035938281863 0 -0.075062618692292638 -0.040325846155841297 0 -0.088481073739883592 -0.043344290748051233 0 -0.083558777677868248 -0.036985518736449702 0 -0.082849096915408454 -0.045583035938281863 0 -0.082849096915408454 -0.045583035938281863 0 -0.078067002861142085 -0.04575568247049161 0 -0.075062618692292638 -0.040325846155841297 0 -0.078708481780428496 -0.048351416250899462 0 -0.082849096915408454 -0.045583035938281863 0 -0.078067002861142085 -0.04575568247049161 0 -0.075647814056438792 -0.048762431536943832 0 -0.055132092173872667 -0.033226800447327051 0 -0.078067002861142085 -0.04575568247049161 0 -0.075062618692292638 -0.040325846155841297 0 -0.075647814056438792 -0.048762431536943832 0 -0.075062618692292638 -0.040325846155841297 0 -0.075465350998538308 -0.032772608828030472 0 -0.055132092173872667 -0.033226800447327051 0 -0.075647814056438792 -0.048762431536943832 0 -0.061428605263776047 -0.046553119166432878 0 -0.055132092173872667 -0.033226800447327051 0 -0.075062618692292638 -0.040325846155841297 0 -0.075647814056438792 -0.048762431536943832 0 -0.055132092173872667 -0.033226800447327051 0 -0.083558777677868248 -0.036985518736449702 0 -0.075062618692292638 -0.040325846155841297 0 -0.075465350998538308 -0.032772608828030472 0 -0.065722760200719738 -0.052253177456942877 0 -0.075647814056438792 -0.048762431536943832 0 -0.061428605263776047 -0.046553119166432878 0 -0.065722760200719738 -0.052253177456942877 0 -0.07269306068786438 -0.052406879740114577 0 -0.069833853901725543 -0.055329661047837618 0 -0.065722760200719738 -0.052253177456942877 0 -0.07269306068786438 -0.052406879740114577 0 -0.075647814056438792 -0.048762431536943832 0 -0.07269306068786438 -0.052406879740114577 0 -0.073703714626092445 -0.056102563442451223 0 -0.069833853901725543 -0.055329661047837618 0 -0.07269306068786438 -0.052406879740114577 0 -0.077079431972146645 -0.050953682142663811 0 -0.073703714626092445 -0.056102563442451223 0 -0.078708481780428496 -0.048351416250899462 0 -0.077079431972146645 -0.050953682142663811 0 -0.075647814056438792 -0.048762431536943832 0 -0.07269306068786438 -0.052406879740114577 0 -0.077079431972146645 -0.050953682142663811 0 -0.075647814056438792 -0.048762431536943832 0 -0.078708481780428496 -0.048351416250899462 0 -0.078067002861142085 -0.04575568247049161 0 -0.075647814056438792 -0.048762431536943832 0 -0.078535685693175539 -0.061573663464548622 0 -0.073703714626092445 -0.056102563442451223 0 -0.070308423821052124 -0.061023041189074957 0 -0.078535685693175539 -0.061573663464548622 0 -0.077079431972146645 -0.050953682142663811 0 -0.073703714626092445 -0.056102563442451223 0 -0.073703714626092445 -0.056102563442451223 0 -0.070308423821052124 -0.061023041189074957 0 -0.069833853901725543 -0.055329661047837618 0 -0.070308423821052124 -0.061023041189074957 0 -0.064391701294429504 -0.057679717025484439 0 -0.060830035872249492 -0.064558057335980773 0 -0.070308423821052124 -0.061023041189074957 0 -0.069833853901725543 -0.055329661047837618 0 -0.064391701294429504 -0.057679717025484439 0 -0.065722760200719738 -0.052253177456942877 0 -0.069833853901725543 -0.055329661047837618 0 -0.064391701294429504 -0.057679717025484439 0 -0.064391701294429504 -0.057679717025484439 0 -0.055978059279945473 -0.056388284161067823 0 -0.060830035872249492 -0.064558057335980773 0 -0.065722760200719738 -0.052253177456942877 0 -0.064391701294429504 -0.057679717025484439 0 -0.055978059279945473 -0.056388284161067823 0 -0.055978059279945473 -0.056388284161067823 0 -0.041230103293456458 -0.058058117591144771 0 -0.049479852383656611 -0.067543566470139038 0 -0.055978059279945473 -0.056388284161067823 0 -0.049741921456861897 -0.048697412542500033 0 -0.041230103293456458 -0.058058117591144771 0 -0.055978059279945473 -0.056388284161067823 0 -0.049741921456861897 -0.048697412542500033 0 -0.061428605263776047 -0.046553119166432878 0 -0.065722760200719738 -0.052253177456942877 0 -0.055978059279945473 -0.056388284161067823 0 -0.061428605263776047 -0.046553119166432878 0 -0.049741921456861897 -0.048697412542500033 0 -0.061428605263776047 -0.046553119166432878 0 -0.055132092173872667 -0.033226800447327051 0 -0.049741921456861897 -0.048697412542500033 0 -0.055132092173872667 -0.033226800447327051 0 -0.032367863380537598 -0.044965144957206583 0 -0.055132092173872667 -0.033226800447327051 0 -0.032367863380537598 -0.044965144957206583 0 -0.055132092173872667 -0.033226800447327051 0 -0.032367863380537598 -0.044965144957206583 0 -0.031233838643279398 -0.031193199633022049 0 -0.049741921456861897 -0.048697412542500033 0 -0.032367863380537598 -0.044965144957206583 0 -0.041230103293456458 -0.058058117591144771 0 -0.032367863380537598 -0.044965144957206583 0 -0.041230103293456458 -0.058058117591144771 0 -0.026902341230915561 -0.060374551747501753 0 -0.05822397002114936 -0.01402224463886402 0 -0.057836245250817257 0.0062936453779614283 0 -0.044352522143416888 0.0050416822031405977 0 -0.05822397002114936 -0.01402224463886402 0 -0.037926632337863607 -0.0068783069258408786 0 -0.05822397002114936 -0.01402224463886402 0 -0.068462160169621672 0.0025537029525893409 0 -0.057836245250817257 0.0062936453779614283 0 -0.055132092173872667 -0.033226800447327051 0 -0.05822397002114936 -0.01402224463886402 0 -0.036243114184870161 -0.018923029155399909 0 -0.055132092173872667 -0.033226800447327051 0 -0.036243114184870161 -0.018923029155399909 0 -0.031233838643279398 -0.031193199633022049 0 -0.055132092173872667 -0.033226800447327051 0 -0.036243114184870161 -0.018923029155399909 0 -0.05822397002114936 -0.01402224463886402 0 -0.036243114184870161 -0.018923029155399909 0 -0.037926632337863607 -0.0068783069258408786 0 -0.05822397002114936 -0.01402224463886402 0 -0.037926632337863607 -0.0068783069258408786 0 -0.044352522143416888 0.0050416822031405977 0 -0.036243114184870161 -0.018923029155399909 0 -0.037926632337863607 -0.0068783069258408786 0 -0.029121832422534862 -0.0067169982391169078 0 -0.037926632337863607 -0.0068783069258408786 0 -0.029539197120254941 -0.00051038393964639519 0 -0.029121832422534862 -0.0067169982391169078 0 -0.037926632337863607 -0.0068783069258408786 0 -0.029539197120254941 -0.00051038393964639519 0 -0.03614709390981162 0.0015378833132510439 0 -0.037926632337863607 -0.0068783069258408786 0 -0.03614709390981162 0.0015378833132510439 0 -0.044352522143416888 0.0050416822031405977 0 -0.036243114184870161 -0.018923029155399909 0 -0.017354136195868258 -0.0046192578634720229 0 -0.01819617019275287 -0.0061732580868559192 0 -0.036243114184870161 -0.018923029155399909 0 -0.017354136195868258 -0.0046192578634720229 0 -0.029121832422534862 -0.0067169982391169078 0 -0.036243114184870161 -0.018923029155399909 0 -0.01819617019275287 -0.0061732580868559192 0 -0.019637671972121611 -0.02148729346067638 0 -0.036243114184870161 -0.018923029155399909 0 -0.017354136195868258 -0.0046192578634720229 0 -0.017354136195868258 -0.0046192578634720229 0 -0.01819617019275287 -0.0061732580868559192 0 -0.013500839782477779 -0.0058155532537883976 0 -0.017354136195868258 -0.0046192578634720229 0 -0.01819617019275287 -0.0061732580868559192 0 -0.017354136195868258 -0.0046192578634720229 0 -0.024546082273817361 -0.00265401331122534 0 -0.02112675760807068 0.0030512678310729521 0 -0.024546082273817361 -0.00265401331122534 0 -0.029539197120254941 -0.00051038393964639519 0 -0.02112675760807068 0.0030512678310729521 0 -0.017354136195868258 -0.0046192578634720229 0 -0.024546082273817361 -0.00265401331122534 0 -0.029121832422534862 -0.0067169982391169078 0 -0.024546082273817361 -0.00265401331122534 0 -0.029539197120254941 -0.00051038393964639519 0 -0.029121832422534862 -0.0067169982391169078 0 -0.01819617019275287 -0.0061732580868559192 0 -0.019637671972121611 -0.02148729346067638 0 -0.011008321991883009 -0.01057962122923565 0 -0.036243114184870161 -0.018923029155399909 0 -0.019637671972121611 -0.02148729346067638 0 -0.031233838643279398 -0.031193199633022049 0 -0.019637671972121611 -0.02148729346067638 0 -0.031233838643279398 -0.031193199633022049 0 -0.016064986363794779 -0.036441041599790329 0 -0.0077215053668332834 -0.022860670268973711 0 -0.00118246574067416 -0.01324232368796026 0 0.0015263381015913891 -0.033415212413580753 0 -0.0077215053668332834 -0.022860670268973711 0 -0.016064986363794779 -0.036441041599790329 0 0.0015263381015913891 -0.033415212413580753 0 -0.019637671972121611 -0.02148729346067638 0 -0.0077215053668332834 -0.022860670268973711 0 -0.016064986363794779 -0.036441041599790329 0 -0.019637671972121611 -0.02148729346067638 0 -0.0077215053668332834 -0.022860670268973711 0 -0.011008321991883009 -0.01057962122923565 0 -0.011008321991883009 -0.01057962122923565 0 -0.00118246574067416 -0.01324232368796026 0 -0.0072764121498596901 -0.0036325873431357339 0 -0.0077215053668332834 -0.022860670268973711 0 -0.011008321991883009 -0.01057962122923565 0 -0.00118246574067416 -0.01324232368796026 0 -0.00118246574067416 -0.01324232368796026 0 -0.0072764121498596901 -0.0036325873431357339 0 0.0012074066645448821 -0.00065723147797176382 0 -0.0072764121498596901 -0.0036325873431357339 0 -0.013500839782477779 -0.0058155532537883976 0 -0.013607688627124061 -0.00178224205395049 0 -0.011008321991883009 -0.01057962122923565 0 -0.0072764121498596901 -0.0036325873431357339 0 -0.013500839782477779 -0.0058155532537883976 0 -0.01819617019275287 -0.0061732580868559192 0 -0.011008321991883009 -0.01057962122923565 0 -0.013500839782477779 -0.0058155532537883976 0 -0.017354136195868258 -0.0046192578634720229 0 -0.013500839782477779 -0.0058155532537883976 0 -0.013607688627124061 -0.00178224205395049 0 -0.017354136195868258 -0.0046192578634720229 0 -0.013607688627124061 -0.00178224205395049 0 -0.032367863380537598 -0.044965144957206583 0 -0.0096036345872028556 -0.056703489467087059 0 -0.032367863380537598 -0.044965144957206583 0 -0.026902341230915561 -0.060374551747501753 0 -0.0096036345872028556 -0.056703489467087059 0 -0.032367863380537598 -0.044965144957206583 0 -0.031233838643279398 -0.031193199633022049 0 -0.016064986363794779 -0.036441041599790329 0 -0.032367863380537598 -0.044965144957206583 0 -0.016064986363794779 -0.036441041599790329 0 -0.0096036345872028556 -0.056703489467087059 0 -0.0096036345872028556 -0.056703489467087059 0 0.0015263381015913891 -0.033415212413580753 0 -0.016064986363794779 -0.036441041599790329 0 -0.0096036345872028556 -0.056703489467087059 0 0.0015263381015913891 -0.033415212413580753 0 -0.0096036345872028556 -0.056703489467087059 0 0.0015263381015913891 -0.033415212413580753 0 0.007298405735321048 -0.051477207310420908 0 -0.0096036345872028556 -0.056703489467087059 0 0.0052181775422467033 -0.064346337314722044 0 -0.0096036345872028556 -0.056703489467087059 0 -0.0043762627118289626 -0.071729097412358583 0 0.0052181775422467033 -0.064346337314722044 0 -0.0043762627118289626 -0.071729097412358583 0 -0.0092607301227374331 -0.088572496961274561 0 -0.01646375475339092 -0.071057556949349329 0 -0.0096036345872028556 -0.056703489467087059 0 -0.01646375475339092 -0.071057556949349329 0 -0.0096036345872028556 -0.056703489467087059 0 -0.0043762627118289626 -0.071729097412358583 0 -0.01646375475339092 -0.071057556949349329 0 -0.0092607301227374331 -0.088572496961274561 0 -0.00044729776891663488 -0.1011528385718463 0 0.0042106568376920582 -0.081118225430045127 0 -0.0043762627118289626 -0.071729097412358583 0 -0.0092607301227374331 -0.088572496961274561 0 0.0042106568376920582 -0.081118225430045127 0 -0.0092607301227374331 -0.088572496961274561 0 -0.037642160748979789 -0.094071739377162955 0 -0.0092607301227374331 -0.088572496961274561 0 -0.023323874919582349 -0.085411624431610003 0 -0.01646375475339092 -0.071057556949349329 0 -0.0092607301227374331 -0.088572496961274561 0 -0.023323874919582349 -0.085411624431610003 0 -0.037642160748979789 -0.094071739377162955 0 -0.023323874919582349 -0.085411624431610003 0 -0.01646375475339092 -0.071057556949349329 0 -0.023323874919582349 -0.085411624431610003 0 -0.01646375475339092 -0.071057556949349329 0 -0.034846350139989962 -0.07108844977272101 0 -0.026902341230915561 -0.060374551747501753 0 -0.01646375475339092 -0.071057556949349329 0 -0.034846350139989962 -0.07108844977272101 0 -0.026902341230915561 -0.060374551747501753 0 -0.0096036345872028556 -0.056703489467087059 0 -0.01646375475339092 -0.071057556949349329 0 -0.041230103293456458 -0.058058117591144771 0 -0.026902341230915561 -0.060374551747501753 0 -0.034846350139989962 -0.07108844977272101 0 -0.041230103293456458 -0.058058117591144771 0 -0.034846350139989962 -0.07108844977272101 0 -0.049479852383656611 -0.067543566470139038 0 -0.034846350139989962 -0.07108844977272101 0 -0.048784805137481749 -0.081200653853927454 0 -0.049479852383656611 -0.067543566470139038 0 -0.023323874919582349 -0.085411624431610003 0 -0.034846350139989962 -0.07108844977272101 0 -0.036149297736508462 -0.082943116858855345 0 -0.023323874919582349 -0.085411624431610003 0 -0.036149297736508462 -0.082943116858855345 0 -0.037642160748979789 -0.094071739377162955 0 -0.036149297736508462 -0.082943116858855345 0 -0.048784805137481749 -0.081200653853927454 0 -0.037642160748979789 -0.094071739377162955 0 -0.034846350139989962 -0.07108844977272101 0 -0.036149297736508462 -0.082943116858855345 0 -0.048784805137481749 -0.081200653853927454 0 -0.063732237529271596 -0.080733089011810297 0 -0.066023591375222151 -0.09957098179305135 0 -0.048784805137481749 -0.081200653853927454 0 -0.066023591375222151 -0.09957098179305135 0 -0.048784805137481749 -0.081200653853927454 0 -0.037642160748979789 -0.094071739377162955 0 -0.063732237529271596 -0.080733089011810297 0 -0.048784805137481749 -0.081200653853927454 0 -0.058000192015007383 -0.073011667883306972 0 -0.055978059279945473 -0.056388284161067823 0 -0.060830035872249492 -0.064558057335980773 0 -0.049479852383656611 -0.067543566470139038 0 -0.058000192015007383 -0.073011667883306972 0 -0.060830035872249492 -0.064558057335980773 0 -0.049479852383656611 -0.067543566470139038 0 -0.067174029152377468 -0.071022972744677337 0 -0.058000192015007383 -0.073011667883306972 0 -0.060830035872249492 -0.064558057335980773 0 -0.048784805137481749 -0.081200653853927454 0 -0.058000192015007383 -0.073011667883306972 0 -0.049479852383656611 -0.067543566470139038 0 -0.069466171350113709 -0.1135628440840601 0 -0.054384952187449757 -0.110609208962567 0 -0.059238207921678762 -0.13024384051707169 0 -0.054384952187449757 -0.110609208962567 0 -0.059238207921678762 -0.13024384051707169 0 -0.032945469352336033 -0.1293562392835419 0 -0.066023591375222151 -0.09957098179305135 0 -0.054384952187449757 -0.110609208962567 0 -0.037642160748979789 -0.094071739377162955 0 -0.066023591375222151 -0.09957098179305135 0 -0.037642160748979789 -0.094071739377162955 0 -0.054384952187449757 -0.110609208962567 0 -0.037642160748979789 -0.094071739377162955 0 -0.035661083064217503 -0.11124856921529409 0 -0.054384952187449757 -0.110609208962567 0 -0.032945469352336033 -0.1293562392835419 0 -0.054384952187449757 -0.110609208962567 0 -0.035661083064217503 -0.11124856921529409 0 -0.032945469352336033 -0.1293562392835419 0 -0.01767174996810443 -0.1109570892379047 0 -0.012892303975098539 -0.12786221844410239 0 -0.032945469352336033 -0.1293562392835419 0 -0.035661083064217503 -0.11124856921529409 0 -0.01767174996810443 -0.1109570892379047 0 -0.032945469352336033 -0.1293562392835419 0 -0.0092607301227374331 -0.088572496961274561 0 -0.037642160748979789 -0.094071739377162955 0 -0.01767174996810443 -0.1109570892379047 0 -0.037642160748979789 -0.094071739377162955 0 -0.035661083064217503 -0.11124856921529409 0 -0.01767174996810443 -0.1109570892379047 0 -0.01767174996810443 -0.1109570892379047 0 -0.00044729776891663488 -0.1011528385718463 0 0.005085065621477718 -0.1151057880332567 0 -0.0092607301227374331 -0.088572496961274561 0 -0.01767174996810443 -0.1109570892379047 0 -0.00044729776891663488 -0.1011528385718463 0 -0.01767174996810443 -0.1109570892379047 0 -0.012892303975098539 -0.12786221844410239 0 0.005085065621477718 -0.1151057880332567 0 -0.012892303975098539 -0.12786221844410239 0 0.0027021066240326768 -0.1317064378292063 0 0.005085065621477718 -0.1151057880332567 0 -0.011505986517222349 -0.14810326960451681 0 -0.033736789854580403 -0.16402697950055581 0 -0.032945469352336033 -0.1293562392835419 0 -0.012892303975098539 -0.12786221844410239 0 -0.011505986517222349 -0.14810326960451681 0 0.0027021066240326768 -0.1317064378292063 0 -0.011505986517222349 -0.14810326960451681 0 -0.032945469352336033 -0.1293562392835419 0 -0.012892303975098539 -0.12786221844410239 0 -0.011505986517222349 -0.14810326960451681 0 -0.032945469352336033 -0.1293562392835419 0 -0.011505986517222349 -0.14810326960451681 0 0.009933496317892726 -0.16685029992549011 0 -0.011505986517222349 -0.14810326960451681 0 -0.0085976242789068957 -0.177408956520272 0 0.009933496317892726 -0.16685029992549011 0 -0.0085976242789068957 -0.177408956520272 0 -0.003739977245034012 -0.19168309442994089 0 -0.02712874487570623 -0.18796761311505439 0 -0.0085976242789068957 -0.177408956520272 0 -0.003739977245034012 -0.19168309442994089 0 0.0034571977838801569 -0.17702496179755631 0 -0.0085976242789068957 -0.177408956520272 0 -0.02712874487570623 -0.18796761311505439 0 -0.0085976242789068957 -0.177408956520272 0 -0.033736789854580403 -0.16402697950055581 0 -0.02712874487570623 -0.18796761311505439 0 -0.011505986517222349 -0.14810326960451681 0 -0.0085976242789068957 -0.177408956520272 0 -0.033736789854580403 -0.16402697950055581 0 -0.033736789854580403 -0.16402697950055581 0 -0.041678182321736049 -0.18065303021324261 0 -0.02712874487570623 -0.18796761311505439 0 -0.033736789854580403 -0.16402697950055581 0 -0.041678182321736049 -0.18065303021324261 0 -0.060187329084152079 -0.17209125852752319 0 -0.041678182321736049 -0.18065303021324261 0 -0.060187329084152079 -0.17209125852752319 0 -0.045659865472505487 -0.198526269709837 0 -0.060187329084152079 -0.17209125852752319 0 -0.045659865472505487 -0.198526269709837 0 -0.033736789854580403 -0.16402697950055581 0 -0.060187329084152079 -0.17209125852752319 0 -0.051699405537506939 -0.14899167338562519 0 -0.060187329084152079 -0.17209125852752319 0 -0.051699405537506939 -0.14899167338562519 0 -0.072389231474787458 -0.1492400490994332 0 -0.051699405537506939 -0.14899167338562519 0 -0.059238207921678762 -0.13024384051707169 0 -0.072389231474787458 -0.1492400490994332 0 -0.033736789854580403 -0.16402697950055581 0 -0.051699405537506939 -0.14899167338562519 0 -0.032945469352336033 -0.1293562392835419 0 -0.051699405537506939 -0.14899167338562519 0 -0.059238207921678762 -0.13024384051707169 0 -0.032945469352336033 -0.1293562392835419 0 -0.025857267464119819 -0.25506418495113531 0 -0.02368513365757598 -0.23851275990414511 0 -0.036167443228362108 -0.24337299090061551 0 -0.01269776775011346 -0.25850600500130039 0 -0.02368513365757598 -0.23851275990414511 0 -0.01269776775011346 -0.25850600500130039 0 -0.02368513365757598 -0.23851275990414511 0 -0.01082738352359053 -0.24876902592697839 0 -0.02368513365757598 -0.23851275990414511 0 -0.0067432183097289999 -0.239968376336817 0 -0.0090267388034834407 -0.23007068799598671 0 -0.02368513365757598 -0.23851275990414511 0 -0.01082738352359053 -0.24876902592697839 0 -0.0067432183097289999 -0.239968376336817 0 -0.01082738352359053 -0.24876902592697839 0 -0.0029313858115674811 -0.24854412401401971 0 -0.0067432183097289999 -0.239968376336817 0 -0.0029313858115674811 -0.24854412401401971 0 -0.0067432183097289999 -0.239968376336817 0 0.0026199421412959989 -0.2430643023623929 0 -0.0067432183097289999 -0.239968376336817 0 0.0026199421412959989 -0.2430643023623929 0 0.0017465435191736189 -0.23378549097037141 0 -0.0067432183097289999 -0.239968376336817 0 -0.0090267388034834407 -0.23007068799598671 0 0.0017465435191736189 -0.23378549097037141 0 -0.0090267388034834407 -0.23007068799598671 0 -0.00080535468136348092 -0.21995366459000901 0 -0.01839049427805331 -0.2195873775130934 0 -0.0090267388034834407 -0.23007068799598671 0 -0.00080535468136348092 -0.21995366459000901 0 0.0017465435191736189 -0.23378549097037141 0 -0.02368513365757598 -0.23851275990414511 0 -0.0090267388034834407 -0.23007068799598671 0 -0.01839049427805331 -0.2195873775130934 0 -0.02368513365757598 -0.23851275990414511 0 -0.01839049427805331 -0.2195873775130934 0 -0.034672499565036527 -0.2185195148069887 0 -0.02368513365757598 -0.23851275990414511 0 -0.034672499565036527 -0.2185195148069887 0 -0.01839049427805331 -0.2195873775130934 0 -0.027127261386640289 -0.20489204062456881 0 -0.034672499565036527 -0.2185195148069887 0 -0.01839049427805331 -0.2195873775130934 0 -0.027127261386640289 -0.20489204062456881 0 -0.01084996336714465 -0.20584666152463099 0 -0.00080535468136348092 -0.21995366459000901 0 -0.01839049427805331 -0.2195873775130934 0 -0.01084996336714465 -0.20584666152463099 0 -0.00080535468136348092 -0.21995366459000901 0 -0.01084996336714465 -0.20584666152463099 0 0.01016515501406726 -0.20926501301563591 0 -0.01084996336714465 -0.20584666152463099 0 -0.003739977245034012 -0.19168309442994089 0 0.01016515501406726 -0.20926501301563591 0 -0.01084996336714465 -0.20584666152463099 0 -0.003739977245034012 -0.19168309442994089 0 -0.02712874487570623 -0.18796761311505439 0 -0.027127261386640289 -0.20489204062456881 0 -0.01084996336714465 -0.20584666152463099 0 -0.02712874487570623 -0.18796761311505439 0 -0.041678182321736049 -0.18065303021324261 0 -0.02712874487570623 -0.18796761311505439 0 -0.045659865472505487 -0.198526269709837 0 -0.02712874487570623 -0.18796761311505439 0 -0.045659865472505487 -0.198526269709837 0 -0.027127261386640289 -0.20489204062456881 0 -0.02712874487570623 -0.18796761311505439 0 -0.045659865472505487 -0.198526269709837 0 -0.045659865472505487 -0.198526269709837 0 -0.067682806497079445 -0.21107449474949169 0 -0.062708331551170268 -0.19442045911658551 0 -0.060187329084152079 -0.17209125852752319 0 -0.045659865472505487 -0.198526269709837 0 -0.062708331551170268 -0.19442045911658551 0 -0.045659865472505487 -0.198526269709837 0 -0.067682806497079445 -0.21107449474949169 0 -0.045659865472505487 -0.198526269709837 0 -0.054546183461555722 -0.22015285450131489 0 -0.067682806497079445 -0.21107449474949169 0 -0.045659865472505487 -0.198526269709837 0 -0.034672499565036527 -0.2185195148069887 0 -0.054546183461555722 -0.22015285450131489 0 -0.045659865472505487 -0.198526269709837 0 -0.034672499565036527 -0.2185195148069887 0 -0.027127261386640289 -0.20489204062456881 0 -0.045659865472505487 -0.198526269709837 0 -0.034672499565036527 -0.2185195148069887 0 -0.034672499565036527 -0.2185195148069887 0 -0.044145410485190079 -0.23242073182379891 0 -0.054546183461555722 -0.22015285450131489 0 -0.02368513365757598 -0.23851275990414511 0 -0.034672499565036527 -0.2185195148069887 0 -0.044145410485190079 -0.23242073182379891 0 -0.044145410485190079 -0.23242073182379891 0 -0.054546183461555722 -0.22015285450131489 0 -0.061280333386656921 -0.23284462843810469 0 -0.061280333386656921 -0.23284462843810469 0 -0.050191684441297867 -0.2485850187836515 0 -0.071591358857016049 -0.2429226102204386 0 -0.050191684441297867 -0.2485850187836515 0 -0.071591358857016049 -0.2429226102204386 0 -0.056939497423126581 -0.24878681181634871 0 -0.050191684441297867 -0.2485850187836515 0 -0.071591358857016049 -0.2429226102204386 0 -0.044145410485190079 -0.23242073182379891 0 -0.061280333386656921 -0.23284462843810469 0 -0.050191684441297867 -0.2485850187836515 0 -0.041398382443623198 -0.25192549838374201 0 -0.056939497423126581 -0.24878681181634871 0 -0.050191684441297867 -0.2485850187836515 0 -0.044145410485190079 -0.23242073182379891 0 -0.050191684441297867 -0.2485850187836515 0 -0.036167443228362108 -0.24337299090061551 0 -0.02368513365757598 -0.23851275990414511 0 -0.044145410485190079 -0.23242073182379891 0 -0.036167443228362108 -0.24337299090061551 0 -0.025857267464119819 -0.25506418495113531 0 -0.050191684441297867 -0.2485850187836515 0 -0.036167443228362108 -0.24337299090061551 0 -0.097628444613881649 -0.25834262822693399 0 -0.087470553331264578 -0.24262075389877999 0 -0.077955776651182085 -0.24454236002529731 0 -0.087470553331264578 -0.24262075389877999 0 -0.087928467376508473 -0.23859976953689591 0 -0.1005617376665941 -0.23997685579502359 0 -0.087928467376508473 -0.23859976953689591 0 -0.07453604668454375 -0.2421434382925548 0 -0.07383618536286593 -0.22753148747966839 0 -0.087928467376508473 -0.23859976953689591 0 -0.07453604668454375 -0.2421434382925548 0 -0.087928467376508473 -0.23859976953689591 0 -0.077955776651182085 -0.24454236002529731 0 -0.07453604668454375 -0.2421434382925548 0 -0.087470553331264578 -0.24262075389877999 0 -0.087928467376508473 -0.23859976953689591 0 -0.077955776651182085 -0.24454236002529731 0 -0.087470553331264578 -0.24262075389877999 0 -0.077955776651182085 -0.24454236002529731 0 -0.056939497423126581 -0.24878681181634871 0 -0.077955776651182085 -0.24454236002529731 0 -0.071591358857016049 -0.2429226102204386 0 -0.056939497423126581 -0.24878681181634871 0 -0.077955776651182085 -0.24454236002529731 0 -0.077955776651182085 -0.24454236002529731 0 -0.071591358857016049 -0.2429226102204386 0 -0.07453604668454375 -0.2421434382925548 0 -0.077955776651182085 -0.24454236002529731 0 -0.07453604668454375 -0.2421434382925548 0 -0.071591358857016049 -0.2429226102204386 0 -0.07453604668454375 -0.2421434382925548 0 -0.056939497423126581 -0.24878681181634871 0 -0.071591358857016049 -0.2429226102204386 0 -0.061280333386656921 -0.23284462843810469 0 -0.071591358857016049 -0.2429226102204386 0 -0.07453604668454375 -0.2421434382925548 0 -0.061280333386656921 -0.23284462843810469 0 -0.07453604668454375 -0.2421434382925548 0 -0.07383618536286593 -0.22753148747966839 0 -0.089705747521653334 -0.22362271978914661 0 -0.067682806497079445 -0.21107449474949169 0 -0.054546183461555722 -0.22015285450131489 0 -0.061280333386656921 -0.23284462843810469 0 -0.07383618536286593 -0.22753148747966839 0 -0.054546183461555722 -0.22015285450131489 0 -0.07383618536286593 -0.22753148747966839 0 -0.067682806497079445 -0.21107449474949169 0 -0.061280333386656921 -0.23284462843810469 0 -0.07453604668454375 -0.2421434382925548 0 -0.07383618536286593 -0.22753148747966839 0 -0.087928467376508473 -0.23859976953689591 0 -0.07383618536286593 -0.22753148747966839 0 -0.089705747521653334 -0.22362271978914661 0 -0.087928467376508473 -0.23859976953689591 0 -0.089705747521653334 -0.22362271978914661 0 -0.1005617376665941 -0.23997685579502359 0 -0.089705747521653334 -0.22362271978914661 0 -0.067682806497079445 -0.21107449474949169 0 -0.089705747521653334 -0.22362271978914661 0 -0.084027466008495671 -0.20735524824550181 0 -0.09921486728828334 -0.20109800384388701 0 -0.089705747521653334 -0.22362271978914661 0 -0.084027466008495671 -0.20735524824550181 0 -0.067682806497079445 -0.21107449474949169 0 -0.084027466008495671 -0.20735524824550181 0 -0.067682806497079445 -0.21107449474949169 0 -0.079506442726966622 -0.19362577459948219 0 -0.067682806497079445 -0.21107449474949169 0 -0.062708331551170268 -0.19442045911658551 0 -0.079506442726966622 -0.19362577459948219 0 -0.079506442726966622 -0.19362577459948219 0 -0.09921486728828334 -0.20109800384388701 0 -0.089369030920126963 -0.1732707743578942 0 -0.084027466008495671 -0.20735524824550181 0 -0.079506442726966622 -0.19362577459948219 0 -0.09921486728828334 -0.20109800384388701 0 -0.09921486728828334 -0.20109800384388701 0 -0.1156293974943295 -0.1822747327150937 0 -0.1210853022939376 -0.205467400633562 0 -0.1156293974943295 -0.1822747327150937 0 -0.13505851963374399 -0.18906788910329131 0 -0.09921486728828334 -0.20109800384388701 0 -0.1210853022939376 -0.205467400633562 0 -0.1156293974943295 -0.1822747327150937 0 -0.1210853022939376 -0.205467400633562 0 -0.10755849924533691 -0.2178899443088799 0 -0.11989889803527461 -0.22145143588075511 0 -0.1210853022939376 -0.205467400633562 0 -0.11989889803527461 -0.22145143588075511 0 -0.13086176299679239 -0.21746526838305219 0 -0.089705747521653334 -0.22362271978914661 0 -0.09921486728828334 -0.20109800384388701 0 -0.10755849924533691 -0.2178899443088799 0 -0.09921486728828334 -0.20109800384388701 0 -0.1210853022939376 -0.205467400633562 0 -0.10755849924533691 -0.2178899443088799 0 -0.089705747521653334 -0.22362271978914661 0 -0.11172868854622731 -0.23617094482880149 0 -0.1005617376665941 -0.23997685579502359 0 -0.089705747521653334 -0.22362271978914661 0 -0.11172868854622731 -0.23617094482880149 0 -0.089705747521653334 -0.22362271978914661 0 -0.10755849924533691 -0.2178899443088799 0 -0.11172868854622731 -0.23617094482880149 0 -0.11989889803527461 -0.22145143588075511 0 -0.11172868854622731 -0.23617094482880149 0 -0.127825895831608 -0.22987551408160201 0 -0.10755849924533691 -0.2178899443088799 0 -0.11989889803527461 -0.22145143588075511 0 -0.11172868854622731 -0.23617094482880149 0 -0.13218950310710981 -0.25272660122947088 0 -0.1218823470606431 -0.24640061544388489 0 -0.1098930818979398 -0.24798588601512411 0 -0.11172868854622731 -0.23617094482880149 0 -0.13375162957080131 -0.24871916986845621 0 -0.11172868854622731 -0.23617094482880149 0 -0.1218823470606431 -0.24640061544388489 0 -0.13375162957080131 -0.24871916986845621 0 -0.11172868854622731 -0.23617094482880149 0 -0.13375162957080131 -0.24871916986845621 0 -0.127825895831608 -0.22987551408160201 0 -0.11172868854622731 -0.23617094482880149 0 -0.1218823470606431 -0.24640061544388489 0 -0.1098930818979398 -0.24798588601512411 0 -0.097628444613881649 -0.25834262822693399 0 -0.087470553331264578 -0.24262075389877999 0 -0.1098930818979398 -0.24798588601512411 0 -0.087470553331264578 -0.24262075389877999 0 -0.1098930818979398 -0.24798588601512411 0 -0.1005617376665941 -0.23997685579502359 0 -0.087470553331264578 -0.24262075389877999 0 -0.1098930818979398 -0.24798588601512411 0 -0.11172868854622731 -0.23617094482880149 0 -0.1098930818979398 -0.24798588601512411 0 -0.1005617376665941 -0.23997685579502359 0 -0.087470553331264578 -0.24262075389877999 0 -0.1005617376665941 -0.23997685579502359 0 -0.072389231474787458 -0.1492400490994332 0 -0.089369030920126963 -0.1732707743578942 0 -0.096011965921864201 -0.14265464397282879 0 -0.077516787342341589 -0.1242022911324857 0 -0.093262550211769629 -0.1231040070079162 0 -0.096011965921864201 -0.14265464397282879 0 -0.077516787342341589 -0.1242022911324857 0 -0.072389231474787458 -0.1492400490994332 0 -0.096011965921864201 -0.14265464397282879 0 -0.077516787342341589 -0.1242022911324857 0 -0.059238207921678762 -0.13024384051707169 0 -0.072389231474787458 -0.1492400490994332 0 -0.060187329084152079 -0.17209125852752319 0 -0.072389231474787458 -0.1492400490994332 0 -0.089369030920126963 -0.1732707743578942 0 -0.060187329084152079 -0.17209125852752319 0 -0.079506442726966622 -0.19362577459948219 0 -0.089369030920126963 -0.1732707743578942 0 -0.060187329084152079 -0.17209125852752319 0 -0.062708331551170268 -0.19442045911658551 0 -0.079506442726966622 -0.19362577459948219 0 -0.089369030920126963 -0.1732707743578942 0 -0.1107512355661594 -0.16096683979900789 0 -0.096011965921864201 -0.14265464397282879 0 -0.09921486728828334 -0.20109800384388701 0 -0.089369030920126963 -0.1732707743578942 0 -0.1156293974943295 -0.1822747327150937 0 -0.089369030920126963 -0.1732707743578942 0 -0.1156293974943295 -0.1822747327150937 0 -0.1107512355661594 -0.16096683979900789 0 -0.1156293974943295 -0.1822747327150937 0 -0.13204392770037571 -0.1634514615863005 0 -0.1156293974943295 -0.1822747327150937 0 -0.1107512355661594 -0.16096683979900789 0 -0.13204392770037571 -0.1634514615863005 0 -0.1107512355661594 -0.16096683979900789 0 -0.12070185579410091 -0.1431825863629223 0 -0.13204392770037571 -0.1634514615863005 0 -0.1107512355661594 -0.16096683979900789 0 -0.12070185579410091 -0.1431825863629223 0 -0.096011965921864201 -0.14265464397282879 0 -0.1071147179002416 -0.1244919901550422 0 -0.12070185579410091 -0.1431825863629223 0 -0.096011965921864201 -0.14265464397282879 0 -0.093262550211769629 -0.1231040070079162 0 -0.1071147179002416 -0.1244919901550422 0 -0.096011965921864201 -0.14265464397282879 0 -0.1071147179002416 -0.1244919901550422 0 -0.12070185579410091 -0.1431825863629223 0 -0.1306137014228527 -0.1212095633787966 0 -0.12070185579410091 -0.1431825863629223 0 -0.14845845790642179 -0.14462819045750719 0 -0.1306137014228527 -0.1212095633787966 0 -0.14845845790642179 -0.14462819045750719 0 -0.1306137014228527 -0.1212095633787966 0 -0.15036797716661271 -0.14243845987679379 0 -0.14845845790642179 -0.14462819045750719 0 -0.1306137014228527 -0.1212095633787966 0 -0.15406265534163929 -0.1294064941378926 0 -0.15036797716661271 -0.14243845987679379 0 -0.1306137014228527 -0.1212095633787966 0 -0.15406265534163929 -0.1294064941378926 0 -0.15036797716661271 -0.14243845987679379 0 -0.1564494690737798 -0.13971242061594299 0 -0.1543278084257422 -0.1453912472931165 0 -0.14845845790642179 -0.14462819045750719 0 -0.15894149653025619 -0.15184230729274609 0 -0.15519343748037609 -0.14309809199123349 0 -0.15036797716661271 -0.14243845987679379 0 -0.1564494690737798 -0.13971242061594299 0 -0.1543278084257422 -0.1453912472931165 0 -0.15519343748037609 -0.14309809199123349 0 -0.15036797716661271 -0.14243845987679379 0 -0.1543278084257422 -0.1453912472931165 0 -0.15036797716661271 -0.14243845987679379 0 -0.14845845790642179 -0.14462819045750719 0 -0.15036797716661271 -0.14243845987679379 0 -0.14845845790642179 -0.14462819045750719 0 -0.12070185579410091 -0.1431825863629223 0 -0.14845845790642179 -0.14462819045750719 0 -0.13204392770037571 -0.1634514615863005 0 -0.14845845790642179 -0.14462819045750719 0 -0.13204392770037571 -0.1634514615863005 0 -0.13204392770037571 -0.1634514615863005 0 -0.1475860696211248 -0.17640031700015249 0 -0.13505851963374399 -0.18906788910329131 0 -0.1156293974943295 -0.1822747327150937 0 -0.13204392770037571 -0.1634514615863005 0 -0.13505851963374399 -0.18906788910329131 0 -0.1475860696211248 -0.17640031700015249 0 -0.1655722477793394 -0.1670875310098065 0 -0.15496537504316019 -0.19429807729602311 0 -0.1475860696211248 -0.17640031700015249 0 -0.13505851963374399 -0.18906788910329131 0 -0.15496537504316019 -0.19429807729602311 0 -0.1475860696211248 -0.17640031700015249 0 -0.14862352044039201 -0.16347018067920821 0 -0.1655722477793394 -0.1670875310098065 0 -0.14845845790642179 -0.14462819045750719 0 -0.13204392770037571 -0.1634514615863005 0 -0.14862352044039201 -0.16347018067920821 0 -0.14845845790642179 -0.14462819045750719 0 -0.14862352044039201 -0.16347018067920821 0 -0.1655722477793394 -0.1670875310098065 0 -0.13204392770037571 -0.1634514615863005 0 -0.1475860696211248 -0.17640031700015249 0 -0.14862352044039201 -0.16347018067920821 0 -0.1655722477793394 -0.1670875310098065 0 -0.1716614177265566 -0.15146656102038991 0 -0.1655722477793394 -0.1670875310098065 0 -0.15894149653025619 -0.15184230729274609 0 -0.1716614177265566 -0.15146656102038991 0 -0.1655722477793394 -0.1670875310098065 0 -0.17557921295501691 -0.18022020591375351 0 -0.1689483943248192 -0.19264195369377959 0 -0.1655722477793394 -0.1670875310098065 0 -0.15496537504316019 -0.19429807729602311 0 -0.1689483943248192 -0.19264195369377959 0 -0.1655722477793394 -0.1670875310098065 0 -0.15496537504316019 -0.19429807729602311 0 -0.1655722477793394 -0.1670875310098065 0 -0.17557921295501691 -0.18022020591375351 0 -0.17557921295501691 -0.18022020591375351 0 -0.18239484980351819 -0.16464781923938721 0 -0.1907059301477185 -0.18468107337543721 0 -0.1655722477793394 -0.1670875310098065 0 -0.17557921295501691 -0.18022020591375351 0 -0.18239484980351819 -0.16464781923938721 0 -0.1655722477793394 -0.1670875310098065 0 -0.18239484980351819 -0.16464781923938721 0 -0.1716614177265566 -0.15146656102038991 0 -0.18239484980351819 -0.16464781923938721 0 -0.1716614177265566 -0.15146656102038991 0 -0.1894311146879058 -0.1465309504005988 0 -0.17775058767377289 -0.13584559103097291 0 -0.1716614177265566 -0.15146656102038991 0 -0.1894311146879058 -0.1465309504005988 0 -0.17775058767377289 -0.13584559103097291 0 -0.1716614177265566 -0.15146656102038991 0 -0.17775058767377289 -0.13584559103097291 0 -0.1894311146879058 -0.1465309504005988 0 -0.17775058767377289 -0.13584559103097291 0 -0.19823449762692411 -0.13229999761030051 0 -0.18534812722118199 -0.1163550958908785 0 -0.17775058767377289 -0.13584559103097291 0 -0.18534812722118199 -0.1163550958908785 0 -0.15406265534163929 -0.1294064941378926 0 -0.16394560233522651 -0.1386698702264933 0 -0.15606779039194271 -0.1160101434681408 0 -0.17775058767377289 -0.13584559103097291 0 -0.16394560233522651 -0.1386698702264933 0 -0.15606779039194271 -0.1160101434681408 0 -0.17775058767377289 -0.13584559103097291 0 -0.15606779039194271 -0.1160101434681408 0 -0.15406265534163929 -0.1294064941378926 0 -0.16394560233522651 -0.1386698702264933 0 -0.1564494690737798 -0.13971242061594299 0 -0.16394560233522651 -0.1386698702264933 0 -0.1564494690737798 -0.13971242061594299 0 -0.15962849525536979 -0.1448502401790808 0 -0.14845845790642179 -0.14462819045750719 0 -0.1655722477793394 -0.1670875310098065 0 -0.14845845790642179 -0.14462819045750719 0 -0.1655722477793394 -0.1670875310098065 0 -0.15894149653025619 -0.15184230729274609 0 -0.15519343748037609 -0.14309809199123349 0 -0.1564494690737798 -0.13971242061594299 0 -0.15962849525536979 -0.1448502401790808 0 -0.1543278084257422 -0.1453912472931165 0 -0.15519343748037609 -0.14309809199123349 0 -0.15962849525536979 -0.1448502401790808 0 -0.1543278084257422 -0.1453912472931165 0 -0.15962849525536979 -0.1448502401790808 0 -0.15894149653025619 -0.15184230729274609 0 -0.15962849525536979 -0.1448502401790808 0 -0.15894149653025619 -0.15184230729274609 0 -0.1716614177265566 -0.15146656102038991 0 -0.17775058767377289 -0.13584559103097291 0 -0.16394560233522651 -0.1386698702264933 0 -0.1716614177265566 -0.15146656102038991 0 -0.16394560233522651 -0.1386698702264933 0 -0.15962849525536979 -0.1448502401790808 0 -0.1716614177265566 -0.15146656102038991 0 -0.1534429259631987 -0.25724555178864622 0 -0.15289321433053751 -0.246830478479277 0 -0.1378886282313006 -0.2381062402767252 0 -0.1534429259631987 -0.25724555178864622 0 -0.1378886282313006 -0.2381062402767252 0 -0.15348527020851541 -0.23913552791147211 0 -0.1378886282313006 -0.2381062402767252 0 -0.15430752157141919 -0.22794821467022949 0 -0.15289321433053751 -0.246830478479277 0 -0.15348527020851541 -0.23913552791147211 0 -0.1601832428566283 -0.24550858739866141 0 -0.15289321433053751 -0.246830478479277 0 -0.15348527020851541 -0.23913552791147211 0 -0.1378886282313006 -0.2381062402767252 0 -0.1459019403517107 -0.25564217047089421 0 -0.13375162957080131 -0.24871916986845621 0 -0.1378886282313006 -0.2381062402767252 0 -0.13375162957080131 -0.24871916986845621 0 -0.1378886282313006 -0.2381062402767252 0 -0.127825895831608 -0.22987551408160201 0 -0.13375162957080131 -0.24871916986845621 0 -0.1378886282313006 -0.2381062402767252 0 -0.13218950310710981 -0.25272660122947088 0 -0.1218823470606431 -0.24640061544388489 0 -0.13375162957080131 -0.24871916986845621 0 -0.127825895831608 -0.22987551408160201 0 -0.14435850230698141 -0.22150862358223991 0 -0.13086176299679239 -0.21746526838305219 0 -0.1378886282313006 -0.2381062402767252 0 -0.127825895831608 -0.22987551408160201 0 -0.14435850230698141 -0.22150862358223991 0 -0.11989889803527461 -0.22145143588075511 0 -0.127825895831608 -0.22987551408160201 0 -0.13086176299679239 -0.21746526838305219 0 -0.1378886282313006 -0.2381062402767252 0 -0.14435850230698141 -0.22150862358223991 0 -0.14435850230698141 -0.22150862358223991 0 -0.15430752157141919 -0.22794821467022949 0 -0.16410544360365359 -0.21493654602220469 0 -0.1378886282313006 -0.2381062402767252 0 -0.14435850230698141 -0.22150862358223991 0 -0.15430752157141919 -0.22794821467022949 0 -0.14435850230698141 -0.22150862358223991 0 -0.15496537504316019 -0.19429807729602311 0 -0.14435850230698141 -0.22150862358223991 0 -0.1373527607074172 -0.20563907323320921 0 -0.15496537504316019 -0.19429807729602311 0 -0.14435850230698141 -0.22150862358223991 0 -0.15496537504316019 -0.19429807729602311 0 -0.16410544360365359 -0.21493654602220469 0 -0.14435850230698141 -0.22150862358223991 0 -0.1373527607074172 -0.20563907323320921 0 -0.13086176299679239 -0.21746526838305219 0 -0.1210853022939376 -0.205467400633562 0 -0.1373527607074172 -0.20563907323320921 0 -0.13086176299679239 -0.21746526838305219 0 -0.1210853022939376 -0.205467400633562 0 -0.1373527607074172 -0.20563907323320921 0 -0.13505851963374399 -0.18906788910329131 0 -0.1373527607074172 -0.20563907323320921 0 -0.13505851963374399 -0.18906788910329131 0 -0.15496537504316019 -0.19429807729602311 0 -0.1689483943248192 -0.19264195369377959 0 -0.17994482166635981 -0.2014366202218163 0 -0.16410544360365359 -0.21493654602220469 0 -0.15496537504316019 -0.19429807729602311 0 -0.1689483943248192 -0.19264195369377959 0 -0.16410544360365359 -0.21493654602220469 0 -0.17557921295501691 -0.18022020591375351 0 -0.1689483943248192 -0.19264195369377959 0 -0.17994482166635981 -0.2014366202218163 0 -0.17557921295501691 -0.18022020591375351 0 -0.17994482166635981 -0.2014366202218163 0 -0.1907059301477185 -0.18468107337543721 0 -0.17994482166635981 -0.2014366202218163 0 -0.1784102433228649 -0.21681777692650089 0 -0.16410544360365359 -0.21493654602220469 0 -0.17994482166635981 -0.2014366202218163 0 -0.18904495760185211 -0.20873870471059999 0 -0.19252771524915421 -0.19930647688205899 0 -0.17994482166635981 -0.2014366202218163 0 -0.1784102433228649 -0.21681777692650089 0 -0.18904495760185211 -0.20873870471059999 0 -0.1784102433228649 -0.21681777692650089 0 -0.19175951728552271 -0.21959172261586679 0 -0.18904495760185211 -0.20873870471059999 0 -0.15430752157141919 -0.22794821467022949 0 -0.16410544360365359 -0.21493654602220469 0 -0.16877954452522659 -0.2255120540677526 0 -0.15430752157141919 -0.22794821467022949 0 -0.16877954452522659 -0.2255120540677526 0 -0.16324537569009509 -0.2357306359809743 0 -0.15348527020851541 -0.23913552791147211 0 -0.15430752157141919 -0.22794821467022949 0 -0.16324537569009509 -0.2357306359809743 0 -0.16877954452522659 -0.2255120540677526 0 -0.17781387366555559 -0.23090770197000129 0 -0.16324537569009509 -0.2357306359809743 0 -0.1784102433228649 -0.21681777692650089 0 -0.16410544360365359 -0.21493654602220469 0 -0.16877954452522659 -0.2255120540677526 0 -0.1784102433228649 -0.21681777692650089 0 -0.16877954452522659 -0.2255120540677526 0 -0.17781387366555559 -0.23090770197000129 0 -0.1784102433228649 -0.21681777692650089 0 -0.17781387366555559 -0.23090770197000129 0 -0.19175951728552271 -0.21959172261586679 0 -0.17781387366555559 -0.23090770197000129 0 -0.1805311654956796 -0.2411950136452527 0 -0.19410287643929239 -0.23312434657521411 0 -0.17781387366555559 -0.23090770197000129 0 -0.1805311654956796 -0.2411950136452527 0 -0.16955513552828311 -0.24305067226283769 0 -0.17679077873490559 -0.25046109420941731 0 -0.1805311654956796 -0.2411950136452527 0 -0.18863044441395099 -0.24733650333174401 0 -0.17679077873490559 -0.25046109420941731 0 -0.1805311654956796 -0.2411950136452527 0 -0.16955513552828311 -0.24305067226283769 0 -0.16709258238786229 -0.25188408856254202 0 -0.17679077873490559 -0.25046109420941731 0 -0.16955513552828311 -0.24305067226283769 0 -0.16709258238786229 -0.25188408856254202 0 -0.16955513552828311 -0.24305067226283769 0 -0.1601832428566283 -0.24550858739866141 0 -0.17781387366555559 -0.23090770197000129 0 -0.16955513552828311 -0.24305067226283769 0 -0.16324537569009509 -0.2357306359809743 0 -0.16955513552828311 -0.24305067226283769 0 -0.16324537569009509 -0.2357306359809743 0 -0.1601832428566283 -0.24550858739866141 0 -0.15348527020851541 -0.23913552791147211 0 -0.16324537569009509 -0.2357306359809743 0 -0.1601832428566283 -0.24550858739866141 0 -0.1593809120407062 -0.25278805690175971 0 -0.15289321433053751 -0.246830478479277 0 -0.1601832428566283 -0.24550858739866141 0 -0.20565562739327201 -0.24334207984173631 0 -0.19410287643929239 -0.23312434657521411 0 -0.21201774175915139 -0.2290986139018284 0 -0.21472073189145299 -0.25725591714607071 0 -0.20565562739327201 -0.24334207984173631 0 -0.22837296648480071 -0.23789375384220129 0 -0.20565562739327201 -0.24334207984173631 0 -0.21201774175915139 -0.2290986139018284 0 -0.22837296648480071 -0.23789375384220129 0 -0.20565562739327201 -0.24334207984173631 0 -0.18863044441395099 -0.24733650333174401 0 -0.19410287643929239 -0.23312434657521411 0 -0.1805311654956796 -0.2411950136452527 0 -0.18863044441395099 -0.24733650333174401 0 -0.19410287643929239 -0.23312434657521411 0 -0.17781387366555559 -0.23090770197000129 0 -0.19410287643929239 -0.23312434657521411 0 -0.19175951728552271 -0.21959172261586679 0 -0.19410287643929239 -0.23312434657521411 0 -0.19175951728552271 -0.21959172261586679 0 -0.20443040571370949 -0.21985141578154491 0 -0.21201774175915139 -0.2290986139018284 0 -0.20443040571370949 -0.21985141578154491 0 -0.22630383013383959 -0.21240708539258099 0 -0.19410287643929239 -0.23312434657521411 0 -0.21201774175915139 -0.2290986139018284 0 -0.20443040571370949 -0.21985141578154491 0 -0.20157622681128409 -0.2075672839719423 0 -0.21557055542943429 -0.1904257004922347 0 -0.22630383013383959 -0.21240708539258099 0 -0.20157622681128409 -0.2075672839719423 0 -0.22630383013383959 -0.21240708539258099 0 -0.20443040571370949 -0.21985141578154491 0 -0.20157622681128409 -0.2075672839719423 0 -0.22630383013383959 -0.21240708539258099 0 -0.19175951728552271 -0.21959172261586679 0 -0.20443040571370949 -0.21985141578154491 0 -0.20157622681128409 -0.2075672839719423 0 -0.19175951728552271 -0.21959172261586679 0 -0.20157622681128409 -0.2075672839719423 0 -0.19175951728552271 -0.21959172261586679 0 -0.18904495760185211 -0.20873870471059999 0 -0.20157622681128409 -0.2075672839719423 0 -0.18904495760185211 -0.20873870471059999 0 -0.20157622681128409 -0.2075672839719423 0 -0.19252771524915421 -0.19930647688205899 0 -0.17994482166635981 -0.2014366202218163 0 -0.19252771524915421 -0.19930647688205899 0 -0.1907059301477185 -0.18468107337543721 0 -0.20157622681128409 -0.2075672839719423 0 -0.19252771524915421 -0.19930647688205899 0 -0.20187756758401409 -0.19506767240709361 0 -0.19252771524915421 -0.19930647688205899 0 -0.20187756758401409 -0.19506767240709361 0 -0.1907059301477185 -0.18468107337543721 0 -0.20157622681128409 -0.2075672839719423 0 -0.21557055542943429 -0.1904257004922347 0 -0.20187756758401409 -0.19506767240709361 0 -0.21557055542943429 -0.1904257004922347 0 -0.2038146335316797 -0.1820121315948606 0 -0.20157622681128409 -0.2075672839719423 0 -0.20187756758401409 -0.19506767240709361 0 -0.21557055542943429 -0.1904257004922347 0 -0.21557055542943429 -0.1904257004922347 0 -0.23533053747689989 -0.1962925907305976 0 -0.22630383013383959 -0.21240708539258099 0 -0.23533053747689989 -0.1962925907305976 0 -0.25103143345639523 -0.21724688681321891 0 -0.25418198431724581 -0.18809916394242601 0 -0.22630383013383959 -0.21240708539258099 0 -0.25103143345639523 -0.21724688681321891 0 -0.23533053747689989 -0.1962925907305976 0 -0.22630383013383959 -0.21240708539258099 0 -0.25103143345639523 -0.21724688681321891 0 -0.21201774175915139 -0.2290986139018284 0 -0.22630383013383959 -0.21240708539258099 0 -0.22837296648480071 -0.23789375384220129 0 -0.22630383013383959 -0.21240708539258099 0 -0.22837296648480071 -0.23789375384220129 0 -0.25103143345639523 -0.21724688681321891 0 -0.22837296648480071 -0.23789375384220129 0 -0.25431856302814809 -0.24833495949118861 0 -0.25103143345639523 -0.21724688681321891 0 -0.2335542019388327 -0.26090262277066528 0 -0.22837296648480071 -0.23789375384220129 0 -0.25431856302814809 -0.24833495949118861 0 -0.20708483324238849 -0.15128624944667929 0 -0.22647357207813959 -0.15205360930679629 0 -0.2195633859389316 -0.1340578990397249 0 -0.20708483324238849 -0.15128624944667929 0 -0.19823449762692411 -0.13229999761030051 0 -0.2195633859389316 -0.1340578990397249 0 -0.19823449762692411 -0.13229999761030051 0 -0.2195633859389316 -0.1340578990397249 0 -0.21022893699736381 -0.1097241998529486 0 -0.17775058767377289 -0.13584559103097291 0 -0.19823449762692411 -0.13229999761030051 0 -0.1894311146879058 -0.1465309504005988 0 -0.20708483324238849 -0.15128624944667929 0 -0.1894311146879058 -0.1465309504005988 0 -0.19351686899232889 -0.15854259719770419 0 -0.20708483324238849 -0.15128624944667929 0 -0.19823449762692411 -0.13229999761030051 0 -0.1894311146879058 -0.1465309504005988 0 -0.20708483324238849 -0.15128624944667929 0 -0.19351686899232889 -0.15854259719770419 0 -0.19880271024428661 -0.17007658736909009 0 -0.18239484980351819 -0.16464781923938721 0 -0.1894311146879058 -0.1465309504005988 0 -0.19351686899232889 -0.15854259719770419 0 -0.18239484980351819 -0.16464781923938721 0 -0.19351686899232889 -0.15854259719770419 0 -0.19880271024428661 -0.17007658736909009 0 -0.18239484980351819 -0.16464781923938721 0 -0.19880271024428661 -0.17007658736909009 0 -0.1907059301477185 -0.18468107337543721 0 -0.19880271024428661 -0.17007658736909009 0 -0.1907059301477185 -0.18468107337543721 0 -0.2038146335316797 -0.1820121315948606 0 -0.20187756758401409 -0.19506767240709361 0 -0.1907059301477185 -0.18468107337543721 0 -0.2038146335316797 -0.1820121315948606 0 -0.21557055542943429 -0.1904257004922347 0 -0.2038146335316797 -0.1820121315948606 0 -0.21355186476225221 -0.16985639920369799 0 -0.19880271024428661 -0.17007658736909009 0 -0.2038146335316797 -0.1820121315948606 0 -0.21355186476225221 -0.16985639920369799 0 -0.20708483324238849 -0.15128624944667929 0 -0.21355186476225221 -0.16985639920369799 0 -0.22647357207813959 -0.15205360930679629 0 -0.20708483324238849 -0.15128624944667929 0 -0.19880271024428661 -0.17007658736909009 0 -0.21355186476225221 -0.16985639920369799 0 -0.22956488404758479 -0.1732841170125273 0 -0.2435592126657353 -0.1561425335328199 0 -0.22647357207813959 -0.15205360930679629 0 -0.21355186476225221 -0.16985639920369799 0 -0.22956488404758479 -0.1732841170125273 0 -0.22647357207813959 -0.15205360930679629 0 -0.21557055542943429 -0.1904257004922347 0 -0.21355186476225221 -0.16985639920369799 0 -0.22956488404758479 -0.1732841170125273 0 -0.21557055542943429 -0.1904257004922347 0 -0.22956488404758479 -0.1732841170125273 0 -0.21557055542943429 -0.1904257004922347 0 -0.23533053747689989 -0.1962925907305976 0 -0.22956488404758479 -0.1732841170125273 0 -0.23533053747689989 -0.1962925907305976 0 -0.22956488404758479 -0.1732841170125273 0 -0.25418198431724581 -0.18809916394242601 0 -0.22956488404758479 -0.1732841170125273 0 -0.25418198431724581 -0.18809916394242601 0 -0.2565438833259911 -0.1687602707777138 0 -0.22956488404758479 -0.1732841170125273 0 -0.2435592126657353 -0.1561425335328199 0 -0.22956488404758479 -0.1732841170125273 0 -0.2435592126657353 -0.1561425335328199 0 -0.2565438833259911 -0.1687602707777138 0 -0.2435592126657353 -0.1561425335328199 0 -0.22647357207813959 -0.15205360930679629 0 -0.2432602079730701 -0.13485583854350039 0 -0.22647357207813959 -0.15205360930679629 0 -0.2195633859389316 -0.1340578990397249 0 -0.2432602079730701 -0.13485583854350039 0 -0.2195633859389316 -0.1340578990397249 0 -0.2432602079730701 -0.13485583854350039 0 -0.23065476516460279 -0.11957242830579699 0 -0.2432602079730701 -0.13485583854350039 0 -0.2499653418643101 -0.1102460646797562 0 -0.23065476516460279 -0.11957242830579699 0 -0.2499653418643101 -0.1102460646797562 0 -0.2308399038819596 -0.1034577205422559 0 -0.23065476516460279 -0.11957242830579699 0 -0.2308399038819596 -0.1034577205422559 0 -0.25308440776240432 -0.086371671251396109 0 -0.2499653418643101 -0.1102460646797562 0 -0.2308399038819596 -0.1034577205422559 0 -0.25308440776240432 -0.086371671251396109 0 -0.2308399038819596 -0.1034577205422559 0 -0.21022893699736381 -0.1097241998529486 0 -0.21520721362926831 -0.098298511723915558 0 -0.2308399038819596 -0.1034577205422559 0 -0.22013457808717909 -0.089221868029860679 0 -0.21520721362926831 -0.098298511723915558 0 -0.2308399038819596 -0.1034577205422559 0 -0.23065476516460279 -0.11957242830579699 0 -0.21022893699736381 -0.1097241998529486 0 -0.2195633859389316 -0.1340578990397249 0 -0.23065476516460279 -0.11957242830579699 0 -0.21022893699736381 -0.1097241998529486 0 -0.2335598957907816 -0.079883889973887123 0 -0.24475965461883589 -0.059498385283178377 0 -0.2582325144520296 -0.070050845257802419 0 -0.2335598957907816 -0.079883889973887123 0 -0.2582325144520296 -0.070050845257802419 0 -0.25308440776240432 -0.086371671251396109 0 -0.2308399038819596 -0.1034577205422559 0 -0.2335598957907816 -0.079883889973887123 0 -0.25308440776240432 -0.086371671251396109 0 -0.2308399038819596 -0.1034577205422559 0 -0.22013457808717909 -0.089221868029860679 0 -0.2335598957907816 -0.079883889973887123 0 -0.22013457808717909 -0.089221868029860679 0 -0.2335598957907816 -0.079883889973887123 0 -0.21963876375789801 -0.077814354495200549 0 -0.2335598957907816 -0.079883889973887123 0 -0.21595644614104051 -0.065738508165203102 0 -0.24475965461883589 -0.059498385283178377 0 -0.21595644614104051 -0.065738508165203102 0 -0.24475965461883589 -0.059498385283178377 0 -0.2335598957907816 -0.079883889973887123 0 -0.21963876375789801 -0.077814354495200549 0 -0.21595644614104051 -0.065738508165203102 0 -0.20438945881064449 -0.068244458930106389 0 -0.21100771399754009 -0.086966924160961745 0 -0.21595644614104051 -0.065738508165203102 0 -0.21100771399754009 -0.086966924160961745 0 -0.20438945881064449 -0.068244458930106389 0 -0.21595644614104051 -0.065738508165203102 0 -0.21100771399754009 -0.086966924160961745 0 -0.21963876375789801 -0.077814354495200549 0 -0.21595644614104051 -0.065738508165203102 0 -0.21100771399754009 -0.086966924160961745 0 -0.20438945881064449 -0.068244458930106389 0 -0.21595644614104051 -0.065738508165203102 0 -0.20438945881064449 -0.068244458930106389 0 -0.21595644614104051 -0.065738508165203102 0 -0.20711132549122371 -0.057203435059411119 0 -0.20438945881064449 -0.068244458930106389 0 -0.21100771399754009 -0.086966924160961745 0 -0.19851231957361129 -0.085310821531315487 0 -0.22013457808717909 -0.089221868029860679 0 -0.21963876375789801 -0.077814354495200549 0 -0.21100771399754009 -0.086966924160961745 0 -0.22013457808717909 -0.089221868029860679 0 -0.21100771399754009 -0.086966924160961745 0 -0.21520721362926831 -0.098298511723915558 0 -0.21100771399754009 -0.086966924160961745 0 -0.19851231957361129 -0.085310821531315487 0 -0.20550431009004061 -0.095676697317907802 0 -0.21100771399754009 -0.086966924160961745 0 -0.21520721362926831 -0.098298511723915558 0 -0.20550431009004061 -0.095676697317907802 0 -0.19851231957361129 -0.085310821531315487 0 -0.18118326058104209 -0.08825419183970401 0 -0.18409944718507371 -0.07264022497537044 0 -0.19851231957361129 -0.085310821531315487 0 -0.19294566676858971 -0.096864600750783431 0 -0.18118326058104209 -0.08825419183970401 0 -0.19851231957361129 -0.085310821531315487 0 -0.20550431009004061 -0.095676697317907802 0 -0.19294566676858971 -0.096864600750783431 0 -0.20438945881064449 -0.068244458930106389 0 -0.19851231957361129 -0.085310821531315487 0 -0.18409944718507371 -0.07264022497537044 0 -0.20438945881064449 -0.068244458930106389 0 -0.18409944718507371 -0.07264022497537044 0 -0.18769526278089041 -0.057829612445021099 0 -0.20438945881064449 -0.068244458930106389 0 -0.18409944718507371 -0.07264022497537044 0 -0.21022893699736381 -0.1097241998529486 0 -0.21520721362926831 -0.098298511723915558 0 -0.20550431009004061 -0.095676697317907802 0 -0.21022893699736381 -0.1097241998529486 0 -0.20550431009004061 -0.095676697317907802 0 -0.19294566676858971 -0.096864600750783431 0 -0.19294566676858971 -0.096864600750783431 0 -0.18534812722118199 -0.1163550958908785 0 -0.21022893699736381 -0.1097241998529486 0 -0.19294566676858971 -0.096864600750783431 0 -0.18534812722118199 -0.1163550958908785 0 -0.19823449762692411 -0.13229999761030051 0 -0.21022893699736381 -0.1097241998529486 0 -0.18534812722118199 -0.1163550958908785 0 -0.18534812722118199 -0.1163550958908785 0 -0.17423934197139679 -0.1017815859784342 0 -0.15606779039194271 -0.1160101434681408 0 -0.17775058767377289 -0.13584559103097291 0 -0.18534812722118199 -0.1163550958908785 0 -0.15606779039194271 -0.1160101434681408 0 -0.16057304666404501 -0.10079887419961479 0 -0.17423934197139679 -0.1017815859784342 0 -0.15606779039194271 -0.1160101434681408 0 -0.16057304666404501 -0.10079887419961479 0 -0.16746185343044401 -0.091445336260546128 0 -0.1570966781871318 -0.090327755750333361 0 -0.16057304666404501 -0.10079887419961479 0 -0.17423934197139679 -0.1017815859784342 0 -0.16746185343044401 -0.091445336260546128 0 -0.17423934197139679 -0.1017815859784342 0 -0.18118326058104209 -0.08825419183970401 0 -0.16746185343044401 -0.091445336260546128 0 -0.19294566676858971 -0.096864600750783431 0 -0.18534812722118199 -0.1163550958908785 0 -0.17423934197139679 -0.1017815859784342 0 -0.19294566676858971 -0.096864600750783431 0 -0.17423934197139679 -0.1017815859784342 0 -0.18118326058104209 -0.08825419183970401 0 -0.18118326058104209 -0.08825419183970401 0 -0.18409944718507371 -0.07264022497537044 0 -0.16915717098214109 -0.081397787743409861 0 -0.18118326058104209 -0.08825419183970401 0 -0.16746185343044401 -0.091445336260546128 0 -0.16915717098214109 -0.081397787743409861 0 -0.18409944718507371 -0.07264022497537044 0 -0.1702117591297739 -0.06777753321031553 0 -0.16380943555950259 -0.077035991020633382 0 -0.18409944718507371 -0.07264022497537044 0 -0.16380943555950259 -0.077035991020633382 0 -0.16915717098214109 -0.081397787743409861 0 -0.18409944718507371 -0.07264022497537044 0 -0.17187825396406881 -0.057945450019426657 0 -0.18769526278089041 -0.057829612445021099 0 -0.18409944718507371 -0.07264022497537044 0 -0.16380943555950259 -0.077035991020633382 0 -0.18409944718507371 -0.07264022497537044 0 -0.1702117591297739 -0.06777753321031553 0 -0.17187825396406881 -0.057945450019426657 0 -0.16380943555950259 -0.077035991020633382 0 -0.16105989981045041 -0.063488466825831633 0 -0.14595160177326619 -0.062470528310013429 0 -0.1702117591297739 -0.06777753321031553 0 -0.16105989981045041 -0.063488466825831633 0 -0.17187825396406881 -0.057945450019426657 0 -0.1702117591297739 -0.06777753321031553 0 -0.16380943555950259 -0.077035991020633382 0 -0.16105989981045041 -0.063488466825831633 0 -0.16380943555950259 -0.077035991020633382 0 -0.16109871639751261 -0.084134952385501949 0 -0.14796844382834351 -0.080467891152587012 0 -0.16746185343044401 -0.091445336260546128 0 -0.16915717098214109 -0.081397787743409861 0 -0.16109871639751261 -0.084134952385501949 0 -0.16380943555950259 -0.077035991020633382 0 -0.16915717098214109 -0.081397787743409861 0 -0.16109871639751261 -0.084134952385501949 0 -0.16380943555950259 -0.077035991020633382 0 -0.16915717098214109 -0.081397787743409861 0 -0.16746185343044401 -0.091445336260546128 0 -0.16109871639751261 -0.084134952385501949 0 -0.1570966781871318 -0.090327755750333361 0 -0.16380943555950259 -0.077035991020633382 0 -0.14796844382834351 -0.080467891152587012 0 -0.14796844382834351 -0.080467891152587012 0 -0.13497135686491851 -0.078315161523928284 0 -0.1484932433812913 -0.094043062253026791 0 -0.1570966781871318 -0.090327755750333361 0 -0.14796844382834351 -0.080467891152587012 0 -0.1484932433812913 -0.094043062253026791 0 -0.16109871639751261 -0.084134952385501949 0 -0.1570966781871318 -0.090327755750333361 0 -0.14796844382834351 -0.080467891152587012 0 -0.16380943555950259 -0.077035991020633382 0 -0.14796844382834351 -0.080467891152587012 0 -0.14595160177326619 -0.062470528310013429 0 -0.16380943555950259 -0.077035991020633382 0 -0.14595160177326619 -0.062470528310013429 0 -0.14796844382834351 -0.080467891152587012 0 -0.13497135686491851 -0.078315161523928284 0 -0.14595160177326619 -0.062470528310013429 0 -0.1158705629695205 -0.060236298698018297 0 -0.13497135686491851 -0.078315161523928284 0 -0.1158705629695205 -0.060236298698018297 0 -0.13497135686491851 -0.078315161523928284 0 -0.13122182239868371 -0.062231763532838429 0 -0.13497135686491851 -0.078315161523928284 0 -0.13122182239868371 -0.062231763532838429 0 -0.14595160177326619 -0.062470528310013429 0 -0.112702195828283 -0.076339248342475546 0 -0.13497135686491851 -0.078315161523928284 0 -0.13438499311011279 -0.096174695905308166 0 -0.13497135686491851 -0.078315161523928284 0 -0.13438499311011279 -0.096174695905308166 0 -0.1484932433812913 -0.094043062253026791 0 -0.11276894493928399 -0.097790936300085646 0 -0.13438499311011279 -0.096174695905308166 0 -0.1306137014228527 -0.1212095633787966 0 -0.13438499311011279 -0.096174695905308166 0 -0.1306137014228527 -0.1212095633787966 0 -0.15606779039194271 -0.1160101434681408 0 -0.15406265534163929 -0.1294064941378926 0 -0.1306137014228527 -0.1212095633787966 0 -0.15606779039194271 -0.1160101434681408 0 -0.13438499311011279 -0.096174695905308166 0 -0.15606779039194271 -0.1160101434681408 0 -0.1484932433812913 -0.094043062253026791 0 -0.16057304666404501 -0.10079887419961479 0 -0.15606779039194271 -0.1160101434681408 0 -0.1484932433812913 -0.094043062253026791 0 -0.13438499311011279 -0.096174695905308166 0 -0.15606779039194271 -0.1160101434681408 0 -0.16057304666404501 -0.10079887419961479 0 -0.1570966781871318 -0.090327755750333361 0 -0.1484932433812913 -0.094043062253026791 0 -0.14513665439653431 -0.02122229521611602 0 -0.15148395360685291 -0.031475856168514699 0 -0.16129500549156001 -0.024264335985147129 0 -0.14513665439653431 -0.02122229521611602 0 -0.1346415055917565 -0.031432898451717602 0 -0.15148395360685291 -0.031475856168514699 0 -0.14513665439653431 -0.02122229521611602 0 -0.15327979458335059 -0.01391829646419882 0 -0.16129500549156001 -0.024264335985147129 0 -0.1412848112475209 -0.008091449167619497 0 -0.15773416148281841 -0.0035868741371463562 0 -0.14801408494475049 0.0031182785745780331 0 -0.15327979458335059 -0.01391829646419882 0 -0.1412848112475209 -0.008091449167619497 0 -0.15773416148281841 -0.0035868741371463562 0 -0.14513665439653431 -0.02122229521611602 0 -0.15327979458335059 -0.01391829646419882 0 -0.1412848112475209 -0.008091449167619497 0 -0.1236693299605585 -0.0137973575501921 0 -0.1412848112475209 -0.008091449167619497 0 -0.12735709500343681 0.004015926865657337 0 -0.1412848112475209 -0.008091449167619497 0 -0.12735709500343681 0.004015926865657337 0 -0.14801408494475049 0.0031182785745780331 0 -0.1236693299605585 -0.0137973575501921 0 -0.1412848112475209 -0.008091449167619497 0 -0.13426109495296229 -0.02049569832685658 0 -0.1236693299605585 -0.0137973575501921 0 -0.1221370268088495 -0.025998648103035 0 -0.13426109495296229 -0.02049569832685658 0 -0.14513665439653431 -0.02122229521611602 0 -0.1412848112475209 -0.008091449167619497 0 -0.13426109495296229 -0.02049569832685658 0 -0.14513665439653431 -0.02122229521611602 0 -0.13426109495296229 -0.02049569832685658 0 -0.1346415055917565 -0.031432898451717602 0 -0.1221370268088495 -0.025998648103035 0 -0.12530131535501859 -0.034952786400489197 0 -0.1346415055917565 -0.031432898451717602 0 -0.1221370268088495 -0.025998648103035 0 -0.13426109495296229 -0.02049569832685658 0 -0.1346415055917565 -0.031432898451717602 0 -0.12530131535501859 -0.034952786400489197 0 -0.1346415055917565 -0.031432898451717602 0 -0.12809376798702951 -0.047905065599393698 0 -0.1346415055917565 -0.031432898451717602 0 -0.12809376798702951 -0.047905065599393698 0 -0.14629371500633531 -0.042796653234188263 0 -0.12809376798702951 -0.047905065599393698 0 -0.14595160177326619 -0.062470528310013429 0 -0.12809376798702951 -0.047905065599393698 0 -0.14595160177326619 -0.062470528310013429 0 -0.14629371500633531 -0.042796653234188263 0 -0.13122182239868371 -0.062231763532838429 0 -0.12809376798702951 -0.047905065599393698 0 -0.14595160177326619 -0.062470528310013429 0 -0.1158705629695205 -0.060236298698018297 0 -0.13122182239868371 -0.062231763532838429 0 -0.12809376798702951 -0.047905065599393698 0 -0.14595160177326619 -0.062470528310013429 0 -0.14629371500633531 -0.042796653234188263 0 -0.15696853651444401 -0.052603520026387289 0 -0.16105989981045041 -0.063488466825831633 0 -0.14595160177326619 -0.062470528310013429 0 -0.15696853651444401 -0.052603520026387289 0 -0.15148395360685291 -0.031475856168514699 0 -0.14629371500633531 -0.042796653234188263 0 -0.16402488563849801 -0.041062174760887443 0 -0.1346415055917565 -0.031432898451717602 0 -0.15148395360685291 -0.031475856168514699 0 -0.14629371500633531 -0.042796653234188263 0 -0.14629371500633531 -0.042796653234188263 0 -0.16402488563849801 -0.041062174760887443 0 -0.15696853651444401 -0.052603520026387289 0 -0.15148395360685291 -0.031475856168514699 0 -0.16402488563849801 -0.041062174760887443 0 -0.16129500549156001 -0.024264335985147129 0 -0.16402488563849801 -0.041062174760887443 0 -0.17409393016306191 -0.030370879776367592 0 -0.16129500549156001 -0.024264335985147129 0 -0.16402488563849801 -0.041062174760887443 0 -0.15696853651444401 -0.052603520026387289 0 -0.17187825396406881 -0.057945450019426657 0 -0.16105989981045041 -0.063488466825831633 0 -0.15696853651444401 -0.052603520026387289 0 -0.17187825396406881 -0.057945450019426657 0 -0.16402488563849801 -0.041062174760887443 0 -0.17187825396406881 -0.057945450019426657 0 -0.18133558272394029 -0.043618149437272283 0 -0.17187825396406881 -0.057945450019426657 0 -0.18133558272394029 -0.043618149437272283 0 -0.18769526278089041 -0.057829612445021099 0 -0.18133558272394029 -0.043618149437272283 0 -0.17409393016306191 -0.030370879776367592 0 -0.18915768363079971 -0.025155098795753519 0 -0.16402488563849801 -0.041062174760887443 0 -0.18133558272394029 -0.043618149437272283 0 -0.17409393016306191 -0.030370879776367592 0 -0.17409393016306191 -0.030370879776367592 0 -0.17549551533112251 -0.014893414490097231 0 -0.18915768363079971 -0.025155098795753519 0 -0.16129500549156001 -0.024264335985147129 0 -0.16350931143073591 -0.01273440345064396 0 -0.17549551533112251 -0.014893414490097231 0 -0.17409393016306191 -0.030370879776367592 0 -0.16129500549156001 -0.024264335985147129 0 -0.17549551533112251 -0.014893414490097231 0 -0.15327979458335059 -0.01391829646419882 0 -0.16129500549156001 -0.024264335985147129 0 -0.16350931143073591 -0.01273440345064396 0 -0.15773416148281841 -0.0035868741371463562 0 -0.16716832075785379 -0.0032078365625175 0 -0.1619193683370386 0.0066468078375689294 0 -0.15773416148281841 -0.0035868741371463562 0 -0.16350931143073591 -0.01273440345064396 0 -0.16716832075785379 -0.0032078365625175 0 -0.15327979458335059 -0.01391829646419882 0 -0.15773416148281841 -0.0035868741371463562 0 -0.16350931143073591 -0.01273440345064396 0 -0.16350931143073591 -0.01273440345064396 0 -0.16716832075785379 -0.0032078365625175 0 -0.17549551533112251 -0.014893414490097231 0 -0.17549551533112251 -0.014893414490097231 0 -0.18154179604087481 -0.0036104187285780349 0 -0.18915768363079971 -0.025155098795753519 0 -0.18154179604087481 -0.0036104187285780349 0 -0.18915768363079971 -0.025155098795753519 0 -0.17549551533112251 -0.014893414490097231 0 -0.17584419881677341 0.0071523107965592754 0 -0.17549551533112251 -0.014893414490097231 0 -0.18154179604087481 -0.0036104187285780349 0 -0.17584419881677341 0.0071523107965592754 0 -0.16716832075785379 -0.0032078365625175 0 -0.17549551533112251 -0.014893414490097231 0 -0.17584419881677341 0.0071523107965592754 0 -0.18154179604087481 -0.0036104187285780349 0 -0.19066530249761049 -0.0041303576494283751 0 -0.18915768363079971 -0.025155098795753519 0 -0.18154179604087481 -0.0036104187285780349 0 -0.19066530249761049 -0.0041303576494283751 0 -0.18717715497560061 0.0062623078557712403 0 -0.19066530249761049 -0.0041303576494283751 0 -0.1989264366345522 -0.0080023544535597537 0 -0.18915768363079971 -0.025155098795753519 0 -0.19066530249761049 -0.0041303576494283751 0 -0.1989264366345522 -0.0080023544535597537 0 -0.1965234412062255 0.0098537758749781944 0 -0.1989264366345522 -0.0080023544535597537 0 -0.2007918169376324 -0.0191738513677071 0 -0.20680177871376751 -0.0119671669755851 0 -0.18915768363079971 -0.025155098795753519 0 -0.2007918169376324 -0.0191738513677071 0 -0.21013076049929519 -0.028334228638799381 0 -0.1989264366345522 -0.0080023544535597537 0 -0.18915768363079971 -0.025155098795753519 0 -0.2007918169376324 -0.0191738513677071 0 -0.2007918169376324 -0.0191738513677071 0 -0.21013076049929519 -0.028334228638799381 0 -0.20680177871376751 -0.0119671669755851 0 -0.21013076049929519 -0.028334228638799381 0 -0.21702438745170211 -0.0043907958627755336 0 -0.21921501925093501 -0.017985606360015789 0 -0.21013076049929519 -0.028334228638799381 0 -0.21702438745170211 -0.0043907958627755336 0 -0.21013076049929519 -0.028334228638799381 0 -0.22271521407306469 -0.037269361340154371 0 -0.21921501925093501 -0.017985606360015789 0 -0.21013076049929519 -0.028334228638799381 0 -0.21702438745170211 -0.0043907958627755336 0 -0.20680177871376751 -0.0119671669755851 0 -0.1989264366345522 -0.0080023544535597537 0 -0.20680177871376751 -0.0119671669755851 0 -0.20713549204565579 6.5395444916274768e-05 0 -0.21702438745170211 -0.0043907958627755336 0 -0.20680177871376751 -0.0119671669755851 0 -0.20713549204565579 6.5395444916274768e-05 0 -0.20438945881064449 -0.068244458930106389 0 -0.1967735712207245 -0.046699778862929052 0 -0.20438945881064449 -0.068244458930106389 0 -0.18769526278089041 -0.057829612445021099 0 -0.1967735712207245 -0.046699778862929052 0 -0.20438945881064449 -0.068244458930106389 0 -0.1967735712207245 -0.046699778862929052 0 -0.20711132549122371 -0.057203435059411119 0 -0.18133558272394029 -0.043618149437272283 0 -0.18769526278089041 -0.057829612445021099 0 -0.1967735712207245 -0.046699778862929052 0 -0.18133558272394029 -0.043618149437272283 0 -0.18915768363079971 -0.025155098795753519 0 -0.1967735712207245 -0.046699778862929052 0 -0.18915768363079971 -0.025155098795753519 0 -0.1967735712207245 -0.046699778862929052 0 -0.18915768363079971 -0.025155098795753519 0 -0.21013076049929519 -0.028334228638799381 0 -0.1967735712207245 -0.046699778862929052 0 -0.21013076049929519 -0.028334228638799381 0 -0.21132582579248671 -0.048130994279405613 0 -0.22271521407306469 -0.037269361340154371 0 -0.21013076049929519 -0.028334228638799381 0 -0.1967735712207245 -0.046699778862929052 0 -0.21132582579248671 -0.048130994279405613 0 -0.21595644614104051 -0.065738508165203102 0 -0.21132582579248671 -0.048130994279405613 0 -0.22271521407306469 -0.037269361340154371 0 -0.21595644614104051 -0.065738508165203102 0 -0.21132582579248671 -0.048130994279405613 0 -0.20711132549122371 -0.057203435059411119 0 -0.1967735712207245 -0.046699778862929052 0 -0.21132582579248671 -0.048130994279405613 0 -0.20711132549122371 -0.057203435059411119 0 -0.21595644614104051 -0.065738508165203102 0 -0.2284172135094342 -0.053659916570315727 0 -0.24475965461883589 -0.059498385283178377 0 -0.21595644614104051 -0.065738508165203102 0 -0.2284172135094342 -0.053659916570315727 0 -0.22271521407306469 -0.037269361340154371 0 -0.21595644614104051 -0.065738508165203102 0 -0.22271521407306469 -0.037269361340154371 0 -0.2284172135094342 -0.053659916570315727 0 -0.22271521407306469 -0.037269361340154371 0 -0.23903543051913109 -0.043198085603962481 0 -0.22271521407306469 -0.037269361340154371 0 -0.23903543051913109 -0.043198085603962481 0 -0.24161885061771041 -0.026720350447010301 0 -0.23903543051913109 -0.043198085603962481 0 -0.24161885061771041 -0.026720350447010301 0 -0.25766621977661042 -0.038842414379153638 0 -0.23903543051913109 -0.043198085603962481 0 -0.24475965461883589 -0.059498385283178377 0 -0.25766621977661042 -0.038842414379153638 0 -0.2284172135094342 -0.053659916570315727 0 -0.23903543051913109 -0.043198085603962481 0 -0.24475965461883589 -0.059498385283178377 0 -0.22947398200509031 -0.0088002145151058891 0 -0.22867745033346079 0.0038692188645070222 0 -0.2401015516947359 0.00075261550232862703 0 -0.21702438745170211 -0.0043907958627755336 0 -0.22947398200509031 -0.0088002145151058891 0 -0.22867745033346079 0.0038692188645070222 0 -0.21702438745170211 -0.0043907958627755336 0 -0.22947398200509031 -0.0088002145151058891 0 -0.21921501925093501 -0.017985606360015789 0 -0.22271521407306469 -0.037269361340154371 0 -0.22947398200509031 -0.0088002145151058891 0 -0.21921501925093501 -0.017985606360015789 0 -0.22271521407306469 -0.037269361340154371 0 -0.22947398200509031 -0.0088002145151058891 0 -0.22271521407306469 -0.037269361340154371 0 -0.22947398200509031 -0.0088002145151058891 0 -0.24161885061771041 -0.026720350447010301 0 -0.22947398200509031 -0.0088002145151058891 0 -0.24161885061771041 -0.026720350447010301 0 -0.2437457614006571 -0.011962382738850049 0 -0.24161885061771041 -0.026720350447010301 0 -0.2437457614006571 -0.011962382738850049 0 -0.2598032925822476 -0.0188915667982569 0 -0.22947398200509031 -0.0088002145151058891 0 -0.2437457614006571 -0.011962382738850049 0 -0.2401015516947359 0.00075261550232862703 0 -0.2437457614006571 -0.011962382738850049 0 -0.25267499080189931 -0.0034516002120552492 0 -0.2401015516947359 0.00075261550232862703 0 -0.25267499080189931 -0.0034516002120552492 0 -0.2598032925822476 -0.0188915667982569 0 -0.26909988492935111 -0.0018655285383734981 0 -0.2437457614006571 -0.011962382738850049 0 -0.25267499080189931 -0.0034516002120552492 0 -0.2598032925822476 -0.0188915667982569 0 -0.2598032925822476 -0.0188915667982569 0 -0.27267419604841259 -0.026924212746328481 0 -0.25766621977661042 -0.038842414379153638 0 -0.24161885061771041 -0.026720350447010301 0 -0.2598032925822476 -0.0188915667982569 0 -0.25766621977661042 -0.038842414379153638 0 -0.2598032925822476 -0.0188915667982569 0 -0.27267419604841259 -0.026924212746328481 0 -0.27804425228895369 -0.016131696666228459 0 -0.27267419604841259 -0.026924212746328481 0 -0.27804425228895369 -0.016131696666228459 0 -0.28378415359151371 -0.031280105512012511 0 -0.27804425228895369 -0.016131696666228459 0 -0.26909988492935111 -0.0018655285383734981 0 -0.2917254884257266 -0.0017566381736345419 0 -0.2598032925822476 -0.0188915667982569 0 -0.27804425228895369 -0.016131696666228459 0 -0.26909988492935111 -0.0018655285383734981 0 -0.27804425228895369 -0.016131696666228459 0 -0.2917254884257266 -0.0017566381736345419 0 -0.2928870998243559 -0.020527937726781 0 -0.27804425228895369 -0.016131696666228459 0 -0.2928870998243559 -0.020527937726781 0 -0.28378415359151371 -0.031280105512012511 0 -0.2928870998243559 -0.020527937726781 0 -0.29943422057661201 -0.032203920876667472 0 -0.28378415359151371 -0.031280105512012511 0 -0.2928870998243559 -0.020527937726781 0 -0.31144738423897378 -0.02126732740536201 0 -0.29943422057661201 -0.032203920876667472 0 -0.31144738423897378 -0.02126732740536201 0 -0.31110423911055801 -0.035316851109560482 0 -0.29943422057661201 -0.032203920876667472 0 -0.2917254884257266 -0.0017566381736345419 0 -0.31144738423897378 -0.02126732740536201 0 -0.31177688145040278 0.0050359958776742568 0 -0.2917254884257266 -0.0017566381736345419 0 -0.2928870998243559 -0.020527937726781 0 -0.31144738423897378 -0.02126732740536201 0 -0.2917254884257266 -0.0017566381736345419 0 -0.31144738423897378 -0.02126732740536201 0 -0.30323190850646392 -0.052883144282766713 0 -0.3023660715744253 -0.047018139519123002 0 -0.29757341552329353 -0.05219957266967655 0 -0.29931176789370939 -0.061629941742321552 0 -0.30659897303184058 -0.057135789817405573 0 -0.30728911182784302 -0.064893595009923935 0 -0.30323190850646392 -0.052883144282766713 0 -0.29931176789370939 -0.061629941742321552 0 -0.30659897303184058 -0.057135789817405573 0 -0.30323190850646392 -0.052883144282766713 0 -0.29757341552329353 -0.05219957266967655 0 -0.29931176789370939 -0.061629941742321552 0 -0.30659897303184058 -0.057135789817405573 0 -0.30728911182784302 -0.064893595009923935 0 -0.31405483352543062 -0.056831087900065053 0 -0.30323190850646392 -0.052883144282766713 0 -0.3023660715744253 -0.047018139519123002 0 -0.31025625293594222 -0.050033124508212908 0 -0.30659897303184058 -0.057135789817405573 0 -0.31025625293594222 -0.050033124508212908 0 -0.31405483352543062 -0.056831087900065053 0 -0.30323190850646392 -0.052883144282766713 0 -0.30659897303184058 -0.057135789817405573 0 -0.31025625293594222 -0.050033124508212908 0 -0.3023660715744253 -0.047018139519123002 0 -0.31110423911055801 -0.035316851109560482 0 -0.29943422057661201 -0.032203920876667472 0 -0.3023660715744253 -0.047018139519123002 0 -0.29943422057661201 -0.032203920876667472 0 -0.29166722635019171 -0.038853801873014321 0 -0.29943422057661201 -0.032203920876667472 0 -0.29166722635019171 -0.038853801873014321 0 -0.28378415359151371 -0.031280105512012511 0 -0.3023660715744253 -0.047018139519123002 0 -0.29166722635019171 -0.038853801873014321 0 -0.28390051605192418 -0.042754285685484159 0 -0.29166722635019171 -0.038853801873014321 0 -0.28378415359151371 -0.031280105512012511 0 -0.28390051605192418 -0.042754285685484159 0 -0.3023660715744253 -0.047018139519123002 0 -0.28390051605192418 -0.042754285685484159 0 -0.27356286309663053 -0.053258262401150697 0 -0.3023660715744253 -0.047018139519123002 0 -0.27356286309663053 -0.053258262401150697 0 -0.29757341552329353 -0.05219957266967655 0 -0.27356286309663053 -0.053258262401150697 0 -0.27532891164284878 -0.069285621960536392 0 -0.29757341552329353 -0.05219957266967655 0 -0.27532891164284878 -0.069285621960536392 0 -0.3023660715744253 -0.047018139519123002 0 -0.29757341552329353 -0.05219957266967655 0 -0.27356286309663053 -0.053258262401150697 0 -0.29757341552329353 -0.05219957266967655 0 -0.29931176789370939 -0.061629941742321552 0 -0.27532891164284878 -0.069285621960536392 0 -0.27267419604841259 -0.026924212746328481 0 -0.27375437843427658 -0.039043607324579933 0 -0.25766621977661042 -0.038842414379153638 0 -0.27356286309663053 -0.053258262401150697 0 -0.27375437843427658 -0.039043607324579933 0 -0.25766621977661042 -0.038842414379153638 0 -0.28378415359151371 -0.031280105512012511 0 -0.28390051605192418 -0.042754285685484159 0 -0.27375437843427658 -0.039043607324579933 0 -0.27267419604841259 -0.026924212746328481 0 -0.28378415359151371 -0.031280105512012511 0 -0.27375437843427658 -0.039043607324579933 0 -0.28390051605192418 -0.042754285685484159 0 -0.27356286309663053 -0.053258262401150697 0 -0.27375437843427658 -0.039043607324579933 0 -0.24475965461883589 -0.059498385283178377 0 -0.27356286309663053 -0.053258262401150697 0 -0.2582325144520296 -0.070050845257802419 0 -0.24475965461883589 -0.059498385283178377 0 -0.27356286309663053 -0.053258262401150697 0 -0.24475965461883589 -0.059498385283178377 0 -0.27356286309663053 -0.053258262401150697 0 -0.25766621977661042 -0.038842414379153638 0 -0.2582325144520296 -0.070050845257802419 0 -0.25308440776240432 -0.086371671251396109 0 -0.27532891164284878 -0.069285621960536392 0 -0.25308440776240432 -0.086371671251396109 0 -0.27532891164284878 -0.069285621960536392 0 -0.25308440776240432 -0.086371671251396109 0 -0.27361062541114611 -0.085405998149086934 0 -0.26907394573302829 -0.10103393024372311 0 -0.27361062541114611 -0.085405998149086934 0 -0.26907394573302829 -0.10103393024372311 0 -0.28494676303449051 -0.09097811142482605 0 -0.25308440776240432 -0.086371671251396109 0 -0.27361062541114611 -0.085405998149086934 0 -0.27532891164284878 -0.069285621960536392 0 -0.27356286309663053 -0.053258262401150697 0 -0.2582325144520296 -0.070050845257802419 0 -0.27532891164284878 -0.069285621960536392 0 -0.27361062541114611 -0.085405998149086934 0 -0.27532891164284878 -0.069285621960536392 0 -0.28561909888295839 -0.079360655864953042 0 -0.2432602079730701 -0.13485583854350039 0 -0.2499653418643101 -0.1102460646797562 0 -0.26490928006600228 -0.12397715003998409 0 -0.2499653418643101 -0.1102460646797562 0 -0.26490928006600228 -0.12397715003998409 0 -0.26907394573302829 -0.10103393024372311 0 -0.2499653418643101 -0.1102460646797562 0 -0.25308440776240432 -0.086371671251396109 0 -0.26907394573302829 -0.10103393024372311 0 -0.26907394573302829 -0.10103393024372311 0 -0.28789548083438649 -0.11161882002010511 0 -0.28494676303449051 -0.09097811142482605 0 -0.26490928006600228 -0.12397715003998409 0 -0.28789548083438649 -0.11161882002010511 0 -0.28428672055728371 -0.13281235115180859 0 -0.26490928006600228 -0.12397715003998409 0 -0.26907394573302829 -0.10103393024372311 0 -0.28789548083438649 -0.11161882002010511 0 -0.28789548083438649 -0.11161882002010511 0 -0.28428672055728371 -0.13281235115180859 0 -0.30877835781368662 -0.12931532841693749 0 -0.28789548083438649 -0.11161882002010511 0 -0.29765529442092259 -0.094840601490837839 0 -0.28494676303449051 -0.09097811142482605 0 -0.30761934067920371 -0.1042503242997595 0 -0.29765529442092259 -0.094840601490837839 0 -0.30832877355579341 -0.086934752854072747 0 -0.30761934067920371 -0.1042503242997595 0 -0.30832877355579341 -0.086934752854072747 0 -0.31968159473222052 -0.091584555267719248 0 -0.28789548083438649 -0.11161882002010511 0 -0.30761934067920371 -0.1042503242997595 0 -0.29765529442092259 -0.094840601490837839 0 -0.28789548083438649 -0.11161882002010511 0 -0.30761934067920371 -0.1042503242997595 0 -0.30877835781368662 -0.12931532841693749 0 -0.29931176789370939 -0.061629941742321552 0 -0.27532891164284878 -0.069285621960536392 0 -0.29568251685582603 -0.071589435967753134 0 -0.27532891164284878 -0.069285621960536392 0 -0.29568251685582603 -0.071589435967753134 0 -0.28561909888295839 -0.079360655864953042 0 -0.29568251685582603 -0.071589435967753134 0 -0.28561909888295839 -0.079360655864953042 0 -0.29849490204505058 -0.081938345925378783 0 -0.27361062541114611 -0.085405998149086934 0 -0.28561909888295839 -0.079360655864953042 0 -0.28494676303449051 -0.09097811142482605 0 -0.29765529442092259 -0.094840601490837839 0 -0.28494676303449051 -0.09097811142482605 0 -0.29849490204505058 -0.081938345925378783 0 -0.28561909888295839 -0.079360655864953042 0 -0.28494676303449051 -0.09097811142482605 0 -0.29849490204505058 -0.081938345925378783 0 -0.29849490204505058 -0.081938345925378783 0 -0.30832877355579341 -0.086934752854072747 0 -0.3066986514807607 -0.074546990101646726 0 -0.29765529442092259 -0.094840601490837839 0 -0.29849490204505058 -0.081938345925378783 0 -0.30832877355579341 -0.086934752854072747 0 -0.30832877355579341 -0.086934752854072747 0 -0.3066986514807607 -0.074546990101646726 0 -0.31636087034116728 -0.076704125898778439 0 -0.3066986514807607 -0.074546990101646726 0 -0.31411021802290889 -0.069356746280106005 0 -0.31636087034116728 -0.076704125898778439 0 -0.29568251685582603 -0.071589435967753134 0 -0.29849490204505058 -0.081938345925378783 0 -0.3066986514807607 -0.074546990101646726 0 -0.29568251685582603 -0.071589435967753134 0 -0.3066986514807607 -0.074546990101646726 0 -0.30728911182784302 -0.064893595009923935 0 -0.29931176789370939 -0.061629941742321552 0 -0.29568251685582603 -0.071589435967753134 0 -0.30728911182784302 -0.064893595009923935 0 -0.3066986514807607 -0.074546990101646726 0 -0.30728911182784302 -0.064893595009923935 0 -0.31411021802290889 -0.069356746280106005 0 -0.30728911182784302 -0.064893595009923935 0 -0.31630436981946819 -0.062936971351065629 0 -0.31411021802290889 -0.069356746280106005 0 -0.31630436981946819 -0.062936971351065629 0 -0.31411021802290889 -0.069356746280106005 0 -0.32389808664530562 -0.067702049039115322 0 -0.31630436981946819 -0.062936971351065629 0 -0.32389808664530562 -0.067702049039115322 0 -0.32481687078849097 -0.058022226865728103 0 -0.32389808664530562 -0.067702049039115322 0 -0.3259684841043719 -0.075020057435826168 0 -0.31636087034116728 -0.076704125898778439 0 -0.31411021802290889 -0.069356746280106005 0 -0.32389808664530562 -0.067702049039115322 0 -0.31636087034116728 -0.076704125898778439 0 -0.30832877355579341 -0.086934752854072747 0 -0.32608803180755441 -0.084321365842938284 0 -0.30832877355579341 -0.086934752854072747 0 -0.31968159473222052 -0.091584555267719248 0 -0.32608803180755441 -0.084321365842938284 0 -0.30832877355579341 -0.086934752854072747 0 -0.31636087034116728 -0.076704125898778439 0 -0.32608803180755441 -0.084321365842938284 0 -0.31968159473222052 -0.091584555267719248 0 -0.32608803180755441 -0.084321365842938284 0 -0.3259684841043719 -0.075020057435826168 0 -0.31636087034116728 -0.076704125898778439 0 -0.32608803180755441 -0.084321365842938284 0 -0.31968159473222052 -0.091584555267719248 0 -0.32608803180755441 -0.084321365842938284 0 -0.34030971713070318 -0.087052614945596102 0 -0.32608803180755441 -0.084321365842938284 0 -0.34030971713070318 -0.087052614945596102 0 -0.34745734249292459 -0.081176736816750444 0 -0.32608803180755441 -0.084321365842938284 0 -0.33752694762346008 -0.07135268896247253 0 -0.34745734249292459 -0.081176736816750444 0 -0.32608803180755441 -0.084321365842938284 0 -0.34745734249292459 -0.081176736816750444 0 -0.33752694762346008 -0.07135268896247253 0 -0.3489658634393657 -0.058384012082006782 0 -0.33645864726091979 -0.05858208772264157 0 -0.33752694762346008 -0.07135268896247253 0 -0.3489658634393657 -0.058384012082006782 0 -0.32389808664530562 -0.067702049039115322 0 -0.33752694762346008 -0.07135268896247253 0 -0.33645864726091979 -0.05858208772264157 0 -0.3259684841043719 -0.075020057435826168 0 -0.32608803180755441 -0.084321365842938284 0 -0.33752694762346008 -0.07135268896247253 0 -0.32608803180755441 -0.084321365842938284 0 -0.33752694762346008 -0.07135268896247253 0 -0.32389808664530562 -0.067702049039115322 0 -0.3259684841043719 -0.075020057435826168 0 -0.33752694762346008 -0.07135268896247253 0 -0.32454403747219479 -0.1081839716812668 0 -0.30877835781368662 -0.12931532841693749 0 -0.30761934067920371 -0.1042503242997595 0 -0.32454403747219479 -0.1081839716812668 0 -0.30877835781368662 -0.12931532841693749 0 -0.32454403747219479 -0.1081839716812668 0 -0.33570809008837621 -0.11845594114356341 0 -0.30877835781368662 -0.12931532841693749 0 -0.30761934067920371 -0.1042503242997595 0 -0.31968159473222052 -0.091584555267719248 0 -0.32454403747219479 -0.1081839716812668 0 -0.34030971713070318 -0.087052614945596102 0 -0.32454403747219479 -0.1081839716812668 0 -0.34278855512837281 -0.1049294584887832 0 -0.31968159473222052 -0.091584555267719248 0 -0.34030971713070318 -0.087052614945596102 0 -0.32454403747219479 -0.1081839716812668 0 -0.34030971713070318 -0.087052614945596102 0 -0.32454403747219479 -0.1081839716812668 0 -0.32454403747219479 -0.1081839716812668 0 -0.34278855512837281 -0.1049294584887832 0 -0.33570809008837621 -0.11845594114356341 0 -0.33570809008837621 -0.11845594114356341 0 -0.35404294059136687 -0.1217835462641018 0 -0.33688620478323589 -0.13358080389391511 0 -0.34278855512837281 -0.1049294584887832 0 -0.35404294059136687 -0.1217835462641018 0 -0.35932798989652742 -0.1047455147758234 0 -0.34278855512837281 -0.1049294584887832 0 -0.33570809008837621 -0.11845594114356341 0 -0.35404294059136687 -0.1217835462641018 0 -0.34278855512837281 -0.1049294584887832 0 -0.35932798989652742 -0.1047455147758234 0 -0.35079718399447979 -0.093651592615473511 0 -0.34030971713070318 -0.087052614945596102 0 -0.34278855512837281 -0.1049294584887832 0 -0.35079718399447979 -0.093651592615473511 0 -0.35932798989652742 -0.1047455147758234 0 -0.35079718399447979 -0.093651592615473511 0 -0.36132419909701757 -0.091459041133748031 0 -0.35932798989652742 -0.1047455147758234 0 -0.37367929427193591 -0.1014825750548952 0 -0.37212838853434238 -0.11808059788504249 0 -0.35932798989652742 -0.1047455147758234 0 -0.37367929427193591 -0.1014825750548952 0 -0.36132419909701757 -0.091459041133748031 0 -0.35404294059136687 -0.1217835462641018 0 -0.37212838853434238 -0.11808059788504249 0 -0.37028068739271691 -0.13083580994494901 0 -0.35404294059136687 -0.1217835462641018 0 -0.35932798989652742 -0.1047455147758234 0 -0.37212838853434238 -0.11808059788504249 0 -0.35069420168351129 -0.07223638641294812 0 -0.34745734249292459 -0.081176736816750444 0 -0.36882665317829499 -0.078032107790563188 0 -0.36882665317829499 -0.078032107790563188 0 -0.3489658634393657 -0.058384012082006782 0 -0.35069420168351129 -0.07223638641294812 0 -0.36882665317829499 -0.078032107790563188 0 -0.3489658634393657 -0.058384012082006782 0 -0.33752694762346008 -0.07135268896247253 0 -0.35069420168351129 -0.07223638641294812 0 -0.3489658634393657 -0.058384012082006782 0 -0.33752694762346008 -0.07135268896247253 0 -0.35069420168351129 -0.07223638641294812 0 -0.34745734249292459 -0.081176736816750444 0 -0.34745734249292459 -0.081176736816750444 0 -0.36882665317829499 -0.078032107790563188 0 -0.34745734249292459 -0.081176736816750444 0 -0.36132419909701757 -0.091459041133748031 0 -0.36882665317829499 -0.078032107790563188 0 -0.34030971713070318 -0.087052614945596102 0 -0.34745734249292459 -0.081176736816750444 0 -0.35079718399447979 -0.093651592615473511 0 -0.34745734249292459 -0.081176736816750444 0 -0.35079718399447979 -0.093651592615473511 0 -0.36132419909701757 -0.091459041133748031 0 -0.37367929427193591 -0.1014825750548952 0 -0.36132419909701757 -0.091459041133748031 0 -0.36882665317829499 -0.078032107790563188 0 -0.36882665317829499 -0.078032107790563188 0 -0.36862349457690058 -0.057461967220355487 0 -0.3489658634393657 -0.058384012082006782 0 -0.36882665317829499 -0.078032107790563188 0 -0.36862349457690058 -0.057461967220355487 0 -0.37947166312044489 -0.067272628224985004 0 -0.36862349457690058 -0.057461967220355487 0 -0.3489658634393657 -0.058384012082006782 0 -0.36066681755822472 -0.045118253717945672 0 -0.36862349457690058 -0.057461967220355487 0 -0.37355784227175309 -0.045246792894939887 0 -0.3815482533063424 -0.052412606119804542 0 -0.36862349457690058 -0.057461967220355487 0 -0.36066681755822472 -0.045118253717945672 0 -0.37355784227175309 -0.045246792894939887 0 -0.3489658634393657 -0.058384012082006782 0 -0.36066681755822472 -0.045118253717945672 0 -0.3489658634393657 -0.058384012082006782 0 -0.34511111307690212 -0.046137334811030092 0 -0.36066681755822472 -0.045118253717945672 0 -0.35304062521722218 -0.036039659744318157 0 -0.3553139768507978 -0.023567241021099371 0 -0.33371347875736079 -0.040226824134751989 0 -0.34511111307690212 -0.046137334811030092 0 -0.35304062521722218 -0.036039659744318157 0 -0.33371347875736079 -0.040226824134751989 0 -0.34511111307690212 -0.046137334811030092 0 -0.35304062521722218 -0.036039659744318157 0 -0.36066681755822472 -0.045118253717945672 0 -0.36066681755822472 -0.045118253717945672 0 -0.37236777167708351 -0.031852495353884333 0 -0.35304062521722218 -0.036039659744318157 0 -0.37236777167708351 -0.031852495353884333 0 -0.35304062521722218 -0.036039659744318157 0 -0.36066681755822472 -0.045118253717945672 0 -0.37236777167708351 -0.031852495353884333 0 -0.36066681755822472 -0.045118253717945672 0 -0.37355784227175309 -0.045246792894939887 0 -0.37236777167708351 -0.031852495353884333 0 -0.37236777167708351 -0.031852495353884333 0 -0.3739022591900184 -0.02415390189740213 0 -0.36770044175442279 -0.02036669541201027 0 -0.37236777167708351 -0.031852495353884333 0 -0.36770044175442279 -0.02036669541201027 0 -0.3553139768507978 -0.023567241021099371 0 -0.36770044175442279 -0.02036669541201027 0 -0.35847393927256738 -0.010652033510738681 0 -0.38297625517291389 -0.017448943304264108 0 -0.35304062521722218 -0.036039659744318157 0 -0.37236777167708351 -0.031852495353884333 0 -0.3553139768507978 -0.023567241021099371 0 -0.3739022591900184 -0.02415390189740213 0 -0.36770044175442279 -0.02036669541201027 0 -0.38297625517291389 -0.017448943304264108 0 -0.36770044175442279 -0.02036669541201027 0 -0.35847393927256738 -0.010652033510738681 0 -0.3553139768507978 -0.023567241021099371 0 -0.35847393927256738 -0.010652033510738681 0 -0.38297625517291389 -0.017448943304264108 0 -0.37278444596104371 -0.0079457960458173115 0 -0.35847393927256738 -0.010652033510738681 0 -0.38297625517291389 -0.017448943304264108 0 -0.37474494217865062 -0.0022388935110706832 0 -0.37278444596104371 -0.0079457960458173115 0 -0.36307869926690151 -0.00068504054922277494 0 -0.37278444596104371 -0.0079457960458173115 0 -0.36307869926690151 -0.00068504054922277494 0 -0.35847393927256738 -0.010652033510738681 0 -0.36307869926690151 -0.00068504054922277494 0 -0.34718119132474479 -0.01384164818341615 0 -0.36064890389212972 0.0125435277679194 0 -0.36307869926690151 -0.00068504054922277494 0 -0.35847393927256738 -0.010652033510738681 0 -0.34718119132474479 -0.01384164818341615 0 -0.34718119132474479 -0.01384164818341615 0 -0.36064890389212972 0.0125435277679194 0 -0.34718119132474479 -0.01384164818341615 0 -0.3553139768507978 -0.023567241021099371 0 -0.33371347875736079 -0.040226824134751989 0 -0.35847393927256738 -0.010652033510738681 0 -0.34718119132474479 -0.01384164818341615 0 -0.3553139768507978 -0.023567241021099371 0 -0.34718119132474479 -0.01384164818341615 0 -0.33035884889608558 -0.02420969997450095 0 -0.33371347875736079 -0.040226824134751989 0 -0.34718119132474479 -0.01384164818341615 0 -0.33371347875736079 -0.040226824134751989 0 -0.34718119132474479 -0.01384164818341615 0 -0.32828291010712762 -0.0049346835118845543 0 -0.34055428987364128 0.0059527955302196532 0 -0.34718119132474479 -0.01384164818341615 0 -0.33035884889608558 -0.02420969997450095 0 -0.32828291010712762 -0.0049346835118845543 0 -0.31144738423897378 -0.02126732740536201 0 -0.32828291010712762 -0.0049346835118845543 0 -0.31177688145040278 0.0050359958776742568 0 -0.31144738423897378 -0.02126732740536201 0 -0.33116928005221918 -0.040778016637091109 0 -0.31144738423897378 -0.02126732740536201 0 -0.33035884889608558 -0.02420969997450095 0 -0.32828291010712762 -0.0049346835118845543 0 -0.31144738423897378 -0.02126732740536201 0 -0.33035884889608558 -0.02420969997450095 0 -0.33116928005221918 -0.040778016637091109 0 -0.3023660715744253 -0.047018139519123002 0 -0.31110423911055801 -0.035316851109560482 0 -0.33116928005221918 -0.040778016637091109 0 -0.3023660715744253 -0.047018139519123002 0 -0.31025625293594222 -0.050033124508212908 0 -0.33116928005221918 -0.040778016637091109 0 -0.3023660715744253 -0.047018139519123002 0 -0.33116928005221918 -0.040778016637091109 0 -0.31144738423897378 -0.02126732740536201 0 -0.31110423911055801 -0.035316851109560482 0 -0.33116928005221918 -0.040778016637091109 0 -0.31025625293594222 -0.050033124508212908 0 -0.31770057673851387 -0.05020147555903863 0 -0.33116928005221918 -0.040778016637091109 0 -0.31025625293594222 -0.050033124508212908 0 -0.31770057673851387 -0.05020147555903863 0 -0.31405483352543062 -0.056831087900065053 0 -0.31770057673851387 -0.05020147555903863 0 -0.31405483352543062 -0.056831087900065053 0 -0.31936567051967829 -0.054711673150449433 0 -0.31630436981946819 -0.062936971351065629 0 -0.31936567051967829 -0.054711673150449433 0 -0.32481687078849097 -0.058022226865728103 0 -0.30728911182784302 -0.064893595009923935 0 -0.31630436981946819 -0.062936971351065629 0 -0.31405483352543062 -0.056831087900065053 0 -0.31630436981946819 -0.062936971351065629 0 -0.31405483352543062 -0.056831087900065053 0 -0.31936567051967829 -0.054711673150449433 0 -0.31770057673851387 -0.05020147555903863 0 -0.32448711316898249 -0.050622394842538963 0 -0.33116928005221918 -0.040778016637091109 0 -0.31936567051967829 -0.054711673150449433 0 -0.32481687078849097 -0.058022226865728103 0 -0.32448711316898249 -0.050622394842538963 0 -0.31770057673851387 -0.05020147555903863 0 -0.31936567051967829 -0.054711673150449433 0 -0.32448711316898249 -0.050622394842538963 0 -0.32481687078849097 -0.058022226865728103 0 -0.32770904195502032 -0.053173566283506987 0 -0.32448711316898249 -0.050622394842538963 0 -0.32770904195502032 -0.053173566283506987 0 -0.32448711316898249 -0.050622394842538963 0 -0.32972533979495861 -0.048040159006195682 0 -0.3489658634393657 -0.058384012082006782 0 -0.34511111307690212 -0.046137334811030092 0 -0.3326728772282519 -0.042265511425067279 0 -0.32972533979495861 -0.048040159006195682 0 -0.33645864726091979 -0.05858208772264157 0 -0.3326728772282519 -0.042265511425067279 0 -0.3489658634393657 -0.058384012082006782 0 -0.3326728772282519 -0.042265511425067279 0 -0.32770904195502032 -0.053173566283506987 0 -0.32972533979495861 -0.048040159006195682 0 -0.33645864726091979 -0.05858208772264157 0 -0.3489658634393657 -0.058384012082006782 0 -0.33645864726091979 -0.05858208772264157 0 -0.3326728772282519 -0.042265511425067279 0 -0.32389808664530562 -0.067702049039115322 0 -0.32481687078849097 -0.058022226865728103 0 -0.33645864726091979 -0.05858208772264157 0 -0.32481687078849097 -0.058022226865728103 0 -0.32770904195502032 -0.053173566283506987 0 -0.33645864726091979 -0.05858208772264157 0 -0.34511111307690212 -0.046137334811030092 0 -0.33371347875736079 -0.040226824134751989 0 -0.3326728772282519 -0.042265511425067279 0 -0.33035884889608558 -0.02420969997450095 0 -0.33116928005221918 -0.040778016637091109 0 -0.33371347875736079 -0.040226824134751989 0 -0.35304062521722218 -0.036039659744318157 0 -0.33371347875736079 -0.040226824134751989 0 -0.32448711316898249 -0.050622394842538963 0 -0.32972533979495861 -0.048040159006195682 0 -0.33116928005221918 -0.040778016637091109 0 -0.33116928005221918 -0.040778016637091109 0 -0.3326728772282519 -0.042265511425067279 0 -0.32972533979495861 -0.048040159006195682 0 -0.3326728772282519 -0.042265511425067279 0 -0.32972533979495861 -0.048040159006195682 0 -0.33116928005221918 -0.040778016637091109 0 -0.3326728772282519 -0.042265511425067279 0 -0.33116928005221918 -0.040778016637091109 0 -0.33371347875736079 -0.040226824134751989 0 -0.33116928005221918 -0.040778016637091109 0 -0.33371347875736079 -0.040226824134751989 0 -0.3326728772282519 -0.042265511425067279 0 -0.33371347875736079 -0.040226824134751989 0 -0.3326728772282519 -0.042265511425067279 0 -0.2907170577323625 -0.25177677077710309 0 -0.30853150187083839 -0.25429835417001312 0 -0.30748271917561598 -0.2431056607245809 0 -0.30748271917561598 -0.2431056607245809 0 -0.3004866401015065 -0.2269264896544945 0 -0.32066485276457768 -0.2334308190911655 0 -0.2907170577323625 -0.25177677077710309 0 -0.30748271917561598 -0.2431056607245809 0 -0.3004866401015065 -0.2269264896544945 0 -0.30853150187083839 -0.25429835417001312 0 -0.30748271917561598 -0.2431056607245809 0 -0.32023222063025569 -0.2489608815952247 0 -0.3004866401015065 -0.2269264896544945 0 -0.27575903677895092 -0.22208668823385669 0 -0.3004866401015065 -0.2269264896544945 0 -0.27309361240676189 -0.24179026653703889 0 -0.27575903677895092 -0.22208668823385669 0 -0.3004866401015065 -0.2269264896544945 0 -0.27575903677895092 -0.22208668823385669 0 -0.29482007196541532 -0.2089319155152673 0 -0.2907170577323625 -0.25177677077710309 0 -0.3004866401015065 -0.2269264896544945 0 -0.27309361240676189 -0.24179026653703889 0 -0.27309361240676189 -0.24179026653703889 0 -0.25431856302814809 -0.24833495949118861 0 -0.25103143345639523 -0.21724688681321891 0 -0.27575903677895092 -0.22208668823385669 0 -0.25103143345639523 -0.21724688681321891 0 -0.27309361240676189 -0.24179026653703889 0 -0.27575903677895092 -0.22208668823385669 0 -0.25103143345639523 -0.21724688681321891 0 -0.27575903677895092 -0.22208668823385669 0 -0.25103143345639523 -0.21724688681321891 0 -0.27708552823660842 -0.19790031786117671 0 -0.25103143345639523 -0.21724688681321891 0 -0.25418198431724581 -0.18809916394242601 0 -0.27708552823660842 -0.19790031786117671 0 -0.27708552823660842 -0.19790031786117671 0 -0.29482007196541532 -0.2089319155152673 0 -0.30195969341908391 -0.19078830755985379 0 -0.29482007196541532 -0.2089319155152673 0 -0.30195969341908391 -0.19078830755985379 0 -0.32674672588845421 -0.2120308859258328 0 -0.3004866401015065 -0.2269264896544945 0 -0.29482007196541532 -0.2089319155152673 0 -0.32674672588845421 -0.2120308859258328 0 -0.27575903677895092 -0.22208668823385669 0 -0.27708552823660842 -0.19790031786117671 0 -0.29482007196541532 -0.2089319155152673 0 -0.30195969341908391 -0.19078830755985379 0 -0.30674796742087651 -0.1684647150882764 0 -0.32123008678095788 -0.18729232698745699 0 -0.30674796742087651 -0.1684647150882764 0 -0.2930126781551784 -0.15044668515260809 0 -0.3206808779707625 -0.15110047818677941 0 -0.27724699849667023 -0.17157804188827869 0 -0.2930126781551784 -0.15044668515260809 0 -0.30674796742087651 -0.1684647150882764 0 -0.27724699849667023 -0.17157804188827869 0 -0.2930126781551784 -0.15044668515260809 0 -0.27708552823660842 -0.19790031786117671 0 -0.30195969341908391 -0.19078830755985379 0 -0.27724699849667023 -0.17157804188827869 0 -0.30195969341908391 -0.19078830755985379 0 -0.30674796742087651 -0.1684647150882764 0 -0.27724699849667023 -0.17157804188827869 0 -0.25418198431724581 -0.18809916394242601 0 -0.27708552823660842 -0.19790031786117671 0 -0.27724699849667023 -0.17157804188827869 0 -0.25418198431724581 -0.18809916394242601 0 -0.2565438833259911 -0.1687602707777138 0 -0.27724699849667023 -0.17157804188827869 0 -0.2435592126657353 -0.1561425335328199 0 -0.2565438833259911 -0.1687602707777138 0 -0.26683780591716472 -0.14870377212940841 0 -0.27724699849667023 -0.17157804188827869 0 -0.26683780591716472 -0.14870377212940841 0 -0.2930126781551784 -0.15044668515260809 0 -0.2565438833259911 -0.1687602707777138 0 -0.27724699849667023 -0.17157804188827869 0 -0.26683780591716472 -0.14870377212940841 0 -0.2435592126657353 -0.1561425335328199 0 -0.2432602079730701 -0.13485583854350039 0 -0.26683780591716472 -0.14870377212940841 0 -0.2432602079730701 -0.13485583854350039 0 -0.26490928006600228 -0.12397715003998409 0 -0.26683780591716472 -0.14870377212940841 0 -0.26490928006600228 -0.12397715003998409 0 -0.26683780591716472 -0.14870377212940841 0 -0.28428672055728371 -0.13281235115180859 0 -0.28428672055728371 -0.13281235115180859 0 -0.2930126781551784 -0.15044668515260809 0 -0.30877835781368662 -0.12931532841693749 0 -0.26683780591716472 -0.14870377212940841 0 -0.28428672055728371 -0.13281235115180859 0 -0.2930126781551784 -0.15044668515260809 0 -0.2930126781551784 -0.15044668515260809 0 -0.30877835781368662 -0.12931532841693749 0 -0.3206808779707625 -0.15110047818677941 0 -0.2930126781551784 -0.15044668515260809 0 -0.30877835781368662 -0.12931532841693749 0 -0.33570809008837621 -0.11845594114356341 0 -0.30877835781368662 -0.12931532841693749 0 -0.33688620478323589 -0.13358080389391511 0 -0.30877835781368662 -0.12931532841693749 0 -0.3206808779707625 -0.15110047818677941 0 -0.33688620478323589 -0.13358080389391511 0 -0.3206808779707625 -0.15110047818677941 0 -0.33688620478323589 -0.13358080389391511 0 -0.34399943231138669 -0.15408109000358611 0 -0.33688620478323589 -0.13358080389391511 0 -0.35929992868189681 -0.1386942596847188 0 -0.35404294059136687 -0.1217835462641018 0 -0.33688620478323589 -0.13358080389391511 0 -0.35929992868189681 -0.1386942596847188 0 -0.35404294059136687 -0.1217835462641018 0 -0.35929992868189681 -0.1386942596847188 0 -0.37028068739271691 -0.13083580994494901 0 -0.35929992868189681 -0.1386942596847188 0 -0.37028068739271691 -0.13083580994494901 0 -0.3804539816512269 -0.14482329966991631 0 -0.35929992868189681 -0.1386942596847188 0 -0.3804539816512269 -0.14482329966991631 0 -0.35929992868189681 -0.1386942596847188 0 -0.3655172116091886 -0.15688196674787641 0 -0.3804539816512269 -0.14482329966991631 0 -0.3655172116091886 -0.15688196674787641 0 -0.3804539816512269 -0.14482329966991631 0 -0.3655172116091886 -0.15688196674787641 0 -0.37839901512320262 -0.15996290040625341 0 -0.3804539816512269 -0.14482329966991631 0 -0.33688620478323589 -0.13358080389391511 0 -0.35929992868189681 -0.1386942596847188 0 -0.34399943231138669 -0.15408109000358611 0 -0.35929992868189681 -0.1386942596847188 0 -0.34399943231138669 -0.15408109000358611 0 -0.3655172116091886 -0.15688196674787641 0 -0.34399943231138669 -0.15408109000358611 0 -0.35323542112630057 -0.1671812377988513 0 -0.3655172116091886 -0.15688196674787641 0 -0.3655172116091886 -0.15688196674787641 0 -0.37378547386561772 -0.17392500984250869 0 -0.37839901512320262 -0.15996290040625341 0 -0.35323542112630057 -0.1671812377988513 0 -0.3655172116091886 -0.15688196674787641 0 -0.37378547386561772 -0.17392500984250869 0 -0.37378547386561772 -0.17392500984250869 0 -0.35240556330307887 -0.18479875362473361 0 -0.36895563931783232 -0.19259611207654981 0 -0.35323542112630057 -0.1671812377988513 0 -0.37378547386561772 -0.17392500984250869 0 -0.35240556330307887 -0.18479875362473361 0 -0.35323542112630057 -0.1671812377988513 0 -0.35240556330307887 -0.18479875362473361 0 -0.33400288196205857 -0.17193246321376471 0 -0.35240556330307887 -0.18479875362473361 0 -0.33400288196205857 -0.17193246321376471 0 -0.33669316521431608 -0.19324526314955739 0 -0.33400288196205857 -0.17193246321376471 0 -0.32123008678095788 -0.18729232698745699 0 -0.33669316521431608 -0.19324526314955739 0 -0.3206808779707625 -0.15110047818677941 0 -0.34399943231138669 -0.15408109000358611 0 -0.33400288196205857 -0.17193246321376471 0 -0.34399943231138669 -0.15408109000358611 0 -0.35323542112630057 -0.1671812377988513 0 -0.33400288196205857 -0.17193246321376471 0 -0.30674796742087651 -0.1684647150882764 0 -0.3206808779707625 -0.15110047818677941 0 -0.33400288196205857 -0.17193246321376471 0 -0.30674796742087651 -0.1684647150882764 0 -0.33400288196205857 -0.17193246321376471 0 -0.32123008678095788 -0.18729232698745699 0 -0.30195969341908391 -0.19078830755985379 0 -0.32123008678095788 -0.18729232698745699 0 -0.32674672588845421 -0.2120308859258328 0 -0.32674672588845421 -0.2120308859258328 0 -0.35024140450074381 -0.20994798342056251 0 -0.32674672588845421 -0.2120308859258328 0 -0.33669316521431608 -0.19324526314955739 0 -0.35024140450074381 -0.20994798342056251 0 -0.32674672588845421 -0.2120308859258328 0 -0.35024140450074381 -0.20994798342056251 0 -0.3377174746324717 -0.2284461722996495 0 -0.32123008678095788 -0.18729232698745699 0 -0.32674672588845421 -0.2120308859258328 0 -0.33669316521431608 -0.19324526314955739 0 -0.35240556330307887 -0.18479875362473361 0 -0.36895563931783232 -0.19259611207654981 0 -0.35024140450074381 -0.20994798342056251 0 -0.35240556330307887 -0.18479875362473361 0 -0.33669316521431608 -0.19324526314955739 0 -0.35024140450074381 -0.20994798342056251 0 -0.36895563931783232 -0.19259611207654981 0 -0.37373608311303341 -0.20786508091529229 0 -0.35024140450074381 -0.20994798342056251 0 -0.37373608311303341 -0.20786508091529229 0 -0.35024140450074381 -0.20994798342056251 0 -0.37373608311303341 -0.20786508091529229 0 -0.35024140450074381 -0.20994798342056251 0 -0.36602803805366552 -0.21914337572849349 0 -0.37373608311303341 -0.20786508091529229 0 -0.36602803805366552 -0.21914337572849349 0 -0.37785639846487218 -0.21906994256996459 0 -0.35024140450074381 -0.20994798342056251 0 -0.357966965356528 -0.23170644806675769 0 -0.3377174746324717 -0.2284461722996495 0 -0.35024140450074381 -0.20994798342056251 0 -0.357966965356528 -0.23170644806675769 0 -0.36602803805366552 -0.21914337572849349 0 -0.357966965356528 -0.23170644806675769 0 -0.36602803805366552 -0.21914337572849349 0 -0.36983275924353248 -0.22875232439276311 0 -0.36602803805366552 -0.21914337572849349 0 -0.36983275924353248 -0.22875232439276311 0 -0.37785639846487218 -0.21906994256996459 0 -0.357966965356528 -0.23170644806675769 0 -0.36983275924353248 -0.22875232439276311 0 -0.37747963509906429 -0.24508953120583671 0 -0.35872453044413888 -0.25078889886649508 0 -0.357966965356528 -0.23170644806675769 0 -0.37747963509906429 -0.24508953120583671 0 -0.357966965356528 -0.23170644806675769 0 -0.34395992200845399 -0.24382677409400949 0 -0.3377174746324717 -0.2284461722996495 0 -0.35872453044413888 -0.25078889886649508 0 -0.357966965356528 -0.23170644806675769 0 -0.34395992200845399 -0.24382677409400949 0 -0.33345250408021371 -0.25331871279766999 0 -0.34395992200845399 -0.24382677409400949 0 -0.33132333615916232 -0.2411148243472106 0 -0.33345250408021371 -0.25331871279766999 0 -0.33132333615916232 -0.2411148243472106 0 -0.32023222063025569 -0.2489608815952247 0 -0.34395992200845399 -0.24382677409400949 0 -0.33132333615916232 -0.2411148243472106 0 -0.3377174746324717 -0.2284461722996495 0 -0.32674672588845421 -0.2120308859258328 0 -0.3377174746324717 -0.2284461722996495 0 -0.32066485276457768 -0.2334308190911655 0 -0.33132333615916232 -0.2411148243472106 0 -0.3377174746324717 -0.2284461722996495 0 -0.32066485276457768 -0.2334308190911655 0 -0.3004866401015065 -0.2269264896544945 0 -0.32674672588845421 -0.2120308859258328 0 -0.32066485276457768 -0.2334308190911655 0 -0.30748271917561598 -0.2431056607245809 0 -0.32066485276457768 -0.2334308190911655 0 -0.32023222063025569 -0.2489608815952247 0 -0.33132333615916232 -0.2411148243472106 0 -0.32066485276457768 -0.2334308190911655 0 -0.32023222063025569 -0.2489608815952247 0 -0.43445882011373449 -0.25478651907497341 0 -0.43806130733353449 -0.23541812032183559 0 -0.43445882011373449 -0.25478651907497341 0 -0.4258852610480256 -0.24284815888716721 0 -0.43806130733353449 -0.23541812032183559 0 -0.4258852610480256 -0.24284815888716721 0 -0.42538833238501789 -0.2333934851751748 0 -0.41698539980062188 -0.23875950084572559 0 -0.43445882011373449 -0.25478651907497341 0 -0.4258852610480256 -0.24284815888716721 0 -0.42335340856967768 -0.24893549408922019 0 -0.4258852610480256 -0.24284815888716721 0 -0.42538833238501789 -0.2333934851751748 0 -0.43806130733353449 -0.23541812032183559 0 -0.43091611572645672 -0.22699763907763329 0 -0.42538833238501789 -0.2333934851751748 0 -0.43806130733353449 -0.23541812032183559 0 -0.43091611572645672 -0.22699763907763329 0 -0.44166379455333399 -0.21604972156869759 0 -0.43806130733353449 -0.23541812032183559 0 -0.43091611572645672 -0.22699763907763329 0 -0.43133498143110582 -0.21921018883561361 0 -0.44166379455333399 -0.21604972156869759 0 -0.43133498143110582 -0.21921018883561361 0 -0.4232485836513401 -0.22477446532261011 0 -0.4232102070061276 -0.21869015764887889 0 -0.43091611572645672 -0.22699763907763329 0 -0.43133498143110582 -0.21921018883561361 0 -0.4232485836513401 -0.22477446532261011 0 -0.43091611572645672 -0.22699763907763329 0 -0.4232485836513401 -0.22477446532261011 0 -0.42538833238501789 -0.2333934851751748 0 -0.4232485836513401 -0.22477446532261011 0 -0.42538833238501789 -0.2333934851751748 0 -0.41731365953457839 -0.2310953018814938 0 -0.4232485836513401 -0.22477446532261011 0 -0.41731365953457839 -0.2310953018814938 0 -0.4121948509493269 -0.2247325638453028 0 -0.41731365953457839 -0.2310953018814938 0 -0.4080561583250083 -0.23272886934204159 0 -0.41698539980062188 -0.23875950084572559 0 -0.4232485836513401 -0.22477446532261011 0 -0.4121948509493269 -0.2247325638453028 0 -0.41685681033243982 -0.21746512418924929 0 -0.4232485836513401 -0.22477446532261011 0 -0.41685681033243982 -0.21746512418924929 0 -0.4232102070061276 -0.21869015764887889 0 -0.4121948509493269 -0.2247325638453028 0 -0.4080561583250083 -0.23272886934204159 0 -0.39971520205611372 -0.2221352637332015 0 -0.4121948509493269 -0.2247325638453028 0 -0.40807454407470489 -0.21592977391801271 0 -0.41685681033243982 -0.21746512418924929 0 -0.4121948509493269 -0.2247325638453028 0 -0.39971520205611372 -0.2221352637332015 0 -0.40807454407470489 -0.21592977391801271 0 -0.41731365953457839 -0.2310953018814938 0 -0.4121948509493269 -0.2247325638453028 0 -0.4080561583250083 -0.23272886934204159 0 -0.4080561583250083 -0.23272886934204159 0 -0.40983148527785651 -0.24118391776602099 0 -0.41698539980062188 -0.23875950084572559 0 -0.42538833238501789 -0.2333934851751748 0 -0.41731365953457839 -0.2310953018814938 0 -0.41698539980062188 -0.23875950084572559 0 -0.40983148527785651 -0.24118391776602099 0 -0.41698539980062188 -0.23875950084572559 0 -0.41627810448972868 -0.24641300060905449 0 -0.4258852610480256 -0.24284815888716721 0 -0.42335340856967768 -0.24893549408922019 0 -0.41627810448972868 -0.24641300060905449 0 -0.4258852610480256 -0.24284815888716721 0 -0.41698539980062188 -0.23875950084572559 0 -0.41627810448972868 -0.24641300060905449 0 -0.41679144862722167 -0.25169429778568547 0 -0.42335340856967768 -0.24893549408922019 0 -0.41627810448972868 -0.24641300060905449 0 -0.41385673751816382 -0.25312989710486528 0 -0.41627810448972868 -0.24641300060905449 0 -0.4086566941719203 -0.24778871483445111 0 -0.40983148527785651 -0.24118391776602099 0 -0.41627810448972868 -0.24641300060905449 0 -0.4086566941719203 -0.24778871483445111 0 -0.40282532782868952 -0.25224285689579767 0 -0.4086566941719203 -0.24778871483445111 0 -0.40022281387448849 -0.24084313907701979 0 -0.40983148527785651 -0.24118391776602099 0 -0.4086566941719203 -0.24778871483445111 0 -0.40022281387448849 -0.24084313907701979 0 -0.4080561583250083 -0.23272886934204159 0 -0.40983148527785651 -0.24118391776602099 0 -0.40022281387448849 -0.24084313907701979 0 -0.40022281387448849 -0.24084313907701979 0 -0.3903832871219331 -0.2411545733314838 0 -0.38772777019650018 -0.2315142496456449 0 -0.3938256931015453 -0.25037754026629511 0 -0.40022281387448849 -0.24084313907701979 0 -0.3903832871219331 -0.2411545733314838 0 -0.3938256931015453 -0.25037754026629511 0 -0.3903832871219331 -0.2411545733314838 0 -0.37747963509906429 -0.24508953120583671 0 -0.3903832871219331 -0.2411545733314838 0 -0.37747963509906429 -0.24508953120583671 0 -0.38772777019650018 -0.2315142496456449 0 -0.37747963509906429 -0.24508953120583671 0 -0.37785639846487218 -0.21906994256996459 0 -0.37747963509906429 -0.24508953120583671 0 -0.37785639846487218 -0.21906994256996459 0 -0.38772777019650018 -0.2315142496456449 0 -0.36983275924353248 -0.22875232439276311 0 -0.37747963509906429 -0.24508953120583671 0 -0.37785639846487218 -0.21906994256996459 0 -0.37785639846487218 -0.21906994256996459 0 -0.38772777019650018 -0.2315142496456449 0 -0.38790285805175961 -0.2167146319195192 0 -0.4080561583250083 -0.23272886934204159 0 -0.40022281387448849 -0.24084313907701979 0 -0.39971520205611372 -0.2221352637332015 0 -0.40022281387448849 -0.24084313907701979 0 -0.39971520205611372 -0.2221352637332015 0 -0.38772777019650018 -0.2315142496456449 0 -0.39971520205611372 -0.2221352637332015 0 -0.38790285805175961 -0.2167146319195192 0 -0.40022281387448849 -0.24084313907701979 0 -0.38772777019650018 -0.2315142496456449 0 -0.39971520205611372 -0.2221352637332015 0 -0.39971520205611372 -0.2221352637332015 0 -0.39723076172532301 -0.205782178410022 0 -0.40807454407470489 -0.21592977391801271 0 -0.39971520205611372 -0.2221352637332015 0 -0.39723076172532301 -0.205782178410022 0 -0.38790285805175961 -0.2167146319195192 0 -0.39723076172532301 -0.205782178410022 0 -0.41303892827123678 -0.21093405469715851 0 -0.40807454407470489 -0.21592977391801271 0 -0.37373608311303341 -0.20786508091529229 0 -0.39723076172532301 -0.205782178410022 0 -0.38370630256805799 -0.1971119561512929 0 -0.37373608311303341 -0.20786508091529229 0 -0.39723076172532301 -0.205782178410022 0 -0.38790285805175961 -0.2167146319195192 0 -0.37373608311303341 -0.20786508091529229 0 -0.39723076172532301 -0.205782178410022 0 -0.37373608311303341 -0.20786508091529229 0 -0.37785639846487218 -0.21906994256996459 0 -0.38790285805175961 -0.2167146319195192 0 -0.36895563931783232 -0.19259611207654981 0 -0.38370630256805799 -0.1971119561512929 0 -0.3831693110633177 -0.1873742460103984 0 -0.36895563931783232 -0.19259611207654981 0 -0.37373608311303341 -0.20786508091529229 0 -0.38370630256805799 -0.1971119561512929 0 -0.38370630256805799 -0.1971119561512929 0 -0.39543971762078378 -0.19194216334420211 0 -0.3831693110633177 -0.1873742460103984 0 -0.39723076172532301 -0.205782178410022 0 -0.38370630256805799 -0.1971119561512929 0 -0.39543971762078378 -0.19194216334420211 0 -0.39723076172532301 -0.205782178410022 0 -0.39543971762078378 -0.19194216334420211 0 -0.40534117689708921 -0.19634387975323889 0 -0.39543971762078378 -0.19194216334420211 0 -0.40534117689708921 -0.19634387975323889 0 -0.40730162077548249 -0.18407395049314179 0 -0.39723076172532301 -0.205782178410022 0 -0.40534117689708921 -0.19634387975323889 0 -0.42072544033761272 -0.20369927590475301 0 -0.42032122747045741 -0.1927313373696285 0 -0.42072544033761272 -0.20369927590475301 0 -0.40730162077548249 -0.18407395049314179 0 -0.42072544033761272 -0.20369927590475301 0 -0.40730162077548249 -0.18407395049314179 0 -0.40534117689708921 -0.19634387975323889 0 -0.42072544033761272 -0.20369927590475301 0 -0.40730162077548249 -0.18407395049314179 0 -0.39723076172532301 -0.205782178410022 0 -0.41303892827123678 -0.21093405469715851 0 -0.42072544033761272 -0.20369927590475301 0 -0.39723076172532301 -0.205782178410022 0 -0.42072544033761272 -0.20369927590475301 0 -0.41303892827123678 -0.21093405469715851 0 -0.40807454407470489 -0.21592977391801271 0 -0.41685681033243982 -0.21746512418924929 0 -0.41303892827123678 -0.21093405469715851 0 -0.41685681033243982 -0.21746512418924929 0 -0.42140045260962489 -0.21331085224804261 0 -0.41685681033243982 -0.21746512418924929 0 -0.42140045260962489 -0.21331085224804261 0 -0.4232102070061276 -0.21869015764887889 0 -0.41303892827123678 -0.21093405469715851 0 -0.42140045260962489 -0.21331085224804261 0 -0.42072544033761272 -0.20369927590475301 0 -0.42512182626149492 -0.2033095177213731 0 -0.43378961613155448 -0.20908682079381441 0 -0.44184138868315109 -0.20247798044170351 0 -0.42072544033761272 -0.20369927590475301 0 -0.42512182626149492 -0.2033095177213731 0 -0.43133498143110582 -0.21921018883561361 0 -0.42072544033761272 -0.20369927590475301 0 -0.42512182626149492 -0.2033095177213731 0 -0.43133498143110582 -0.21921018883561361 0 -0.42512182626149492 -0.2033095177213731 0 -0.43378961613155448 -0.20908682079381441 0 -0.43133498143110582 -0.21921018883561361 0 -0.42140045260962489 -0.21331085224804261 0 -0.4232102070061276 -0.21869015764887889 0 -0.43133498143110582 -0.21921018883561361 0 -0.42072544033761272 -0.20369927590475301 0 -0.43133498143110582 -0.21921018883561361 0 -0.42140045260962489 -0.21331085224804261 0 -0.42072544033761272 -0.20369927590475301 0 -0.43133498143110582 -0.21921018883561361 0 -0.43378961613155448 -0.20908682079381441 0 -0.44166379455333399 -0.21604972156869759 0 -0.42032122747045741 -0.1927313373696285 0 -0.44184138868315109 -0.20247798044170351 0 -0.42032122747045741 -0.1927313373696285 0 -0.43099962817645188 -0.18319011649723049 0 -0.43833565968517207 -0.19112957676178299 0 -0.42032122747045741 -0.1927313373696285 0 -0.42512182626149492 -0.2033095177213731 0 -0.44184138868315109 -0.20247798044170351 0 -0.42032122747045741 -0.1927313373696285 0 -0.43833565968517207 -0.19112957676178299 0 -0.44184138868315109 -0.20247798044170351 0 -0.42032122747045741 -0.1927313373696285 0 -0.42072544033761272 -0.20369927590475301 0 -0.42512182626149492 -0.2033095177213731 0 -0.42549584187692119 -0.17333418479170171 0 -0.43099962817645188 -0.18319011649723049 0 -0.41834400919125792 -0.18158621355319651 0 -0.42032122747045741 -0.1927313373696285 0 -0.43099962817645188 -0.18319011649723049 0 -0.41834400919125792 -0.18158621355319651 0 -0.43099962817645188 -0.18319011649723049 0 -0.43495901877196291 -0.17485617288990979 0 -0.44455133712372419 -0.18300714728765441 0 -0.42549584187692119 -0.17333418479170171 0 -0.43099962817645188 -0.18319011649723049 0 -0.43495901877196291 -0.17485617288990979 0 -0.42549584187692119 -0.17333418479170171 0 -0.43495901877196291 -0.17485617288990979 0 -0.43155613508544272 -0.1669321437644439 0 -0.43495901877196291 -0.17485617288990979 0 -0.43155613508544272 -0.1669321437644439 0 -0.44219215159727421 -0.16781727210851849 0 -0.43155613508544272 -0.1669321437644439 0 -0.43166640735559808 -0.1552039120346444 0 -0.44219215159727421 -0.16781727210851849 0 -0.43155613508544272 -0.1669321437644439 0 -0.4214232379976206 -0.16216052115063159 0 -0.43166640735559808 -0.1552039120346444 0 -0.42549584187692119 -0.17333418479170171 0 -0.43155613508544272 -0.1669321437644439 0 -0.4214232379976206 -0.16216052115063159 0 -0.42549584187692119 -0.17333418479170171 0 -0.4214232379976206 -0.16216052115063159 0 -0.41110577652129249 -0.1670682470007229 0 -0.4214232379976206 -0.16216052115063159 0 -0.41110577652129249 -0.1670682470007229 0 -0.40669002996807779 -0.1495058137550834 0 -0.41110577652129249 -0.1670682470007229 0 -0.41834400919125792 -0.18158621355319651 0 -0.40730162077548249 -0.18407395049314179 0 -0.42549584187692119 -0.17333418479170171 0 -0.41110577652129249 -0.1670682470007229 0 -0.41834400919125792 -0.18158621355319651 0 -0.42032122747045741 -0.1927313373696285 0 -0.41834400919125792 -0.18158621355319651 0 -0.40730162077548249 -0.18407395049314179 0 -0.39543971762078378 -0.19194216334420211 0 -0.40730162077548249 -0.18407395049314179 0 -0.39267839793348491 -0.17927693187167279 0 -0.40730162077548249 -0.18407395049314179 0 -0.39267839793348491 -0.17927693187167279 0 -0.39387780121335469 -0.16444862508152899 0 -0.40730162077548249 -0.18407395049314179 0 -0.39387780121335469 -0.16444862508152899 0 -0.37378547386561772 -0.17392500984250869 0 -0.36895563931783232 -0.19259611207654981 0 -0.3831693110633177 -0.1873742460103984 0 -0.37378547386561772 -0.17392500984250869 0 -0.39267839793348491 -0.17927693187167279 0 -0.3831693110633177 -0.1873742460103984 0 -0.37378547386561772 -0.17392500984250869 0 -0.39267839793348491 -0.17927693187167279 0 -0.39387780121335469 -0.16444862508152899 0 -0.39543971762078378 -0.19194216334420211 0 -0.39267839793348491 -0.17927693187167279 0 -0.3831693110633177 -0.1873742460103984 0 -0.37378547386561772 -0.17392500984250869 0 -0.37839901512320262 -0.15996290040625341 0 -0.39387780121335469 -0.16444862508152899 0 -0.37839901512320262 -0.15996290040625341 0 -0.39387780121335469 -0.16444862508152899 0 -0.3804539816512269 -0.14482329966991631 0 -0.41110577652129249 -0.1670682470007229 0 -0.39387780121335469 -0.16444862508152899 0 -0.40669002996807779 -0.1495058137550834 0 -0.41110577652129249 -0.1670682470007229 0 -0.40730162077548249 -0.18407395049314179 0 -0.39387780121335469 -0.16444862508152899 0 -0.39387780121335469 -0.16444862508152899 0 -0.3804539816512269 -0.14482329966991631 0 -0.40669002996807779 -0.1495058137550834 0 -0.3804539816512269 -0.14482329966991631 0 -0.39647179587780151 -0.13189450107720049 0 -0.40669002996807779 -0.1495058137550834 0 -0.3804539816512269 -0.14482329966991631 0 -0.40669002996807779 -0.1495058137550834 0 -0.39387780121335469 -0.16444862508152899 0 -0.3804539816512269 -0.14482329966991631 0 -0.3804539816512269 -0.14482329966991631 0 -0.38278168804071749 -0.12940228238898679 0 -0.39647179587780151 -0.13189450107720049 0 -0.3804539816512269 -0.14482329966991631 0 -0.39647179587780151 -0.13189450107720049 0 -0.37212838853434238 -0.11808059788504249 0 -0.37028068739271691 -0.13083580994494901 0 -0.38278168804071749 -0.12940228238898679 0 -0.37028068739271691 -0.13083580994494901 0 -0.3804539816512269 -0.14482329966991631 0 -0.38278168804071749 -0.12940228238898679 0 -0.38278168804071749 -0.12940228238898679 0 -0.39647179587780151 -0.13189450107720049 0 -0.39044023874876249 -0.11757149150947201 0 -0.39647179587780151 -0.13189450107720049 0 -0.40828286160401828 -0.1310364195873514 0 -0.40669002996807779 -0.1495058137550834 0 -0.39647179587780151 -0.13189450107720049 0 -0.40828286160401828 -0.1310364195873514 0 -0.41122993917504558 -0.1199812866788818 0 -0.39647179587780151 -0.13189450107720049 0 -0.41122993917504558 -0.1199812866788818 0 -0.40828286160401828 -0.1310364195873514 0 -0.41930562378398423 -0.12797048681614909 0 -0.41122993917504558 -0.1199812866788818 0 -0.41930562378398423 -0.12797048681614909 0 -0.41533589961201212 -0.13938201891822019 0 -0.4273858072007774 -0.14414008567558009 0 -0.40828286160401828 -0.1310364195873514 0 -0.41533589961201212 -0.13938201891822019 0 -0.40669002996807779 -0.1495058137550834 0 -0.40828286160401828 -0.1310364195873514 0 -0.41930562378398423 -0.12797048681614909 0 -0.41533589961201212 -0.13938201891822019 0 -0.40669002996807779 -0.1495058137550834 0 -0.43166640735559808 -0.1552039120346444 0 -0.4214232379976206 -0.16216052115063159 0 -0.40669002996807779 -0.1495058137550834 0 -0.43166640735559808 -0.1552039120346444 0 -0.41533589961201212 -0.13938201891822019 0 -0.40669002996807779 -0.1495058137550834 0 -0.4273858072007774 -0.14414008567558009 0 -0.40669002996807779 -0.1495058137550834 0 -0.4273858072007774 -0.14414008567558009 0 -0.43166640735559808 -0.1552039120346444 0 -0.43166640735559808 -0.1552039120346444 0 -0.43525592456887258 -0.14374997194848471 0 -0.44410307239699631 -0.15282998285397989 0 -0.4273858072007774 -0.14414008567558009 0 -0.43166640735559808 -0.1552039120346444 0 -0.43525592456887258 -0.14374997194848471 0 -0.41930562378398423 -0.12797048681614909 0 -0.43525592456887258 -0.14374997194848471 0 -0.41930562378398423 -0.12797048681614909 0 -0.4273858072007774 -0.14414008567558009 0 -0.43525592456887258 -0.14374997194848471 0 -0.41930562378398423 -0.12797048681614909 0 -0.4273858072007774 -0.14414008567558009 0 -0.41930562378398423 -0.12797048681614909 0 -0.43525592456887258 -0.14374997194848471 0 -0.43389101300267191 -0.13422730327376839 0 -0.41930562378398423 -0.12797048681614909 0 -0.43389101300267191 -0.13422730327376839 0 -0.4149348530849476 -0.1169905694289516 0 -0.43389101300267191 -0.13422730327376839 0 -0.4149348530849476 -0.1169905694289516 0 -0.43389101300267191 -0.13422730327376839 0 -0.43160182387889101 -0.1187955019330571 0 -0.44085253015216358 -0.1237950587173612 0 -0.43389101300267191 -0.13422730327376839 0 -0.44872577578551592 -0.13320174295465559 0 -0.452847172920396 -0.1514640371185853 0 -0.44872577578551592 -0.13320174295465559 0 -0.45896755277767909 -0.12575633132281341 0 -0.45000974795797011 -0.119430952696417 0 -0.44872577578551592 -0.13320174295465559 0 -0.45000974795797011 -0.119430952696417 0 -0.44085253015216358 -0.1237950587173612 0 -0.43389101300267191 -0.13422730327376839 0 -0.44872577578551592 -0.13320174295465559 0 -0.44085253015216358 -0.1237950587173612 0 -0.43525592456887258 -0.14374997194848471 0 -0.43389101300267191 -0.13422730327376839 0 -0.452847172920396 -0.1514640371185853 0 -0.43525592456887258 -0.14374997194848471 0 -0.44410307239699631 -0.15282998285397989 0 -0.452847172920396 -0.1514640371185853 0 -0.44872577578551592 -0.13320174295465559 0 -0.452847172920396 -0.1514640371185853 0 -0.456386085566235 -0.14096643446963419 0 -0.43389101300267191 -0.13422730327376839 0 -0.452847172920396 -0.1514640371185853 0 -0.44410307239699631 -0.15282998285397989 0 -0.452847172920396 -0.1514640371185853 0 -0.45664278474311831 -0.16090201031420531 0 -0.452847172920396 -0.1514640371185853 0 -0.456386085566235 -0.14096643446963419 0 -0.46738274896045578 -0.15003021006820461 0 -0.452847172920396 -0.1514640371185853 0 -0.46738274896045578 -0.15003021006820461 0 -0.45664278474311831 -0.16090201031420531 0 -0.456386085566235 -0.14096643446963419 0 -0.46738274896045578 -0.15003021006820461 0 -0.47200539146090159 -0.13839174763128981 0 -0.456386085566235 -0.14096643446963419 0 -0.47200539146090159 -0.13839174763128981 0 -0.47750202174635031 -0.1215216316744509 0 -0.456386085566235 -0.14096643446963419 0 -0.45896755277767909 -0.12575633132281341 0 -0.47750202174635031 -0.1215216316744509 0 -0.456386085566235 -0.14096643446963419 0 -0.47750202174635031 -0.1215216316744509 0 -0.44872577578551592 -0.13320174295465559 0 -0.456386085566235 -0.14096643446963419 0 -0.45896755277767909 -0.12575633132281341 0 -0.47200539146090159 -0.13839174763128981 0 -0.48675070957056549 -0.14104871431286931 0 -0.47750202174635031 -0.1215216316744509 0 -0.50000000000000011 -0.12648838757554831 0 -0.48675070957056549 -0.14104871431286931 0 -0.5 -0.15043640832747529 0 -0.50000000000000011 -0.12648838757554831 0 -0.48675070957056549 -0.14104871431286931 0 -0.47750202174635031 -0.1215216316744509 0 -0.48675070957056549 -0.14104871431286931 0 -0.5 -0.15043640832747529 0 -0.48062174440056549 -0.15969986187448909 0 -0.46738274896045578 -0.15003021006820461 0 -0.47200539146090159 -0.13839174763128981 0 -0.48675070957056549 -0.14104871431286931 0 -0.48675070957056549 -0.14104871431286931 0 -0.48062174440056549 -0.15969986187448909 0 -0.46738274896045578 -0.15003021006820461 0 -0.48675070957056549 -0.14104871431286931 0 -0.48062174440056549 -0.15969986187448909 0 -0.48062174440056549 -0.15969986187448909 0 -0.46548313673471758 -0.16971310035941381 0 -0.46753260370971428 -0.1600862956540782 0 -0.46738274896045578 -0.15003021006820461 0 -0.48062174440056549 -0.15969986187448909 0 -0.46753260370971428 -0.1600862956540782 0 -0.48062174440056549 -0.15969986187448909 0 -0.47449277923056221 -0.17835100943610771 0 -0.46548313673471758 -0.16971310035941381 0 -0.48062174440056549 -0.15969986187448909 0 -0.47449277923056221 -0.17835100943610771 0 -0.5 -0.15043640832747529 0 -0.48062174440056549 -0.15969986187448909 0 -0.49999999999999828 -0.17438442907940241 0 -0.48062174440056549 -0.15969986187448909 0 -0.49999999999999828 -0.17438442907940241 0 -0.47449277923056221 -0.17835100943610771 0 -0.49999999999999828 -0.17438442907940241 0 -0.47449277923056221 -0.17835100943610771 0 -0.49999999999999828 -0.17438442907940241 0 -0.47449277923056221 -0.17835100943610771 0 -0.48549376880548989 -0.19132810400505559 0 -0.47449277923056221 -0.17835100943610771 0 -0.46892716456320649 -0.19528781647494389 0 -0.47449277923056221 -0.17835100943610771 0 -0.45952205817714309 -0.18067907836188021 0 -0.46892716456320649 -0.19528781647494389 0 -0.45952205817714309 -0.18067907836188021 0 -0.46548313673471758 -0.16971310035941381 0 -0.45289664290439807 -0.17180374819378549 0 -0.47449277923056221 -0.17835100943610771 0 -0.45952205817714309 -0.18067907836188021 0 -0.47449277923056221 -0.17835100943610771 0 -0.45952205817714309 -0.18067907836188021 0 -0.46548313673471758 -0.16971310035941381 0 -0.46548313673471758 -0.16971310035941381 0 -0.46753260370971428 -0.1600862956540782 0 -0.45664278474311831 -0.16090201031420531 0 -0.46738274896045578 -0.15003021006820461 0 -0.46753260370971428 -0.1600862956540782 0 -0.45664278474311831 -0.16090201031420531 0 -0.46548313673471758 -0.16971310035941381 0 -0.45664278474311831 -0.16090201031420531 0 -0.45289664290439807 -0.17180374819378549 0 -0.45664278474311831 -0.16090201031420531 0 -0.45289664290439807 -0.17180374819378549 0 -0.44219215159727421 -0.16781727210851849 0 -0.43166640735559808 -0.1552039120346444 0 -0.45664278474311831 -0.16090201031420531 0 -0.44219215159727421 -0.16781727210851849 0 -0.43166640735559808 -0.1552039120346444 0 -0.45664278474311831 -0.16090201031420531 0 -0.43166640735559808 -0.1552039120346444 0 -0.44410307239699631 -0.15282998285397989 0 -0.45664278474311831 -0.16090201031420531 0 -0.43495901877196291 -0.17485617288990979 0 -0.44219215159727421 -0.16781727210851849 0 -0.44455133712372419 -0.18300714728765441 0 -0.43099962817645188 -0.18319011649723049 0 -0.44455133712372419 -0.18300714728765441 0 -0.43833565968517207 -0.19112957676178299 0 -0.45952205817714309 -0.18067907836188021 0 -0.44455133712372419 -0.18300714728765441 0 -0.45396471697207569 -0.194241302212698 0 -0.45952205817714309 -0.18067907836188021 0 -0.44455133712372419 -0.18300714728765441 0 -0.45952205817714309 -0.18067907836188021 0 -0.45289664290439807 -0.17180374819378549 0 -0.44455133712372419 -0.18300714728765441 0 -0.45289664290439807 -0.17180374819378549 0 -0.44219215159727421 -0.16781727210851849 0 -0.44455133712372419 -0.18300714728765441 0 -0.44455133712372419 -0.18300714728765441 0 -0.43833565968517207 -0.19112957676178299 0 -0.45396471697207569 -0.194241302212698 0 -0.43833565968517207 -0.19112957676178299 0 -0.44184138868315109 -0.20247798044170351 0 -0.45396471697207569 -0.194241302212698 0 -0.44184138868315109 -0.20247798044170351 0 -0.46336154989584488 -0.2122246235137781 0 -0.45396471697207569 -0.194241302212698 0 -0.44184138868315109 -0.20247798044170351 0 -0.46336154989584488 -0.2122246235137781 0 -0.45338394269579491 -0.2190794284651259 0 -0.43378961613155448 -0.20908682079381441 0 -0.44184138868315109 -0.20247798044170351 0 -0.44166379455333399 -0.21604972156869759 0 -0.44184138868315109 -0.20247798044170351 0 -0.44166379455333399 -0.21604972156869759 0 -0.45338394269579491 -0.2190794284651259 0 -0.44184138868315109 -0.20247798044170351 0 -0.46336154989584488 -0.2122246235137781 0 -0.46336154989584488 -0.2122246235137781 0 -0.46892716456320649 -0.19528781647494389 0 -0.46336154989584488 -0.2122246235137781 0 -0.45396471697207569 -0.194241302212698 0 -0.46892716456320649 -0.19528781647494389 0 -0.45952205817714309 -0.18067907836188021 0 -0.45396471697207569 -0.194241302212698 0 -0.46892716456320649 -0.19528781647494389 0 -0.47449277923056221 -0.17835100943610771 0 -0.46892716456320649 -0.19528781647494389 0 -0.48549376880548989 -0.19132810400505559 0 -0.46892716456320649 -0.19528781647494389 0 -0.48549376880548989 -0.19132810400505559 0 -0.47978640147694102 -0.20418872613165631 0 -0.5 -0.20182215567114031 0 -0.48549376880548989 -0.19132810400505559 0 -0.47978640147694102 -0.20418872613165631 0 -0.49999999999999828 -0.17438442907940241 0 -0.5 -0.20182215567114031 0 -0.48549376880548989 -0.19132810400505559 0 -0.5 -0.20182215567114031 0 -0.48114952412016337 -0.22028093099336349 0 -0.49893749834448198 -0.22833723847294871 0 -0.5 -0.20182215567114031 0 -0.47978640147694102 -0.20418872613165631 0 -0.48114952412016337 -0.22028093099336349 0 -0.46336154989584488 -0.2122246235137781 0 -0.48114952412016337 -0.22028093099336349 0 -0.46336154989584488 -0.2122246235137781 0 -0.47978640147694102 -0.20418872613165631 0 -0.48114952412016337 -0.22028093099336349 0 -0.46336154989584488 -0.2122246235137781 0 -0.46892716456320649 -0.19528781647494389 0 -0.47978640147694102 -0.20418872613165631 0 -0.46336154989584488 -0.2122246235137781 0 -0.48114952412016337 -0.22028093099336349 0 -0.46857810181099829 -0.22486784275082261 0 -0.48114952412016337 -0.22028093099336349 0 -0.48798868478634799 -0.231470988200419 0 -0.47142395938804471 -0.23802335247430181 0 -0.48114952412016337 -0.22028093099336349 0 -0.47142395938804471 -0.23802335247430181 0 -0.46857810181099829 -0.22486784275082261 0 -0.48114952412016337 -0.22028093099336349 0 -0.48798868478634799 -0.231470988200419 0 -0.49893749834448198 -0.22833723847294871 0 -0.48114952412016337 -0.22028093099336349 0 -0.49893749834448198 -0.22833723847294871 0 -0.48798868478634799 -0.231470988200419 0 -0.49893749834448198 -0.22833723847294871 0 -0.4875835208682564 -0.24248539692068891 0 -0.5 -0.25669760885461612 0 -0.49893749834448198 -0.22833723847294871 0 -0.4875835208682564 -0.24248539692068891 0 -0.48798868478634799 -0.231470988200419 0 -0.4875835208682564 -0.24248539692068891 0 -0.47142395938804471 -0.23802335247430181 0 -0.47878778985378329 -0.25835102983948688 0 -0.4875835208682564 -0.24248539692068891 0 -0.47142395938804471 -0.23802335247430181 0 -0.45662330498375908 -0.25656877445722759 0 -0.47142395938804471 -0.23802335247430181 0 -0.45034617445999431 -0.24335722649563979 0 -0.47142395938804471 -0.23802335247430181 0 -0.45735065046854989 -0.23051648340969341 0 -0.45034617445999431 -0.24335722649563979 0 -0.46336154989584488 -0.2122246235137781 0 -0.46857810181099829 -0.22486784275082261 0 -0.45735065046854989 -0.23051648340969341 0 -0.46336154989584488 -0.2122246235137781 0 -0.45735065046854989 -0.23051648340969341 0 -0.47142395938804471 -0.23802335247430181 0 -0.46857810181099829 -0.22486784275082261 0 -0.45735065046854989 -0.23051648340969341 0 -0.46336154989584488 -0.2122246235137781 0 -0.45338394269579491 -0.2190794284651259 0 -0.45735065046854989 -0.23051648340969341 0 -0.45338394269579491 -0.2190794284651259 0 -0.45735065046854989 -0.23051648340969341 0 -0.43806130733353449 -0.23541812032183559 0 -0.44166379455333399 -0.21604972156869759 0 -0.43806130733353449 -0.23541812032183559 0 -0.44166379455333399 -0.21604972156869759 0 -0.45338394269579491 -0.2190794284651259 0 -0.43806130733353449 -0.23541812032183559 0 -0.45735065046854989 -0.23051648340969341 0 -0.45034617445999431 -0.24335722649563979 0 -0.43806130733353449 -0.23541812032183559 0 -0.43445882011373449 -0.25478651907497341 0 -0.45034617445999431 -0.24335722649563979 0 -0.43806130733353449 -0.23541812032183559 0 -0.41324955929443102 -0.038374170610562031 0 -0.41005136228565903 -0.05540387285823338 0 -0.42435348212729052 -0.04457483879584373 0 -0.41324955929443102 -0.038374170610562031 0 -0.41005136228565903 -0.05540387285823338 0 -0.39900851660089293 -0.046429079601448257 0 -0.41324955929443102 -0.038374170610562031 0 -0.40747857107326091 -0.02424585309778798 0 -0.40045416304880688 -0.034240371911693122 0 -0.41005136228565903 -0.05540387285823338 0 -0.4246600563061857 -0.059067830999859447 0 -0.41422906440869389 -0.068128229862373102 0 -0.41005136228565903 -0.05540387285823338 0 -0.4246600563061857 -0.059067830999859447 0 -0.42435348212729052 -0.04457483879584373 0 -0.4246600563061857 -0.059067830999859447 0 -0.42435348212729052 -0.04457483879584373 0 -0.43957367317472601 -0.045089571971719818 0 -0.4246600563061857 -0.059067830999859447 0 -0.43957367317472601 -0.045089571971719818 0 -0.44544580640037118 -0.056213229689383748 0 -0.41324955929443102 -0.038374170610562031 0 -0.42435348212729052 -0.04457483879584373 0 -0.42981912379901888 -0.030443092666165631 0 -0.42435348212729052 -0.04457483879584373 0 -0.42981912379901888 -0.030443092666165631 0 -0.43957367317472601 -0.045089571971719818 0 -0.41302196833726168 -0.01226972299954816 0 -0.4392085005598273 -0.024676348383282701 0 -0.42659341977192161 -0.010103830507352861 0 -0.41302196833726168 -0.01226972299954816 0 -0.4392085005598273 -0.024676348383282701 0 -0.42981912379901888 -0.030443092666165631 0 -0.41673372021425997 -0.022240754673565791 0 -0.4392085005598273 -0.024676348383282701 0 -0.41302196833726168 -0.01226972299954816 0 -0.41673372021425997 -0.022240754673565791 0 -0.4392085005598273 -0.024676348383282701 0 -0.43741768347029059 -0.01288367903972009 0 -0.42659341977192161 -0.010103830507352861 0 -0.4392085005598273 -0.024676348383282701 0 -0.4441818909265971 -0.00998157505946092 0 -0.42578104856505677 0.0031949168855625672 0 -0.43741768347029059 -0.01288367903972009 0 -0.4441818909265971 -0.00998157505946092 0 -0.42578104856505677 0.0031949168855625672 0 -0.43741768347029059 -0.01288367903972009 0 -0.42659341977192161 -0.010103830507352861 0 -0.42578104856505677 0.0031949168855625672 0 -0.43741768347029059 -0.01288367903972009 0 -0.42578104856505677 0.0031949168855625672 0 -0.42659341977192161 -0.010103830507352861 0 -0.41753789792717189 -0.0038843189997757009 0 -0.42578104856505677 0.0031949168855625672 0 -0.42659341977192161 -0.010103830507352861 0 -0.41753789792717189 -0.0038843189997757009 0 -0.41302196833726168 -0.01226972299954816 0 -0.41753789792717189 -0.0038843189997757009 0 -0.41302196833726168 -0.01226972299954816 0 -0.40771050441737638 -0.0035262849216432719 0 -0.41753789792717189 -0.0038843189997757009 0 -0.40771050441737638 -0.0035262849216432719 0 -0.41105156913745711 0.0034129409419674369 0 -0.42981912379901888 -0.030443092666165631 0 -0.40747857107326091 -0.02424585309778798 0 -0.41324955929443102 -0.038374170610562031 0 -0.42981912379901888 -0.030443092666165631 0 -0.40747857107326091 -0.02424585309778798 0 -0.42981912379901888 -0.030443092666165631 0 -0.41673372021425997 -0.022240754673565791 0 -0.40747857107326091 -0.02424585309778798 0 -0.41302196833726168 -0.01226972299954816 0 -0.41673372021425997 -0.022240754673565791 0 -0.40747857107326091 -0.02424585309778798 0 -0.41673372021425997 -0.022240754673565791 0 -0.40747857107326091 -0.02424585309778798 0 -0.40747857107326091 -0.02424585309778798 0 -0.38992317137517202 -0.02804917422583518 0 -0.40747857107326091 -0.02424585309778798 0 -0.38992317137517202 -0.02804917422583518 0 -0.38297625517291389 -0.017448943304264108 0 -0.40747857107326091 -0.02424585309778798 0 -0.38992317137517202 -0.02804917422583518 0 -0.40045416304880688 -0.034240371911693122 0 -0.40747857107326091 -0.02424585309778798 0 -0.39567459441968961 -0.012635194689989219 0 -0.38297625517291389 -0.017448943304264108 0 -0.40747857107326091 -0.02424585309778798 0 -0.38297625517291389 -0.017448943304264108 0 -0.41302196833726168 -0.01226972299954816 0 -0.40747857107326091 -0.02424585309778798 0 -0.39567459441968961 -0.012635194689989219 0 -0.41302196833726168 -0.01226972299954816 0 -0.40771050441737638 -0.0035262849216432719 0 -0.38683543611469601 0.0001369023841863784 0 -0.41302196833726168 -0.01226972299954816 0 -0.39567459441968961 -0.012635194689989219 0 -0.38683543611469601 0.0001369023841863784 0 -0.41302196833726168 -0.01226972299954816 0 -0.38683543611469601 0.0001369023841863784 0 -0.40771050441737638 -0.0035262849216432719 0 -0.38683543611469601 0.0001369023841863784 0 -0.40226596945639398 0.0014711925349297271 0 -0.39567459441968961 -0.012635194689989219 0 -0.38502252263107412 -0.0084426060797158468 0 -0.38683543611469601 0.0001369023841863784 0 -0.39567459441968961 -0.012635194689989219 0 -0.38502252263107412 -0.0084426060797158468 0 -0.38297625517291389 -0.017448943304264108 0 -0.38502252263107412 -0.0084426060797158468 0 -0.38009964520605882 -0.0090403485437739461 0 -0.38297625517291389 -0.017448943304264108 0 -0.37278444596104371 -0.0079457960458173115 0 -0.38009964520605882 -0.0090403485437739461 0 -0.38297625517291389 -0.017448943304264108 0 -0.37474494217865062 -0.0022388935110706832 0 -0.38502252263107412 -0.0084426060797158468 0 -0.38683543611469601 0.0001369023841863784 0 -0.37474494217865062 -0.0022388935110706832 0 -0.38502252263107412 -0.0084426060797158468 0 -0.38009964520605882 -0.0090403485437739461 0 -0.37474494217865062 -0.0022388935110706832 0 -0.37278444596104371 -0.0079457960458173115 0 -0.38009964520605882 -0.0090403485437739461 0 -0.37236777167708351 -0.031852495353884333 0 -0.38992317137517202 -0.02804917422583518 0 -0.37990921189048049 -0.023302515363219579 0 -0.37236777167708351 -0.031852495353884333 0 -0.38992317137517202 -0.02804917422583518 0 -0.38992317137517202 -0.02804917422583518 0 -0.38297625517291389 -0.017448943304264108 0 -0.37990921189048049 -0.023302515363219579 0 -0.3739022591900184 -0.02415390189740213 0 -0.38297625517291389 -0.017448943304264108 0 -0.37990921189048049 -0.023302515363219579 0 -0.37236777167708351 -0.031852495353884333 0 -0.3739022591900184 -0.02415390189740213 0 -0.37990921189048049 -0.023302515363219579 0 -0.37236777167708351 -0.031852495353884333 0 -0.37990921189048049 -0.023302515363219579 0 -0.38458287424021398 -0.039388642062709187 0 -0.39900851660089293 -0.046429079601448257 0 -0.3815482533063424 -0.052412606119804542 0 -0.37355784227175309 -0.045246792894939887 0 -0.37236777167708351 -0.031852495353884333 0 -0.38458287424021398 -0.039388642062709187 0 -0.37236777167708351 -0.031852495353884333 0 -0.38992317137517202 -0.02804917422583518 0 -0.38458287424021398 -0.039388642062709187 0 -0.37355784227175309 -0.045246792894939887 0 -0.38458287424021398 -0.039388642062709187 0 -0.3815482533063424 -0.052412606119804542 0 -0.38458287424021398 -0.039388642062709187 0 -0.39900851660089293 -0.046429079601448257 0 -0.40045416304880688 -0.034240371911693122 0 -0.38992317137517202 -0.02804917422583518 0 -0.38458287424021398 -0.039388642062709187 0 -0.40045416304880688 -0.034240371911693122 0 -0.41324955929443102 -0.038374170610562031 0 -0.39900851660089293 -0.046429079601448257 0 -0.40045416304880688 -0.034240371911693122 0 -0.39900851660089293 -0.046429079601448257 0 -0.39626447370361728 -0.06091275685647668 0 -0.3815482533063424 -0.052412606119804542 0 -0.41005136228565903 -0.05540387285823338 0 -0.39626447370361728 -0.06091275685647668 0 -0.40517181862379281 -0.066558370858305557 0 -0.41005136228565903 -0.05540387285823338 0 -0.39900851660089293 -0.046429079601448257 0 -0.39626447370361728 -0.06091275685647668 0 -0.36862349457690058 -0.057461967220355487 0 -0.3815482533063424 -0.052412606119804542 0 -0.37947166312044489 -0.067272628224985004 0 -0.3815482533063424 -0.052412606119804542 0 -0.37947166312044489 -0.067272628224985004 0 -0.39260231949431601 -0.074533368335879327 0 -0.36882665317829499 -0.078032107790563188 0 -0.39260231949431601 -0.074533368335879327 0 -0.39626447370361728 -0.06091275685647668 0 -0.3815482533063424 -0.052412606119804542 0 -0.39260231949431601 -0.074533368335879327 0 -0.3815482533063424 -0.052412606119804542 0 -0.39260231949431601 -0.074533368335879327 0 -0.36882665317829499 -0.078032107790563188 0 -0.37947166312044489 -0.067272628224985004 0 -0.39260231949431601 -0.074533368335879327 0 -0.36882665317829499 -0.078032107790563188 0 -0.39260231949431601 -0.074533368335879327 0 -0.39002829617667018 -0.099006697234722524 0 -0.36882665317829499 -0.078032107790563188 0 -0.39002829617667018 -0.099006697234722524 0 -0.37367929427193591 -0.1014825750548952 0 -0.36882665317829499 -0.078032107790563188 0 -0.39002829617667018 -0.099006697234722524 0 -0.39260231949431601 -0.074533368335879327 0 -0.39002829617667018 -0.099006697234722524 0 -0.39510370691593599 -0.098958215311000047 0 -0.39260231949431601 -0.074533368335879327 0 -0.40274583300482147 -0.094831984843681591 0 -0.39260231949431601 -0.074533368335879327 0 -0.39510370691593599 -0.098958215311000047 0 -0.40274583300482147 -0.094831984843681591 0 -0.40361170428446441 -0.083317353290434007 0 -0.39260231949431601 -0.074533368335879327 0 -0.40274583300482147 -0.094831984843681591 0 -0.40361170428446441 -0.083317353290434007 0 -0.39867569396630093 -0.073639632925658519 0 -0.40696916935602839 -0.074517235882718885 0 -0.39867569396630093 -0.073639632925658519 0 -0.40517181862379281 -0.066558370858305557 0 -0.40696916935602839 -0.074517235882718885 0 -0.39626447370361728 -0.06091275685647668 0 -0.39867569396630093 -0.073639632925658519 0 -0.40517181862379281 -0.066558370858305557 0 -0.39626447370361728 -0.06091275685647668 0 -0.39867569396630093 -0.073639632925658519 0 -0.39260231949431601 -0.074533368335879327 0 -0.40361170428446441 -0.083317353290434007 0 -0.39867569396630093 -0.073639632925658519 0 -0.39260231949431601 -0.074533368335879327 0 -0.39867569396630093 -0.073639632925658519 0 -0.39260231949431601 -0.074533368335879327 0 -0.37212838853434238 -0.11808059788504249 0 -0.38278168804071749 -0.12940228238898679 0 -0.39044023874876249 -0.11757149150947201 0 -0.37367929427193591 -0.1014825750548952 0 -0.37212838853434238 -0.11808059788504249 0 -0.39044023874876249 -0.11757149150947201 0 -0.37367929427193591 -0.1014825750548952 0 -0.39044023874876249 -0.11757149150947201 0 -0.39002829617667018 -0.099006697234722524 0 -0.39510370691593599 -0.098958215311000047 0 -0.40274583300482147 -0.094831984843681591 0 -0.41288934651532883 -0.11513060135148299 0 -0.39002829617667018 -0.099006697234722524 0 -0.39510370691593599 -0.098958215311000047 0 -0.41122993917504558 -0.1199812866788818 0 -0.39510370691593599 -0.098958215311000047 0 -0.41288934651532883 -0.11513060135148299 0 -0.39647179587780151 -0.13189450107720049 0 -0.39044023874876249 -0.11757149150947201 0 -0.41122993917504558 -0.1199812866788818 0 -0.39002829617667018 -0.099006697234722524 0 -0.41122993917504558 -0.1199812866788818 0 -0.39044023874876249 -0.11757149150947201 0 -0.39002829617667018 -0.099006697234722524 0 -0.41122993917504558 -0.1199812866788818 0 -0.39510370691593599 -0.098958215311000047 0 -0.41122993917504558 -0.1199812866788818 0 -0.41288934651532883 -0.11513060135148299 0 -0.41930562378398423 -0.12797048681614909 0 -0.41122993917504558 -0.1199812866788818 0 -0.4149348530849476 -0.1169905694289516 0 -0.41930562378398423 -0.12797048681614909 0 -0.41122993917504558 -0.1199812866788818 0 -0.41930562378398423 -0.12797048681614909 0 -0.4149348530849476 -0.1169905694289516 0 -0.41122993917504558 -0.1199812866788818 0 -0.41288934651532883 -0.11513060135148299 0 -0.4149348530849476 -0.1169905694289516 0 -0.41122993917504558 -0.1199812866788818 0 -0.4149348530849476 -0.1169905694289516 0 -0.41288934651532883 -0.11513060135148299 0 -0.4149348530849476 -0.1169905694289516 0 -0.41288934651532883 -0.11513060135148299 0 -0.4149348530849476 -0.1169905694289516 0 -0.41458672172207622 -0.10427776634057311 0 -0.40274583300482147 -0.094831984843681591 0 -0.41288934651532883 -0.11513060135148299 0 -0.4149348530849476 -0.1169905694289516 0 -0.41458672172207622 -0.10427776634057311 0 -0.43059848591229039 -0.1043464168163742 0 -0.40274583300482147 -0.094831984843681591 0 -0.41288934651532883 -0.11513060135148299 0 -0.41458672172207622 -0.10427776634057311 0 -0.41458672172207622 -0.10427776634057311 0 -0.41348552386521947 -0.090840815536544176 0 -0.43025813067654672 -0.08737754853092726 0 -0.40274583300482147 -0.094831984843681591 0 -0.41458672172207622 -0.10427776634057311 0 -0.41348552386521947 -0.090840815536544176 0 -0.43059848591229039 -0.1043464168163742 0 -0.43025813067654672 -0.08737754853092726 0 -0.44626211873963212 -0.091702264203795431 0 -0.41458672172207622 -0.10427776634057311 0 -0.43059848591229039 -0.1043464168163742 0 -0.43025813067654672 -0.08737754853092726 0 -0.41458672172207622 -0.10427776634057311 0 -0.43025813067654672 -0.08737754853092726 0 -0.4149348530849476 -0.1169905694289516 0 -0.43059848591229039 -0.1043464168163742 0 -0.43160182387889101 -0.1187955019330571 0 -0.4149348530849476 -0.1169905694289516 0 -0.43059848591229039 -0.1043464168163742 0 -0.43389101300267191 -0.13422730327376839 0 -0.4149348530849476 -0.1169905694289516 0 -0.43160182387889101 -0.1187955019330571 0 -0.43059848591229039 -0.1043464168163742 0 -0.43160182387889101 -0.1187955019330571 0 -0.44003429013576911 -0.11331979272890801 0 -0.43160182387889101 -0.1187955019330571 0 -0.44085253015216358 -0.1237950587173612 0 -0.44003429013576911 -0.11331979272890801 0 -0.41422906440869389 -0.068128229862373102 0 -0.41539885585273961 -0.080089681603359497 0 -0.42594434486026628 -0.073522222089585226 0 -0.4246600563061857 -0.059067830999859447 0 -0.41422906440869389 -0.068128229862373102 0 -0.42594434486026628 -0.073522222089585226 0 -0.41005136228565903 -0.05540387285823338 0 -0.40517181862379281 -0.066558370858305557 0 -0.41422906440869389 -0.068128229862373102 0 -0.40517181862379281 -0.066558370858305557 0 -0.41422906440869389 -0.068128229862373102 0 -0.40696916935602839 -0.074517235882718885 0 -0.41422906440869389 -0.068128229862373102 0 -0.40696916935602839 -0.074517235882718885 0 -0.41539885585273961 -0.080089681603359497 0 -0.41348552386521947 -0.090840815536544176 0 -0.41539885585273961 -0.080089681603359497 0 -0.43025813067654672 -0.08737754853092726 0 -0.40361170428446441 -0.083317353290434007 0 -0.41348552386521947 -0.090840815536544176 0 -0.41539885585273961 -0.080089681603359497 0 -0.40361170428446441 -0.083317353290434007 0 -0.40696916935602839 -0.074517235882718885 0 -0.41539885585273961 -0.080089681603359497 0 -0.40361170428446441 -0.083317353290434007 0 -0.40274583300482147 -0.094831984843681591 0 -0.41348552386521947 -0.090840815536544176 0 -0.41539885585273961 -0.080089681603359497 0 -0.43025813067654672 -0.08737754853092726 0 -0.42594434486026628 -0.073522222089585226 0 -0.4246600563061857 -0.059067830999859447 0 -0.44592953963101739 -0.07047733072128165 0 -0.43025813067654672 -0.08737754853092726 0 -0.42594434486026628 -0.073522222089585226 0 -0.44592953963101739 -0.07047733072128165 0 -0.4246600563061857 -0.059067830999859447 0 -0.42594434486026628 -0.073522222089585226 0 -0.44592953963101739 -0.07047733072128165 0 -0.44592953963101739 -0.07047733072128165 0 -0.45893666683642192 -0.056450303318209168 0 -0.44592953963101739 -0.07047733072128165 0 -0.44626211873963212 -0.091702264203795431 0 -0.46192575156697407 -0.079058111591217034 0 -0.43025813067654672 -0.08737754853092726 0 -0.44592953963101739 -0.07047733072128165 0 -0.43025813067654672 -0.08737754853092726 0 -0.44592953963101739 -0.07047733072128165 0 -0.44626211873963212 -0.091702264203795431 0 -0.44626211873963212 -0.091702264203795431 0 -0.46631049206888459 -0.091444160656324658 0 -0.46192575156697407 -0.079058111591217034 0 -0.44626211873963212 -0.091702264203795431 0 -0.46192575156697407 -0.079058111591217034 0 -0.46631049206888459 -0.091444160656324658 0 -0.46192575156697407 -0.079058111591217034 0 -0.47702460168979111 -0.087157524427869615 0 -0.44592953963101739 -0.07047733072128165 0 -0.46192575156697407 -0.079058111591217034 0 -0.45893666683642192 -0.056450303318209168 0 -0.46192575156697407 -0.079058111591217034 0 -0.47491389520024407 -0.068573693827893439 0 -0.45893666683642192 -0.056450303318209168 0 -0.46192575156697407 -0.079058111591217034 0 -0.47491389520024407 -0.068573693827893439 0 -0.44592953963101739 -0.07047733072128165 0 -0.46192575156697407 -0.079058111591217034 0 -0.45000974795797011 -0.119430952696417 0 -0.44085253015216358 -0.1237950587173612 0 -0.44003429013576911 -0.11331979272890801 0 -0.45000974795797011 -0.119430952696417 0 -0.44003429013576911 -0.11331979272890801 0 -0.44926481423485548 -0.10476542824413421 0 -0.43059848591229039 -0.1043464168163742 0 -0.44626211873963212 -0.091702264203795431 0 -0.43059848591229039 -0.1043464168163742 0 -0.44626211873963212 -0.091702264203795431 0 -0.44926481423485548 -0.10476542824413421 0 -0.43059848591229039 -0.1043464168163742 0 -0.44003429013576911 -0.11331979272890801 0 -0.44926481423485548 -0.10476542824413421 0 -0.44626211873963212 -0.091702264203795431 0 -0.44926481423485548 -0.10476542824413421 0 -0.46153012095291662 -0.1019472767233552 0 -0.44626211873963212 -0.091702264203795431 0 -0.46631049206888459 -0.091444160656324658 0 -0.46153012095291662 -0.1019472767233552 0 -0.46631049206888459 -0.091444160656324658 0 -0.46153012095291662 -0.1019472767233552 0 -0.4710589232177344 -0.098453604121520433 0 -0.46153012095291662 -0.1019472767233552 0 -0.46221413283232399 -0.11366089481890911 0 -0.47430793409480421 -0.10627177682285049 0 -0.44926481423485548 -0.10476542824413421 0 -0.46153012095291662 -0.1019472767233552 0 -0.46221413283232399 -0.11366089481890911 0 -0.45896755277767909 -0.12575633132281341 0 -0.46221413283232399 -0.11366089481890911 0 -0.47750202174635031 -0.1215216316744509 0 -0.45000974795797011 -0.119430952696417 0 -0.44926481423485548 -0.10476542824413421 0 -0.46221413283232399 -0.11366089481890911 0 -0.45896755277767909 -0.12575633132281341 0 -0.45000974795797011 -0.119430952696417 0 -0.46221413283232399 -0.11366089481890911 0 -0.47750202174635031 -0.1215216316744509 0 -0.47430793409480421 -0.10627177682285049 0 -0.48673501487359588 -0.1010237797652184 0 -0.46221413283232399 -0.11366089481890911 0 -0.47750202174635031 -0.1215216316744509 0 -0.47430793409480421 -0.10627177682285049 0 -0.47430793409480421 -0.10627177682285049 0 -0.47745372589702628 -0.099742000537211661 0 -0.48673501487359588 -0.1010237797652184 0 -0.46153012095291662 -0.1019472767233552 0 -0.47430793409480421 -0.10627177682285049 0 -0.4710589232177344 -0.098453604121520433 0 -0.46631049206888459 -0.091444160656324658 0 -0.4710589232177344 -0.098453604121520433 0 -0.47771303140197108 -0.093218841439257433 0 -0.47430793409480421 -0.10627177682285049 0 -0.4710589232177344 -0.098453604121520433 0 -0.47745372589702628 -0.099742000537211661 0 -0.4710589232177344 -0.098453604121520433 0 -0.47745372589702628 -0.099742000537211661 0 -0.47771303140197108 -0.093218841439257433 0 -0.47745372589702628 -0.099742000537211661 0 -0.48673501487359588 -0.1010237797652184 0 -0.47771303140197108 -0.093218841439257433 0 -0.48673501487359588 -0.1010237797652184 0 -0.47771303140197108 -0.093218841439257433 0 -0.47702460168979111 -0.087157524427869615 0 -0.47750202174635031 -0.1215216316744509 0 -0.48673501487359588 -0.1010237797652184 0 -0.4986179579264654 -0.1020768288792674 0 -0.48673501487359588 -0.1010237797652184 0 -0.49842317329231273 -0.098636270432611556 0 -0.47702460168979111 -0.087157524427869615 0 -0.48673501487359588 -0.1010237797652184 0 -0.49842317329231273 -0.098636270432611556 0 -0.4986179579264654 -0.1020768288792674 0 -0.49999999999999939 -0.099482120969144883 0 -0.49842317329231273 -0.098636270432611556 0 -0.4986179579264654 -0.1020768288792674 0 -0.49842317329231273 -0.098636270432611556 0 -0.4986179579264654 -0.1020768288792674 0 -0.49999999999999939 -0.099482120969144883 0 -0.49842317329231273 -0.098636270432611556 0 -0.50000000000000011 -0.12648838757554831 0 -0.47750202174635031 -0.1215216316744509 0 -0.4986179579264654 -0.1020768288792674 0 -0.47750202174635031 -0.1215216316744509 0 -0.4986179579264654 -0.1020768288792674 0 -0.47491389520024407 -0.068573693827893439 0 -0.47702460168979111 -0.087157524427869615 0 -0.4847984782487687 -0.075944598732494498 0 -0.47491389520024407 -0.068573693827893439 0 -0.47702460168979111 -0.087157524427869615 0 -0.47967839073812912 -0.064727650616396362 0 -0.4847984782487687 -0.075944598732494498 0 -0.48794163871831331 -0.064119883023254248 0 -0.47967839073812912 -0.064727650616396362 0 -0.47491389520024407 -0.068573693827893439 0 -0.4847984782487687 -0.075944598732494498 0 -0.47967839073812912 -0.064727650616396362 0 -0.47491389520024407 -0.068573693827893439 0 -0.46192575156697407 -0.079058111591217034 0 -0.47702460168979111 -0.087157524427869615 0 -0.46192575156697407 -0.079058111591217034 0 -0.47491389520024407 -0.068573693827893439 0 -0.47702460168979111 -0.087157524427869615 0 -0.46631049206888459 -0.091444160656324658 0 -0.47771303140197108 -0.093218841439257433 0 -0.47702460168979111 -0.087157524427869615 0 -0.47771303140197108 -0.093218841439257433 0 -0.47702460168979111 -0.087157524427869615 0 -0.49842317329231273 -0.098636270432611556 0 -0.49712708577170861 -0.075742961183477536 0 -0.4847984782487687 -0.075944598732494498 0 -0.49999999999999939 -0.099482120969144883 0 -0.49842317329231273 -0.098636270432611556 0 -0.5 -0.078030389970551228 0 -0.49842317329231273 -0.098636270432611556 0 -0.49712708577170861 -0.075742961183477536 0 -0.49842317329231273 -0.098636270432611556 0 -0.5 -0.078030389970551228 0 -0.49712708577170861 -0.075742961183477536 0 -0.49842317329231273 -0.098636270432611556 0 -0.47702460168979111 -0.087157524427869615 0 -0.4847984782487687 -0.075944598732494498 0 -0.49842317329231273 -0.098636270432611556 0 -0.47702460168979111 -0.087157524427869615 0 -0.5 -0.078030389970551228 0 -0.49712708577170861 -0.075742961183477536 0 -0.49999999999999928 -0.056578658971957581 0 -0.49712708577170861 -0.075742961183477536 0 -0.49583099825110311 -0.052849651934343489 0 -0.49712708577170861 -0.075742961183477536 0 -0.48794163871831331 -0.064119883023254248 0 -0.49583099825110311 -0.052849651934343489 0 -0.49712708577170861 -0.075742961183477536 0 -0.4847984782487687 -0.075944598732494498 0 -0.48794163871831331 -0.064119883023254248 0 -0.49712708577170861 -0.075742961183477536 0 -0.49999999999999928 -0.056578658971957581 0 -0.49583099825110311 -0.052849651934343489 0 -0.49583099825110311 -0.052849651934343489 0 -0.47748890114140963 -0.036443372127734748 0 -0.48227324058185622 -0.051334552649559453 0 -0.49999999999999928 -0.056578658971957581 0 -0.49583099825110311 -0.052849651934343489 0 -0.49999999999999928 -0.056578658971957581 0 -0.50000000000000144 -0.053559852644015388 0 -0.49583099825110311 -0.052849651934343489 0 -0.48794163871831331 -0.064119883023254248 0 -0.49583099825110311 -0.052849651934343489 0 -0.48227324058185622 -0.051334552649559453 0 -0.50000000000000144 -0.053559852644015388 0 -0.49583099825110311 -0.052849651934343489 0 -0.48598145264485831 -0.02728491224803695 0 -0.49583099825110311 -0.052849651934343489 0 -0.47748890114140963 -0.036443372127734748 0 -0.48598145264485831 -0.02728491224803695 0 -0.50000000000000144 -0.053559852644015388 0 -0.48598145264485831 -0.02728491224803695 0 -0.50000000000000144 -0.053559852644015388 0 -0.48598145264485831 -0.02728491224803695 0 -0.5 -0.025161366008633609 0 -0.49583099825110311 -0.052849651934343489 0 -0.47748890114140963 -0.036443372127734748 0 -0.47748890114140963 -0.036443372127734748 0 -0.48598145264485831 -0.02728491224803695 0 -0.47748890114140963 -0.036443372127734748 0 -0.47194379404182718 -0.042423275915137587 0 -0.48227324058185622 -0.051334552649559453 0 -0.47748890114140963 -0.036443372127734748 0 -0.47194379404182718 -0.042423275915137587 0 -0.47748890114140963 -0.036443372127734748 0 -0.47194379404182718 -0.042423275915137587 0 -0.47056077858213702 -0.03024644074295027 0 -0.47194379404182718 -0.042423275915137587 0 -0.46539503278239303 -0.037082973767017267 0 -0.47056077858213702 -0.03024644074295027 0 -0.47194379404182718 -0.042423275915137587 0 -0.47056077858213702 -0.03024644074295027 0 -0.47748890114140963 -0.036443372127734748 0 -0.47056077858213702 -0.03024644074295027 0 -0.47748890114140963 -0.036443372127734748 0 -0.47056077858213702 -0.03024644074295027 0 -0.47745882259212458 -0.028728106929589409 0 -0.47967839073812912 -0.064727650616396362 0 -0.47491389520024407 -0.068573693827893439 0 -0.47194379404182718 -0.042423275915137587 0 -0.47967839073812912 -0.064727650616396362 0 -0.47194379404182718 -0.042423275915137587 0 -0.48227324058185622 -0.051334552649559453 0 -0.47491389520024407 -0.068573693827893439 0 -0.47194379404182718 -0.042423275915137587 0 -0.47967839073812912 -0.064727650616396362 0 -0.48794163871831331 -0.064119883023254248 0 -0.48227324058185622 -0.051334552649559453 0 -0.47491389520024407 -0.068573693827893439 0 -0.47194379404182718 -0.042423275915137587 0 -0.45893666683642192 -0.056450303318209168 0 -0.45893666683642192 -0.056450303318209168 0 -0.45743491846808387 -0.04563500224908737 0 -0.44544580640037118 -0.056213229689383748 0 -0.47194379404182718 -0.042423275915137587 0 -0.45893666683642192 -0.056450303318209168 0 -0.45743491846808387 -0.04563500224908737 0 -0.47194379404182718 -0.042423275915137587 0 -0.45893666683642192 -0.056450303318209168 0 -0.46539503278239303 -0.037082973767017267 0 -0.44890774518284438 -0.02927164544362729 0 -0.46539503278239303 -0.037082973767017267 0 -0.45215967652477718 -0.036640332234541717 0 -0.44890774518284438 -0.02927164544362729 0 -0.46539503278239303 -0.037082973767017267 0 -0.44890774518284438 -0.02927164544362729 0 -0.46189821575704781 -0.02986243911986371 0 -0.47194379404182718 -0.042423275915137587 0 -0.46539503278239303 -0.037082973767017267 0 -0.45743491846808387 -0.04563500224908737 0 -0.46539503278239303 -0.037082973767017267 0 -0.46189821575704781 -0.02986243911986371 0 -0.47056077858213702 -0.03024644074295027 0 -0.46539503278239303 -0.037082973767017267 0 -0.45743491846808387 -0.04563500224908737 0 -0.45215967652477718 -0.036640332234541717 0 -0.42981912379901888 -0.030443092666165631 0 -0.45215967652477718 -0.036640332234541717 0 -0.45743491846808387 -0.04563500224908737 0 -0.45215967652477718 -0.036640332234541717 0 -0.43957367317472601 -0.045089571971719818 0 -0.42981912379901888 -0.030443092666165631 0 -0.45215967652477718 -0.036640332234541717 0 -0.43957367317472601 -0.045089571971719818 0 -0.45743491846808387 -0.04563500224908737 0 -0.43957367317472601 -0.045089571971719818 0 -0.44544580640037118 -0.056213229689383748 0 -0.4246600563061857 -0.059067830999859447 0 -0.44592953963101739 -0.07047733072128165 0 -0.44544580640037118 -0.056213229689383748 0 -0.44592953963101739 -0.07047733072128165 0 -0.45893666683642192 -0.056450303318209168 0 -0.44544580640037118 -0.056213229689383748 0 -0.4441818909265971 -0.00998157505946092 0 -0.45588653083934588 0.00041698580085632909 0 -0.44737850259376799 0.0077656591989471307 0 -0.4441818909265971 -0.00998157505946092 0 -0.4570262928383732 -0.018140378997512391 0 -0.45633913854906122 -0.0094275687658610888 0 -0.4441818909265971 -0.00998157505946092 0 -0.45633913854906122 -0.0094275687658610888 0 -0.45588653083934588 0.00041698580085632909 0 -0.43741768347029059 -0.01288367903972009 0 -0.4441818909265971 -0.00998157505946092 0 -0.44890774518284438 -0.02927164544362729 0 -0.42981912379901888 -0.030443092666165631 0 -0.45215967652477718 -0.036640332234541717 0 -0.4392085005598273 -0.024676348383282701 0 -0.4441818909265971 -0.00998157505946092 0 -0.44890774518284438 -0.02927164544362729 0 -0.46258273328813732 -0.023158067004484729 0 -0.43741768347029059 -0.01288367903972009 0 -0.44890774518284438 -0.02927164544362729 0 -0.43741768347029059 -0.01288367903972009 0 -0.4392085005598273 -0.024676348383282701 0 -0.44890774518284438 -0.02927164544362729 0 -0.4392085005598273 -0.024676348383282701 0 -0.44890774518284438 -0.02927164544362729 0 -0.45215967652477718 -0.036640332234541717 0 -0.4392085005598273 -0.024676348383282701 0 -0.44890774518284438 -0.02927164544362729 0 -0.4441818909265971 -0.00998157505946092 0 -0.46258273328813732 -0.023158067004484729 0 -0.46258273328813732 -0.023158067004484729 0 -0.46826183959192841 -0.01000530680732737 0 -0.47056077858213702 -0.03024644074295027 0 -0.4441818909265971 -0.00998157505946092 0 -0.4570262928383732 -0.018140378997512391 0 -0.46258273328813732 -0.023158067004484729 0 -0.4570262928383732 -0.018140378997512391 0 -0.46258273328813732 -0.023158067004484729 0 -0.44890774518284438 -0.02927164544362729 0 -0.46189821575704781 -0.02986243911986371 0 -0.46258273328813732 -0.023158067004484729 0 -0.46258273328813732 -0.023158067004484729 0 -0.47056077858213702 -0.03024644074295027 0 -0.46189821575704781 -0.02986243911986371 0 -0.46258273328813732 -0.023158067004484729 0 -0.47056077858213702 -0.03024644074295027 0 -0.4570262928383732 -0.018140378997512391 0 -0.46258273328813732 -0.023158067004484729 0 -0.46826183959192841 -0.01000530680732737 0 -0.4570262928383732 -0.018140378997512391 0 -0.46826183959192841 -0.01000530680732737 0 -0.45633913854906122 -0.0094275687658610888 0 -0.46826183959192841 -0.01000530680732737 0 -0.45633913854906122 -0.0094275687658610888 0 -0.45588653083934588 0.00041698580085632909 0 -0.46826183959192841 -0.01000530680732737 0 -0.47597217662329228 -0.0085245425598697612 0 -0.4659629006017233 0.010235827128295859 0 -0.46826183959192841 -0.01000530680732737 0 -0.47597217662329228 -0.0085245425598697612 0 -0.47580415800009379 -0.02093770259963601 0 -0.47597217662329228 -0.0085245425598697612 0 -0.48922725890134677 -0.010453537226696331 0 -0.48082517856277007 0.001845263919603602 0 -0.47597217662329228 -0.0085245425598697612 0 -0.47580415800009379 -0.02093770259963601 0 -0.48598145264485831 -0.02728491224803695 0 -0.47597217662329228 -0.0085245425598697612 0 -0.48598145264485831 -0.02728491224803695 0 -0.46826183959192841 -0.01000530680732737 0 -0.47056077858213702 -0.03024644074295027 0 -0.47580415800009379 -0.02093770259963601 0 -0.47597217662329228 -0.0085245425598697612 0 -0.48598145264485831 -0.02728491224803695 0 -0.4893389393206713 -0.02366416211133009 0 -0.46826183959192841 -0.01000530680732737 0 -0.47056077858213702 -0.03024644074295027 0 -0.47056077858213702 -0.03024644074295027 0 -0.47580415800009379 -0.02093770259963601 0 -0.47745882259212458 -0.028728106929589409 0 -0.47580415800009379 -0.02093770259963601 0 -0.47745882259212458 -0.028728106929589409 0 -0.48598145264485831 -0.02728491224803695 0 -0.47748890114140963 -0.036443372127734748 0 -0.47745882259212458 -0.028728106929589409 0 -0.48598145264485831 -0.02728491224803695 0 -0.48598145264485831 -0.02728491224803695 0 -0.4893389393206713 -0.02366416211133009 0 -0.5 -0.025161366008633609 0 -0.48598145264485831 -0.02728491224803695 0 -0.4893389393206713 -0.02366416211133009 0 -0.4893389393206713 -0.02366416211133009 0 -0.5 -0.025161366008633609 0 -0.48922725890134677 -0.010453537226696331 0 -0.48922725890134677 -0.010453537226696331 0 -0.5 0.0032371206267481911 0 -0.48082517856277007 0.001845263919603602 0 -0.5 -0.025161366008633609 0 -0.48922725890134677 -0.010453537226696331 0 -0.5 0.0032371206267481911 0 -0.47597217662329228 -0.0085245425598697612 0 -0.4893389393206713 -0.02366416211133009 0 -0.48922725890134677 -0.010453537226696331 0 -0.5 0.0032371206267481911 0 -0.48596576445654982 0.01457961489688041 0 -0.48082517856277007 0.001845263919603602 0 -0.48596576445654982 0.01457961489688041 0 -0.47541999506787802 0.025418180444172121 0 -0.5 0.031635607262129987 0 -0.5 0.0032371206267481911 0 -0.48596576445654982 0.01457961489688041 0 -0.5 0.031635607262129987 0 -0.48596576445654982 0.01457961489688041 0 -0.47541999506787802 0.025418180444172121 0 -0.47401658579892991 0.013489912392399149 0 -0.47541999506787802 0.025418180444172121 0 -0.46963945276383978 0.01793989872667965 0 -0.47401658579892991 0.013489912392399149 0 -0.47597217662329228 -0.0085245425598697612 0 -0.48082517856277007 0.001845263919603602 0 -0.4659629006017233 0.010235827128295859 0 -0.47401658579892991 0.013489912392399149 0 -0.48082517856277007 0.001845263919603602 0 -0.4659629006017233 0.010235827128295859 0 -0.46963945276383978 0.01793989872667965 0 -0.47401658579892991 0.013489912392399149 0 -0.4659629006017233 0.010235827128295859 0 -0.47597217662329228 -0.0085245425598697612 0 -0.4659629006017233 0.010235827128295859 0 -0.48596576445654982 0.01457961489688041 0 -0.47401658579892991 0.013489912392399149 0 -0.48082517856277007 0.001845263919603602 0 -0.5 0.060034093897511798 0 -0.47816362815030861 0.043832779932641487 0 -0.48068047186290208 0.063626500276227002 0 -0.47541999506787802 0.025418180444172121 0 -0.5 0.031635607262129987 0 -0.47816362815030861 0.043832779932641487 0 -0.5 0.060034093897511798 0 -0.5 0.031635607262129987 0 -0.47816362815030861 0.043832779932641487 0 -0.47541999506787802 0.025418180444172121 0 -0.47816362815030861 0.043832779932641487 0 -0.46442391639916691 0.036471327701905212 0 -0.47816362815030861 0.043832779932641487 0 -0.46119618507356652 0.049359273152949731 0 -0.48068047186290208 0.063626500276227002 0 -0.46119618507356652 0.049359273152949731 0 -0.46103932749027238 0.064238871702306077 0 -0.48068047186290208 0.063626500276227002 0 -0.46119618507356652 0.049359273152949731 0 -0.44286953411296898 0.045255716157198693 0 -0.46103932749027238 0.064238871702306077 0 -0.47816362815030861 0.043832779932641487 0 -0.46119618507356652 0.049359273152949731 0 -0.46442391639916691 0.036471327701905212 0 -0.46119618507356652 0.049359273152949731 0 -0.46442391639916691 0.036471327701905212 0 -0.45082509298125129 0.038608595210277222 0 -0.46442391639916691 0.036471327701905212 0 -0.45082509298125129 0.038608595210277222 0 -0.4583939967914884 0.024422211169287101 0 -0.45082509298125129 0.038608595210277222 0 -0.4583939967914884 0.024422211169287101 0 -0.46119618507356652 0.049359273152949731 0 -0.45082509298125129 0.038608595210277222 0 -0.44286953411296898 0.045255716157198693 0 -0.45082509298125129 0.038608595210277222 0 -0.4405409619944019 0.035432846457562263 0 -0.4458839614772655 0.023387518650519249 0 -0.45082509298125129 0.038608595210277222 0 -0.4405409619944019 0.035432846457562263 0 -0.44286953411296898 0.045255716157198693 0 -0.4405409619944019 0.035432846457562263 0 -0.44286953411296898 0.045255716157198693 0 -0.43229092530358848 0.04451632412921195 0 -0.44286953411296898 0.045255716157198693 0 -0.44282721760043869 0.062046251170956107 0 -0.46103932749027238 0.064238871702306077 0 -0.44286953411296898 0.045255716157198693 0 -0.44282721760043869 0.062046251170956107 0 -0.43188097302969042 0.056955122555226501 0 -0.44286953411296898 0.045255716157198693 0 -0.46103932749027238 0.064238871702306077 0 -0.46826183959192841 -0.01000530680732737 0 -0.45588653083934588 0.00041698580085632909 0 -0.4659629006017233 0.010235827128295859 0 -0.46826183959192841 -0.01000530680732737 0 -0.4659629006017233 0.010235827128295859 0 -0.45609316173783881 0.014082317838893479 0 -0.45588653083934588 0.00041698580085632909 0 -0.4659629006017233 0.010235827128295859 0 -0.46963945276383978 0.01793989872667965 0 -0.4659629006017233 0.010235827128295859 0 -0.4583939967914884 0.024422211169287101 0 -0.4659629006017233 0.010235827128295859 0 -0.4583939967914884 0.024422211169287101 0 -0.47541999506787802 0.025418180444172121 0 -0.46963945276383978 0.01793989872667965 0 -0.4583939967914884 0.024422211169287101 0 -0.47541999506787802 0.025418180444172121 0 -0.46442391639916691 0.036471327701905212 0 -0.4583939967914884 0.024422211169287101 0 -0.45609316173783881 0.014082317838893479 0 -0.4659629006017233 0.010235827128295859 0 -0.4583939967914884 0.024422211169287101 0 -0.45609316173783881 0.014082317838893479 0 -0.4583939967914884 0.024422211169287101 0 -0.4458839614772655 0.023387518650519249 0 -0.45082509298125129 0.038608595210277222 0 -0.4583939967914884 0.024422211169287101 0 -0.4458839614772655 0.023387518650519249 0 -0.4405409619944019 0.035432846457562263 0 -0.4458839614772655 0.023387518650519249 0 -0.43566193494816191 0.02574822372494872 0 -0.4458839614772655 0.023387518650519249 0 -0.4359559447540089 0.01018896392150693 0 -0.43566193494816191 0.02574822372494872 0 -0.4441818909265971 -0.00998157505946092 0 -0.44737850259376799 0.0077656591989471307 0 -0.4359559447540089 0.01018896392150693 0 -0.4458839614772655 0.023387518650519249 0 -0.44737850259376799 0.0077656591989471307 0 -0.4359559447540089 0.01018896392150693 0 -0.45609316173783881 0.014082317838893479 0 -0.4458839614772655 0.023387518650519249 0 -0.44737850259376799 0.0077656591989471307 0 -0.45609316173783881 0.014082317838893479 0 -0.45588653083934588 0.00041698580085632909 0 -0.44737850259376799 0.0077656591989471307 0 -0.4441818909265971 -0.00998157505946092 0 -0.4359559447540089 0.01018896392150693 0 -0.42578104856505677 0.0031949168855625672 0 -0.42578104856505677 0.0031949168855625672 0 -0.41622595309658328 0.016397403714119251 0 -0.42870406893849561 0.019163111370922251 0 -0.4359559447540089 0.01018896392150693 0 -0.42578104856505677 0.0031949168855625672 0 -0.42870406893849561 0.019163111370922251 0 -0.41753789792717189 -0.0038843189997757009 0 -0.42578104856505677 0.0031949168855625672 0 -0.41105156913745711 0.0034129409419674369 0 -0.42578104856505677 0.0031949168855625672 0 -0.40852807671777941 0.0155494406680463 0 -0.41622595309658328 0.016397403714119251 0 -0.42578104856505677 0.0031949168855625672 0 -0.40852807671777941 0.0155494406680463 0 -0.41105156913745711 0.0034129409419674369 0 -0.42578104856505677 0.0031949168855625672 0 -0.40852807671777941 0.0155494406680463 0 -0.42578104856505677 0.0031949168855625672 0 -0.41622595309658328 0.016397403714119251 0 -0.40852807671777941 0.0155494406680463 0 -0.41105156913745711 0.0034129409419674369 0 -0.40262572535869262 0.0089097845909437267 0 -0.40771050441737638 -0.0035262849216432719 0 -0.41105156913745711 0.0034129409419674369 0 -0.40226596945639398 0.0014711925349297271 0 -0.40667085762811028 0.029599890542676258 0 -0.41622595309658328 0.016397403714119251 0 -0.42870406893849561 0.019163111370922251 0 -0.40667085762811028 0.029599890542676258 0 -0.42870406893849561 0.019163111370922251 0 -0.40667085762811028 0.029599890542676258 0 -0.41990433555607742 0.03061685230769556 0 -0.42870406893849561 0.019163111370922251 0 -0.40852807671777941 0.0155494406680463 0 -0.40667085762811028 0.029599890542676258 0 -0.41622595309658328 0.016397403714119251 0 -0.40667085762811028 0.029599890542676258 0 -0.41622595309658328 0.016397403714119251 0 -0.41990433555607742 0.03061685230769556 0 -0.4284463216954002 0.029357354603554459 0 -0.42870406893849561 0.019163111370922251 0 -0.4359559447540089 0.01018896392150693 0 -0.42870406893849561 0.019163111370922251 0 -0.43566193494816191 0.02574822372494872 0 -0.4284463216954002 0.029357354603554459 0 -0.42870406893849561 0.019163111370922251 0 -0.43566193494816191 0.02574822372494872 0 -0.4284463216954002 0.029357354603554459 0 -0.43566193494816191 0.02574822372494872 0 -0.43264023121812112 0.033917661463996759 0 -0.4405409619944019 0.035432846457562263 0 -0.43264023121812112 0.033917661463996759 0 -0.43229092530358848 0.04451632412921195 0 -0.43264023121812112 0.033917661463996759 0 -0.43229092530358848 0.04451632412921195 0 -0.42532103781614489 0.037340924150209003 0 -0.4405409619944019 0.035432846457562263 0 -0.43566193494816191 0.02574822372494872 0 -0.43264023121812112 0.033917661463996759 0 -0.43229092530358848 0.04451632412921195 0 -0.42532103781614489 0.037340924150209003 0 -0.42042490988599091 0.046091327469671317 0 -0.4284463216954002 0.029357354603554459 0 -0.43264023121812112 0.033917661463996759 0 -0.42532103781614489 0.037340924150209003 0 -0.41990433555607742 0.03061685230769556 0 -0.4284463216954002 0.029357354603554459 0 -0.42532103781614489 0.037340924150209003 0 -0.43229092530358848 0.04451632412921195 0 -0.43188097302969042 0.056955122555226501 0 -0.42585725303016408 0.051510102087770737 0 -0.44286953411296898 0.045255716157198693 0 -0.43229092530358848 0.04451632412921195 0 -0.43188097302969042 0.056955122555226501 0 -0.43229092530358848 0.04451632412921195 0 -0.42585725303016408 0.051510102087770737 0 -0.42042490988599091 0.046091327469671317 0 -0.43188097302969042 0.056955122555226501 0 -0.41883220390138681 0.058477634196973202 0 -0.43131469147834472 0.070632617455275076 0 -0.43188097302969042 0.056955122555226501 0 -0.42585725303016408 0.051510102087770737 0 -0.41883220390138681 0.058477634196973202 0 -0.41883220390138681 0.058477634196973202 0 -0.40840220717331749 0.048304634434869917 0 -0.39985653820026013 0.060860810446949978 0 -0.42585725303016408 0.051510102087770737 0 -0.41883220390138681 0.058477634196973202 0 -0.42042490988599091 0.046091327469671317 0 -0.41883220390138681 0.058477634196973202 0 -0.40840220717331749 0.048304634434869917 0 -0.42042490988599091 0.046091327469671317 0 -0.41990433555607742 0.03061685230769556 0 -0.42532103781614489 0.037340924150209003 0 -0.4122967326089878 0.037821593301397609 0 -0.42532103781614489 0.037340924150209003 0 -0.42042490988599091 0.046091327469671317 0 -0.4122967326089878 0.037821593301397609 0 -0.40840220717331749 0.048304634434869917 0 -0.4122967326089878 0.037821593301397609 0 -0.40579981868685489 0.041495006097714962 0 -0.40840220717331749 0.048304634434869917 0 -0.42042490988599091 0.046091327469671317 0 -0.4122967326089878 0.037821593301397609 0 -0.4122967326089878 0.037821593301397609 0 -0.40278544391907911 0.034968452634622761 0 -0.40579981868685489 0.041495006097714962 0 -0.40667085762811028 0.029599890542676258 0 -0.4122967326089878 0.037821593301397609 0 -0.40278544391907911 0.034968452634622761 0 -0.40667085762811028 0.029599890542676258 0 -0.41990433555607742 0.03061685230769556 0 -0.4122967326089878 0.037821593301397609 0 -0.40667085762811028 0.029599890542676258 0 -0.40278544391907911 0.034968452634622761 0 -0.40667085762811028 0.029599890542676258 0 -0.38856614517843069 0.038175802748282091 0 -0.40667085762811028 0.029599890542676258 0 -0.38856614517843069 0.038175802748282091 0 -0.39127510487050182 0.027903964450529759 0 -0.40667085762811028 0.029599890542676258 0 -0.40278544391907911 0.034968452634622761 0 -0.38856614517843069 0.038175802748282091 0 -0.40278544391907911 0.034968452634622761 0 -0.40579981868685489 0.041495006097714962 0 -0.3977250587697031 0.045015474274426849 0 -0.40840220717331749 0.048304634434869917 0 -0.40579981868685489 0.041495006097714962 0 -0.3977250587697031 0.045015474274426849 0 -0.40278544391907911 0.034968452634622761 0 -0.3977250587697031 0.045015474274426849 0 -0.38856614517843069 0.038175802748282091 0 -0.40840220717331749 0.048304634434869917 0 -0.3977250587697031 0.045015474274426849 0 -0.39985653820026013 0.060860810446949978 0 -0.3977250587697031 0.045015474274426849 0 -0.39985653820026013 0.060860810446949978 0 -0.38472691017257071 0.052921849058569698 0 -0.39985653820026013 0.060860810446949978 0 -0.38472691017257071 0.052921849058569698 0 -0.38510762700538009 0.066428587654483159 0 -0.38472691017257071 0.052921849058569698 0 -0.37046143272875132 0.04675171495388801 0 -0.37000681959492809 0.05831264468359916 0 -0.38472691017257071 0.052921849058569698 0 -0.38510762700538009 0.066428587654483159 0 -0.37000681959492809 0.05831264468359916 0 -0.38856614517843069 0.038175802748282091 0 -0.37871402691879819 0.03757115751491092 0 -0.37046143272875132 0.04675171495388801 0 -0.38856614517843069 0.038175802748282091 0 -0.37046143272875132 0.04675171495388801 0 -0.38472691017257071 0.052921849058569698 0 -0.38856614517843069 0.038175802748282091 0 -0.37046143272875132 0.04675171495388801 0 -0.38856614517843069 0.038175802748282091 0 -0.38315308642314733 0.033917821982192238 0 -0.39127510487050182 0.027903964450529759 0 -0.38856614517843069 0.038175802748282091 0 -0.38315308642314733 0.033917821982192238 0 -0.37871402691879819 0.03757115751491092 0 -0.3977250587697031 0.045015474274426849 0 -0.38472691017257071 0.052921849058569698 0 -0.38856614517843069 0.038175802748282091 0 -0.37871402691879819 0.03757115751491092 0 -0.3764786745208083 0.032098692741998169 0 -0.37046143272875132 0.04675171495388801 0 -0.38315308642314733 0.033917821982192238 0 -0.3764786745208083 0.032098692741998169 0 -0.38155727091044611 0.028316364585127811 0 -0.38315308642314733 0.033917821982192238 0 -0.37871402691879819 0.03757115751491092 0 -0.3764786745208083 0.032098692741998169 0 -0.3764786745208083 0.032098692741998169 0 -0.38155727091044611 0.028316364585127811 0 -0.37960108001976323 0.022263106047543741 0 -0.37960108001976323 0.022263106047543741 0 -0.37998819155715241 0.0057865511937031933 0 -0.37123175334181557 0.027162262264614271 0 -0.3764786745208083 0.032098692741998169 0 -0.37960108001976323 0.022263106047543741 0 -0.37123175334181557 0.027162262264614271 0 -0.38155727091044611 0.028316364585127811 0 -0.38533699425949169 0.022674384769296389 0 -0.37960108001976323 0.022263106047543741 0 -0.38155727091044611 0.028316364585127811 0 -0.38533699425949169 0.022674384769296389 0 -0.39127510487050182 0.027903964450529759 0 -0.38315308642314733 0.033917821982192238 0 -0.38155727091044611 0.028316364585127811 0 -0.39127510487050182 0.027903964450529759 0 -0.39054146691731162 0.018060194648231769 0 -0.38533699425949169 0.022674384769296389 0 -0.39127510487050182 0.027903964450529759 0 -0.38533699425949169 0.022674384769296389 0 -0.3837100485794358 0.01682829411504885 0 -0.37960108001976323 0.022263106047543741 0 -0.39054146691731162 0.018060194648231769 0 -0.38533699425949169 0.022674384769296389 0 -0.3837100485794358 0.01682829411504885 0 -0.3837100485794358 0.01682829411504885 0 -0.37960108001976323 0.022263106047543741 0 -0.37998819155715241 0.0057865511937031933 0 -0.37998819155715241 0.0057865511937031933 0 -0.38683543611469601 0.0001369023841863784 0 -0.36064890389212972 0.0125435277679194 0 -0.37998819155715241 0.0057865511937031933 0 -0.38683543611469601 0.0001369023841863784 0 -0.38901012294298121 0.0062908016400105649 0 -0.38683543611469601 0.0001369023841863784 0 -0.38901012294298121 0.0062908016400105649 0 -0.39501457079486157 0.0055715078560810288 0 -0.37998819155715241 0.0057865511937031933 0 -0.38901012294298121 0.0062908016400105649 0 -0.38744744785130802 0.01185902438546781 0 -0.3837100485794358 0.01682829411504885 0 -0.37998819155715241 0.0057865511937031933 0 -0.38744744785130802 0.01185902438546781 0 -0.38901012294298121 0.0062908016400105649 0 -0.38744744785130802 0.01185902438546781 0 -0.39422738021243581 0.01127211946813913 0 -0.39054146691731162 0.018060194648231769 0 -0.3837100485794358 0.01682829411504885 0 -0.38744744785130802 0.01185902438546781 0 -0.39054146691731162 0.018060194648231769 0 -0.39422738021243581 0.01127211946813913 0 -0.39743955081534421 0.016339100765178138 0 -0.39054146691731162 0.018060194648231769 0 -0.38744744785130802 0.01185902438546781 0 -0.39422738021243581 0.01127211946813913 0 -0.39422738021243581 0.01127211946813913 0 -0.39501457079486157 0.0055715078560810288 0 -0.40262572535869262 0.0089097845909437267 0 -0.39422738021243581 0.01127211946813913 0 -0.40262572535869262 0.0089097845909437267 0 -0.39743955081534421 0.016339100765178138 0 -0.38683543611469601 0.0001369023841863784 0 -0.39501457079486157 0.0055715078560810288 0 -0.40226596945639398 0.0014711925349297271 0 -0.38901012294298121 0.0062908016400105649 0 -0.39422738021243581 0.01127211946813913 0 -0.39501457079486157 0.0055715078560810288 0 -0.41105156913745711 0.0034129409419674369 0 -0.40226596945639398 0.0014711925349297271 0 -0.40262572535869262 0.0089097845909437267 0 -0.39501457079486157 0.0055715078560810288 0 -0.40226596945639398 0.0014711925349297271 0 -0.40262572535869262 0.0089097845909437267 0 -0.40852807671777941 0.0155494406680463 0 -0.40262572535869262 0.0089097845909437267 0 -0.39743955081534421 0.016339100765178138 0 -0.40852807671777941 0.0155494406680463 0 -0.39127510487050182 0.027903964450529759 0 -0.40852807671777941 0.0155494406680463 0 -0.40667085762811028 0.029599890542676258 0 -0.39127510487050182 0.027903964450529759 0 -0.40852807671777941 0.0155494406680463 0 -0.39127510487050182 0.027903964450529759 0 -0.39743955081534421 0.016339100765178138 0 -0.39054146691731162 0.018060194648231769 0 -0.39127510487050182 0.027903964450529759 0 -0.39743955081534421 0.016339100765178138 0 -0.39792088922733271 0.1160922105611595 0 -0.40104213778508202 0.092866093853817611 0 -0.41467909406405851 0.1139188519362445 0 -0.39792088922733271 0.1160922105611595 0 -0.3782625711058698 0.101617738696854 0 -0.40104213778508202 0.092866093853817611 0 -0.3782625711058698 0.101617738696854 0 -0.38372255811484618 0.13025780258704611 0 -0.3782625711058698 0.101617738696854 0 -0.38372255811484618 0.13025780258704611 0 -0.36747352968705388 0.12273486311700831 0 -0.39792088922733271 0.1160922105611595 0 -0.3782625711058698 0.101617738696854 0 -0.38372255811484618 0.13025780258704611 0 -0.39792088922733271 0.1160922105611595 0 -0.3782625711058698 0.101617738696854 0 -0.3782625711058698 0.101617738696854 0 -0.40104213778508202 0.092866093853817611 0 -0.37470600383380392 0.082961959162170973 0 -0.39520328107527708 0.075997639864115257 0 -0.40104213778508202 0.092866093853817611 0 -0.37470600383380392 0.082961959162170973 0 -0.3782625711058698 0.101617738696854 0 -0.37470600383380392 0.082961959162170973 0 -0.40104213778508202 0.092866093853817611 0 -0.37470600383380392 0.082961959162170973 0 -0.38510762700538009 0.066428587654483159 0 -0.37000681959492809 0.05831264468359916 0 -0.37470600383380392 0.082961959162170973 0 -0.38510762700538009 0.066428587654483159 0 -0.39520328107527708 0.075997639864115257 0 -0.37470600383380392 0.082961959162170973 0 -0.39985653820026013 0.060860810446949978 0 -0.39520328107527708 0.075997639864115257 0 -0.41322693425173768 0.074694678089132868 0 -0.39985653820026013 0.060860810446949978 0 -0.38510762700538009 0.066428587654483159 0 -0.39520328107527708 0.075997639864115257 0 -0.39520328107527708 0.075997639864115257 0 -0.40104213778508202 0.092866093853817611 0 -0.41322693425173768 0.074694678089132868 0 -0.40104213778508202 0.092866093853817611 0 -0.41322693425173768 0.074694678089132868 0 -0.42957324029363853 0.085693113452461764 0 -0.41883220390138681 0.058477634196973202 0 -0.41322693425173768 0.074694678089132868 0 -0.43131469147834472 0.070632617455275076 0 -0.41883220390138681 0.058477634196973202 0 -0.39985653820026013 0.060860810446949978 0 -0.41322693425173768 0.074694678089132868 0 -0.43131469147834472 0.070632617455275076 0 -0.42957324029363853 0.085693113452461764 0 -0.4470315618909167 0.073148927984774167 0 -0.41322693425173768 0.074694678089132868 0 -0.43131469147834472 0.070632617455275076 0 -0.42957324029363853 0.085693113452461764 0 -0.44282721760043869 0.062046251170956107 0 -0.43188097302969042 0.056955122555226501 0 -0.43131469147834472 0.070632617455275076 0 -0.42957324029363853 0.085693113452461764 0 -0.42737827173636012 0.1027702285454639 0 -0.44343173260412461 0.097571970950778963 0 -0.40104213778508202 0.092866093853817611 0 -0.42737827173636012 0.1027702285454639 0 -0.41467909406405851 0.1139188519362445 0 -0.40104213778508202 0.092866093853817611 0 -0.42737827173636012 0.1027702285454639 0 -0.40104213778508202 0.092866093853817611 0 -0.42957324029363853 0.085693113452461764 0 -0.42737827173636012 0.1027702285454639 0 -0.39792088922733271 0.1160922105611595 0 -0.41467909406405851 0.1139188519362445 0 -0.417579207348795 0.13056668242546571 0 -0.39792088922733271 0.1160922105611595 0 -0.417579207348795 0.13056668242546571 0 -0.41467909406405851 0.1139188519362445 0 -0.42608096723388439 0.1205091241492761 0 -0.417579207348795 0.13056668242546571 0 -0.42737827173636012 0.1027702285454639 0 -0.41467909406405851 0.1139188519362445 0 -0.42608096723388439 0.1205091241492761 0 -0.42737827173636012 0.1027702285454639 0 -0.42608096723388439 0.1205091241492761 0 -0.43826405507869293 0.1195835460605416 0 -0.42608096723388439 0.1205091241492761 0 -0.43826405507869293 0.1195835460605416 0 -0.43293323699752101 0.1317554923945817 0 -0.43826405507869293 0.1195835460605416 0 -0.45371440568763749 0.1126743632371118 0 -0.44901593584904892 0.12912088192892021 0 -0.42737827173636012 0.1027702285454639 0 -0.43826405507869293 0.1195835460605416 0 -0.45371440568763749 0.1126743632371118 0 -0.4523882543875366 0.10983005993361 0 -0.45371440568763749 0.1126743632371118 0 -0.42737827173636012 0.1027702285454639 0 -0.4523882543875366 0.10983005993361 0 -0.44343173260412461 0.097571970950778963 0 -0.42737827173636012 0.1027702285454639 0 -0.4523882543875366 0.10983005993361 0 -0.45371440568763749 0.1126743632371118 0 -0.42737827173636012 0.1027702285454639 0 -0.45371440568763749 0.1126743632371118 0 -0.44343173260412461 0.097571970950778963 0 -0.45084974973894648 0.096020795281878568 0 -0.45306155814551219 0.1028275296158008 0 -0.44343173260412461 0.097571970950778963 0 -0.45084974973894648 0.096020795281878568 0 -0.44733932132275389 0.088290098875458828 0 -0.4523882543875366 0.10983005993361 0 -0.44343173260412461 0.097571970950778963 0 -0.45306155814551219 0.1028275296158008 0 -0.4523882543875366 0.10983005993361 0 -0.45306155814551219 0.1028275296158008 0 -0.45661100561120399 0.109540819014999 0 -0.45306155814551219 0.1028275296158008 0 -0.46084618436187341 0.10490351706993729 0 -0.45661100561120399 0.109540819014999 0 -0.45306155814551219 0.1028275296158008 0 -0.46084618436187341 0.10490351706993729 0 -0.45799439118323759 0.099220837031069903 0 -0.46084618436187341 0.10490351706993729 0 -0.4635407771028337 0.1124237257980706 0 -0.45661100561120399 0.109540819014999 0 -0.45799439118323759 0.099220837031069903 0 -0.46723244863383712 0.097971273043108306 0 -0.45594156200913483 0.091684632610025046 0 -0.45084974973894648 0.096020795281878568 0 -0.45799439118323759 0.099220837031069903 0 -0.45594156200913483 0.091684632610025046 0 -0.45084974973894648 0.096020795281878568 0 -0.45306155814551219 0.1028275296158008 0 -0.45799439118323759 0.099220837031069903 0 -0.46084618436187341 0.10490351706993729 0 -0.45799439118323759 0.099220837031069903 0 -0.46723244863383712 0.097971273043108306 0 -0.46084618436187341 0.10490351706993729 0 -0.46723244863383712 0.097971273043108306 0 -0.46686982756835349 0.1074114054382402 0 -0.46084618436187341 0.10490351706993729 0 -0.46686982756835349 0.1074114054382402 0 -0.4635407771028337 0.1124237257980706 0 -0.45371440568763749 0.1126743632371118 0 -0.46425598871103851 0.13528374379222011 0 -0.4635407771028337 0.1124237257980706 0 -0.45674497769142258 0.1138140594952527 0 -0.46958882025875243 0.12035793204680111 0 -0.46686982756835349 0.1074114054382402 0 -0.4635407771028337 0.1124237257980706 0 -0.47044075898603932 0.11380610730348489 0 -0.4635407771028337 0.1124237257980706 0 -0.46958882025875243 0.12035793204680111 0 -0.47044075898603932 0.11380610730348489 0 -0.45674497769142258 0.1138140594952527 0 -0.45371440568763749 0.1126743632371118 0 -0.46425598871103851 0.13528374379222011 0 -0.45674497769142258 0.1138140594952527 0 -0.46958882025875243 0.12035793204680111 0 -0.46425598871103851 0.13528374379222011 0 -0.4523882543875366 0.10983005993361 0 -0.45661100561120399 0.109540819014999 0 -0.45371440568763749 0.1126743632371118 0 -0.45674497769142258 0.1138140594952527 0 -0.45661100561120399 0.109540819014999 0 -0.45371440568763749 0.1126743632371118 0 -0.45674497769142258 0.1138140594952527 0 -0.45371440568763749 0.1126743632371118 0 -0.4635407771028337 0.1124237257980706 0 -0.45674497769142258 0.1138140594952527 0 -0.45661100561120399 0.109540819014999 0 -0.44282721760043869 0.062046251170956107 0 -0.4470315618909167 0.073148927984774167 0 -0.46103932749027238 0.064238871702306077 0 -0.44282721760043869 0.062046251170956107 0 -0.43131469147834472 0.070632617455275076 0 -0.4470315618909167 0.073148927984774167 0 -0.42957324029363853 0.085693113452461764 0 -0.44343173260412461 0.097571970950778963 0 -0.44733932132275389 0.088290098875458828 0 -0.42957324029363853 0.085693113452461764 0 -0.4470315618909167 0.073148927984774167 0 -0.44733932132275389 0.088290098875458828 0 -0.4470315618909167 0.073148927984774167 0 -0.44733932132275389 0.088290098875458828 0 -0.46047789149500767 0.082617330138573752 0 -0.45084974973894648 0.096020795281878568 0 -0.44733932132275389 0.088290098875458828 0 -0.45594156200913483 0.091684632610025046 0 -0.44733932132275389 0.088290098875458828 0 -0.45594156200913483 0.091684632610025046 0 -0.46047789149500767 0.082617330138573752 0 -0.46723244863383712 0.097971273043108306 0 -0.45594156200913483 0.091684632610025046 0 -0.46047789149500767 0.082617330138573752 0 -0.46047789149500767 0.082617330138573752 0 -0.46103932749027238 0.064238871702306077 0 -0.47920912086757578 0.083222027247413538 0 -0.4470315618909167 0.073148927984774167 0 -0.46047789149500767 0.082617330138573752 0 -0.46103932749027238 0.064238871702306077 0 -0.46103932749027238 0.064238871702306077 0 -0.48068047186290208 0.063626500276227002 0 -0.47920912086757578 0.083222027247413538 0 -0.46103932749027238 0.064238871702306077 0 -0.47920912086757578 0.083222027247413538 0 -0.46723244863383712 0.097971273043108306 0 -0.46047789149500767 0.082617330138573752 0 -0.47920912086757578 0.083222027247413538 0 -0.48068047186290208 0.063626500276227002 0 -0.47920912086757578 0.083222027247413538 0 -0.5 0.088432580532893601 0 -0.47920912086757578 0.083222027247413538 0 -0.49737891424487929 0.102205182792521 0 -0.47920912086757578 0.083222027247413538 0 -0.5 0.088432580532893601 0 -0.49737891424487929 0.102205182792521 0 -0.5 0.060034093897511798 0 -0.48068047186290208 0.063626500276227002 0 -0.5 0.088432580532893601 0 -0.47827810320487629 0.116675775998883 0 -0.48837893466537508 0.1117690854599766 0 -0.4842723158563047 0.1301441798928954 0 -0.47827810320487629 0.116675775998883 0 -0.47512549980118862 0.10796659812409699 0 -0.48837893466537508 0.1117690854599766 0 -0.47827810320487629 0.116675775998883 0 -0.46958882025875243 0.12035793204680111 0 -0.4842723158563047 0.1301441798928954 0 -0.47827810320487629 0.116675775998883 0 -0.47044075898603932 0.11380610730348489 0 -0.47512549980118862 0.10796659812409699 0 -0.46686982756835349 0.1074114054382402 0 -0.47044075898603932 0.11380610730348489 0 -0.47512549980118862 0.10796659812409699 0 -0.47827810320487629 0.116675775998883 0 -0.46958882025875243 0.12035793204680111 0 -0.47044075898603932 0.11380610730348489 0 -0.46723244863383712 0.097971273043108306 0 -0.47512549980118862 0.10796659812409699 0 -0.48162445158666772 0.1005823670901454 0 -0.46723244863383712 0.097971273043108306 0 -0.47920912086757578 0.083222027247413538 0 -0.48162445158666772 0.1005823670901454 0 -0.46723244863383712 0.097971273043108306 0 -0.46686982756835349 0.1074114054382402 0 -0.47512549980118862 0.10796659812409699 0 -0.47512549980118862 0.10796659812409699 0 -0.48162445158666772 0.1005823670901454 0 -0.48837893466537508 0.1117690854599766 0 -0.48162445158666772 0.1005823670901454 0 -0.49737891424487929 0.102205182792521 0 -0.48837893466537508 0.1117690854599766 0 -0.47920912086757578 0.083222027247413538 0 -0.48162445158666772 0.1005823670901454 0 -0.49737891424487929 0.102205182792521 0 -0.5 0.088432580532893601 0 -0.49737891424487929 0.102205182792521 0 -0.5 0.1168310671682755 0 -0.49737891424487929 0.102205182792521 0 -0.5 0.1168310671682755 0 -0.48837893466537508 0.1117690854599766 0 -0.5 0.1168310671682755 0 -0.48837893466537508 0.1117690854599766 0 -0.4842723158563047 0.1301441798928954 0 -0.5 0.1168310671682755 0 -0.4842723158563047 0.1301441798928954 0 -0.5 0.14522955380365729 0 -0.46958882025875243 0.12035793204680111 0 -0.4842723158563047 0.1301441798928954 0 -0.46425598871103851 0.13528374379222011 0 -0.4842723158563047 0.1301441798928954 0 -0.47479757173443998 0.15789312434732811 0 -0.46425598871103851 0.13528374379222011 0 -0.47479757173443998 0.15789312434732811 0 -0.46425598871103851 0.13528374379222011 0 -0.4842723158563047 0.1301441798928954 0 -0.5 0.14522955380365729 0 -0.47479757173443998 0.15789312434732811 0 -0.5 0.14522955380365729 0 -0.49999999999999972 0.17362804043903909 0 -0.47479757173443998 0.15789312434732811 0 -0.49999999999999972 0.17362804043903909 0 -0.47479757173443998 0.15789312434732811 0 -0.49999999999999972 0.17362804043903909 0 -0.49200992699072321 0.1743962810239672 0 -0.47479757173443998 0.15789312434732811 0 -0.48341269367675271 0.17637066895233999 0 -0.49170634683837577 0.1941587336203292 0 -0.49368671912131301 0.1828531969182482 0 -0.49999999999999972 0.17362804043903909 0 -0.5 0.19278741936367841 0 -0.49368671912131301 0.1828531969182482 0 -0.48341269367675271 0.17637066895233999 0 -0.49170634683837577 0.1941587336203292 0 -0.49368671912131301 0.1828531969182482 0 -0.49999999999999972 0.17362804043903909 0 -0.49200992699072321 0.1743962810239672 0 -0.49200992699072321 0.1743962810239672 0 -0.48341269367675271 0.17637066895233999 0 -0.49368671912131301 0.1828531969182482 0 -0.49200992699072321 0.1743962810239672 0 -0.48341269367675271 0.17637066895233999 0 -0.48341269367675271 0.17637066895233999 0 -0.45591042926964898 0.18268667049205081 0 -0.47274380268756999 0.19288508587190861 0 -0.48341269367675271 0.17637066895233999 0 -0.45591042926964898 0.18268667049205081 0 -0.49200992699072321 0.1743962810239672 0 -0.48341269367675271 0.17637066895233999 0 -0.47479757173443998 0.15789312434732811 0 -0.48341269367675271 0.17637066895233999 0 -0.47479757173443998 0.15789312434732811 0 -0.48341269367675271 0.17637066895233999 0 -0.47479757173443998 0.15789312434732811 0 -0.45723956394668003 0.16387676974864759 0 -0.48341269367675271 0.17637066895233999 0 -0.45723956394668003 0.16387676974864759 0 -0.45591042926964898 0.18268667049205081 0 -0.45591042926964898 0.18268667049205081 0 -0.43992511097516529 0.17411109905454999 0 -0.4284081648625454 0.1890026720317621 0 -0.45591042926964898 0.18268667049205081 0 -0.4284081648625454 0.1890026720317621 0 -0.45723956394668003 0.16387676974864759 0 -0.45591042926964898 0.18268667049205081 0 -0.43992511097516529 0.17411109905454999 0 -0.45723956394668003 0.16387676974864759 0 -0.43992511097516529 0.17411109905454999 0 -0.43892522612619872 0.15930650560997939 0 -0.43892522612619872 0.15930650560997939 0 -0.43796764784210812 0.14528805014891141 0 -0.45386540436598038 0.14482430837095511 0 -0.45723956394668003 0.16387676974864759 0 -0.43892522612619872 0.15930650560997939 0 -0.45386540436598038 0.14482430837095511 0 -0.45386540436598038 0.14482430837095511 0 -0.43293323699752101 0.1317554923945817 0 -0.43826405507869293 0.1195835460605416 0 -0.44901593584904892 0.12912088192892021 0 -0.43293323699752101 0.1317554923945817 0 -0.43796764784210812 0.14528805014891141 0 -0.45386540436598038 0.14482430837095511 0 -0.43293323699752101 0.1317554923945817 0 -0.44901593584904892 0.12912088192892021 0 -0.45386540436598038 0.14482430837095511 0 -0.43293323699752101 0.1317554923945817 0 -0.45371440568763749 0.1126743632371118 0 -0.44901593584904892 0.12912088192892021 0 -0.46425598871103851 0.13528374379222011 0 -0.44901593584904892 0.12912088192892021 0 -0.46425598871103851 0.13528374379222011 0 -0.45386540436598038 0.14482430837095511 0 -0.47479757173443998 0.15789312434732811 0 -0.45723956394668003 0.16387676974864759 0 -0.45386540436598038 0.14482430837095511 0 -0.47479757173443998 0.15789312434732811 0 -0.46425598871103851 0.13528374379222011 0 -0.45386540436598038 0.14482430837095511 0 -0.47479757173443998 0.15789312434732811 0 -0.45386540436598038 0.14482430837095511 0 -0.48226153920099157 0.23766317590200001 0 -0.47864167104372218 0.246590621409366 0 -0.48932095354102823 0.25454658797793611 0 -0.47315400564016008 0.2364435414805684 0 -0.47864167104372218 0.246590621409366 0 -0.46938038244821267 0.25133041049185839 0 -0.47315400564016008 0.2364435414805684 0 -0.48226153920099157 0.23766317590200001 0 -0.47864167104372218 0.246590621409366 0 -0.49106398183666961 0.22759324404760359 0 -0.48932095354102823 0.25454658797793611 0 -0.5 0.23810140997737081 0 -0.49106398183666961 0.22759324404760359 0 -0.48932095354102823 0.25454658797793611 0 -0.48226153920099157 0.23766317590200001 0 -0.49106398183666961 0.22759324404760359 0 -0.48932095354102823 0.25454658797793611 0 -0.5 0.23810140997737081 0 -0.49106398183666961 0.22759324404760359 0 -0.50000000000000022 0.21194679828831781 0 -0.49106398183666961 0.22759324404760359 0 -0.47912708394337772 0.2231418845945258 0 -0.48726644121087642 0.21298690825741631 0 -0.48226153920099157 0.23766317590200001 0 -0.49106398183666961 0.22759324404760359 0 -0.47912708394337772 0.2231418845945258 0 -0.47315400564016008 0.2364435414805684 0 -0.48226153920099157 0.23766317590200001 0 -0.47912708394337772 0.2231418845945258 0 -0.47315400564016008 0.2364435414805684 0 -0.47912708394337772 0.2231418845945258 0 -0.46764368341616458 0.22415830119077751 0 -0.47912708394337772 0.2231418845945258 0 -0.47360767850491831 0.20951316246361981 0 -0.46764368341616458 0.22415830119077751 0 -0.47360767850491831 0.20951316246361981 0 -0.48726644121087642 0.21298690825741631 0 -0.49170634683837577 0.1941587336203292 0 -0.47912708394337772 0.2231418845945258 0 -0.47360767850491831 0.20951316246361981 0 -0.48726644121087642 0.21298690825741631 0 -0.49106398183666961 0.22759324404760359 0 -0.50000000000000022 0.21194679828831781 0 -0.48726644121087642 0.21298690825741631 0 -0.50000000000000022 0.21194679828831781 0 -0.48726644121087642 0.21298690825741631 0 -0.49170634683837577 0.1941587336203292 0 -0.50000000000000022 0.21194679828831781 0 -0.49170634683837577 0.1941587336203292 0 -0.50000000000000022 0.21194679828831781 0 -0.5 0.19278741936367841 0 -0.49170634683837577 0.1941587336203292 0 -0.49368671912131301 0.1828531969182482 0 -0.5 0.19278741936367841 0 -0.49170634683837577 0.1941587336203292 0 -0.48341269367675271 0.17637066895233999 0 -0.49170634683837577 0.1941587336203292 0 -0.47274380268756999 0.19288508587190861 0 -0.47360767850491831 0.20951316246361981 0 -0.49170634683837577 0.1941587336203292 0 -0.47274380268756999 0.19288508587190861 0 -0.47360767850491831 0.20951316246361981 0 -0.47274380268756999 0.19288508587190861 0 -0.45820261548712909 0.20353130823034371 0 -0.45591042926964898 0.18268667049205081 0 -0.47274380268756999 0.19288508587190861 0 -0.45820261548712909 0.20353130823034371 0 -0.45591042926964898 0.18268667049205081 0 -0.43516662619925378 0.20614333559983469 0 -0.4284081648625454 0.1890026720317621 0 -0.45591042926964898 0.18268667049205081 0 -0.45820261548712909 0.20353130823034371 0 -0.43516662619925378 0.20614333559983469 0 -0.44192508753596349 0.22328399916790689 0 -0.43516662619925378 0.20614333559983469 0 -0.45032248765871591 0.2151961798839368 0 -0.44192508753596349 0.22328399916790689 0 -0.43516662619925378 0.20614333559983469 0 -0.45032248765871591 0.2151961798839368 0 -0.45820261548712909 0.20353130823034371 0 -0.43516662619925378 0.20614333559983469 0 -0.45032248765871591 0.2151961798839368 0 -0.46109406183397039 0.21551848415653921 0 -0.45620465585954723 0.2251951411450015 0 -0.45032248765871591 0.2151961798839368 0 -0.45820261548712909 0.20353130823034371 0 -0.46109406183397039 0.21551848415653921 0 -0.47360767850491831 0.20951316246361981 0 -0.45820261548712909 0.20353130823034371 0 -0.46109406183397039 0.21551848415653921 0 -0.47360767850491831 0.20951316246361981 0 -0.46109406183397039 0.21551848415653921 0 -0.46764368341616458 0.22415830119077751 0 -0.47315400564016008 0.2364435414805684 0 -0.46764368341616458 0.22415830119077751 0 -0.45925329591452863 0.2407771106774913 0 -0.46764368341616458 0.22415830119077751 0 -0.45620465585954723 0.2251951411450015 0 -0.45925329591452863 0.2407771106774913 0 -0.46109406183397039 0.21551848415653921 0 -0.46764368341616458 0.22415830119077751 0 -0.45620465585954723 0.2251951411450015 0 -0.45032248765871591 0.2151961798839368 0 -0.45620465585954723 0.2251951411450015 0 -0.44192508753596349 0.22328399916790689 0 -0.44192508753596349 0.22328399916790689 0 -0.44062222049055039 0.24203477259657111 0 -0.43146145522804691 0.2313120115293863 0 -0.45620465585954723 0.2251951411450015 0 -0.44062222049055039 0.24203477259657111 0 -0.45620465585954723 0.2251951411450015 0 -0.44192508753596349 0.22328399916790689 0 -0.44062222049055039 0.24203477259657111 0 -0.44062222049055039 0.24203477259657111 0 -0.45046339488490522 0.249057113070103 0 -0.44442574262614493 0.25832327296872359 0 -0.44062222049055039 0.24203477259657111 0 -0.45046339488490522 0.249057113070103 0 -0.45925329591452863 0.2407771106774913 0 -0.45620465585954723 0.2251951411450015 0 -0.44062222049055039 0.24203477259657111 0 -0.45925329591452863 0.2407771106774913 0 -0.45046339488490522 0.249057113070103 0 -0.45925329591452863 0.2407771106774913 0 -0.45807104112411212 0.25534721177055669 0 -0.45925329591452863 0.2407771106774913 0 -0.46938038244821267 0.25133041049185839 0 -0.45807104112411212 0.25534721177055669 0 -0.47315400564016008 0.2364435414805684 0 -0.45925329591452863 0.2407771106774913 0 -0.46938038244821267 0.25133041049185839 0 -0.4198454647722451 0.23985190764030939 0 -0.40081965837488509 0.24074316727492401 0 -0.40585136056822319 0.25674789398696107 0 -0.4198454647722451 0.23985190764030939 0 -0.405480724964072 0.22581663549259839 0 -0.40081965837488509 0.24074316727492401 0 -0.44062222049055039 0.24203477259657111 0 -0.4198454647722451 0.23985190764030939 0 -0.42503978512155383 0.25887440404814072 0 -0.44062222049055039 0.24203477259657111 0 -0.4198454647722451 0.23985190764030939 0 -0.43146145522804691 0.2313120115293863 0 -0.4198454647722451 0.23985190764030939 0 -0.43146145522804691 0.2313120115293863 0 -0.42370673975344808 0.22056464269113771 0 -0.44192508753596349 0.22328399916790689 0 -0.43146145522804691 0.2313120115293863 0 -0.42370673975344808 0.22056464269113771 0 -0.4198454647722451 0.23985190764030939 0 -0.42370673975344808 0.22056464269113771 0 -0.405480724964072 0.22581663549259839 0 -0.42370673975344808 0.22056464269113771 0 -0.40708390191205951 0.20882890034131879 0 -0.405480724964072 0.22581663549259839 0 -0.42370673975344808 0.22056464269113771 0 -0.40708390191205951 0.20882890034131879 0 -0.42107335870595469 0.2022269477122331 0 -0.44192508753596349 0.22328399916790689 0 -0.42370673975344808 0.22056464269113771 0 -0.43516662619925378 0.20614333559983469 0 -0.42370673975344808 0.22056464269113771 0 -0.43516662619925378 0.20614333559983469 0 -0.42107335870595469 0.2022269477122331 0 -0.43516662619925378 0.20614333559983469 0 -0.4284081648625454 0.1890026720317621 0 -0.42107335870595469 0.2022269477122331 0 -0.43516662619925378 0.20614333559983469 0 -0.4284081648625454 0.1890026720317621 0 -0.4284081648625454 0.1890026720317621 0 -0.40915969581062839 0.19342315750049971 0 -0.4284081648625454 0.1890026720317621 0 -0.42107335870595469 0.2022269477122331 0 -0.40915969581062839 0.19342315750049971 0 -0.40708390191205951 0.20882890034131879 0 -0.42107335870595469 0.2022269477122331 0 -0.40915969581062839 0.19342315750049971 0 -0.40708390191205951 0.20882890034131879 0 -0.40915969581062839 0.19342315750049971 0 -0.38991122675871148 0.19784364296923759 0 -0.40915969581062839 0.19342315750049971 0 -0.38991122675871148 0.19784364296923759 0 -0.40915969581062839 0.19342315750049971 0 -0.38991122675871148 0.19784364296923759 0 -0.39569501158598158 0.17813944679546001 0 -0.39158905321283283 0.2136173787495643 0 -0.38435338999826391 0.22831720607051781 0 -0.36414166766971379 0.2074649771098355 0 -0.38991122675871148 0.19784364296923759 0 -0.39158905321283283 0.2136173787495643 0 -0.36414166766971379 0.2074649771098355 0 -0.40708390191205951 0.20882890034131879 0 -0.39158905321283283 0.2136173787495643 0 -0.405480724964072 0.22581663549259839 0 -0.40708390191205951 0.20882890034131879 0 -0.38991122675871148 0.19784364296923759 0 -0.39158905321283283 0.2136173787495643 0 -0.405480724964072 0.22581663549259839 0 -0.38435338999826391 0.22831720607051781 0 -0.40081965837488509 0.24074316727492401 0 -0.39158905321283283 0.2136173787495643 0 -0.405480724964072 0.22581663549259839 0 -0.38435338999826391 0.22831720607051781 0 -0.37619177155740557 0.24036243622333081 0 -0.38790582398472923 0.24962922847932231 0 -0.36318679658289171 0.25196182354824148 0 -0.38435338999826391 0.22831720607051781 0 -0.37619177155740557 0.24036243622333081 0 -0.38790582398472923 0.24962922847932231 0 -0.38435338999826391 0.22831720607051781 0 -0.38790582398472923 0.24962922847932231 0 -0.40081965837488509 0.24074316727492401 0 -0.38790582398472923 0.24962922847932231 0 -0.40081965837488509 0.24074316727492401 0 -0.40585136056822319 0.25674789398696107 0 -0.40926453963391513 0.14045102348790381 0 -0.42614672387873248 0.14526589422012931 0 -0.41883635224822963 0.16472684775983329 0 -0.40926453963391513 0.14045102348790381 0 -0.41883635224822963 0.16472684775983329 0 -0.40926453963391513 0.14045102348790381 0 -0.41883635224822963 0.16472684775983329 0 -0.40029434983296169 0.15790366282291429 0 -0.40926453963391513 0.14045102348790381 0 -0.417579207348795 0.13056668242546571 0 -0.40026410281127539 0.13237877311027449 0 -0.40926453963391513 0.14045102348790381 0 -0.417579207348795 0.13056668242546571 0 -0.42614672387873248 0.14526589422012931 0 -0.417579207348795 0.13056668242546571 0 -0.43293323699752101 0.1317554923945817 0 -0.42614672387873248 0.14526589422012931 0 -0.42608096723388439 0.1205091241492761 0 -0.417579207348795 0.13056668242546571 0 -0.43293323699752101 0.1317554923945817 0 -0.43796764784210812 0.14528805014891141 0 -0.43293323699752101 0.1317554923945817 0 -0.42614672387873248 0.14526589422012931 0 -0.43892522612619872 0.15930650560997939 0 -0.43796764784210812 0.14528805014891141 0 -0.42614672387873248 0.14526589422012931 0 -0.43892522612619872 0.15930650560997939 0 -0.42614672387873248 0.14526589422012931 0 -0.41883635224822963 0.16472684775983329 0 -0.43992511097516529 0.17411109905454999 0 -0.43892522612619872 0.15930650560997939 0 -0.41883635224822963 0.16472684775983329 0 -0.4284081648625454 0.1890026720317621 0 -0.41883635224822963 0.16472684775983329 0 -0.43992511097516529 0.17411109905454999 0 -0.4284081648625454 0.1890026720317621 0 -0.41883635224822963 0.16472684775983329 0 -0.40915969581062839 0.19342315750049971 0 -0.41883635224822963 0.16472684775983329 0 -0.39569501158598158 0.17813944679546001 0 -0.4284081648625454 0.1890026720317621 0 -0.40915969581062839 0.19342315750049971 0 -0.41883635224822963 0.16472684775983329 0 -0.40029434983296169 0.15790366282291429 0 -0.39569501158598158 0.17813944679546001 0 -0.38484252596519369 0.16167484958157691 0 -0.41883635224822963 0.16472684775983329 0 -0.40029434983296169 0.15790366282291429 0 -0.39569501158598158 0.17813944679546001 0 -0.39569501158598158 0.17813944679546001 0 -0.38484252596519369 0.16167484958157691 0 -0.36525228834216061 0.17922160577889321 0 -0.38991122675871148 0.19784364296923759 0 -0.39569501158598158 0.17813944679546001 0 -0.36525228834216061 0.17922160577889321 0 -0.39283331973148827 0.14452614648979731 0 -0.38372255811484618 0.13025780258704611 0 -0.36636290901460722 0.1509782344479508 0 -0.38484252596519369 0.16167484958157691 0 -0.39283331973148827 0.14452614648979731 0 -0.36636290901460722 0.1509782344479508 0 -0.40029434983296169 0.15790366282291429 0 -0.38484252596519369 0.16167484958157691 0 -0.39283331973148827 0.14452614648979731 0 -0.40926453963391513 0.14045102348790381 0 -0.40029434983296169 0.15790366282291429 0 -0.39283331973148827 0.14452614648979731 0 -0.39283331973148827 0.14452614648979731 0 -0.40026410281127539 0.13237877311027449 0 -0.38372255811484618 0.13025780258704611 0 -0.39792088922733271 0.1160922105611595 0 -0.417579207348795 0.13056668242546571 0 -0.40026410281127539 0.13237877311027449 0 -0.39792088922733271 0.1160922105611595 0 -0.40026410281127539 0.13237877311027449 0 -0.38372255811484618 0.13025780258704611 0 -0.40926453963391513 0.14045102348790381 0 -0.39283331973148827 0.14452614648979731 0 -0.40026410281127539 0.13237877311027449 0 -0.38372255811484618 0.13025780258704611 0 -0.36636290901460722 0.1509782344479508 0 -0.36747352968705388 0.12273486311700831 0 -0.36636290901460722 0.1509782344479508 0 -0.36747352968705388 0.12273486311700831 0 -0.35528769071996391 0.12689780186549679 0 -0.36636290901460722 0.1509782344479508 0 -0.36747352968705388 0.12273486311700831 0 -0.35528769071996391 0.12689780186549679 0 -0.33512599087492562 0.1447950320020088 0 -0.35528769071996391 0.12689780186549679 0 -0.35168351666373848 0.14314256241625531 0 -0.33512599087492562 0.1447950320020088 0 -0.35528769071996391 0.12689780186549679 0 -0.33512599087492562 0.1447950320020088 0 -0.34115039425197219 0.12498493974687711 0 -0.35528769071996391 0.12689780186549679 0 -0.35168351666373848 0.14314256241625531 0 -0.36636290901460722 0.1509782344479508 0 -0.35168351666373848 0.14314256241625531 0 -0.36636290901460722 0.1509782344479508 0 -0.34333519974196419 0.16612441953572921 0 -0.38484252596519369 0.16167484958157691 0 -0.36636290901460722 0.1509782344479508 0 -0.36525228834216061 0.17922160577889321 0 -0.36636290901460722 0.1509782344479508 0 -0.36525228834216061 0.17922160577889321 0 -0.36525228834216061 0.17922160577889321 0 -0.34333519974196419 0.16612441953572921 0 -0.34654591437965571 0.19533490523866279 0 -0.36636290901460722 0.1509782344479508 0 -0.36525228834216061 0.17922160577889321 0 -0.34333519974196419 0.16612441953572921 0 -0.34333519974196419 0.16612441953572921 0 -0.31496429102988749 0.16269226213852109 0 -0.33512599087492562 0.1447950320020088 0 -0.34333519974196419 0.16612441953572921 0 -0.34654591437965571 0.19533490523866279 0 -0.32412519241006588 0.1878495682783011 0 -0.31496429102988749 0.16269226213852109 0 -0.32412519241006588 0.1878495682783011 0 -0.34333519974196419 0.16612441953572921 0 -0.31496429102988749 0.16269226213852109 0 -0.32412519241006588 0.1878495682783011 0 -0.31303823693556859 0.17707572181323081 0 -0.31496429102988749 0.16269226213852109 0 -0.32412519241006588 0.1878495682783011 0 -0.31303823693556859 0.17707572181323081 0 -0.32412519241006588 0.1878495682783011 0 -0.3108046026399135 0.18379038091696129 0 -0.31496429102988749 0.16269226213852109 0 -0.31353256245119709 0.1587605055712967 0 -0.31354631638020197 0.13395604467094269 0 -0.33512599087492562 0.1447950320020088 0 -0.3122891553291075 0.14635758184588041 0 -0.31353256245119709 0.1587605055712967 0 -0.33512599087492562 0.1447950320020088 0 -0.3122891553291075 0.14635758184588041 0 -0.31496429102988749 0.16269226213852109 0 -0.31353256245119709 0.1587605055712967 0 -0.33512599087492562 0.1447950320020088 0 -0.31496429102988749 0.16269226213852109 0 -0.33512599087492562 0.1447950320020088 0 -0.31354631638020197 0.13395604467094269 0 -0.32917568526667751 0.12578156900391591 0 -0.33512599087492562 0.1447950320020088 0 -0.31354631638020197 0.13395604467094269 0 -0.32917568526667751 0.12578156900391591 0 -0.32114709127587232 0.11611322513389059 0 -0.32917568526667751 0.12578156900391591 0 -0.33512599087492562 0.1447950320020088 0 -0.34115039425197219 0.12498493974687711 0 -0.35168351666373848 0.14314256241625531 0 -0.34333519974196419 0.16612441953572921 0 -0.33512599087492562 0.1447950320020088 0 -0.36303104699726713 0.23570834844077809 0 -0.34244699517042121 0.23816418055786151 0 -0.36318679658289171 0.25196182354824148 0 -0.34244699517042121 0.23816418055786151 0 -0.36318679658289171 0.25196182354824148 0 -0.33952374355129727 0.25899057541505788 0 -0.37619177155740557 0.24036243622333081 0 -0.36303104699726713 0.23570834844077809 0 -0.36318679658289171 0.25196182354824148 0 -0.38435338999826391 0.22831720607051781 0 -0.37619177155740557 0.24036243622333081 0 -0.36303104699726713 0.23570834844077809 0 -0.38435338999826391 0.22831720607051781 0 -0.36303104699726713 0.23570834844077809 0 -0.36414166766971379 0.2074649771098355 0 -0.36303104699726713 0.23570834844077809 0 -0.36414166766971379 0.2074649771098355 0 -0.36303104699726713 0.23570834844077809 0 -0.35084793517488477 0.2210857468323085 0 -0.34244699517042121 0.23816418055786151 0 -0.36303104699726713 0.23570834844077809 0 -0.35084793517488477 0.2210857468323085 0 -0.36414166766971379 0.2074649771098355 0 -0.35084793517488477 0.2210857468323085 0 -0.36414166766971379 0.2074649771098355 0 -0.34654591437965571 0.19533490523866279 0 -0.36525228834216061 0.17922160577889321 0 -0.36414166766971379 0.2074649771098355 0 -0.38991122675871148 0.19784364296923759 0 -0.36525228834216061 0.17922160577889321 0 -0.36414166766971379 0.2074649771098355 0 -0.36525228834216061 0.17922160577889321 0 -0.36414166766971379 0.2074649771098355 0 -0.34654591437965571 0.19533490523866279 0 -0.32412519241006588 0.1878495682783011 0 -0.33328609379024349 0.2130068744180813 0 -0.34654591437965571 0.19533490523866279 0 -0.32412519241006588 0.1878495682783011 0 -0.33328609379024349 0.2130068744180813 0 -0.32412519241006588 0.1878495682783011 0 -0.33328609379024349 0.2130068744180813 0 -0.31080006153106382 0.20197173666100501 0 -0.32412519241006588 0.1878495682783011 0 -0.31080006153106382 0.20197173666100501 0 -0.3108046026399135 0.18379038091696129 0 -0.33328609379024349 0.2130068744180813 0 -0.31873218963182409 0.22654972870499029 0 -0.31080006153106382 0.20197173666100501 0 -0.35084793517488477 0.2210857468323085 0 -0.34654591437965571 0.19533490523866279 0 -0.33328609379024349 0.2130068744180813 0 -0.35084793517488477 0.2210857468323085 0 -0.33328609379024349 0.2130068744180813 0 -0.34244699517042121 0.23816418055786151 0 -0.33328609379024349 0.2130068744180813 0 -0.34244699517042121 0.23816418055786151 0 -0.33328609379024349 0.2130068744180813 0 -0.31873218963182409 0.22654972870499029 0 -0.34244699517042121 0.23816418055786151 0 -0.31873218963182409 0.22654972870499029 0 -0.32200613725511351 0.24850726385495631 0 -0.34244699517042121 0.23816418055786151 0 -0.31873218963182409 0.22654972870499029 0 -0.32200613725511351 0.24850726385495631 0 -0.30672251365844311 0.23743048015470111 0 -0.32200613725511351 0.24850726385495631 0 -0.34244699517042121 0.23816418055786151 0 -0.33952374355129727 0.25899057541505788 0 -0.29125564533142001 0.24067530578368901 0 -0.30672251365844311 0.23743048015470111 0 -0.30640548876467488 0.25787073169030861 0 -0.32200613725511351 0.24850726385495631 0 -0.30672251365844311 0.23743048015470111 0 -0.30640548876467488 0.25787073169030861 0 -0.29125564533142001 0.24067530578368901 0 -0.30672251365844311 0.23743048015470111 0 -0.29521310730918271 0.21354937073956171 0 -0.31873218963182409 0.22654972870499029 0 -0.30672251365844311 0.23743048015470111 0 -0.29521310730918271 0.21354937073956171 0 -0.29125564533142001 0.24067530578368901 0 -0.29521310730918271 0.21354937073956171 0 -0.29125564533142001 0.24067530578368901 0 -0.29521310730918271 0.21354937073956171 0 -0.27258595833473342 0.22149207507906341 0 -0.29521310730918271 0.21354937073956171 0 -0.28878760701375322 0.1984352968903606 0 -0.27490594785389072 0.20112241201531189 0 -0.31873218963182409 0.22654972870499029 0 -0.29521310730918271 0.21354937073956171 0 -0.31080006153106382 0.20197173666100501 0 -0.29521310730918271 0.21354937073956171 0 -0.29917056928694541 0.1864234356954344 0 -0.29521310730918271 0.21354937073956171 0 -0.31080006153106382 0.20197173666100501 0 -0.29917056928694541 0.1864234356954344 0 -0.31080006153106382 0.20197173666100501 0 -0.3108046026399135 0.18379038091696129 0 -0.29917056928694541 0.1864234356954344 0 -0.28878760701375322 0.1984352968903606 0 -0.29917056928694541 0.1864234356954344 0 -0.28955343229492791 0.1852490896997587 0 -0.29521310730918271 0.21354937073956171 0 -0.28878760701375322 0.1984352968903606 0 -0.29917056928694541 0.1864234356954344 0 -0.28878760701375322 0.1984352968903606 0 -0.27938784373491388 0.18917199981814359 0 -0.28955343229492791 0.1852490896997587 0 -0.27938784373491388 0.18917199981814359 0 -0.27490594785389072 0.20112241201531189 0 -0.26439180367967152 0.18225540552070321 0 -0.28878760701375322 0.1984352968903606 0 -0.27938784373491388 0.18917199981814359 0 -0.27490594785389072 0.20112241201531189 0 -0.27490594785389072 0.20112241201531189 0 -0.25370102580463139 0.2052288024824625 0 -0.26439180367967152 0.18225540552070321 0 -0.25370102580463139 0.2052288024824625 0 -0.26439180367967152 0.18225540552070321 0 -0.23359887481107691 0.1809086922627815 0 -0.27490594785389072 0.20112241201531189 0 -0.25370102580463139 0.2052288024824625 0 -0.27258595833473342 0.22149207507906341 0 -0.29521310730918271 0.21354937073956171 0 -0.27490594785389072 0.20112241201531189 0 -0.27258595833473342 0.22149207507906341 0 -0.29125564533142001 0.24067530578368901 0 -0.27258595833473342 0.22149207507906341 0 -0.26834113505385238 0.23837358332174549 0 -0.27258595833473342 0.22149207507906341 0 -0.25272375818517617 0.22994970808158929 0 -0.26834113505385238 0.23837358332174549 0 -0.25370102580463139 0.2052288024824625 0 -0.27258595833473342 0.22149207507906341 0 -0.25272375818517617 0.22994970808158929 0 -0.25272375818517617 0.22994970808158929 0 -0.25621817608628389 0.2460965770837312 0 -0.26834113505385238 0.23837358332174549 0 -0.25621817608628389 0.2460965770837312 0 -0.26834113505385238 0.23837358332174549 0 -0.26892213733164849 0.25365425058065472 0 -0.29125564533142001 0.24067530578368901 0 -0.26834113505385238 0.23837358332174549 0 -0.26892213733164849 0.25365425058065472 0 -0.29370567785695612 0.15770531643225719 0 -0.28412418886142132 0.16518528890623771 0 -0.28065913062351988 0.14575155473079041 0 -0.30159211447790629 0.14759241864651959 0 -0.29370567785695612 0.15770531643225719 0 -0.28065913062351988 0.14575155473079041 0 -0.29682817834931757 0.13068013418198679 0 -0.30159211447790629 0.14759241864651959 0 -0.28065913062351988 0.14575155473079041 0 -0.29682817834931757 0.13068013418198679 0 -0.28065913062351988 0.14575155473079041 0 -0.28285123447775751 0.1183560919224374 0 -0.31354631638020197 0.13395604467094269 0 -0.29682817834931757 0.13068013418198679 0 -0.30159211447790629 0.14759241864651959 0 -0.31354631638020197 0.13395604467094269 0 -0.3122891553291075 0.14635758184588041 0 -0.30159211447790629 0.14759241864651959 0 -0.31353256245119709 0.1587605055712967 0 -0.3122891553291075 0.14635758184588041 0 -0.30159211447790629 0.14759241864651959 0 -0.31496429102988749 0.16269226213852109 0 -0.31353256245119709 0.1587605055712967 0 -0.30488677357152572 0.1641353808659653 0 -0.30159211447790629 0.14759241864651959 0 -0.30488677357152572 0.1641353808659653 0 -0.29370567785695612 0.15770531643225719 0 -0.31353256245119709 0.1587605055712967 0 -0.30159211447790629 0.14759241864651959 0 -0.30488677357152572 0.1641353808659653 0 -0.31496429102988749 0.16269226213852109 0 -0.30225886166240762 0.17397067591913981 0 -0.31303823693556859 0.17707572181323081 0 -0.31496429102988749 0.16269226213852109 0 -0.30225886166240762 0.17397067591913981 0 -0.31496429102988749 0.16269226213852109 0 -0.30488677357152572 0.1641353808659653 0 -0.30225886166240762 0.17397067591913981 0 -0.30488677357152572 0.1641353808659653 0 -0.30225886166240762 0.17397067591913981 0 -0.29597535979189887 0.1670989905046398 0 -0.30488677357152572 0.1641353808659653 0 -0.29370567785695612 0.15770531643225719 0 -0.29597535979189887 0.1670989905046398 0 -0.31303823693556859 0.17707572181323081 0 -0.3108046026399135 0.18379038091696129 0 -0.30225886166240762 0.17397067591913981 0 -0.30225886166240762 0.17397067591913981 0 -0.29917056928694541 0.1864234356954344 0 -0.28955343229492791 0.1852490896997587 0 -0.3108046026399135 0.18379038091696129 0 -0.30225886166240762 0.17397067591913981 0 -0.29917056928694541 0.1864234356954344 0 -0.30225886166240762 0.17397067591913981 0 -0.28955343229492791 0.1852490896997587 0 -0.30225886166240762 0.17397067591913981 0 -0.28955343229492791 0.1852490896997587 0 -0.29024545837739651 0.173916500811098 0 -0.28955343229492791 0.1852490896997587 0 -0.29024545837739651 0.173916500811098 0 -0.27889874324695868 0.17762520371433099 0 -0.29024545837739651 0.173916500811098 0 -0.28412418886142132 0.16518528890623771 0 -0.27889874324695868 0.17762520371433099 0 -0.27938784373491388 0.18917199981814359 0 -0.28955343229492791 0.1852490896997587 0 -0.27889874324695868 0.17762520371433099 0 -0.29370567785695612 0.15770531643225719 0 -0.29597535979189887 0.1670989905046398 0 -0.28412418886142132 0.16518528890623771 0 -0.30225886166240762 0.17397067591913981 0 -0.29024545837739651 0.173916500811098 0 -0.29597535979189887 0.1670989905046398 0 -0.29024545837739651 0.173916500811098 0 -0.29597535979189887 0.1670989905046398 0 -0.28412418886142132 0.16518528890623771 0 -0.28412418886142132 0.16518528890623771 0 -0.26844272787379447 0.16268744982768751 0 -0.27889874324695868 0.17762520371433099 0 -0.28412418886142132 0.16518528890623771 0 -0.26844272787379447 0.16268744982768751 0 -0.28065913062351988 0.14575155473079041 0 -0.26844272787379447 0.16268744982768751 0 -0.27889874324695868 0.17762520371433099 0 -0.26439180367967152 0.18225540552070321 0 -0.27938784373491388 0.18917199981814359 0 -0.27889874324695868 0.17762520371433099 0 -0.26439180367967152 0.18225540552070321 0 -0.26844272787379447 0.16268744982768751 0 -0.26439180367967152 0.18225540552070321 0 -0.247018622616726 0.15992587597476091 0 -0.26844272787379447 0.16268744982768751 0 -0.25846103874104392 0.14702121199507179 0 -0.247018622616726 0.15992587597476091 0 -0.26844272787379447 0.16268744982768751 0 -0.25846103874104392 0.14702121199507179 0 -0.28065913062351988 0.14575155473079041 0 -0.25846103874104392 0.14702121199507179 0 -0.28065913062351988 0.14575155473079041 0 -0.25922316449870308 0.12628093809151891 0 -0.28065913062351988 0.14575155473079041 0 -0.25922316449870308 0.12628093809151891 0 -0.28285123447775751 0.1183560919224374 0 -0.25846103874104392 0.14702121199507179 0 -0.25922316449870308 0.12628093809151891 0 -0.2369615480924761 0.1404602413506009 0 -0.25922316449870308 0.12628093809151891 0 -0.25136603029008331 0.1103208693098497 0 -0.26687835675477128 0.1014348965859585 0 -0.25136603029008331 0.1103208693098497 0 -0.26687835675477128 0.1014348965859585 0 -0.24377998071086901 0.096378574065869249 0 -0.26687835675477128 0.1014348965859585 0 -0.28737892951993471 0.098967158637655914 0 -0.27569457229827071 0.081243623470509244 0 -0.26687835675477128 0.1014348965859585 0 -0.28285123447775751 0.1183560919224374 0 -0.28737892951993471 0.098967158637655914 0 -0.25922316449870308 0.12628093809151891 0 -0.26687835675477128 0.1014348965859585 0 -0.28285123447775751 0.1183560919224374 0 -0.29682817834931757 0.13068013418198679 0 -0.28285123447775751 0.1183560919224374 0 -0.30549209578720232 0.10774456093924389 0 -0.28285123447775751 0.1183560919224374 0 -0.28737892951993471 0.098967158637655914 0 -0.30549209578720232 0.10774456093924389 0 -0.28737892951993471 0.098967158637655914 0 -0.30549209578720232 0.10774456093924389 0 -0.29743787519420251 0.08153307720754506 0 -0.30549209578720232 0.10774456093924389 0 -0.29743787519420251 0.08153307720754506 0 -0.31354631638020197 0.13395604467094269 0 -0.29682817834931757 0.13068013418198679 0 -0.30549209578720232 0.10774456093924389 0 -0.31354631638020197 0.13395604467094269 0 -0.30549209578720232 0.10774456093924389 0 -0.29926204670725021 0.066629363318123747 0 -0.30931237829482389 0.073252958087475881 0 -0.31697319293959142 0.061410437985649477 0 -0.29926204670725021 0.066629363318123747 0 -0.30931237829482389 0.073252958087475881 0 -0.29743787519420251 0.08153307720754506 0 -0.30549209578720232 0.10774456093924389 0 -0.29743787519420251 0.08153307720754506 0 -0.31312795334666071 0.083579729522452809 0 -0.30931237829482389 0.073252958087475881 0 -0.29743787519420251 0.08153307720754506 0 -0.31312795334666071 0.083579729522452809 0 -0.28737892951993471 0.098967158637655914 0 -0.29743787519420251 0.08153307720754506 0 -0.27569457229827071 0.081243623470509244 0 -0.29743787519420251 0.08153307720754506 0 -0.28743776060402371 0.060458689408765323 0 -0.28938365460120269 0.05532159347584624 0 -0.29743787519420251 0.08153307720754506 0 -0.28938365460120269 0.05532159347584624 0 -0.29926204670725021 0.066629363318123747 0 -0.29743787519420251 0.08153307720754506 0 -0.28938365460120269 0.05532159347584624 0 -0.29743787519420251 0.08153307720754506 0 -0.27569457229827071 0.081243623470509244 0 -0.28743776060402371 0.060458689408765323 0 -0.27569457229827071 0.081243623470509244 0 -0.26257114212692878 0.06573449919026883 0 -0.28743776060402371 0.060458689408765323 0 -0.26257114212692878 0.06573449919026883 0 -0.28743776060402371 0.060458689408765323 0 -0.26687835675477128 0.1014348965859585 0 -0.25261226255175379 0.080423606239198905 0 -0.24377998071086901 0.096378574065869249 0 -0.26687835675477128 0.1014348965859585 0 -0.27569457229827071 0.081243623470509244 0 -0.25261226255175379 0.080423606239198905 0 -0.26257114212692878 0.06573449919026883 0 -0.23770452364983391 0.071010308971772351 0 -0.25261226255175379 0.080423606239198905 0 -0.26257114212692878 0.06573449919026883 0 -0.23770452364983391 0.071010308971772351 0 -0.27569457229827071 0.081243623470509244 0 -0.25261226255175379 0.080423606239198905 0 -0.26257114212692878 0.06573449919026883 0 -0.2522816967992324 0.037264740289820159 0 -0.27263172987273521 0.051913181220590639 0 -0.24906194248509719 0.058488871325365822 0 -0.26257114212692878 0.06573449919026883 0 -0.27263172987273521 0.051913181220590639 0 -0.24906194248509719 0.058488871325365822 0 -0.2522816967992324 0.037264740289820159 0 -0.2684979789729644 0.03593820420606865 0 -0.27263172987273521 0.051913181220590639 0 -0.2684979789729644 0.03593820420606865 0 -0.27263172987273521 0.051913181220590639 0 -0.28132943400820298 0.02911010974414751 0 -0.27263172987273521 0.051913181220590639 0 -0.28132943400820298 0.02911010974414751 0 -0.28938365460120269 0.05532159347584624 0 -0.26257114212692878 0.06573449919026883 0 -0.27263172987273521 0.051913181220590639 0 -0.28743776060402371 0.060458689408765323 0 -0.25267499080189931 -0.0034516002120552492 0 -0.26909988492935111 -0.0018655285383734981 0 -0.25157722050270093 0.012682655753942951 0 -0.26909988492935111 -0.0018655285383734981 0 -0.25157722050270093 0.012682655753942951 0 -0.27200359261247947 0.017754051058092819 0 -0.2522816967992324 0.037264740289820159 0 -0.25157722050270093 0.012682655753942951 0 -0.27200359261247947 0.017754051058092819 0 -0.2522816967992324 0.037264740289820159 0 -0.2684979789729644 0.03593820420606865 0 -0.27200359261247947 0.017754051058092819 0 -0.2522816967992324 0.037264740289820159 0 -0.27200359261247947 0.017754051058092819 0 -0.27200359261247947 0.017754051058092819 0 -0.28831373269731447 0.017122983851404761 0 -0.28132943400820298 0.02911010974414751 0 -0.2684979789729644 0.03593820420606865 0 -0.27200359261247947 0.017754051058092819 0 -0.28132943400820298 0.02911010974414751 0 -0.26909988492935111 -0.0018655285383734981 0 -0.2917254884257266 -0.0017566381736345419 0 -0.27200359261247947 0.017754051058092819 0 -0.2917254884257266 -0.0017566381736345419 0 -0.27200359261247947 0.017754051058092819 0 -0.28831373269731447 0.017122983851404761 0 -0.2917254884257266 -0.0017566381736345419 0 -0.28831373269731447 0.017122983851404761 0 -0.29997880334656019 0.01439552450637107 0 -0.2917254884257266 -0.0017566381736345419 0 -0.27200359261247947 0.017754051058092819 0 -0.28831373269731447 0.017122983851404761 0 -0.29656482898857922 0.02610767777843559 0 -0.29997880334656019 0.01439552450637107 0 -0.28831373269731447 0.017122983851404761 0 -0.28132943400820298 0.02911010974414751 0 -0.29656482898857922 0.02610767777843559 0 -0.28132943400820298 0.02911010974414751 0 -0.29656482898857922 0.02610767777843559 0 -0.29344050585463782 0.03493273697686209 0 -0.29656482898857922 0.02610767777843559 0 -0.31039051656375261 0.022327184027059441 0 -0.30541723396373921 0.038711125382435783 0 -0.31039051656375261 0.022327184027059441 0 -0.30541723396373921 0.038711125382435783 0 -0.32038394146944787 0.031620215762440292 0 -0.29656482898857922 0.02610767777843559 0 -0.31039051656375261 0.022327184027059441 0 -0.29997880334656019 0.01439552450637107 0 -0.31039051656375261 0.022327184027059441 0 -0.31177688145040278 0.0050359958776742568 0 -0.29997880334656019 0.01439552450637107 0 -0.2917254884257266 -0.0017566381736345419 0 -0.31177688145040278 0.0050359958776742568 0 -0.29997880334656019 0.01439552450637107 0 -0.27263172987273521 0.051913181220590639 0 -0.28743776060402371 0.060458689408765323 0 -0.28938365460120269 0.05532159347584624 0 -0.28938365460120269 0.05532159347584624 0 -0.29045052645802971 0.045802035002429492 0 -0.29738278035354182 0.050541329601553678 0 -0.28938365460120269 0.05532159347584624 0 -0.29738278035354182 0.050541329601553678 0 -0.29780899910201009 0.056562827273038227 0 -0.29926204670725021 0.066629363318123747 0 -0.28938365460120269 0.05532159347584624 0 -0.29780899910201009 0.056562827273038227 0 -0.28132943400820298 0.02911010974414751 0 -0.28938365460120269 0.05532159347584624 0 -0.29045052645802971 0.045802035002429492 0 -0.28132943400820298 0.02911010974414751 0 -0.28938365460120269 0.05532159347584624 0 -0.28132943400820298 0.02911010974414751 0 -0.29344050585463782 0.03493273697686209 0 -0.29045052645802971 0.045802035002429492 0 -0.29344050585463782 0.03493273697686209 0 -0.29045052645802971 0.045802035002429492 0 -0.30541723396373921 0.038711125382435783 0 -0.29045052645802971 0.045802035002429492 0 -0.30541723396373921 0.038711125382435783 0 -0.29738278035354182 0.050541329601553678 0 -0.29045052645802971 0.045802035002429492 0 -0.30541723396373921 0.038711125382435783 0 -0.29656482898857922 0.02610767777843559 0 -0.29344050585463782 0.03493273697686209 0 -0.30541723396373921 0.038711125382435783 0 -0.30541723396373921 0.038711125382435783 0 -0.30520751474604563 0.05375902269662923 0 -0.31780711793698518 0.045521831715634557 0 -0.29926204670725021 0.066629363318123747 0 -0.30520751474604563 0.05375902269662923 0 -0.31697319293959142 0.061410437985649477 0 -0.30541723396373921 0.038711125382435783 0 -0.30520751474604563 0.05375902269662923 0 -0.29738278035354182 0.050541329601553678 0 -0.30520751474604563 0.05375902269662923 0 -0.29738278035354182 0.050541329601553678 0 -0.29780899910201009 0.056562827273038227 0 -0.29926204670725021 0.066629363318123747 0 -0.30520751474604563 0.05375902269662923 0 -0.29780899910201009 0.056562827273038227 0 -0.32553678940662539 0.052415823907368687 0 -0.31780711793698518 0.045521831715634557 0 -0.33422422494732851 0.04449049745268327 0 -0.31697319293959142 0.061410437985649477 0 -0.32553678940662539 0.052415823907368687 0 -0.31780711793698518 0.045521831715634557 0 -0.30520751474604563 0.05375902269662923 0 -0.31697319293959142 0.061410437985649477 0 -0.31780711793698518 0.045521831715634557 0 -0.31697319293959142 0.061410437985649477 0 -0.32808937753058609 0.059947696530402161 0 -0.32553678940662539 0.052415823907368687 0 -0.31780711793698518 0.045521831715634557 0 -0.32038394146944787 0.031620215762440292 0 -0.33422422494732851 0.04449049745268327 0 -0.30541723396373921 0.038711125382435783 0 -0.31780711793698518 0.045521831715634557 0 -0.32038394146944787 0.031620215762440292 0 -0.30541723396373921 0.038711125382435783 0 -0.32038394146944787 0.031620215762440292 0 -0.32038394146944787 0.031620215762440292 0 -0.33422422494732851 0.04449049745268327 0 -0.33422422494732851 0.04449049745268327 0 -0.34051642268078958 0.02208187176518148 0 -0.34924074101412461 0.03711639968071382 0 -0.32038394146944787 0.031620215762440292 0 -0.33422422494732851 0.04449049745268327 0 -0.34051642268078958 0.02208187176518148 0 -0.33422422494732851 0.04449049745268327 0 -0.34715076893326918 0.04673829876922056 0 -0.34924074101412461 0.03711639968071382 0 -0.33422422494732851 0.04449049745268327 0 -0.34806450842520742 0.057360779142928031 0 -0.34715076893326918 0.04673829876922056 0 -0.33422422494732851 0.04449049745268327 0 -0.34806450842520742 0.057360779142928031 0 -0.33422422494732851 0.04449049745268327 0 -0.33482930480244999 0.055095026294593591 0 -0.34806450842520742 0.057360779142928031 0 -0.3407399656121517 0.06083029771636933 0 -0.33482930480244999 0.055095026294593591 0 -0.33440717105718593 0.063083878638897639 0 -0.3407399656121517 0.06083029771636933 0 -0.33482930480244999 0.055095026294593591 0 -0.34806450842520742 0.057360779142928031 0 -0.32808937753058609 0.059947696530402161 0 -0.33482930480244999 0.055095026294593591 0 -0.33440717105718593 0.063083878638897639 0 -0.32808937753058609 0.059947696530402161 0 -0.32553678940662539 0.052415823907368687 0 -0.33482930480244999 0.055095026294593591 0 -0.32553678940662539 0.052415823907368687 0 -0.33422422494732851 0.04449049745268327 0 -0.33482930480244999 0.055095026294593591 0 -0.31039051656375261 0.022327184027059441 0 -0.31177688145040278 0.0050359958776742568 0 -0.3261420213634148 0.01391490981329808 0 -0.32828291010712762 -0.0049346835118845543 0 -0.31177688145040278 0.0050359958776742568 0 -0.3261420213634148 0.01391490981329808 0 -0.31039051656375261 0.022327184027059441 0 -0.32038394146944787 0.031620215762440292 0 -0.3261420213634148 0.01391490981329808 0 -0.31039051656375261 0.022327184027059441 0 -0.32038394146944787 0.031620215762440292 0 -0.32038394146944787 0.031620215762440292 0 -0.34051642268078958 0.02208187176518148 0 -0.32038394146944787 0.031620215762440292 0 -0.3261420213634148 0.01391490981329808 0 -0.34051642268078958 0.02208187176518148 0 -0.3261420213634148 0.01391490981329808 0 -0.34051642268078958 0.02208187176518148 0 -0.34055428987364128 0.0059527955302196532 0 -0.32828291010712762 -0.0049346835118845543 0 -0.3261420213634148 0.01391490981329808 0 -0.34055428987364128 0.0059527955302196532 0 -0.34051642268078958 0.02208187176518148 0 -0.34055428987364128 0.0059527955302196532 0 -0.36064890389212972 0.0125435277679194 0 -0.34718119132474479 -0.01384164818341615 0 -0.34055428987364128 0.0059527955302196532 0 -0.36064890389212972 0.0125435277679194 0 -0.34051642268078958 0.02208187176518148 0 -0.36064890389212972 0.0125435277679194 0 -0.34051642268078958 0.02208187176518148 0 -0.35699945364537122 0.027147445145089769 0 -0.34924074101412461 0.03711639968071382 0 -0.34051642268078958 0.02208187176518148 0 -0.35699945364537122 0.027147445145089769 0 -0.36064890389212972 0.0125435277679194 0 -0.35699945364537122 0.027147445145089769 0 -0.36163302121541668 0.029781402687577421 0 -0.35940737946489582 0.035374977024224222 0 -0.37998819155715241 0.0057865511937031933 0 -0.36738966121720701 0.029980518529024301 0 -0.37123175334181557 0.027162262264614271 0 -0.37998819155715241 0.0057865511937031933 0 -0.36738966121720701 0.029980518529024301 0 -0.3645477689834325 0.020181962352102071 0 -0.37998819155715241 0.0057865511937031933 0 -0.36738966121720701 0.029980518529024301 0 -0.36273559053419291 0.026622670051971411 0 -0.36738966121720701 0.029980518529024301 0 -0.3645477689834325 0.020181962352102071 0 -0.35699945364537122 0.027147445145089769 0 -0.36163302121541668 0.029781402687577421 0 -0.36273559053419291 0.026622670051971411 0 -0.35699945364537122 0.027147445145089769 0 -0.36273559053419291 0.026622670051971411 0 -0.3645477689834325 0.020181962352102071 0 -0.36163302121541668 0.029781402687577421 0 -0.36273559053419291 0.026622670051971411 0 -0.36738966121720701 0.029980518529024301 0 -0.35699945364537122 0.027147445145089769 0 -0.3645477689834325 0.020181962352102071 0 -0.36064890389212972 0.0125435277679194 0 -0.3645477689834325 0.020181962352102071 0 -0.36064890389212972 0.0125435277679194 0 -0.37998819155715241 0.0057865511937031933 0 -0.3645477689834325 0.020181962352102071 0 -0.36064890389212972 0.0125435277679194 0 -0.38683543611469601 0.0001369023841863784 0 -0.36064890389212972 0.0125435277679194 0 -0.37474494217865062 -0.0022388935110706832 0 -0.38683543611469601 0.0001369023841863784 0 -0.36064890389212972 0.0125435277679194 0 -0.37474494217865062 -0.0022388935110706832 0 -0.36307869926690151 -0.00068504054922277494 0 -0.36064890389212972 0.0125435277679194 0 -0.35479113087726238 0.05417448586434577 0 -0.34715076893326918 0.04673829876922056 0 -0.35593663516940488 0.04278932274017315 0 -0.35479113087726238 0.05417448586434577 0 -0.35147867423579721 0.06053566178096708 0 -0.3622197730044176 0.060127746183944272 0 -0.35479113087726238 0.05417448586434577 0 -0.35147867423579721 0.06053566178096708 0 -0.35479113087726238 0.05417448586434577 0 -0.34806450842520742 0.057360779142928031 0 -0.35147867423579721 0.06053566178096708 0 -0.35479113087726238 0.05417448586434577 0 -0.34806450842520742 0.057360779142928031 0 -0.34806450842520742 0.057360779142928031 0 -0.35147867423579721 0.06053566178096708 0 -0.3447014191436914 0.063951910484466787 0 -0.34806450842520742 0.057360779142928031 0 -0.35147867423579721 0.06053566178096708 0 -0.3407399656121517 0.06083029771636933 0 -0.34806450842520742 0.057360779142928031 0 -0.3407399656121517 0.06083029771636933 0 -0.34806450842520742 0.057360779142928031 0 -0.3447014191436914 0.063951910484466787 0 -0.35479113087726238 0.05417448586434577 0 -0.34806450842520742 0.057360779142928031 0 -0.34715076893326918 0.04673829876922056 0 -0.34715076893326918 0.04673829876922056 0 -0.34924074101412461 0.03711639968071382 0 -0.35593663516940488 0.04278932274017315 0 -0.36738966121720701 0.029980518529024301 0 -0.35479113087726238 0.05417448586434577 0 -0.35593663516940488 0.04278932274017315 0 -0.35699945364537122 0.027147445145089769 0 -0.34924074101412461 0.03711639968071382 0 -0.35940737946489582 0.035374977024224222 0 -0.34924074101412461 0.03711639968071382 0 -0.35593663516940488 0.04278932274017315 0 -0.35940737946489582 0.035374977024224222 0 -0.36738966121720701 0.029980518529024301 0 -0.35479113087726238 0.05417448586434577 0 -0.36677646394688163 0.041367990420506082 0 -0.37123175334181557 0.027162262264614271 0 -0.37046143272875132 0.04675171495388801 0 -0.36738966121720701 0.029980518529024301 0 -0.35479113087726238 0.05417448586434577 0 -0.37123175334181557 0.027162262264614271 0 -0.36677646394688163 0.041367990420506082 0 -0.37046143272875132 0.04675171495388801 0 -0.3764786745208083 0.032098692741998169 0 -0.37123175334181557 0.027162262264614271 0 -0.37046143272875132 0.04675171495388801 0 -0.36163302121541668 0.029781402687577421 0 -0.36738966121720701 0.029980518529024301 0 -0.35940737946489582 0.035374977024224222 0 -0.36738966121720701 0.029980518529024301 0 -0.35593663516940488 0.04278932274017315 0 -0.35940737946489582 0.035374977024224222 0 -0.36738966121720701 0.029980518529024301 0 -0.37123175334181557 0.027162262264614271 0 -0.36677646394688163 0.041367990420506082 0 -0.36677646394688163 0.041367990420506082 0 -0.37046143272875132 0.04675171495388801 0 -0.36802302346639398 0.047906750352184523 0 -0.36677646394688163 0.041367990420506082 0 -0.36802302346639398 0.047906750352184523 0 -0.37046143272875132 0.04675171495388801 0 -0.37000681959492809 0.05831264468359916 0 -0.36802302346639398 0.047906750352184523 0 -0.37000681959492809 0.05831264468359916 0 -0.37046143272875132 0.04675171495388801 0 -0.36802302346639398 0.047906750352184523 0 -0.37000681959492809 0.05831264468359916 0 -0.37046143272875132 0.04675171495388801 0 -0.36802302346639398 0.047906750352184523 0 -0.35479113087726238 0.05417448586434577 0 -0.36802302346639398 0.047906750352184523 0 -0.35479113087726238 0.05417448586434577 0 -0.36802302346639398 0.047906750352184523 0 -0.3622197730044176 0.060127746183944272 0 -0.35479113087726238 0.05417448586434577 0 -0.36677646394688163 0.041367990420506082 0 -0.36802302346639398 0.047906750352184523 0 -0.36802302346639398 0.047906750352184523 0 -0.3622197730044176 0.060127746183944272 0 -0.37000681959492809 0.05831264468359916 0 -0.35147867423579721 0.06053566178096708 0 -0.36926886504626422 0.077079019973005369 0 -0.3622197730044176 0.060127746183944272 0 -0.37000681959492809 0.05831264468359916 0 -0.36926886504626422 0.077079019973005369 0 -0.37000681959492809 0.05831264468359916 0 -0.36926886504626422 0.077079019973005369 0 -0.37079498002478778 0.078498176574577722 0 -0.36926886504626422 0.077079019973005369 0 -0.34551673285671652 0.071984855543133663 0 -0.36912013352382872 0.080861301107253064 0 -0.37000681959492809 0.05831264468359916 0 -0.37079498002478778 0.078498176574577722 0 -0.37470600383380392 0.082961959162170973 0 -0.35147867423579721 0.06053566178096708 0 -0.3622197730044176 0.060127746183944272 0 -0.36926886504626422 0.077079019973005369 0 -0.37000681959492809 0.05831264468359916 0 -0.37470600383380392 0.082961959162170973 0 -0.37000681959492809 0.05831264468359916 0 -0.36926886504626422 0.077079019973005369 0 -0.36926886504626422 0.077079019973005369 0 -0.37079498002478778 0.078498176574577722 0 -0.34551673285671652 0.071984855543133663 0 -0.34763839367566191 0.079069075487607554 0 -0.36912013352382872 0.080861301107253064 0 -0.34551673285671652 0.071984855543133663 0 -0.36912013352382872 0.080861301107253064 0 -0.35147867423579721 0.06053566178096708 0 -0.36926886504626422 0.077079019973005369 0 -0.34551673285671652 0.071984855543133663 0 -0.34408269824063842 0.074738747125954852 0 -0.34763839367566191 0.079069075487607554 0 -0.34179116264722731 0.080399472229040897 0 -0.34408269824063842 0.074738747125954852 0 -0.34551673285671652 0.071984855543133663 0 -0.34763839367566191 0.079069075487607554 0 -0.34408269824063842 0.074738747125954852 0 -0.34551673285671652 0.071984855543133663 0 -0.35147867423579721 0.06053566178096708 0 -0.34551673285671652 0.071984855543133663 0 -0.3447014191436914 0.063951910484466787 0 -0.35147867423579721 0.06053566178096708 0 -0.34551673285671652 0.071984855543133663 0 -0.34763839367566191 0.079069075487607554 0 -0.36858415035949882 0.094491491786065696 0 -0.34763839367566191 0.079069075487607554 0 -0.36858415035949882 0.094491491786065696 0 -0.35198293914272999 0.094145145766245733 0 -0.34456144318064219 0.08667329674911145 0 -0.34763839367566191 0.079069075487607554 0 -0.35198293914272999 0.094145145766245733 0 -0.34456144318064219 0.08667329674911145 0 -0.35198293914272999 0.094145145766245733 0 -0.34431035454597703 0.093789606507308373 0 -0.34456144318064219 0.08667329674911145 0 -0.34763839367566191 0.079069075487607554 0 -0.34179116264722731 0.080399472229040897 0 -0.3782625711058698 0.101617738696854 0 -0.37470600383380392 0.082961959162170973 0 -0.36858415035949882 0.094491491786065696 0 -0.34763839367566191 0.079069075487607554 0 -0.36912013352382872 0.080861301107253064 0 -0.36858415035949882 0.094491491786065696 0 -0.36926886504626422 0.077079019973005369 0 -0.37079498002478778 0.078498176574577722 0 -0.36912013352382872 0.080861301107253064 0 -0.36926886504626422 0.077079019973005369 0 -0.36912013352382872 0.080861301107253064 0 -0.36912013352382872 0.080861301107253064 0 -0.37470600383380392 0.082961959162170973 0 -0.37079498002478778 0.078498176574577722 0 -0.36912013352382872 0.080861301107253064 0 -0.37470600383380392 0.082961959162170973 0 -0.36912013352382872 0.080861301107253064 0 -0.37470600383380392 0.082961959162170973 0 -0.36858415035949882 0.094491491786065696 0 -0.36912013352382872 0.080861301107253064 0 -0.36858415035949882 0.094491491786065696 0 -0.36858415035949882 0.094491491786065696 0 -0.36747352968705388 0.12273486311700831 0 -0.3782625711058698 0.101617738696854 0 -0.36858415035949882 0.094491491786065696 0 -0.36858415035949882 0.094491491786065696 0 -0.36006702585218792 0.10838608290929221 0 -0.35198293914272999 0.094145145766245733 0 -0.36858415035949882 0.094491491786065696 0 -0.36006702585218792 0.10838608290929221 0 -0.36747352968705388 0.12273486311700831 0 -0.3782625711058698 0.101617738696854 0 -0.36858415035949882 0.094491491786065696 0 -0.36747352968705388 0.12273486311700831 0 -0.36006702585218792 0.10838608290929221 0 -0.36747352968705388 0.12273486311700831 0 -0.35832203275528268 0.1183511860346923 0 -0.35528769071996391 0.12689780186549679 0 -0.36747352968705388 0.12273486311700831 0 -0.35832203275528268 0.1183511860346923 0 -0.35528769071996391 0.12689780186549679 0 -0.35832203275528268 0.1183511860346923 0 -0.35045988476192508 0.115385996246972 0 -0.36006702585218792 0.10838608290929221 0 -0.35832203275528268 0.1183511860346923 0 -0.35045988476192508 0.115385996246972 0 -0.35045988476192508 0.115385996246972 0 -0.34547580274860562 0.10394098399483009 0 -0.33570271963636877 0.11206429961599181 0 -0.35528769071996391 0.12689780186549679 0 -0.35045988476192508 0.115385996246972 0 -0.34115039425197219 0.12498493974687711 0 -0.36006702585218792 0.10838608290929221 0 -0.35198293914272999 0.094145145766245733 0 -0.34547580274860562 0.10394098399483009 0 -0.36006702585218792 0.10838608290929221 0 -0.35045988476192508 0.115385996246972 0 -0.34547580274860562 0.10394098399483009 0 -0.35198293914272999 0.094145145766245733 0 -0.34547580274860562 0.10394098399483009 0 -0.34431035454597703 0.093789606507308373 0 -0.34547580274860562 0.10394098399483009 0 -0.34431035454597703 0.093789606507308373 0 -0.335413749579693 0.097286071719103154 0 -0.34547580274860562 0.10394098399483009 0 -0.335413749579693 0.097286071719103154 0 -0.33570271963636877 0.11206429961599181 0 -0.335413749579693 0.097286071719103154 0 -0.33570271963636877 0.11206429961599181 0 -0.32444247844199348 0.1047035033472971 0 -0.35045988476192508 0.115385996246972 0 -0.34115039425197219 0.12498493974687711 0 -0.33570271963636877 0.11206429961599181 0 -0.32917568526667751 0.12578156900391591 0 -0.33570271963636877 0.11206429961599181 0 -0.32114709127587232 0.11611322513389059 0 -0.32917568526667751 0.12578156900391591 0 -0.34115039425197219 0.12498493974687711 0 -0.33570271963636877 0.11206429961599181 0 -0.31354631638020197 0.13395604467094269 0 -0.30549209578720232 0.10774456093924389 0 -0.32114709127587232 0.11611322513389059 0 -0.30549209578720232 0.10774456093924389 0 -0.32114709127587232 0.11611322513389059 0 -0.32444247844199348 0.1047035033472971 0 -0.33570271963636877 0.11206429961599181 0 -0.32114709127587232 0.11611322513389059 0 -0.32444247844199348 0.1047035033472971 0 -0.30549209578720232 0.10774456093924389 0 -0.32444247844199348 0.1047035033472971 0 -0.32445673593083119 0.090309359328255762 0 -0.30549209578720232 0.10774456093924389 0 -0.32445673593083119 0.090309359328255762 0 -0.31312795334666071 0.083579729522452809 0 -0.335413749579693 0.097286071719103154 0 -0.32444247844199348 0.1047035033472971 0 -0.32445673593083119 0.090309359328255762 0 -0.32445673593083119 0.090309359328255762 0 -0.3275606083710243 0.080211281293741998 0 -0.31312795334666071 0.083579729522452809 0 -0.3275606083710243 0.080211281293741998 0 -0.31312795334666071 0.083579729522452809 0 -0.31976082328641481 0.073112182403608325 0 -0.30931237829482389 0.073252958087475881 0 -0.31312795334666071 0.083579729522452809 0 -0.31976082328641481 0.073112182403608325 0 -0.30931237829482389 0.073252958087475881 0 -0.31697319293959142 0.061410437985649477 0 -0.31976082328641481 0.073112182403608325 0 -0.31697319293959142 0.061410437985649477 0 -0.31976082328641481 0.073112182403608325 0 -0.32886731949388731 0.069155273298144179 0 -0.31697319293959142 0.061410437985649477 0 -0.32808937753058609 0.059947696530402161 0 -0.32886731949388731 0.069155273298144179 0 -0.3275606083710243 0.080211281293741998 0 -0.31976082328641481 0.073112182403608325 0 -0.32886731949388731 0.069155273298144179 0 -0.32886731949388731 0.069155273298144179 0 -0.33770721458858299 0.069047958238937293 0 -0.336378655355973 0.076693290193422539 0 -0.3275606083710243 0.080211281293741998 0 -0.32886731949388731 0.069155273298144179 0 -0.336378655355973 0.076693290193422539 0 -0.33440717105718593 0.063083878638897639 0 -0.32886731949388731 0.069155273298144179 0 -0.33770721458858299 0.069047958238937293 0 -0.32808937753058609 0.059947696530402161 0 -0.33440717105718593 0.063083878638897639 0 -0.32886731949388731 0.069155273298144179 0 -0.3407399656121517 0.06083029771636933 0 -0.33440717105718593 0.063083878638897639 0 -0.33770721458858299 0.069047958238937293 0 -0.3407399656121517 0.06083029771636933 0 -0.3447014191436914 0.063951910484466787 0 -0.33770721458858299 0.069047958238937293 0 -0.34551673285671652 0.071984855543133663 0 -0.3447014191436914 0.063951910484466787 0 -0.33770721458858299 0.069047958238937293 0 -0.34408269824063842 0.074738747125954852 0 -0.33770721458858299 0.069047958238937293 0 -0.336378655355973 0.076693290193422539 0 -0.34408269824063842 0.074738747125954852 0 -0.34551673285671652 0.071984855543133663 0 -0.33770721458858299 0.069047958238937293 0 -0.34551673285671652 0.071984855543133663 0 -0.33770721458858299 0.069047958238937293 0 -0.34408269824063842 0.074738747125954852 0 -0.336378655355973 0.076693290193422539 0 -0.34179116264722731 0.080399472229040897 0 -0.336378655355973 0.076693290193422539 0 -0.34179116264722731 0.080399472229040897 0 -0.33708436589161489 0.085963183755354639 0 -0.34456144318064219 0.08667329674911145 0 -0.34179116264722731 0.080399472229040897 0 -0.33708436589161489 0.085963183755354639 0 -0.34456144318064219 0.08667329674911145 0 -0.34431035454597703 0.093789606507308373 0 -0.33708436589161489 0.085963183755354639 0 -0.34431035454597703 0.093789606507308373 0 -0.335413749579693 0.097286071719103154 0 -0.33708436589161489 0.085963183755354639 0 -0.335413749579693 0.097286071719103154 0 -0.32445673593083119 0.090309359328255762 0 -0.33708436589161489 0.085963183755354639 0 -0.32445673593083119 0.090309359328255762 0 -0.3275606083710243 0.080211281293741998 0 -0.33708436589161489 0.085963183755354639 0 -0.3275606083710243 0.080211281293741998 0 -0.336378655355973 0.076693290193422539 0 -0.33708436589161489 0.085963183755354639 0 -0.38891458820749281 0.47713565504117422 0 -0.42172655890518862 0.5 0 -0.3640375775585698 0.5 0 -0.38891458820749281 0.47713565504117422 0 -0.37103467036260362 0.45695891695805302 0 -0.36943712044780219 0.47475959506207249 0 -0.39694697642853649 0.45370639251272787 0 -0.37103467036260362 0.45695891695805302 0 -0.38891458820749281 0.47713565504117422 0 -0.39694697642853649 0.45370639251272787 0 -0.37103467036260362 0.45695891695805302 0 -0.38249991962136642 0.44345487931465249 0 -0.39694697642853649 0.45370639251272787 0 -0.37103467036260362 0.45695891695805302 0 -0.38249991962136642 0.44345487931465249 0 -0.39694697642853649 0.45370639251272787 0 -0.40464661760035381 0.43350824459614162 0 -0.38891458820749281 0.47713565504117422 0 -0.39694697642853649 0.45370639251272787 0 -0.41631826774707797 0.4711213942969617 0 -0.39694697642853649 0.45370639251272787 0 -0.42285928249446952 0.45045386806740279 0 -0.41631826774707797 0.4711213942969617 0 -0.42285928249446952 0.45045386806740279 0 -0.42501824733507809 0.43459816807542118 0 -0.40464661760035381 0.43350824459614162 0 -0.39694697642853649 0.45370639251272787 0 -0.42285928249446952 0.45045386806740279 0 -0.39694697642853649 0.45370639251272787 0 -0.42285928249446952 0.45045386806740279 0 -0.40464661760035381 0.43350824459614162 0 -0.42285928249446952 0.45045386806740279 0 -0.43521244088076849 0.46107148678855758 0 -0.44877158856040261 0.44720134362207808 0 -0.42285928249446952 0.45045386806740279 0 -0.44877158856040261 0.44720134362207808 0 -0.42285928249446952 0.45045386806740279 0 -0.43592409671607729 0.44045812782560079 0 -0.44877158856040261 0.44720134362207808 0 -0.42285928249446952 0.45045386806740279 0 -0.43592409671607729 0.44045812782560079 0 -0.42501824733507809 0.43459816807542118 0 -0.42285928249446952 0.45045386806740279 0 -0.43521244088076849 0.46107148678855758 0 -0.41631826774707797 0.4711213942969617 0 -0.41631826774707797 0.4711213942969617 0 -0.42172655890518862 0.5 0 -0.43935827984199688 0.47473889959161758 0 -0.43521244088076849 0.46107148678855758 0 -0.41631826774707797 0.4711213942969617 0 -0.43935827984199688 0.47473889959161758 0 -0.38891458820749281 0.47713565504117422 0 -0.41631826774707797 0.4711213942969617 0 -0.42172655890518862 0.5 0 -0.42172655890518862 0.5 0 -0.43935827984199688 0.47473889959161758 0 -0.47784082473980471 0.47626967285504462 0 -0.42172655890518862 0.5 0 -0.5 0.5 0 -0.47784082473980471 0.47626967285504462 0 -0.43935827984199688 0.47473889959161758 0 -0.47784082473980471 0.47626967285504462 0 -0.4487547857598953 0.46184192836472759 0 -0.5 0.5 0 -0.47784082473980471 0.47626967285504462 0 -0.49999999999999589 0.44077113011354369 0 -0.47784082473980471 0.47626967285504462 0 -0.47438579428019922 0.44398623686781052 0 -0.4627013265822788 0.4545376326069438 0 -0.47784082473980471 0.47626967285504462 0 -0.49999999999999589 0.44077113011354369 0 -0.47438579428019922 0.44398623686781052 0 -0.49999999999999589 0.44077113011354369 0 -0.47438579428019922 0.44398623686781052 0 -0.48180565015534738 0.42787197640755792 0 -0.49999999999999589 0.44077113011354369 0 -0.47438579428019922 0.44398623686781052 0 -0.47438579428019922 0.44398623686781052 0 -0.4627013265822788 0.4545376326069438 0 -0.44877158856040261 0.44720134362207808 0 -0.47438579428019922 0.44398623686781052 0 -0.44877158856040261 0.44720134362207808 0 -0.47438579428019922 0.44398623686781052 0 -0.44877158856040261 0.44720134362207808 0 -0.46289485375526918 0.43579199928955081 0 -0.44877158856040261 0.44720134362207808 0 -0.44878504691792248 0.43547483269414872 0 -0.46289485375526918 0.43579199928955081 0 -0.47784082473980471 0.47626967285504462 0 -0.4627013265822788 0.4545376326069438 0 -0.4487547857598953 0.46184192836472759 0 -0.4627013265822788 0.4545376326069438 0 -0.4487547857598953 0.46184192836472759 0 -0.44877158856040261 0.44720134362207808 0 -0.4487547857598953 0.46184192836472759 0 -0.44877158856040261 0.44720134362207808 0 -0.43521244088076849 0.46107148678855758 0 -0.4487547857598953 0.46184192836472759 0 -0.44877158856040261 0.44720134362207808 0 -0.43521244088076849 0.46107148678855758 0 -0.43935827984199688 0.47473889959161758 0 -0.4487547857598953 0.46184192836472759 0 -0.44877158856040261 0.44720134362207808 0 -0.44508566455651338 0.43839632914573512 0 -0.44878504691792248 0.43547483269414872 0 -0.44877158856040261 0.44720134362207808 0 -0.44878504691792248 0.43547483269414872 0 -0.43592409671607729 0.44045812782560079 0 -0.44877158856040261 0.44720134362207808 0 -0.44508566455651338 0.43839632914573512 0 -0.44531233658805403 0.42513554986162888 0 -0.44878504691792248 0.43547483269414872 0 -0.44880957839306629 0.41410011360809668 0 -0.44878504691792248 0.43547483269414872 0 -0.44880957839306629 0.41410011360809668 0 -0.43788570063392329 0.43164093021736671 0 -0.44531233658805403 0.42513554986162888 0 -0.44878504691792248 0.43547483269414872 0 -0.43592409671607729 0.44045812782560079 0 -0.44508566455651338 0.43839632914573512 0 -0.43788570063392329 0.43164093021736671 0 -0.44508566455651338 0.43839632914573512 0 -0.43788570063392329 0.43164093021736671 0 -0.44878504691792248 0.43547483269414872 0 -0.44508566455651338 0.43839632914573512 0 -0.44878504691792248 0.43547483269414872 0 -0.44531233658805403 0.42513554986162888 0 -0.44880957839306629 0.41410011360809668 0 -0.42391867717568832 0.41711337076656618 0 -0.44880957839306629 0.41410011360809668 0 -0.46585669794528167 0.42199291516666237 0 -0.4641229039382897 0.40091036417177778 0 -0.44878504691792248 0.43547483269414872 0 -0.46585669794528167 0.42199291516666237 0 -0.44878504691792248 0.43547483269414872 0 -0.44880957839306629 0.41410011360809668 0 -0.46585669794528167 0.42199291516666237 0 -0.44878504691792248 0.43547483269414872 0 -0.46585669794528167 0.42199291516666237 0 -0.46289485375526918 0.43579199928955081 0 -0.47438579428019922 0.44398623686781052 0 -0.46289485375526918 0.43579199928955081 0 -0.48180565015534738 0.42787197640755792 0 -0.46585669794528167 0.42199291516666237 0 -0.46289485375526918 0.43579199928955081 0 -0.48180565015534738 0.42787197640755792 0 -0.46585669794528167 0.42199291516666237 0 -0.48292834897264081 0.4085109976391762 0 -0.4641229039382897 0.40091036417177778 0 -0.46585669794528167 0.42199291516666237 0 -0.48292834897264081 0.4085109976391762 0 -0.46585669794528167 0.42199291516666237 0 -0.48180565015534738 0.42787197640755792 0 -0.48292834897264081 0.4085109976391762 0 -0.48292834897264081 0.4085109976391762 0 -0.5 0.41790010511261683 0 -0.5 0.39502908011169002 0 -0.48180565015534738 0.42787197640755792 0 -0.48292834897264081 0.4085109976391762 0 -0.5 0.41790010511261683 0 -0.49999999999999589 0.44077113011354369 0 -0.48180565015534738 0.42787197640755792 0 -0.5 0.41790010511261683 0 -0.48850556386005051 0.3766603246979251 0 -0.5 0.39502908011169002 0 -0.47832653283541199 0.38608194873200979 0 -0.48850556386005051 0.3766603246979251 0 -0.5 0.39502908011169002 0 -0.5 0.36887446842263683 0 -0.48292834897264081 0.4085109976391762 0 -0.5 0.39502908011169002 0 -0.47832653283541199 0.38608194873200979 0 -0.48292834897264081 0.4085109976391762 0 -0.5 0.39502908011169002 0 -0.48292834897264081 0.4085109976391762 0 -0.47832653283541199 0.38608194873200979 0 -0.4641229039382897 0.40091036417177778 0 -0.48850556386005051 0.3766603246979251 0 -0.47832653283541199 0.38608194873200979 0 -0.48259334700195489 0.36409898273387958 0 -0.47832653283541199 0.38608194873200979 0 -0.46059005399087027 0.38292215568240928 0 -0.4641229039382897 0.40091036417177778 0 -0.47832653283541199 0.38608194873200979 0 -0.46059005399087027 0.38292215568240928 0 -0.46572599417265398 0.36772482908493609 0 -0.44880957839306629 0.41410011360809668 0 -0.4641229039382897 0.40091036417177778 0 -0.44883410986820999 0.3927253945220448 0 -0.46059005399087027 0.38292215568240928 0 -0.4641229039382897 0.40091036417177778 0 -0.44883410986820999 0.3927253945220448 0 -0.44880957839306629 0.41410011360809668 0 -0.44883410986820999 0.3927253945220448 0 -0.43699833754743561 0.40294499431243458 0 -0.44880957839306629 0.41410011360809668 0 -0.44883410986820999 0.3927253945220448 0 -0.44883410986820999 0.3927253945220448 0 -0.43978391516082421 0.3912231797547942 0 -0.43699833754743561 0.40294499431243458 0 -0.44883410986820999 0.3927253945220448 0 -0.43978391516082421 0.3912231797547942 0 -0.44802713623065987 0.37645115623263098 0 -0.44883410986820999 0.3927253945220448 0 -0.44885864134335329 0.37135067543599282 0 -0.44883410986820999 0.3927253945220448 0 -0.44802713623065987 0.37645115623263098 0 -0.44885864134335329 0.37135067543599282 0 -0.43978391516082421 0.3912231797547942 0 -0.44802713623065987 0.37645115623263098 0 -0.42527607699699133 0.39277117395206662 0 -0.46059005399087027 0.38292215568240928 0 -0.44883410986820999 0.3927253945220448 0 -0.44885864134335329 0.37135067543599282 0 -0.44802713623065987 0.37645115623263098 0 -0.4250431626101242 0.37647010748543319 0 -0.42527607699699133 0.39277117395206662 0 -0.44802713623065987 0.37645115623263098 0 -0.42527607699699133 0.39277117395206662 0 -0.4250431626101242 0.37647010748543319 0 -0.4134887672477453 0.38574914578498593 0 -0.40122768387689522 0.38158953953487368 0 -0.4250431626101242 0.37647010748543319 0 -0.40122768387689522 0.38158953953487368 0 -0.4250431626101242 0.37647010748543319 0 -0.4134887672477453 0.38574914578498593 0 -0.42527607699699133 0.39277117395206662 0 -0.4250431626101242 0.37647010748543319 0 -0.40122768387689522 0.38158953953487368 0 -0.40086489287733429 0.37467411733839928 0 -0.4134887672477453 0.38574914578498593 0 -0.40798835104355652 0.39359067917546098 0 -0.40557429982823212 0.38794008425198068 0 -0.4134887672477453 0.38574914578498593 0 -0.40122768387689522 0.38158953953487368 0 -0.40557429982823212 0.38794008425198068 0 -0.40798835104355652 0.39359067917546098 0 -0.42527607699699133 0.39277117395206662 0 -0.40252501776332311 0.40909119167150271 0 -0.42527607699699133 0.39277117395206662 0 -0.40252501776332311 0.40909119167150271 0 -0.4134887672477453 0.38574914578498593 0 -0.40798835104355652 0.39359067917546098 0 -0.42527607699699133 0.39277117395206662 0 -0.42527607699699133 0.39277117395206662 0 -0.43699833754743561 0.40294499431243458 0 -0.42391867717568832 0.41711337076656618 0 -0.43978391516082421 0.3912231797547942 0 -0.42527607699699133 0.39277117395206662 0 -0.43699833754743561 0.40294499431243458 0 -0.44880957839306629 0.41410011360809668 0 -0.43699833754743561 0.40294499431243458 0 -0.42391867717568832 0.41711337076656618 0 -0.44531233658805403 0.42513554986162888 0 -0.42391867717568832 0.41711337076656618 0 -0.43788570063392329 0.43164093021736671 0 -0.44531233658805403 0.42513554986162888 0 -0.42391867717568832 0.41711337076656618 0 -0.43788570063392329 0.43164093021736671 0 -0.42391867717568832 0.41711337076656618 0 -0.42501824733507809 0.43459816807542118 0 -0.43592409671607729 0.44045812782560079 0 -0.43788570063392329 0.43164093021736671 0 -0.42501824733507809 0.43459816807542118 0 -0.42391867717568832 0.41711337076656618 0 -0.42501824733507809 0.43459816807542118 0 -0.40464661760035381 0.43350824459614162 0 -0.42527607699699133 0.39277117395206662 0 -0.42391867717568832 0.41711337076656618 0 -0.40252501776332311 0.40909119167150271 0 -0.42391867717568832 0.41711337076656618 0 -0.40252501776332311 0.40909119167150271 0 -0.40464661760035381 0.43350824459614162 0 -0.42391867717568832 0.41711337076656618 0 -0.40252501776332311 0.40909119167150271 0 -0.40252501776332311 0.40909119167150271 0 -0.37875820238401509 0.42613984176471847 0 -0.40252501776332311 0.40909119167150271 0 -0.40464661760035381 0.43350824459614162 0 -0.37875820238401509 0.42613984176471847 0 -0.38249991962136642 0.44345487931465249 0 -0.40464661760035381 0.43350824459614162 0 -0.37875820238401509 0.42613984176471847 0 -0.40252501776332311 0.40909119167150271 0 -0.37875820238401509 0.42613984176471847 0 -0.37769092578324193 0.39977892163450779 0 -0.37769092578324193 0.39977892163450779 0 -0.38963770449155072 0.39285491215608792 0 -0.37686086334024771 0.38257038446795849 0 -0.40252501776332311 0.40909119167150271 0 -0.37769092578324193 0.39977892163450779 0 -0.38963770449155072 0.39285491215608792 0 -0.40252501776332311 0.40909119167150271 0 -0.37769092578324193 0.39977892163450779 0 -0.37686086334024771 0.38257038446795849 0 -0.39363670834615189 0.38450398520198442 0 -0.40086489287733429 0.37467411733839928 0 -0.38963770449155072 0.39285491215608792 0 -0.37686086334024771 0.38257038446795849 0 -0.39363670834615189 0.38450398520198442 0 -0.37686086334024771 0.38257038446795849 0 -0.40086489287733429 0.37467411733839928 0 -0.37686086334024771 0.38257038446795849 0 -0.40086489287733429 0.37467411733839928 0 -0.39033592763893787 0.37070590072739279 0 -0.39363670834615189 0.38450398520198442 0 -0.40122768387689522 0.38158953953487368 0 -0.39959239714473138 0.39083097251260251 0 -0.38963770449155072 0.39285491215608792 0 -0.39363670834615189 0.38450398520198442 0 -0.39959239714473138 0.39083097251260251 0 -0.39363670834615189 0.38450398520198442 0 -0.40122768387689522 0.38158953953487368 0 -0.40086489287733429 0.37467411733839928 0 -0.40122768387689522 0.38158953953487368 0 -0.40557429982823212 0.38794008425198068 0 -0.39959239714473138 0.39083097251260251 0 -0.40798835104355652 0.39359067917546098 0 -0.40557429982823212 0.38794008425198068 0 -0.39959239714473138 0.39083097251260251 0 -0.40252501776332311 0.40909119167150271 0 -0.38963770449155072 0.39285491215608792 0 -0.39959239714473138 0.39083097251260251 0 -0.40798835104355652 0.39359067917546098 0 -0.40252501776332311 0.40909119167150271 0 -0.39959239714473138 0.39083097251260251 0 -0.3926828114571661 0.35541775914535301 0 -0.40105078960399698 0.34662517948293931 0 -0.40586906590548888 0.3393029225754271 0 -0.3926828114571661 0.35541775914535301 0 -0.39400561065841477 0.34382680172727831 0 -0.40586906590548888 0.3393029225754271 0 -0.3926828114571661 0.35541775914535301 0 -0.40586906590548888 0.3393029225754271 0 -0.3926828114571661 0.35541775914535301 0 -0.39969836615416421 0.35756427730283669 0 -0.39341808057325789 0.36431669671432632 0 -0.3926828114571661 0.35541775914535301 0 -0.40105078960399698 0.34662517948293931 0 -0.39969836615416421 0.35756427730283669 0 -0.3926828114571661 0.35541775914535301 0 -0.39400561065841477 0.34382680172727831 0 -0.38539473684528258 0.34837828204789067 0 -0.40105078960399698 0.34662517948293931 0 -0.40525205349158999 0.35429039595711992 0 -0.40888688292129022 0.34941903462410451 0 -0.40105078960399698 0.34662517948293931 0 -0.4080564418273247 0.34368885170405422 0 -0.40888688292129022 0.34941903462410451 0 -0.40105078960399698 0.34662517948293931 0 -0.40525205349158999 0.35429039595711992 0 -0.39969836615416421 0.35756427730283669 0 -0.40525205349158999 0.35429039595711992 0 -0.39969836615416421 0.35756427730283669 0 -0.40553625032349627 0.36037170931698131 0 -0.40553625032349627 0.36037170931698131 0 -0.40544017780568847 0.3661562974108753 0 -0.40025021147547779 0.36436392320030081 0 -0.40544017780568847 0.3661562974108753 0 -0.40025021147547779 0.36436392320030081 0 -0.397742957241214 0.36844985128713797 0 -0.39969836615416421 0.35756427730283669 0 -0.40553625032349627 0.36037170931698131 0 -0.40025021147547779 0.36436392320030081 0 -0.40544017780568847 0.3661562974108753 0 -0.40086489287733429 0.37467411733839928 0 -0.397742957241214 0.36844985128713797 0 -0.40086489287733429 0.37467411733839928 0 -0.397742957241214 0.36844985128713797 0 -0.39033592763893787 0.37070590072739279 0 -0.397742957241214 0.36844985128713797 0 -0.39341808057325789 0.36431669671432632 0 -0.39033592763893787 0.37070590072739279 0 -0.39969836615416421 0.35756427730283669 0 -0.40025021147547779 0.36436392320030081 0 -0.39341808057325789 0.36431669671432632 0 -0.40025021147547779 0.36436392320030081 0 -0.397742957241214 0.36844985128713797 0 -0.39341808057325789 0.36431669671432632 0 -0.3926828114571661 0.35541775914535301 0 -0.39341808057325789 0.36431669671432632 0 -0.37949655700884349 0.37153259571527891 0 -0.37949655700884349 0.37153259571527891 0 -0.37823932191431281 0.35548757599615399 0 -0.37024808467873749 0.36543132639488701 0 -0.3926828114571661 0.35541775914535301 0 -0.37949655700884349 0.37153259571527891 0 -0.37823932191431281 0.35548757599615399 0 -0.3926828114571661 0.35541775914535301 0 -0.37949655700884349 0.37153259571527891 0 -0.39341808057325789 0.36431669671432632 0 -0.39033592763893787 0.37070590072739279 0 -0.37949655700884349 0.37153259571527891 0 -0.37686086334024771 0.38257038446795849 0 -0.39033592763893787 0.37070590072739279 0 -0.37949655700884349 0.37153259571527891 0 -0.37823932191431281 0.35548757599615399 0 -0.38539473684528258 0.34837828204789067 0 -0.3787015959315434 0.33902802614693439 0 -0.3926828114571661 0.35541775914535301 0 -0.37823932191431281 0.35548757599615399 0 -0.38539473684528258 0.34837828204789067 0 -0.3787015959315434 0.33902802614693439 0 -0.37816355277066899 0.32985684687273281 0 -0.39158393304450312 0.32769252248945308 0 -0.39400561065841477 0.34382680172727831 0 -0.38539473684528258 0.34837828204789067 0 -0.3787015959315434 0.33902802614693439 0 -0.39158393304450312 0.32769252248945308 0 -0.37442838800096029 0.32044424157556423 0 -0.37816355277066899 0.32985684687273281 0 -0.39158393304450312 0.32769252248945308 0 -0.37442838800096029 0.32044424157556423 0 -0.38613629988198012 0.31665983269396758 0 -0.39158393304450312 0.32769252248945308 0 -0.37442838800096029 0.32044424157556423 0 -0.38613629988198012 0.31665983269396758 0 -0.37442838800096029 0.32044424157556423 0 -0.37415321332832258 0.31386652142517069 0 -0.39158393304450312 0.32769252248945308 0 -0.4039094095666334 0.320812311378052 0 -0.40925887999808552 0.33516025262174892 0 -0.38613629988198012 0.31665983269396758 0 -0.39830358576524327 0.31266849694114901 0 -0.39158393304450312 0.32769252248945308 0 -0.39830358576524327 0.31266849694114901 0 -0.39158393304450312 0.32769252248945308 0 -0.4039094095666334 0.320812311378052 0 -0.39830358576524327 0.31266849694114901 0 -0.4039094095666334 0.320812311378052 0 -0.40826549608127172 0.31275764886218971 0 -0.3787015959315434 0.33902802614693439 0 -0.40777024278950652 0.33697950655941222 0 -0.39158393304450312 0.32769252248945308 0 -0.40925887999808552 0.33516025262174892 0 -0.39158393304450312 0.32769252248945308 0 -0.40777024278950652 0.33697950655941222 0 -0.40925887999808552 0.33516025262174892 0 -0.3787015959315434 0.33902802614693439 0 -0.39158393304450312 0.32769252248945308 0 -0.40777024278950652 0.33697950655941222 0 -0.39400561065841477 0.34382680172727831 0 -0.3787015959315434 0.33902802614693439 0 -0.40777024278950652 0.33697950655941222 0 -0.39400561065841477 0.34382680172727831 0 -0.40586906590548888 0.3393029225754271 0 -0.40777024278950652 0.33697950655941222 0 -0.40105078960399698 0.34662517948293931 0 -0.40586906590548888 0.3393029225754271 0 -0.40105078960399698 0.34662517948293931 0 -0.40586906590548888 0.3393029225754271 0 -0.4080564418273247 0.34368885170405422 0 -0.4080564418273247 0.34368885170405422 0 -0.41125860555200922 0.34134685969384471 0 -0.40895905381070002 0.33957121871677393 0 -0.40586906590548888 0.3393029225754271 0 -0.4080564418273247 0.34368885170405422 0 -0.40895905381070002 0.33957121871677393 0 -0.4080564418273247 0.34368885170405422 0 -0.41125860555200922 0.34134685969384471 0 -0.41366919887348358 0.34576378073699821 0 -0.41125860555200922 0.34134685969384471 0 -0.41273643032526569 0.33662953043248711 0 -0.41433336845197538 0.3415594658204692 0 -0.41125860555200922 0.34134685969384471 0 -0.41433336845197538 0.3415594658204692 0 -0.41366919887348358 0.34576378073699821 0 -0.41125860555200922 0.34134685969384471 0 -0.41273643032526569 0.33662953043248711 0 -0.40895905381070002 0.33957121871677393 0 -0.41273643032526569 0.33662953043248711 0 -0.40777024278950652 0.33697950655941222 0 -0.41273643032526569 0.33662953043248711 0 -0.40895905381070002 0.33957121871677393 0 -0.40777024278950652 0.33697950655941222 0 -0.41273643032526569 0.33662953043248711 0 -0.40777024278950652 0.33697950655941222 0 -0.40925887999808552 0.33516025262174892 0 -0.40777024278950652 0.33697950655941222 0 -0.40925887999808552 0.33516025262174892 0 -0.40586906590548888 0.3393029225754271 0 -0.40895905381070002 0.33957121871677393 0 -0.40777024278950652 0.33697950655941222 0 -0.40586906590548888 0.3393029225754271 0 -0.40777024278950652 0.33697950655941222 0 -0.41273643032526569 0.33662953043248711 0 -0.40925887999808552 0.33516025262174892 0 -0.40925887999808552 0.33516025262174892 0 -0.42024067891477529 0.32173946694831868 0 -0.40925887999808552 0.33516025262174892 0 -0.42071708592719742 0.33131558094746122 0 -0.42024067891477529 0.32173946694831868 0 -0.41273643032526569 0.33662953043248711 0 -0.40925887999808552 0.33516025262174892 0 -0.42071708592719742 0.33131558094746122 0 -0.41273643032526569 0.33662953043248711 0 -0.4199209072431685 0.34318781838679219 0 -0.41433336845197538 0.3415594658204692 0 -0.4199209072431685 0.34318781838679219 0 -0.41433336845197538 0.3415594658204692 0 -0.41366919887348358 0.34576378073699821 0 -0.40925887999808552 0.33516025262174892 0 -0.41892768793075841 0.31754462100172592 0 -0.42141481873501418 0.31567829233095179 0 -0.40925887999808552 0.33516025262174892 0 -0.411263050936583 0.31954773430139438 0 -0.41892768793075841 0.31754462100172592 0 -0.40925887999808552 0.33516025262174892 0 -0.42141481873501418 0.31567829233095179 0 -0.40925887999808552 0.33516025262174892 0 -0.42024067891477529 0.32173946694831868 0 -0.42141481873501418 0.31567829233095179 0 -0.411263050936583 0.31954773430139438 0 -0.40826549608127172 0.31275764886218971 0 -0.41647318301620623 0.31168328686166002 0 -0.4039094095666334 0.320812311378052 0 -0.411263050936583 0.31954773430139438 0 -0.40826549608127172 0.31275764886218971 0 -0.4039094095666334 0.320812311378052 0 -0.40925887999808552 0.33516025262174892 0 -0.411263050936583 0.31954773430139438 0 -0.411263050936583 0.31954773430139438 0 -0.41892768793075841 0.31754462100172592 0 -0.41647318301620623 0.31168328686166002 0 -0.41892768793075841 0.31754462100172592 0 -0.42141481873501418 0.31567829233095179 0 -0.41892768793075841 0.31754462100172592 0 -0.42141481873501418 0.31567829233095179 0 -0.41647318301620623 0.31168328686166002 0 -0.42024067891477529 0.32173946694831868 0 -0.43790895006943947 0.32081412042189511 0 -0.43122247783146522 0.30831868127488848 0 -0.42024067891477529 0.32173946694831868 0 -0.42938605365092247 0.3272194948190838 0 -0.43790895006943947 0.32081412042189511 0 -0.42024067891477529 0.32173946694831868 0 -0.42141481873501418 0.31567829233095179 0 -0.43122247783146522 0.30831868127488848 0 -0.42024067891477529 0.32173946694831868 0 -0.43122247783146522 0.30831868127488848 0 -0.42071708592719742 0.33131558094746122 0 -0.42024067891477529 0.32173946694831868 0 -0.42938605365092247 0.3272194948190838 0 -0.42938605365092247 0.3272194948190838 0 -0.43674098495811231 0.33493788649063261 0 -0.43790895006943947 0.32081412042189511 0 -0.43790895006943947 0.32081412042189511 0 -0.4401847358662575 0.3127477530096977 0 -0.43122247783146522 0.30831868127488848 0 -0.41273643032526569 0.33662953043248711 0 -0.43674098495811231 0.33493788649063261 0 -0.42071708592719742 0.33131558094746122 0 -0.42938605365092247 0.3272194948190838 0 -0.43674098495811231 0.33493788649063261 0 -0.41273643032526569 0.33662953043248711 0 -0.4199209072431685 0.34318781838679219 0 -0.43385085243219867 0.34555045147446217 0 -0.41273643032526569 0.33662953043248711 0 -0.42071708592719742 0.33131558094746122 0 -0.43674098495811231 0.33493788649063261 0 -0.41273643032526569 0.33662953043248711 0 -0.43385085243219867 0.34555045147446217 0 -0.41273643032526569 0.33662953043248711 0 -0.43674098495811231 0.33493788649063261 0 -0.43385085243219867 0.34555045147446217 0 -0.43385085243219867 0.34555045147446217 0 -0.4302486007270056 0.35272204188882378 0 -0.42573384958437638 0.34916959158482058 0 -0.43385085243219867 0.34555045147446217 0 -0.43539550265875948 0.35741731211322858 0 -0.44110397924445488 0.35756373905142852 0 -0.43539550265875948 0.35741731211322858 0 -0.4302486007270056 0.35272204188882378 0 -0.42757171946388478 0.35850981688022993 0 -0.43385085243219867 0.34555045147446217 0 -0.43539550265875948 0.35741731211322858 0 -0.4302486007270056 0.35272204188882378 0 -0.4302486007270056 0.35272204188882378 0 -0.42480748600639012 0.35482075793933809 0 -0.42573384958437638 0.34916959158482058 0 -0.4302486007270056 0.35272204188882378 0 -0.42757171946388478 0.35850981688022993 0 -0.42480748600639012 0.35482075793933809 0 -0.42757171946388478 0.35850981688022993 0 -0.42480748600639012 0.35482075793933809 0 -0.42195212413097077 0.36043988011418487 0 -0.4199209072431685 0.34318781838679219 0 -0.43385085243219867 0.34555045147446217 0 -0.42573384958437638 0.34916959158482058 0 -0.42480748600639012 0.35482075793933809 0 -0.42573384958437638 0.34916959158482058 0 -0.41984140151311927 0.3495668882346864 0 -0.4199209072431685 0.34318781838679219 0 -0.42573384958437638 0.34916959158482058 0 -0.41984140151311927 0.3495668882346864 0 -0.4199209072431685 0.34318781838679219 0 -0.41984140151311927 0.3495668882346864 0 -0.41366919887348358 0.34576378073699821 0 -0.41984140151311927 0.3495668882346864 0 -0.41366919887348358 0.34576378073699821 0 -0.41404230344944593 0.35073751764187411 0 -0.42480748600639012 0.35482075793933809 0 -0.41984140151311927 0.3495668882346864 0 -0.41755863725870102 0.35684421707679032 0 -0.42480748600639012 0.35482075793933809 0 -0.41755863725870102 0.35684421707679032 0 -0.42195212413097077 0.36043988011418487 0 -0.41984140151311927 0.3495668882346864 0 -0.41755863725870102 0.35684421707679032 0 -0.41404230344944593 0.35073751764187411 0 -0.41755863725870102 0.35684421707679032 0 -0.41125051028190041 0.35540848222164118 0 -0.41404230344944593 0.35073751764187411 0 -0.41125051028190041 0.35540848222164118 0 -0.40888688292129022 0.34941903462410451 0 -0.41404230344944593 0.35073751764187411 0 -0.41755863725870102 0.35684421707679032 0 -0.41125051028190041 0.35540848222164118 0 -0.41142088061722581 0.36176204086772412 0 -0.40553625032349627 0.36037170931698131 0 -0.41125051028190041 0.35540848222164118 0 -0.41142088061722581 0.36176204086772412 0 -0.40525205349158999 0.35429039595711992 0 -0.40553625032349627 0.36037170931698131 0 -0.41125051028190041 0.35540848222164118 0 -0.40525205349158999 0.35429039595711992 0 -0.41125051028190041 0.35540848222164118 0 -0.40888688292129022 0.34941903462410451 0 -0.4080564418273247 0.34368885170405422 0 -0.40888688292129022 0.34941903462410451 0 -0.41366919887348358 0.34576378073699821 0 -0.40888688292129022 0.34941903462410451 0 -0.41366919887348358 0.34576378073699821 0 -0.41404230344944593 0.35073751764187411 0 -0.4250431626101242 0.37647010748543319 0 -0.40086489287733429 0.37467411733839928 0 -0.42486892241442098 0.36677785020884007 0 -0.40086489287733429 0.37467411733839928 0 -0.42486892241442098 0.36677785020884007 0 -0.40086489287733429 0.37467411733839928 0 -0.41378193274770297 0.36450427419225789 0 -0.42486892241442098 0.36677785020884007 0 -0.40544017780568847 0.3661562974108753 0 -0.40086489287733429 0.37467411733839928 0 -0.41378193274770297 0.36450427419225789 0 -0.40544017780568847 0.3661562974108753 0 -0.41142088061722581 0.36176204086772412 0 -0.41378193274770297 0.36450427419225789 0 -0.40553625032349627 0.36037170931698131 0 -0.40544017780568847 0.3661562974108753 0 -0.41142088061722581 0.36176204086772412 0 -0.41755863725870102 0.35684421707679032 0 -0.41378193274770297 0.36450427419225789 0 -0.42195212413097077 0.36043988011418487 0 -0.41378193274770297 0.36450427419225789 0 -0.42486892241442098 0.36677785020884007 0 -0.42195212413097077 0.36043988011418487 0 -0.41755863725870102 0.35684421707679032 0 -0.41142088061722581 0.36176204086772412 0 -0.41378193274770297 0.36450427419225789 0 -0.4250431626101242 0.37647010748543319 0 -0.44885864134335329 0.37135067543599282 0 -0.4250431626101242 0.37647010748543319 0 -0.42486892241442098 0.36677785020884007 0 -0.44885864134335329 0.37135067543599282 0 -0.42486892241442098 0.36677785020884007 0 -0.448872951951507 0.35888158307927881 0 -0.43539550265875948 0.35741731211322858 0 -0.42486892241442098 0.36677785020884007 0 -0.44110397924445488 0.35756373905142852 0 -0.43539550265875948 0.35741731211322858 0 -0.42757171946388478 0.35850981688022993 0 -0.42486892241442098 0.36677785020884007 0 -0.42757171946388478 0.35850981688022993 0 -0.42486892241442098 0.36677785020884007 0 -0.42195212413097077 0.36043988011418487 0 -0.42486892241442098 0.36677785020884007 0 -0.44885864134335329 0.37135067543599282 0 -0.448872951951507 0.35888158307927881 0 -0.44802713623065987 0.37645115623263098 0 -0.4250431626101242 0.37647010748543319 0 -0.44885864134335329 0.37135067543599282 0 -0.42486892241442098 0.36677785020884007 0 -0.44110397924445488 0.35756373905142852 0 -0.448872951951507 0.35888158307927881 0 -0.44885864134335329 0.37135067543599282 0 -0.448872951951507 0.35888158307927881 0 -0.44885864134335329 0.37135067543599282 0 -0.448872951951507 0.35888158307927881 0 -0.45634368000688869 0.36512471152292858 0 -0.43385085243219867 0.34555045147446217 0 -0.45496527453913199 0.35447137251643651 0 -0.44889299330712729 0.34242966823447613 0 -0.43385085243219867 0.34555045147446217 0 -0.45496527453913199 0.35447137251643651 0 -0.43385085243219867 0.34555045147446217 0 -0.44887533288597797 0.35680703170406669 0 -0.45496527453913199 0.35447137251643651 0 -0.43385085243219867 0.34555045147446217 0 -0.44110397924445488 0.35756373905142852 0 -0.44887533288597797 0.35680703170406669 0 -0.44110397924445488 0.35756373905142852 0 -0.44887533288597797 0.35680703170406669 0 -0.448872951951507 0.35888158307927881 0 -0.44887533288597797 0.35680703170406669 0 -0.448872951951507 0.35888158307927881 0 -0.44887533288597797 0.35680703170406669 0 -0.448872951951507 0.35888158307927881 0 -0.45496527453913199 0.35447137251643651 0 -0.448872951951507 0.35888158307927881 0 -0.45496527453913199 0.35447137251643651 0 -0.47186707529616939 0.3513175305497272 0 -0.448872951951507 0.35888158307927881 0 -0.47186707529616939 0.3513175305497272 0 -0.448872951951507 0.35888158307927881 0 -0.45634368000688869 0.36512471152292858 0 -0.47186707529616939 0.3513175305497272 0 -0.45911772068334677 0.34536620346235469 0 -0.45496527453913199 0.35447137251643651 0 -0.47186707529616939 0.3513175305497272 0 -0.45911772068334677 0.34536620346235469 0 -0.45496527453913199 0.35447137251643651 0 -0.44889299330712729 0.34242966823447613 0 -0.46572599417265398 0.36772482908493609 0 -0.45634368000688869 0.36512471152292858 0 -0.47186707529616939 0.3513175305497272 0 -0.46059005399087027 0.38292215568240928 0 -0.44885864134335329 0.37135067543599282 0 -0.46572599417265398 0.36772482908493609 0 -0.44885864134335329 0.37135067543599282 0 -0.46572599417265398 0.36772482908493609 0 -0.44885864134335329 0.37135067543599282 0 -0.46572599417265398 0.36772482908493609 0 -0.45634368000688869 0.36512471152292858 0 -0.47832653283541199 0.38608194873200979 0 -0.46572599417265398 0.36772482908493609 0 -0.48259334700195489 0.36409898273387958 0 -0.46572599417265398 0.36772482908493609 0 -0.48259334700195489 0.36409898273387958 0 -0.47186707529616939 0.3513175305497272 0 -0.46572599417265398 0.36772482908493609 0 -0.48259334700195489 0.36409898273387958 0 -0.47186707529616939 0.3513175305497272 0 -0.494861198640831 0.34375347802017348 0 -0.47186707529616939 0.3513175305497272 0 -0.48536711719674469 0.35339641184703091 0 -0.494861198640831 0.34375347802017348 0 -0.48259334700195489 0.36409898273387958 0 -0.47186707529616939 0.3513175305497272 0 -0.48536711719674469 0.35339641184703091 0 -0.48259334700195489 0.36409898273387958 0 -0.49214684784802371 0.35441565608434311 0 -0.48536711719674469 0.35339641184703091 0 -0.49214684784802371 0.35441565608434311 0 -0.5 0.36887446842263683 0 -0.5 0.34271985673358363 0 -0.49214684784802371 0.35441565608434311 0 -0.48536711719674469 0.35339641184703091 0 -0.494861198640831 0.34375347802017348 0 -0.49214684784802371 0.35441565608434311 0 -0.494861198640831 0.34375347802017348 0 -0.5 0.34271985673358363 0 -0.48850556386005051 0.3766603246979251 0 -0.48259334700195489 0.36409898273387958 0 -0.5 0.36887446842263683 0 -0.48259334700195489 0.36409898273387958 0 -0.49214684784802371 0.35441565608434311 0 -0.5 0.36887446842263683 0 -0.485708092488497 0.3189911195031831 0 -0.5 0.31656524504453032 0 -0.48475009422380527 0.3315545986069256 0 -0.485708092488497 0.3189911195031831 0 -0.5 0.31656524504453032 0 -0.48583489694974541 0.30845327583860088 0 -0.5 0.31656524504453032 0 -0.5 0.34271985673358363 0 -0.48475009422380527 0.3315545986069256 0 -0.494861198640831 0.34375347802017348 0 -0.5 0.34271985673358363 0 -0.48475009422380527 0.3315545986069256 0 -0.48475009422380527 0.3315545986069256 0 -0.46074553959095882 0.3332462425487791 0 -0.47186707529616939 0.3513175305497272 0 -0.494861198640831 0.34375347802017348 0 -0.48475009422380527 0.3315545986069256 0 -0.47186707529616939 0.3513175305497272 0 -0.48475009422380527 0.3315545986069256 0 -0.46074553959095882 0.3332462425487791 0 -0.48475009422380527 0.3315545986069256 0 -0.47224737878043732 0.31939135852267558 0 -0.46074553959095882 0.3332462425487791 0 -0.485708092488497 0.3189911195031831 0 -0.48475009422380527 0.3315545986069256 0 -0.47224737878043732 0.31939135852267558 0 -0.485708092488497 0.3189911195031831 0 -0.47224737878043732 0.31939135852267558 0 -0.48583489694974541 0.30845327583860088 0 -0.47224737878043732 0.31939135852267558 0 -0.46258830912673421 0.31343425170936878 0 -0.46074553959095882 0.3332462425487791 0 -0.46258830912673421 0.31343425170936878 0 -0.46074553959095882 0.3332462425487791 0 -0.45107709460752138 0.31557533431346357 0 -0.45911772068334677 0.34536620346235469 0 -0.47186707529616939 0.3513175305497272 0 -0.46074553959095882 0.3332462425487791 0 -0.45911772068334677 0.34536620346235469 0 -0.46074553959095882 0.3332462425487791 0 -0.44889299330712729 0.34242966823447613 0 -0.43674098495811231 0.33493788649063261 0 -0.46074553959095882 0.3332462425487791 0 -0.43674098495811231 0.33493788649063261 0 -0.46074553959095882 0.3332462425487791 0 -0.44889299330712729 0.34242966823447613 0 -0.43674098495811231 0.33493788649063261 0 -0.46074553959095882 0.3332462425487791 0 -0.43790895006943947 0.32081412042189511 0 -0.43674098495811231 0.33493788649063261 0 -0.43385085243219867 0.34555045147446217 0 -0.44889299330712729 0.34242966823447613 0 -0.46074553959095882 0.3332462425487791 0 -0.45107709460752138 0.31557533431346357 0 -0.43790895006943947 0.32081412042189511 0 -0.45107709460752138 0.31557533431346357 0 -0.43790895006943947 0.32081412042189511 0 -0.4401847358662575 0.3127477530096977 0 -0.44444415583193408 0.29216055381020578 0 -0.43122247783146522 0.30831868127488848 0 -0.44810052680614793 0.29565349026271098 0 -0.43122247783146522 0.30831868127488848 0 -0.44368336155109173 0.30649675881006838 0 -0.44810052680614793 0.29565349026271098 0 -0.43122247783146522 0.30831868127488848 0 -0.4401847358662575 0.3127477530096977 0 -0.44368336155109173 0.30649675881006838 0 -0.43122247783146522 0.30831868127488848 0 -0.44444415583193408 0.29216055381020578 0 -0.44810052680614793 0.29565349026271098 0 -0.43122247783146522 0.30831868127488848 0 -0.45107709460752138 0.31557533431346357 0 -0.4401847358662575 0.3127477530096977 0 -0.44368336155109173 0.30649675881006838 0 -0.44368336155109173 0.30649675881006838 0 -0.44996115485610377 0.3015940899144034 0 -0.4551770389262465 0.30483297142504889 0 -0.44368336155109173 0.30649675881006838 0 -0.44996115485610377 0.3015940899144034 0 -0.44810052680614793 0.29565349026271098 0 -0.45288369214092922 0.29939313915978533 0 -0.44996115485610377 0.3015940899144034 0 -0.44810052680614793 0.29565349026271098 0 -0.45288369214092922 0.29939313915978533 0 -0.44996115485610377 0.3015940899144034 0 -0.4551770389262465 0.30483297142504889 0 -0.45107709460752138 0.31557533431346357 0 -0.44368336155109173 0.30649675881006838 0 -0.4551770389262465 0.30483297142504889 0 -0.44702735364695217 0.27675533545947301 0 -0.43422108619098299 0.29621681389521232 0 -0.44444415583193408 0.29216055381020578 0 -0.44702735364695217 0.27675533545947301 0 -0.43422108619098299 0.29621681389521232 0 -0.44702735364695217 0.27675533545947301 0 -0.43274811138672559 0.28469846643612018 0 -0.43422108619098299 0.29621681389521232 0 -0.44810052680614793 0.29565349026271098 0 -0.4493542421043164 0.28919027156790111 0 -0.45395006383388498 0.28587005882998617 0 -0.44444415583193408 0.29216055381020578 0 -0.44810052680614793 0.29565349026271098 0 -0.4493542421043164 0.28919027156790111 0 -0.44444415583193408 0.29216055381020578 0 -0.4493542421043164 0.28919027156790111 0 -0.44702735364695217 0.27675533545947301 0 -0.4493542421043164 0.28919027156790111 0 -0.45395006383388498 0.28587005882998617 0 -0.44702735364695217 0.27675533545947301 0 -0.44810052680614793 0.29565349026271098 0 -0.45395006383388498 0.28587005882998617 0 -0.46497857578083068 0.28298829925053381 0 -0.44810052680614793 0.29565349026271098 0 -0.4593999708052337 0.29480301670676529 0 -0.46497857578083068 0.28298829925053381 0 -0.44810052680614793 0.29565349026271098 0 -0.46497857578083068 0.28298829925053381 0 -0.45288369214092922 0.29939313915978533 0 -0.44810052680614793 0.29565349026271098 0 -0.4593999708052337 0.29480301670676529 0 -0.4593999708052337 0.29480301670676529 0 -0.46827174088950307 0.29409138505043392 0 -0.46497857578083068 0.28298829925053381 0 -0.46258830912673421 0.31343425170936878 0 -0.45107709460752138 0.31557533431346357 0 -0.4551770389262465 0.30483297142504889 0 -0.45288369214092922 0.29939313915978533 0 -0.4593999708052337 0.29480301670676529 0 -0.4551770389262465 0.30483297142504889 0 -0.4593999708052337 0.29480301670676529 0 -0.4551770389262465 0.30483297142504889 0 -0.46625021185001803 0.30380681263807602 0 -0.4593999708052337 0.29480301670676529 0 -0.46827174088950307 0.29409138505043392 0 -0.46625021185001803 0.30380681263807602 0 -0.47224737878043732 0.31939135852267558 0 -0.46258830912673421 0.31343425170936878 0 -0.46625021185001803 0.30380681263807602 0 -0.46258830912673421 0.31343425170936878 0 -0.4551770389262465 0.30483297142504889 0 -0.46625021185001803 0.30380681263807602 0 -0.47551717359816043 0.30301602212345602 0 -0.4769183937012712 0.29196404103452073 0 -0.48583489694974541 0.30845327583860088 0 -0.47224737878043732 0.31939135852267558 0 -0.46625021185001803 0.30380681263807602 0 -0.47551717359816043 0.30301602212345602 0 -0.47224737878043732 0.31939135852267558 0 -0.47551717359816043 0.30301602212345602 0 -0.48583489694974541 0.30845327583860088 0 -0.46827174088950307 0.29409138505043392 0 -0.46625021185001803 0.30380681263807602 0 -0.47551717359816043 0.30301602212345602 0 -0.46827174088950307 0.29409138505043392 0 -0.46497857578083068 0.28298829925053381 0 -0.4769183937012712 0.29196404103452073 0 -0.4769183937012712 0.29196404103452073 0 -0.48757792524538679 0.2814999319082685 0 -0.48583489694974541 0.30845327583860088 0 -0.46827174088950307 0.29409138505043392 0 -0.47551717359816043 0.30301602212345602 0 -0.4769183937012712 0.29196404103452073 0 -0.46497857578083068 0.28298829925053381 0 -0.47783287987075052 0.28169384510791978 0 -0.4769183937012712 0.29196404103452073 0 -0.47783287987075052 0.28169384510791978 0 -0.4769183937012712 0.29196404103452073 0 -0.48757792524538679 0.2814999319082685 0 -0.5 0.29041063335547701 0 -0.48757792524538679 0.2814999319082685 0 -0.48583489694974541 0.30845327583860088 0 -0.48757792524538679 0.2814999319082685 0 -0.48583489694974541 0.30845327583860088 0 -0.5 0.31656524504453032 0 -0.5 0.29041063335547701 0 -0.48583489694974541 0.30845327583860088 0 -0.5 0.23810140997737081 0 -0.5 0.26425602166642381 0 -0.48932095354102823 0.25454658797793611 0 -0.48757792524538679 0.2814999319082685 0 -0.48932095354102823 0.25454658797793611 0 -0.48366697684514259 0.26703881783025729 0 -0.48757792524538679 0.2814999319082685 0 -0.5 0.26425602166642381 0 -0.48932095354102823 0.25454658797793611 0 -0.48757792524538679 0.2814999319082685 0 -0.48932095354102823 0.25454658797793611 0 -0.5 0.29041063335547701 0 -0.48757792524538679 0.2814999319082685 0 -0.5 0.26425602166642381 0 -0.46497857578083068 0.28298829925053381 0 -0.48185662475551339 0.27032310823835648 0 -0.46497857578083068 0.28298829925053381 0 -0.47783287987075052 0.28169384510791978 0 -0.48185662475551339 0.27032310823835648 0 -0.48366697684514259 0.26703881783025729 0 -0.45893043448094739 0.2699305570534084 0 -0.48757792524538679 0.2814999319082685 0 -0.48366697684514259 0.26703881783025729 0 -0.48185662475551339 0.27032310823835648 0 -0.48366697684514259 0.26703881783025729 0 -0.48185662475551339 0.27032310823835648 0 -0.47235815296560851 0.27257019559313889 0 -0.46497857578083068 0.28298829925053381 0 -0.48185662475551339 0.27032310823835648 0 -0.47235815296560851 0.27257019559313889 0 -0.48366697684514259 0.26703881783025729 0 -0.46959483388743167 0.25994315597580908 0 -0.45893043448094739 0.2699305570534084 0 -0.48366697684514259 0.26703881783025729 0 -0.47235815296560851 0.27257019559313889 0 -0.45893043448094739 0.2699305570534084 0 -0.47783287987075052 0.28169384510791978 0 -0.48757792524538679 0.2814999319082685 0 -0.48185662475551339 0.27032310823835648 0 -0.48932095354102823 0.25454658797793611 0 -0.48366697684514259 0.26703881783025729 0 -0.47792533453874358 0.25606878273296479 0 -0.48366697684514259 0.26703881783025729 0 -0.46959483388743167 0.25994315597580908 0 -0.47792533453874358 0.25606878273296479 0 -0.47864167104372218 0.246590621409366 0 -0.48932095354102823 0.25454658797793611 0 -0.47792533453874358 0.25606878273296479 0 -0.47864167104372218 0.246590621409366 0 -0.47792533453874358 0.25606878273296479 0 -0.46938038244821267 0.25133041049185839 0 -0.46959483388743167 0.25994315597580908 0 -0.47792533453874358 0.25606878273296479 0 -0.46938038244821267 0.25133041049185839 0 -0.46959483388743167 0.25994315597580908 0 -0.46938038244821267 0.25133041049185839 0 -0.45807104112411212 0.25534721177055669 0 -0.46959483388743167 0.25994315597580908 0 -0.45807104112411212 0.25534721177055669 0 -0.45893043448094739 0.2699305570534084 0 -0.45807104112411212 0.25534721177055669 0 -0.45893043448094739 0.2699305570534084 0 -0.44442574262614493 0.25832327296872359 0 -0.45395006383388498 0.28587005882998617 0 -0.46497857578083068 0.28298829925053381 0 -0.45893043448094739 0.2699305570534084 0 -0.45395006383388498 0.28587005882998617 0 -0.45893043448094739 0.2699305570534084 0 -0.44702735364695217 0.27675533545947301 0 -0.46497857578083068 0.28298829925053381 0 -0.47235815296560851 0.27257019559313889 0 -0.45893043448094739 0.2699305570534084 0 -0.45893043448094739 0.2699305570534084 0 -0.43419389211675241 0.27282229627655952 0 -0.45893043448094739 0.2699305570534084 0 -0.44442574262614493 0.25832327296872359 0 -0.43419389211675241 0.27282229627655952 0 -0.45893043448094739 0.2699305570534084 0 -0.44702735364695217 0.27675533545947301 0 -0.43419389211675241 0.27282229627655952 0 -0.44702735364695217 0.27675533545947301 0 -0.43419389211675241 0.27282229627655952 0 -0.43274811138672559 0.28469846643612018 0 -0.45046339488490522 0.249057113070103 0 -0.45807104112411212 0.25534721177055669 0 -0.44442574262614493 0.25832327296872359 0 -0.44062222049055039 0.24203477259657111 0 -0.44442574262614493 0.25832327296872359 0 -0.42503978512155383 0.25887440404814072 0 -0.44062222049055039 0.24203477259657111 0 -0.42503978512155383 0.25887440404814072 0 -0.44442574262614493 0.25832327296872359 0 -0.42503978512155383 0.25887440404814072 0 -0.43419389211675241 0.27282229627655952 0 -0.42503978512155383 0.25887440404814072 0 -0.40945734975255721 0.27571403549971041 0 -0.40585136056822319 0.25674789398696107 0 -0.4198454647722451 0.23985190764030939 0 -0.42503978512155383 0.25887440404814072 0 -0.40585136056822319 0.25674789398696107 0 -0.40945734975255721 0.27571403549971041 0 -0.43419389211675241 0.27282229627655952 0 -0.42503978512155383 0.25887440404814072 0 -0.40945734975255721 0.27571403549971041 0 -0.42503978512155383 0.25887440404814072 0 -0.40945734975255721 0.27571403549971041 0 -0.43419389211675241 0.27282229627655952 0 -0.40945734975255721 0.27571403549971041 0 -0.43419389211675241 0.27282229627655952 0 -0.4229835889384117 0.28415291652507912 0 -0.43419389211675241 0.27282229627655952 0 -0.43274811138672559 0.28469846643612018 0 -0.4229835889384117 0.28415291652507912 0 -0.43274811138672559 0.28469846643612018 0 -0.43422108619098299 0.29621681389521232 0 -0.42519236151645012 0.29288975242762622 0 -0.43274811138672559 0.28469846643612018 0 -0.42519236151645012 0.29288975242762622 0 -0.4229835889384117 0.28415291652507912 0 -0.42141481873501418 0.31567829233095179 0 -0.43422108619098299 0.29621681389521232 0 -0.42141481873501418 0.31567829233095179 0 -0.43422108619098299 0.29621681389521232 0 -0.42237726971740519 0.30236741203524931 0 -0.44444415583193408 0.29216055381020578 0 -0.43422108619098299 0.29621681389521232 0 -0.43122247783146522 0.30831868127488848 0 -0.42141481873501418 0.31567829233095179 0 -0.43422108619098299 0.29621681389521232 0 -0.43122247783146522 0.30831868127488848 0 -0.43422108619098299 0.29621681389521232 0 -0.42519236151645012 0.29288975242762622 0 -0.42237726971740519 0.30236741203524931 0 -0.42141481873501418 0.31567829233095179 0 -0.43122247783146522 0.30831868127488848 0 -0.42237726971740519 0.30236741203524931 0 -0.41647318301620623 0.31168328686166002 0 -0.40812109447663159 0.30329838776079099 0 -0.42141481873501418 0.31567829233095179 0 -0.42237726971740519 0.30236741203524931 0 -0.41647318301620623 0.31168328686166002 0 -0.42237726971740519 0.30236741203524931 0 -0.40812109447663159 0.30329838776079099 0 -0.41256551749876041 0.29129965580367562 0 -0.40826549608127172 0.31275764886218971 0 -0.41647318301620623 0.31168328686166002 0 -0.40812109447663159 0.30329838776079099 0 -0.40945734975255721 0.27571403549971041 0 -0.4229835889384117 0.28415291652507912 0 -0.41256551749876041 0.29129965580367562 0 -0.42519236151645012 0.29288975242762622 0 -0.4229835889384117 0.28415291652507912 0 -0.41256551749876041 0.29129965580367562 0 -0.42519236151645012 0.29288975242762622 0 -0.42237726971740519 0.30236741203524931 0 -0.41256551749876041 0.29129965580367562 0 -0.40945734975255721 0.27571403549971041 0 -0.39180528154043992 0.29479027846244049 0 -0.39350738277932218 0.27757861076756318 0 -0.40945734975255721 0.27571403549971041 0 -0.39180528154043992 0.29479027846244049 0 -0.40812109447663159 0.30329838776079099 0 -0.41256551749876041 0.29129965580367562 0 -0.39180528154043992 0.29479027846244049 0 -0.40945734975255721 0.27571403549971041 0 -0.41256551749876041 0.29129965580367562 0 -0.39180528154043992 0.29479027846244049 0 -0.38613629988198012 0.31665983269396758 0 -0.39830358576524327 0.31266849694114901 0 -0.39180528154043992 0.29479027846244049 0 -0.39830358576524327 0.31266849694114901 0 -0.40812109447663159 0.30329838776079099 0 -0.39180528154043992 0.29479027846244049 0 -0.39830358576524327 0.31266849694114901 0 -0.40826549608127172 0.31275764886218971 0 -0.40812109447663159 0.30329838776079099 0 -0.39180528154043992 0.29479027846244049 0 -0.37819889022761238 0.29924868842846319 0 -0.37415321332832258 0.31386652142517069 0 -0.38613629988198012 0.31665983269396758 0 -0.39180528154043992 0.29479027846244049 0 -0.37415321332832258 0.31386652142517069 0 -0.39180528154043992 0.29479027846244049 0 -0.37415321332832258 0.31386652142517069 0 -0.39180528154043992 0.29479027846244049 0 -0.37819889022761238 0.29924868842846319 0 -0.37870614451813112 0.28175948497688769 0 -0.39180528154043992 0.29479027846244049 0 -0.37870614451813112 0.28175948497688769 0 -0.39350738277932218 0.27757861076756318 0 -0.37870614451813112 0.28175948497688769 0 -0.37647038179830861 0.26645711442365799 0 -0.39350738277932218 0.27757861076756318 0 -0.37647038179830861 0.26645711442365799 0 -0.39336972403141229 0.26369738761855421 0 -0.39350738277932218 0.27757861076756318 0 -0.38790582398472923 0.24962922847932231 0 -0.37647038179830861 0.26645711442365799 0 -0.39336972403141229 0.26369738761855421 0 -0.38790582398472923 0.24962922847932231 0 -0.37647038179830861 0.26645711442365799 0 -0.36318679658289171 0.25196182354824148 0 -0.40945734975255721 0.27571403549971041 0 -0.40585136056822319 0.25674789398696107 0 -0.39336972403141229 0.26369738761855421 0 -0.38790582398472923 0.24962922847932231 0 -0.40585136056822319 0.25674789398696107 0 -0.39336972403141229 0.26369738761855421 0 -0.40945734975255721 0.27571403549971041 0 -0.39336972403141229 0.26369738761855421 0 -0.39350738277932218 0.27757861076756318 0 -0.40945734975255721 0.27571403549971041 0 -0.39350738277932218 0.27757861076756318 0 -0.35583614606747688 0.27501819518035592 0 -0.36318679658289171 0.25196182354824148 0 -0.33952374355129727 0.25899057541505788 0 -0.37647038179830861 0.26645711442365799 0 -0.35583614606747688 0.27501819518035592 0 -0.36318679658289171 0.25196182354824148 0 -0.37870614451813112 0.28175948497688769 0 -0.37647038179830861 0.26645711442365799 0 -0.35583614606747688 0.27501819518035592 0 -0.37819889022761238 0.29924868842846319 0 -0.37870614451813112 0.28175948497688769 0 -0.36775571630023218 0.2927315942663431 0 -0.37870614451813112 0.28175948497688769 0 -0.35583614606747688 0.27501819518035592 0 -0.36775571630023218 0.2927315942663431 0 -0.37819889022761238 0.29924868842846319 0 -0.36899777432263853 0.30469822459034263 0 -0.37415321332832258 0.31386652142517069 0 -0.36899777432263853 0.30469822459034263 0 -0.36272901898995358 0.31473918551029578 0 -0.37415321332832258 0.31386652142517069 0 -0.37819889022761238 0.29924868842846319 0 -0.36775571630023218 0.2927315942663431 0 -0.36899777432263853 0.30469822459034263 0 -0.36775571630023218 0.2927315942663431 0 -0.36899777432263853 0.30469822459034263 0 -0.35931620367806588 0.30475084950198522 0 -0.36775571630023218 0.2927315942663431 0 -0.35931620367806588 0.30475084950198522 0 -0.35261706249820868 0.29381533636168528 0 -0.36899777432263853 0.30469822459034263 0 -0.35931620367806588 0.30475084950198522 0 -0.36272901898995358 0.31473918551029578 0 -0.35931620367806588 0.30475084950198522 0 -0.35261706249820868 0.29381533636168528 0 -0.34344143829887858 0.30736403781452232 0 -0.35931620367806588 0.30475084950198522 0 -0.34344143829887858 0.30736403781452232 0 -0.35467675850453528 0.31743756764607989 0 -0.35931620367806588 0.30475084950198522 0 -0.35467675850453528 0.31743756764607989 0 -0.36272901898995358 0.31473918551029578 0 -0.35583614606747688 0.27501819518035592 0 -0.36775571630023218 0.2927315942663431 0 -0.35261706249820868 0.29381533636168528 0 -0.35583614606747688 0.27501819518035592 0 -0.35261706249820868 0.29381533636168528 0 -0.33673580814638959 0.28921200504521999 0 -0.35261706249820868 0.29381533636168528 0 -0.33673580814638959 0.28921200504521999 0 -0.34344143829887858 0.30736403781452232 0 -0.33673580814638959 0.28921200504521999 0 -0.32075162894010661 0.28280614760534989 0 -0.33379142081270979 0.2734424933293601 0 -0.34344143829887858 0.30736403781452232 0 -0.31699951866320542 0.30755322334125379 0 -0.34344143829887858 0.30736403781452232 0 -0.31699951866320542 0.30755322334125379 0 -0.33459812393413729 0.32207732583041709 0 -0.33673580814638959 0.28921200504521999 0 -0.34344143829887858 0.30736403781452232 0 -0.31699951866320542 0.30755322334125379 0 -0.33673580814638959 0.28921200504521999 0 -0.31699951866320542 0.30755322334125379 0 -0.32075162894010661 0.28280614760534989 0 -0.31699951866320542 0.30755322334125379 0 -0.32075162894010661 0.28280614760534989 0 -0.30493521127791462 0.28695781074044469 0 -0.32075162894010661 0.28280614760534989 0 -0.31931282352829687 0.26617321261290411 0 -0.33379142081270979 0.2734424933293601 0 -0.32075162894010661 0.28280614760534989 0 -0.31931282352829687 0.26617321261290411 0 -0.30493521127791462 0.28695781074044469 0 -0.35583614606747688 0.27501819518035592 0 -0.33673580814638959 0.28921200504521999 0 -0.33379142081270979 0.2734424933293601 0 -0.35583614606747688 0.27501819518035592 0 -0.33379142081270979 0.2734424933293601 0 -0.33952374355129727 0.25899057541505788 0 -0.31931282352829687 0.26617321261290411 0 -0.33379142081270979 0.2734424933293601 0 -0.33952374355129727 0.25899057541505788 0 -0.32200613725511351 0.24850726385495631 0 -0.31931282352829687 0.26617321261290411 0 -0.33952374355129727 0.25899057541505788 0 -0.32200613725511351 0.24850726385495631 0 -0.31931282352829687 0.26617321261290411 0 -0.30640548876467488 0.25787073169030861 0 -0.31931282352829687 0.26617321261290411 0 -0.30640548876467488 0.25787073169030861 0 -0.3010630097917536 0.27273037638764702 0 -0.31931282352829687 0.26617321261290411 0 -0.3010630097917536 0.27273037638764702 0 -0.30493521127791462 0.28695781074044469 0 -0.31931282352829687 0.26617321261290411 0 -0.30493521127791462 0.28695781074044469 0 -0.3010630097917536 0.27273037638764702 0 -0.29309283898050847 0.28048055459605348 0 -0.30493521127791462 0.28695781074044469 0 -0.3010630097917536 0.27273037638764702 0 -0.29309283898050847 0.28048055459605348 0 -0.28156868640737281 0.27216957229852412 0 -0.30640548876467488 0.25787073169030861 0 -0.3010630097917536 0.27273037638764702 0 -0.28156868640737281 0.27216957229852412 0 -0.30640548876467488 0.25787073169030861 0 -0.28156868640737281 0.27216957229852412 0 -0.28729818335365731 0.26780124082781631 0 -0.28156868640737281 0.27216957229852412 0 -0.28729818335365731 0.26780124082781631 0 -0.27880962639343299 0.26078065685839158 0 -0.29309283898050847 0.28048055459605348 0 -0.28156868640737281 0.27216957229852412 0 -0.28401529333418091 0.28255904946725641 0 -0.30640548876467488 0.25787073169030861 0 -0.28156868640737281 0.27216957229852412 0 -0.29125564533142001 0.24067530578368901 0 -0.30640548876467488 0.25787073169030861 0 -0.28729818335365731 0.26780124082781631 0 -0.29125564533142001 0.24067530578368901 0 -0.28729818335365731 0.26780124082781631 0 -0.27880962639343299 0.26078065685839158 0 -0.29125564533142001 0.24067530578368901 0 -0.28729818335365731 0.26780124082781631 0 -0.29125564533142001 0.24067530578368901 0 -0.26892213733164849 0.25365425058065472 0 -0.27880962639343299 0.26078065685839158 0 -0.26892213733164849 0.25365425058065472 0 -0.27880962639343299 0.26078065685839158 0 -0.26500347954306669 0.26960291480127369 0 -0.28156868640737281 0.27216957229852412 0 -0.25673188405007052 0.28646841290673969 0 -0.28156868640737281 0.27216957229852412 0 -0.26500347954306669 0.26960291480127369 0 -0.25673188405007052 0.28646841290673969 0 -0.28156868640737281 0.27216957229852412 0 -0.27880962639343299 0.26078065685839158 0 -0.26500347954306669 0.26960291480127369 0 -0.28156868640737281 0.27216957229852412 0 -0.27479408276187339 0.28687287199942368 0 -0.28401529333418091 0.28255904946725641 0 -0.26500347954306669 0.26960291480127369 0 -0.25265925142613249 0.26128234508680298 0 -0.25673188405007052 0.28646841290673969 0 -0.26892213733164849 0.25365425058065472 0 -0.26500347954306669 0.26960291480127369 0 -0.25265925142613249 0.26128234508680298 0 -0.25621817608628389 0.2460965770837312 0 -0.26892213733164849 0.25365425058065472 0 -0.25265925142613249 0.26128234508680298 0 -0.25505401324638421 0.30366623925853881 0 -0.26661761067819428 0.2958317928062858 0 -0.26721257633701828 0.30790943684761429 0 -0.25505401324638421 0.30366623925853881 0 -0.26721257633701828 0.30790943684761429 0 -0.25901197930261888 0.31383205914145501 0 -0.26721257633701828 0.30790943684761429 0 -0.25901197930261888 0.31383205914145501 0 -0.26528599585519008 0.31471464054907522 0 -0.25505401324638421 0.30366623925853881 0 -0.25901197930261888 0.31383205914145501 0 -0.24885494741763489 0.31718848033418301 0 -0.25505401324638421 0.30366623925853881 0 -0.25673188405007052 0.28646841290673969 0 -0.26661761067819428 0.2958317928062858 0 -0.26661761067819428 0.2958317928062858 0 -0.27573637841232751 0.29432500902679382 0 -0.27326763327687947 0.30016750757533939 0 -0.28156868640737281 0.27216957229852412 0 -0.25673188405007052 0.28646841290673969 0 -0.27479408276187339 0.28687287199942368 0 -0.26661761067819428 0.2958317928062858 0 -0.27479408276187339 0.28687287199942368 0 -0.27573637841232751 0.29432500902679382 0 -0.25673188405007052 0.28646841290673969 0 -0.26661761067819428 0.2958317928062858 0 -0.27479408276187339 0.28687287199942368 0 -0.27479408276187339 0.28687287199942368 0 -0.28401529333418091 0.28255904946725641 0 -0.28313816676434478 0.29069510378855717 0 -0.27479408276187339 0.28687287199942368 0 -0.27573637841232751 0.29432500902679382 0 -0.28313816676434478 0.29069510378855717 0 -0.27573637841232751 0.29432500902679382 0 -0.28086439858034518 0.29805776896436298 0 -0.28313816676434478 0.29069510378855717 0 -0.28086439858034518 0.29805776896436298 0 -0.27753065875984329 0.30327410754998058 0 -0.28274061889410179 0.30278083970340541 0 -0.27753065875984329 0.30327410754998058 0 -0.27514776209796898 0.30785266251660498 0 -0.28274061889410179 0.30278083970340541 0 -0.27753065875984329 0.30327410754998058 0 -0.27326763327687947 0.30016750757533939 0 -0.27348155140824082 0.30658246875079598 0 -0.28086439858034518 0.29805776896436298 0 -0.27753065875984329 0.30327410754998058 0 -0.27326763327687947 0.30016750757533939 0 -0.27573637841232751 0.29432500902679382 0 -0.28086439858034518 0.29805776896436298 0 -0.27326763327687947 0.30016750757533939 0 -0.26661761067819428 0.2958317928062858 0 -0.27326763327687947 0.30016750757533939 0 -0.26721257633701828 0.30790943684761429 0 -0.26721257633701828 0.30790943684761429 0 -0.27514776209796898 0.30785266251660498 0 -0.27123720609067609 0.3158529302113221 0 -0.26721257633701828 0.30790943684761429 0 -0.27348155140824082 0.30658246875079598 0 -0.27514776209796898 0.30785266251660498 0 -0.26721257633701828 0.30790943684761429 0 -0.27514776209796898 0.30785266251660498 0 -0.27326763327687947 0.30016750757533939 0 -0.26721257633701828 0.30790943684761429 0 -0.27348155140824082 0.30658246875079598 0 -0.27514776209796898 0.30785266251660498 0 -0.2851872012256097 0.31550597615259851 0 -0.27753065875984329 0.30327410754998058 0 -0.27348155140824082 0.30658246875079598 0 -0.27514776209796898 0.30785266251660498 0 -0.27348155140824082 0.30658246875079598 0 -0.27514776209796898 0.30785266251660498 0 -0.27514776209796898 0.30785266251660498 0 -0.2905575990275322 0.30774240886798532 0 -0.27514776209796898 0.30785266251660498 0 -0.2905575990275322 0.30774240886798532 0 -0.2851872012256097 0.31550597615259851 0 -0.2896026760048197 0.2969772506180926 0 -0.2905575990275322 0.30774240886798532 0 -0.30493521127791462 0.28695781074044469 0 -0.27514776209796898 0.30785266251660498 0 -0.28274061889410179 0.30278083970340541 0 -0.2905575990275322 0.30774240886798532 0 -0.2905575990275322 0.30774240886798532 0 -0.2851872012256097 0.31550597615259851 0 -0.28274061889410179 0.30278083970340541 0 -0.2896026760048197 0.2969772506180926 0 -0.2905575990275322 0.30774240886798532 0 -0.28086439858034518 0.29805776896436298 0 -0.28274061889410179 0.30278083970340541 0 -0.2896026760048197 0.2969772506180926 0 -0.28401529333418091 0.28255904946725641 0 -0.28313816676434478 0.29069510378855717 0 -0.29095683727235372 0.28753395384208091 0 -0.28086439858034518 0.29805776896436298 0 -0.2896026760048197 0.2969772506180926 0 -0.28313816676434478 0.29069510378855717 0 -0.2896026760048197 0.2969772506180926 0 -0.28313816676434478 0.29069510378855717 0 -0.29095683727235372 0.28753395384208091 0 -0.2896026760048197 0.2969772506180926 0 -0.29095683727235372 0.28753395384208091 0 -0.30493521127791462 0.28695781074044469 0 -0.29309283898050847 0.28048055459605348 0 -0.29095683727235372 0.28753395384208091 0 -0.30493521127791462 0.28695781074044469 0 -0.29309283898050847 0.28048055459605348 0 -0.28401529333418091 0.28255904946725641 0 -0.29095683727235372 0.28753395384208091 0 -0.31699951866320542 0.30755322334125379 0 -0.2905575990275322 0.30774240886798532 0 -0.30563014257680821 0.31779627416788381 0 -0.31699951866320542 0.30755322334125379 0 -0.2905575990275322 0.30774240886798532 0 -0.2905575990275322 0.30774240886798532 0 -0.30493521127791462 0.28695781074044469 0 -0.31699951866320542 0.30755322334125379 0 -0.2905575990275322 0.30774240886798532 0 -0.30493521127791462 0.28695781074044469 0 -0.30538608464820588 0.33090408634228141 0 -0.28942706780696309 0.31873813168532672 0 -0.30563014257680821 0.31779627416788381 0 -0.30538608464820588 0.33090408634228141 0 -0.31811651498789978 0.32488887006413791 0 -0.30563014257680821 0.31779627416788381 0 -0.30538608464820588 0.33090408634228141 0 -0.2937791937433501 0.31637108240395312 0 -0.30538608464820588 0.33090408634228141 0 -0.3017933608705089 0.344447887165377 0 -0.32134510148944728 0.34307004099923799 0 -0.30538608464820588 0.33090408634228141 0 -0.29093013722955491 0.33661105704622479 0 -0.3017933608705089 0.344447887165377 0 -0.30538608464820588 0.33090408634228141 0 -0.29093013722955491 0.33661105704622479 0 -0.2885751077852815 0.32830696870384862 0 -0.29093013722955491 0.33661105704622479 0 -0.28224162025157051 0.34582573333151501 0 -0.3017933608705089 0.344447887165377 0 -0.2885751077852815 0.32830696870384862 0 -0.28146834572906437 0.33465123959114113 0 -0.2790455690922089 0.3243844570517187 0 -0.29093013722955491 0.33661105704622479 0 -0.2885751077852815 0.32830696870384862 0 -0.28146834572906437 0.33465123959114113 0 -0.29093013722955491 0.33661105704622479 0 -0.28146834572906437 0.33465123959114113 0 -0.28224162025157051 0.34582573333151501 0 -0.30538608464820588 0.33090408634228141 0 -0.2885751077852815 0.32830696870384862 0 -0.28942706780696309 0.31873813168532672 0 -0.30538608464820588 0.33090408634228141 0 -0.28942706780696309 0.31873813168532672 0 -0.2937791937433501 0.31637108240395312 0 -0.28942706780696309 0.31873813168532672 0 -0.2937791937433501 0.31637108240395312 0 -0.2851872012256097 0.31550597615259851 0 -0.2905575990275322 0.30774240886798532 0 -0.30563014257680821 0.31779627416788381 0 -0.2937791937433501 0.31637108240395312 0 -0.2905575990275322 0.30774240886798532 0 -0.2937791937433501 0.31637108240395312 0 -0.2851872012256097 0.31550597615259851 0 -0.28942706780696309 0.31873813168532672 0 -0.2937791937433501 0.31637108240395312 0 -0.2885751077852815 0.32830696870384862 0 -0.28942706780696309 0.31873813168532672 0 -0.2790455690922089 0.3243844570517187 0 -0.28942706780696309 0.31873813168532672 0 -0.2790455690922089 0.3243844570517187 0 -0.2851872012256097 0.31550597615259851 0 -0.2790455690922089 0.3243844570517187 0 -0.28942706780696309 0.31873813168532672 0 -0.2851872012256097 0.31550597615259851 0 -0.2790455690922089 0.3243844570517187 0 -0.28942706780696309 0.31873813168532672 0 -0.2851872012256097 0.31550597615259851 0 -0.27514776209796898 0.30785266251660498 0 -0.2851872012256097 0.31550597615259851 0 -0.27699557949655113 0.31645322234696882 0 -0.2851872012256097 0.31550597615259851 0 -0.27699557949655113 0.31645322234696882 0 -0.2790455690922089 0.3243844570517187 0 -0.27514776209796898 0.30785266251660498 0 -0.27699557949655113 0.31645322234696882 0 -0.27123720609067609 0.3158529302113221 0 -0.27001263578126711 0.32263717043347712 0 -0.2790455690922089 0.3243844570517187 0 -0.25910260253645218 0.33523110656146687 0 -0.26721257633701828 0.30790943684761429 0 -0.27123720609067609 0.3158529302113221 0 -0.26528599585519008 0.31471464054907522 0 -0.27699557949655113 0.31645322234696882 0 -0.27123720609067609 0.3158529302113221 0 -0.27001263578126711 0.32263717043347712 0 -0.27123720609067609 0.3158529302113221 0 -0.26528599585519008 0.31471464054907522 0 -0.26368222169044719 0.32126413599590953 0 -0.27123720609067609 0.3158529302113221 0 -0.27001263578126711 0.32263717043347712 0 -0.26368222169044719 0.32126413599590953 0 -0.27699557949655113 0.31645322234696882 0 -0.27001263578126711 0.32263717043347712 0 -0.2790455690922089 0.3243844570517187 0 -0.2790455690922089 0.3243844570517187 0 -0.25910260253645218 0.33523110656146687 0 -0.2790455690922089 0.3243844570517187 0 -0.26824012707650141 0.34000504592112352 0 -0.28146834572906437 0.33465123959114113 0 -0.2790455690922089 0.3243844570517187 0 -0.26824012707650141 0.34000504592112352 0 -0.2790455690922089 0.3243844570517187 0 -0.26824012707650141 0.34000504592112352 0 -0.25910260253645218 0.33523110656146687 0 -0.28146834572906437 0.33465123959114113 0 -0.26824012707650141 0.34000504592112352 0 -0.28224162025157051 0.34582573333151501 0 -0.25910260253645218 0.33523110656146687 0 -0.25407523553642281 0.3497448278934856 0 -0.23915963598069589 0.34607775607121571 0 -0.25910260253645218 0.33523110656146687 0 -0.25407523553642281 0.3497448278934856 0 -0.26309588156361569 0.34576168367824162 0 -0.26824012707650141 0.34000504592112352 0 -0.25910260253645218 0.33523110656146687 0 -0.26309588156361569 0.34576168367824162 0 -0.25910260253645218 0.33523110656146687 0 -0.25451497659773847 0.32559442806853028 0 -0.24843663428782739 0.33758714710907461 0 -0.25451497659773847 0.32559442806853028 0 -0.25901197930261888 0.31383205914145501 0 -0.24885494741763489 0.31718848033418301 0 -0.25451497659773847 0.32559442806853028 0 -0.25901197930261888 0.31383205914145501 0 -0.26368222169044719 0.32126413599590953 0 -0.25901197930261888 0.31383205914145501 0 -0.26528599585519008 0.31471464054907522 0 -0.26368222169044719 0.32126413599590953 0 -0.27001263578126711 0.32263717043347712 0 -0.25910260253645218 0.33523110656146687 0 -0.26368222169044719 0.32126413599590953 0 -0.25910260253645218 0.33523110656146687 0 -0.25451497659773847 0.32559442806853028 0 -0.26368222169044719 0.32126413599590953 0 -0.26470209097228098 0.37140351159401941 0 -0.25562758441007077 0.36194187249828802 0 -0.266880351992417 0.3582272519812631 0 -0.26470209097228098 0.37140351159401941 0 -0.25213085833087667 0.37355178257669552 0 -0.25562758441007077 0.36194187249828802 0 -0.25213085833087667 0.37355178257669552 0 -0.25562758441007077 0.36194187249828802 0 -0.24329038266145239 0.36134909741814653 0 -0.25562758441007077 0.36194187249828802 0 -0.25407523553642281 0.3497448278934856 0 -0.24329038266145239 0.36134909741814653 0 -0.25407523553642281 0.3497448278934856 0 -0.26309588156361569 0.34576168367824162 0 -0.266880351992417 0.3582272519812631 0 -0.25562758441007077 0.36194187249828802 0 -0.25407523553642281 0.3497448278934856 0 -0.266880351992417 0.3582272519812631 0 -0.266880351992417 0.3582272519812631 0 -0.27640009279511962 0.35155878343443242 0 -0.28837447244510311 0.36628710188532532 0 -0.26309588156361569 0.34576168367824162 0 -0.266880351992417 0.3582272519812631 0 -0.27640009279511962 0.35155878343443242 0 -0.26824012707650141 0.34000504592112352 0 -0.26309588156361569 0.34576168367824162 0 -0.27640009279511962 0.35155878343443242 0 -0.26824012707650141 0.34000504592112352 0 -0.27640009279511962 0.35155878343443242 0 -0.28224162025157051 0.34582573333151501 0 -0.266880351992417 0.3582272519812631 0 -0.28837447244510311 0.36628710188532532 0 -0.266880351992417 0.3582272519812631 0 -0.28837447244510311 0.36628710188532532 0 -0.27747916353329311 0.37529003384729942 0 -0.26470209097228098 0.37140351159401941 0 -0.266880351992417 0.3582272519812631 0 -0.27747916353329311 0.37529003384729942 0 -0.28837447244510311 0.36628710188532532 0 -0.28714059247178902 0.37543321948423419 0 -0.27747916353329311 0.37529003384729942 0 -0.28837447244510311 0.36628710188532532 0 -0.28956810344150979 0.35324588380912608 0 -0.30292150033679799 0.36018321991941088 0 -0.28837447244510311 0.36628710188532532 0 -0.29874239202075642 0.37528196759933868 0 -0.28714059247178902 0.37543321948423419 0 -0.28224162025157051 0.34582573333151501 0 -0.3017933608705089 0.344447887165377 0 -0.28224162025157051 0.34582573333151501 0 -0.28956810344150979 0.35324588380912608 0 -0.3017933608705089 0.344447887165377 0 -0.27640009279511962 0.35155878343443242 0 -0.28224162025157051 0.34582573333151501 0 -0.28956810344150979 0.35324588380912608 0 -0.27640009279511962 0.35155878343443242 0 -0.28837447244510311 0.36628710188532532 0 -0.28956810344150979 0.35324588380912608 0 -0.3017933608705089 0.344447887165377 0 -0.31193410579265052 0.3536039280541286 0 -0.30292150033679799 0.36018321991941088 0 -0.28956810344150979 0.35324588380912608 0 -0.3017933608705089 0.344447887165377 0 -0.30292150033679799 0.36018321991941088 0 -0.3017933608705089 0.344447887165377 0 -0.32134510148944728 0.34307004099923799 0 -0.3017933608705089 0.344447887165377 0 -0.31193410579265052 0.3536039280541286 0 -0.32134510148944728 0.34307004099923799 0 -0.31193410579265052 0.3536039280541286 0 -0.30292150033679799 0.36018321991941088 0 -0.31340485972314069 0.36375751913665871 0 -0.28837447244510311 0.36628710188532532 0 -0.30292150033679799 0.36018321991941088 0 -0.30986859289778912 0.37434695178938759 0 -0.28837447244510311 0.36628710188532532 0 -0.30986859289778912 0.37434695178938759 0 -0.28837447244510311 0.36628710188532532 0 -0.30986859289778912 0.37434695178938759 0 -0.29874239202075642 0.37528196759933868 0 -0.30292150033679799 0.36018321991941088 0 -0.30986859289778912 0.37434695178938759 0 -0.31340485972314069 0.36375751913665871 0 -0.30986859289778912 0.37434695178938759 0 -0.31340485972314069 0.36375751913665871 0 -0.32167824364597858 0.36970754211250728 0 -0.31340485972314069 0.36375751913665871 0 -0.32243327870136801 0.35950699838777223 0 -0.32167824364597858 0.36970754211250728 0 -0.32243327870136801 0.35950699838777223 0 -0.32167824364597858 0.36970754211250728 0 -0.33132177355711989 0.36851943955526861 0 -0.32167824364597858 0.36970754211250728 0 -0.33132177355711989 0.36851943955526861 0 -0.33136271335047512 0.38240680169344993 0 -0.32243327870136801 0.35950699838777223 0 -0.33132177355711989 0.36851943955526861 0 -0.33989838930305449 0.35721367281084643 0 -0.33132177355711989 0.36851943955526861 0 -0.34304766554360439 0.37232322735168022 0 -0.33136271335047512 0.38240680169344993 0 -0.33132177355711989 0.36851943955526861 0 -0.34304766554360439 0.37232322735168022 0 -0.33989838930305449 0.35721367281084643 0 -0.33989838930305449 0.35721367281084643 0 -0.32134510148944728 0.34307004099923799 0 -0.33989838930305449 0.35721367281084643 0 -0.32134510148944728 0.34307004099923799 0 -0.3500233487104954 0.34104903357308669 0 -0.32243327870136801 0.35950699838777223 0 -0.33989838930305449 0.35721367281084643 0 -0.32134510148944728 0.34307004099923799 0 -0.31193410579265052 0.3536039280541286 0 -0.32243327870136801 0.35950699838777223 0 -0.32134510148944728 0.34307004099923799 0 -0.31193410579265052 0.3536039280541286 0 -0.31340485972314069 0.36375751913665871 0 -0.32243327870136801 0.35950699838777223 0 -0.30538608464820588 0.33090408634228141 0 -0.32134510148944728 0.34307004099923799 0 -0.30538608464820588 0.33090408634228141 0 -0.32134510148944728 0.34307004099923799 0 -0.31811651498789978 0.32488887006413791 0 -0.32134510148944728 0.34307004099923799 0 -0.31811651498789978 0.32488887006413791 0 -0.33459812393413729 0.32207732583041709 0 -0.31699951866320542 0.30755322334125379 0 -0.30563014257680821 0.31779627416788381 0 -0.31811651498789978 0.32488887006413791 0 -0.31699951866320542 0.30755322334125379 0 -0.31811651498789978 0.32488887006413791 0 -0.33459812393413729 0.32207732583041709 0 -0.32134510148944728 0.34307004099923799 0 -0.34342889555096417 0.33131534648734451 0 -0.3500233487104954 0.34104903357308669 0 -0.32134510148944728 0.34307004099923799 0 -0.33459812393413729 0.32207732583041709 0 -0.34342889555096417 0.33131534648734451 0 -0.32134510148944728 0.34307004099923799 0 -0.3500233487104954 0.34104903357308669 0 -0.3500233487104954 0.34104903357308669 0 -0.35650114511620551 0.33294276438790088 0 -0.36794029410566942 0.33226259727897972 0 -0.34342889555096417 0.33131534648734451 0 -0.3500233487104954 0.34104903357308669 0 -0.35650114511620551 0.33294276438790088 0 -0.33459812393413729 0.32207732583041709 0 -0.34342889555096417 0.33131534648734451 0 -0.35467675850453528 0.31743756764607989 0 -0.34344143829887858 0.30736403781452232 0 -0.33459812393413729 0.32207732583041709 0 -0.35467675850453528 0.31743756764607989 0 -0.35650114511620551 0.33294276438790088 0 -0.35467675850453528 0.31743756764607989 0 -0.36272901898995358 0.31473918551029578 0 -0.34342889555096417 0.33131534648734451 0 -0.35650114511620551 0.33294276438790088 0 -0.35467675850453528 0.31743756764607989 0 -0.35650114511620551 0.33294276438790088 0 -0.36272901898995358 0.31473918551029578 0 -0.37415321332832258 0.31386652142517069 0 -0.35650114511620551 0.33294276438790088 0 -0.37415321332832258 0.31386652142517069 0 -0.35650114511620551 0.33294276438790088 0 -0.37442838800096029 0.32044424157556423 0 -0.37415321332832258 0.31386652142517069 0 -0.37816355277066899 0.32985684687273281 0 -0.37442838800096029 0.32044424157556423 0 -0.36794029410566942 0.33226259727897972 0 -0.3787015959315434 0.33902802614693439 0 -0.3500233487104954 0.34104903357308669 0 -0.36794029410566942 0.33226259727897972 0 -0.35650114511620551 0.33294276438790088 0 -0.37442838800096029 0.32044424157556423 0 -0.36794029410566942 0.33226259727897972 0 -0.3787015959315434 0.33902802614693439 0 -0.3500233487104954 0.34104903357308669 0 -0.3787015959315434 0.33902802614693439 0 -0.37816355277066899 0.32985684687273281 0 -0.36794029410566942 0.33226259727897972 0 -0.3787015959315434 0.33902802614693439 0 -0.3500233487104954 0.34104903357308669 0 -0.36501658974902518 0.35367198233662939 0 -0.37823932191431281 0.35548757599615399 0 -0.3787015959315434 0.33902802614693439 0 -0.36501658974902518 0.35367198233662939 0 -0.37823932191431281 0.35548757599615399 0 -0.36501658974902518 0.35367198233662939 0 -0.37024808467873749 0.36543132639488701 0 -0.36501658974902518 0.35367198233662939 0 -0.37024808467873749 0.36543132639488701 0 -0.35845167711666143 0.37135730462245548 0 -0.37949655700884349 0.37153259571527891 0 -0.37024808467873749 0.36543132639488701 0 -0.36758280318953013 0.37627165255961892 0 -0.37024808467873749 0.36543132639488701 0 -0.35845167711666143 0.37135730462245548 0 -0.36758280318953013 0.37627165255961892 0 -0.36501658974902518 0.35367198233662939 0 -0.35845167711666143 0.37135730462245548 0 -0.35334750121980912 0.35582299833575448 0 -0.34304766554360439 0.37232322735168022 0 -0.33989838930305449 0.35721367281084643 0 -0.35845167711666143 0.37135730462245548 0 -0.33989838930305449 0.35721367281084643 0 -0.35845167711666143 0.37135730462245548 0 -0.35334750121980912 0.35582299833575448 0 -0.33989838930305449 0.35721367281084643 0 -0.35845167711666143 0.37135730462245548 0 -0.33989838930305449 0.35721367281084643 0 -0.3500233487104954 0.34104903357308669 0 -0.35334750121980912 0.35582299833575448 0 -0.3500233487104954 0.34104903357308669 0 -0.36501658974902518 0.35367198233662939 0 -0.35334750121980912 0.35582299833575448 0 -0.35285683380316007 0.39046665159751448 0 -0.36027192889352422 0.40897543894708011 0 -0.34270265381785459 0.40768080501023862 0 -0.34304766554360439 0.37232322735168022 0 -0.35845167711666143 0.37135730462245548 0 -0.35285683380316007 0.39046665159751448 0 -0.37686086334024771 0.38257038446795849 0 -0.35285683380316007 0.39046665159751448 0 -0.37686086334024771 0.38257038446795849 0 -0.35285683380316007 0.39046665159751448 0 -0.36758280318953013 0.37627165255961892 0 -0.35845167711666143 0.37135730462245548 0 -0.35285683380316007 0.39046665159751448 0 -0.36758280318953013 0.37627165255961892 0 -0.37686086334024771 0.38257038446795849 0 -0.37949655700884349 0.37153259571527891 0 -0.36758280318953013 0.37627165255961892 0 -0.37769092578324193 0.39977892163450779 0 -0.35285683380316007 0.39046665159751448 0 -0.37769092578324193 0.39977892163450779 0 -0.37686086334024771 0.38257038446795849 0 -0.35285683380316007 0.39046665159751448 0 -0.37769092578324193 0.39977892163450779 0 -0.35285683380316007 0.39046665159751448 0 -0.36027192889352422 0.40897543894708011 0 -0.37875820238401509 0.42613984176471847 0 -0.37769092578324193 0.39977892163450779 0 -0.36027192889352422 0.40897543894708011 0 -0.37875820238401509 0.42613984176471847 0 -0.36027192889352422 0.40897543894708011 0 -0.36048507512927641 0.42545129427310208 0 -0.37875820238401509 0.42613984176471847 0 -0.36048507512927641 0.42545129427310208 0 -0.35499138700470761 0.44318849185793469 0 -0.37875820238401509 0.42613984176471847 0 -0.35499138700470761 0.44318849185793469 0 -0.34691622899781399 0.42161541908905831 0 -0.33223168701086447 0.43660936806356893 0 -0.35499138700470761 0.44318849185793469 0 -0.36048507512927641 0.42545129427310208 0 -0.34691622899781399 0.42161541908905831 0 -0.35499138700470761 0.44318849185793469 0 -0.36027192889352422 0.40897543894708011 0 -0.34691622899781399 0.42161541908905831 0 -0.34270265381785459 0.40768080501023862 0 -0.36027192889352422 0.40897543894708011 0 -0.36048507512927641 0.42545129427310208 0 -0.34691622899781399 0.42161541908905831 0 -0.34270265381785459 0.40768080501023862 0 -0.32841174735063311 0.41773478988879181 0 -0.32505653004414181 0.39961172552874852 0 -0.34691622899781399 0.42161541908905831 0 -0.34270265381785459 0.40768080501023862 0 -0.32841174735063311 0.41773478988879181 0 -0.34691622899781399 0.42161541908905831 0 -0.32841174735063311 0.41773478988879181 0 -0.33223168701086447 0.43660936806356893 0 -0.32841174735063311 0.41773478988879181 0 -0.33223168701086447 0.43660936806356893 0 -0.31148998866141242 0.43181261152586448 0 -0.32841174735063311 0.41773478988879181 0 -0.31441363705571701 0.41408607272300291 0 -0.32505653004414181 0.39961172552874852 0 -0.32841174735063311 0.41773478988879181 0 -0.31441363705571701 0.41408607272300291 0 -0.31148998866141242 0.43181261152586448 0 -0.32505653004414181 0.39961172552874852 0 -0.31219235154091651 0.39185403334122892 0 -0.30619500853749271 0.39725637532293351 0 -0.32505653004414181 0.39961172552874852 0 -0.31778050989885959 0.38527433798844479 0 -0.31219235154091651 0.39185403334122892 0 -0.35285683380316007 0.39046665159751448 0 -0.32505653004414181 0.39961172552874852 0 -0.33136271335047512 0.38240680169344993 0 -0.35285683380316007 0.39046665159751448 0 -0.34270265381785459 0.40768080501023862 0 -0.32505653004414181 0.39961172552874852 0 -0.35285683380316007 0.39046665159751448 0 -0.32505653004414181 0.39961172552874852 0 -0.35285683380316007 0.39046665159751448 0 -0.33136271335047512 0.38240680169344993 0 -0.34304766554360439 0.37232322735168022 0 -0.35285683380316007 0.39046665159751448 0 -0.33136271335047512 0.38240680169344993 0 -0.30986859289778912 0.37434695178938759 0 -0.32167824364597858 0.36970754211250728 0 -0.33136271335047512 0.38240680169344993 0 -0.30986859289778912 0.37434695178938759 0 -0.33136271335047512 0.38240680169344993 0 -0.32505653004414181 0.39961172552874852 0 -0.33136271335047512 0.38240680169344993 0 -0.31778050989885959 0.38527433798844479 0 -0.30986859289778912 0.37434695178938759 0 -0.33136271335047512 0.38240680169344993 0 -0.31778050989885959 0.38527433798844479 0 -0.30986859289778912 0.37434695178938759 0 -0.31778050989885959 0.38527433798844479 0 -0.30574515252343709 0.38648905476423068 0 -0.30986859289778912 0.37434695178938759 0 -0.30574515252343709 0.38648905476423068 0 -0.29874239202075642 0.37528196759933868 0 -0.30574515252343709 0.38648905476423068 0 -0.29874239202075642 0.37528196759933868 0 -0.29146244090030071 0.40289140707507309 0 -0.31778050989885959 0.38527433798844479 0 -0.30574515252343709 0.38648905476423068 0 -0.31219235154091651 0.39185403334122892 0 -0.32505653004414181 0.39961172552874852 0 -0.30619500853749271 0.39725637532293351 0 -0.29725622628512233 0.40875679945997928 0 -0.32505653004414181 0.39961172552874852 0 -0.29725622628512233 0.40875679945997928 0 -0.30574515252343709 0.38648905476423068 0 -0.30619500853749271 0.39725637532293351 0 -0.29146244090030071 0.40289140707507309 0 -0.30574515252343709 0.38648905476423068 0 -0.31219235154091651 0.39185403334122892 0 -0.30619500853749271 0.39725637532293351 0 -0.30619500853749271 0.39725637532293351 0 -0.29146244090030071 0.40289140707507309 0 -0.29725622628512233 0.40875679945997928 0 -0.29146244090030071 0.40289140707507309 0 -0.2882496590958894 0.39023794275143442 0 -0.278827461574497 0.39790462172635238 0 -0.28396634188800352 0.38487377460497352 0 -0.2882496590958894 0.39023794275143442 0 -0.278827461574497 0.39790462172635238 0 -0.29146244090030071 0.40289140707507309 0 -0.278827461574497 0.39790462172635238 0 -0.27940045790464241 0.41220012044695847 0 -0.29874239202075642 0.37528196759933868 0 -0.29146244090030071 0.40289140707507309 0 -0.29874239202075642 0.37528196759933868 0 -0.29146244090030071 0.40289140707507309 0 -0.2882496590958894 0.39023794275143442 0 -0.29874239202075642 0.37528196759933868 0 -0.28396634188800352 0.38487377460497352 0 -0.28714059247178902 0.37543321948423419 0 -0.29874239202075642 0.37528196759933868 0 -0.28396634188800352 0.38487377460497352 0 -0.2882496590958894 0.39023794275143442 0 -0.28396634188800352 0.38487377460497352 0 -0.28714059247178902 0.37543321948423419 0 -0.27747916353329311 0.37529003384729942 0 -0.28396634188800352 0.38487377460497352 0 -0.27747916353329311 0.37529003384729942 0 -0.26775424033426293 0.38456849691175748 0 -0.28396634188800352 0.38487377460497352 0 -0.26775424033426293 0.38456849691175748 0 -0.278827461574497 0.39790462172635238 0 -0.26470209097228098 0.37140351159401941 0 -0.27747916353329311 0.37529003384729942 0 -0.26775424033426293 0.38456849691175748 0 -0.278827461574497 0.39790462172635238 0 -0.26298604578065232 0.3973558675440883 0 -0.2677584473194361 0.40899541659639099 0 -0.26775424033426293 0.38456849691175748 0 -0.278827461574497 0.39790462172635238 0 -0.26298604578065232 0.3973558675440883 0 -0.26298604578065232 0.3973558675440883 0 -0.25152819264859128 0.38883491631829081 0 -0.2490618870264745 0.40647588616764979 0 -0.26298604578065232 0.3973558675440883 0 -0.2677584473194361 0.40899541659639099 0 -0.2490618870264745 0.40647588616764979 0 -0.25213085833087667 0.37355178257669552 0 -0.26775424033426293 0.38456849691175748 0 -0.25152819264859128 0.38883491631829081 0 -0.26775424033426293 0.38456849691175748 0 -0.26298604578065232 0.3973558675440883 0 -0.25152819264859128 0.38883491631829081 0 -0.26470209097228098 0.37140351159401941 0 -0.25213085833087667 0.37355178257669552 0 -0.26775424033426293 0.38456849691175748 0 -0.2572482915111563 0.42152384209731297 0 -0.26330490497154813 0.43976041958731371 0 -0.24092688658692171 0.43286849171069308 0 -0.2572482915111563 0.42152384209731297 0 -0.27163392734069919 0.42205675226444578 0 -0.26330490497154813 0.43976041958731371 0 -0.2572482915111563 0.42152384209731297 0 -0.2677584473194361 0.40899541659639099 0 -0.2490618870264745 0.40647588616764979 0 -0.2572482915111563 0.42152384209731297 0 -0.2677584473194361 0.40899541659639099 0 -0.27163392734069919 0.42205675226444578 0 -0.27940045790464241 0.41220012044695847 0 -0.27163392734069919 0.42205675226444578 0 -0.28418248977984512 0.43050084655080739 0 -0.2677584473194361 0.40899541659639099 0 -0.27940045790464241 0.41220012044695847 0 -0.27163392734069919 0.42205675226444578 0 -0.278827461574497 0.39790462172635238 0 -0.2677584473194361 0.40899541659639099 0 -0.27940045790464241 0.41220012044695847 0 -0.27163392734069919 0.42205675226444578 0 -0.28418248977984512 0.43050084655080739 0 -0.26330490497154813 0.43976041958731371 0 -0.28418248977984512 0.43050084655080739 0 -0.29943060469912958 0.42576946359573847 0 -0.28981068171355151 0.44369098771903792 0 -0.29146244090030071 0.40289140707507309 0 -0.28418248977984512 0.43050084655080739 0 -0.29146244090030071 0.40289140707507309 0 -0.27940045790464241 0.41220012044695847 0 -0.28418248977984512 0.43050084655080739 0 -0.28418248977984512 0.43050084655080739 0 -0.29725622628512233 0.40875679945997928 0 -0.29943060469912958 0.42576946359573847 0 -0.29146244090030071 0.40289140707507309 0 -0.28418248977984512 0.43050084655080739 0 -0.29725622628512233 0.40875679945997928 0 -0.31441363705571701 0.41408607272300291 0 -0.32505653004414181 0.39961172552874852 0 -0.29725622628512233 0.40875679945997928 0 -0.31441363705571701 0.41408607272300291 0 -0.29725622628512233 0.40875679945997928 0 -0.29943060469912958 0.42576946359573847 0 -0.31441363705571701 0.41408607272300291 0 -0.29943060469912958 0.42576946359573847 0 -0.31148998866141242 0.43181261152586448 0 -0.29943060469912958 0.42576946359573847 0 -0.31148998866141242 0.43181261152586448 0 -0.28981068171355151 0.44369098771903792 0 -0.31148998866141242 0.43181261152586448 0 -0.30120616623050861 0.45239726712555162 0 -0.31718999816658727 0.45065056632578487 0 -0.31148998866141242 0.43181261152586448 0 -0.30120616623050861 0.45239726712555162 0 -0.31148998866141242 0.43181261152586448 0 -0.30120616623050861 0.45239726712555162 0 -0.28981068171355151 0.44369098771903792 0 -0.30120616623050861 0.45239726712555162 0 -0.29092234379960469 0.47298192272523881 0 -0.30745775624609217 0.47728579204436761 0 -0.30120616623050861 0.45239726712555162 0 -0.30745775624609217 0.47728579204436761 0 -0.31718999816658727 0.45065056632578487 0 -0.2852957606144535 0.45730244818253718 0 -0.28186649269177161 0.46567885888970018 0 -0.29092234379960469 0.47298192272523881 0 -0.30120616623050861 0.45239726712555162 0 -0.29092234379960469 0.47298192272523881 0 -0.30120616623050861 0.45239726712555162 0 -0.2852957606144535 0.45730244818253718 0 -0.29092234379960469 0.47298192272523881 0 -0.2852957606144535 0.45730244818253718 0 -0.28186649269177161 0.46567885888970018 0 -0.27690253865938408 0.45811028602654041 0 -0.28418248977984512 0.43050084655080739 0 -0.28981068171355151 0.44369098771903792 0 -0.27690253865938408 0.45811028602654041 0 -0.30120616623050861 0.45239726712555162 0 -0.2852957606144535 0.45730244818253718 0 -0.28981068171355151 0.44369098771903792 0 -0.2852957606144535 0.45730244818253718 0 -0.28981068171355151 0.44369098771903792 0 -0.27690253865938408 0.45811028602654041 0 -0.28418248977984512 0.43050084655080739 0 -0.27690253865938408 0.45811028602654041 0 -0.28418248977984512 0.43050084655080739 0 -0.27690253865938408 0.45811028602654041 0 -0.26330490497154813 0.43976041958731371 0 -0.2852957606144535 0.45730244818253718 0 -0.27690253865938408 0.45811028602654041 0 -0.28186649269177161 0.46567885888970018 0 -0.27690253865938408 0.45811028602654041 0 -0.27835780074514338 0.47366975871288508 0 -0.27690253865938408 0.45811028602654041 0 -0.25345677561811758 0.46036691342989022 0 -0.27690253865938408 0.45811028602654041 0 -0.25345677561811758 0.46036691342989022 0 -0.26590293397843329 0.47057525233348851 0 -0.25345677561811758 0.46036691342989022 0 -0.25315469521642581 0.4750486889203015 0 -0.26590293397843329 0.47057525233348851 0 -0.25345677561811758 0.46036691342989022 0 -0.26330490497154813 0.43976041958731371 0 -0.24129970279445639 0.44943490890582899 0 -0.27690253865938408 0.45811028602654041 0 -0.25345677561811758 0.46036691342989022 0 -0.26330490497154813 0.43976041958731371 0 -0.26169037092037989 0.4910190989046625 0 -0.25397816739109252 0.5 0 -0.27113802145370669 0.49283981386083792 0 -0.26169037092037989 0.4910190989046625 0 -0.25474868654415728 0.48692894813519849 0 -0.26689660829256312 0.48430763362261348 0 -0.26169037092037989 0.4910190989046625 0 -0.25397816739109252 0.5 0 -0.25474868654415728 0.48692894813519849 0 -0.25315469521642581 0.4750486889203015 0 -0.26689660829256312 0.48430763362261348 0 -0.25315469521642581 0.4750486889203015 0 -0.26689660829256312 0.48430763362261348 0 -0.26590293397843329 0.47057525233348851 0 -0.25474868654415728 0.48692894813519849 0 -0.25315469521642581 0.4750486889203015 0 -0.26689660829256312 0.48430763362261348 0 -0.27690253865938408 0.45811028602654041 0 -0.26590293397843329 0.47057525233348851 0 -0.26946370716205509 0.4860372782758946 0 -0.27690253865938408 0.45811028602654041 0 -0.26946370716205509 0.4860372782758946 0 -0.27690253865938408 0.45811028602654041 0 -0.27835780074514338 0.47366975871288508 0 -0.26946370716205509 0.4860372782758946 0 -0.26689660829256312 0.48430763362261348 0 -0.26590293397843329 0.47057525233348851 0 -0.26946370716205509 0.4860372782758946 0 -0.28186649269177161 0.46567885888970018 0 -0.27835780074514338 0.47366975871288508 0 -0.28298297564177088 0.4743823417855309 0 -0.27835780074514338 0.47366975871288508 0 -0.2798907507987049 0.48286402398659151 0 -0.28298297564177088 0.4743823417855309 0 -0.27835780074514338 0.47366975871288508 0 -0.2798907507987049 0.48286402398659151 0 -0.26946370716205509 0.4860372782758946 0 -0.26946370716205509 0.4860372782758946 0 -0.28063852136870049 0.49356657832492562 0 -0.26946370716205509 0.4860372782758946 0 -0.27113802145370669 0.49283981386083792 0 -0.28063852136870049 0.49356657832492562 0 -0.2798907507987049 0.48286402398659151 0 -0.26946370716205509 0.4860372782758946 0 -0.28063852136870049 0.49356657832492562 0 -0.25397816739109252 0.5 0 -0.27113802145370669 0.49283981386083792 0 -0.27742446875513049 0.50000000000000155 0 -0.26689660829256312 0.48430763362261348 0 -0.26946370716205509 0.4860372782758946 0 -0.27113802145370669 0.49283981386083792 0 -0.26169037092037989 0.4910190989046625 0 -0.26689660829256312 0.48430763362261348 0 -0.27113802145370669 0.49283981386083792 0 -0.26689660829256312 0.48430763362261348 0 -0.26946370716205509 0.4860372782758946 0 -0.27113802145370669 0.49283981386083792 0 -0.28063852136870049 0.49356657832492562 0 -0.27742446875513049 0.50000000000000155 0 -0.28063852136870049 0.49356657832492562 0 -0.27742446875513049 0.50000000000000155 0 -0.28063852136870049 0.49356657832492562 0 -0.27742446875513049 0.50000000000000155 0 -0.29018685806186229 0.50000000000000122 0 -0.28063852136870049 0.49356657832492562 0 -0.29018685806186229 0.50000000000000122 0 -0.29092234379960469 0.47298192272523881 0 -0.28063852136870049 0.49356657832492562 0 -0.29018685806186229 0.50000000000000122 0 -0.29018685806186229 0.50000000000000122 0 -0.29092234379960469 0.47298192272523881 0 -0.30745775624609217 0.47728579204436761 0 -0.28063852136870049 0.49356657832492562 0 -0.29092234379960469 0.47298192272523881 0 -0.2798907507987049 0.48286402398659151 0 -0.28063852136870049 0.49356657832492562 0 -0.29092234379960469 0.47298192272523881 0 -0.28186649269177161 0.46567885888970018 0 -0.28298297564177088 0.4743823417855309 0 -0.29092234379960469 0.47298192272523881 0 -0.2798907507987049 0.48286402398659151 0 -0.28298297564177088 0.4743823417855309 0 -0.29092234379960469 0.47298192272523881 0 -0.29018685806186229 0.50000000000000122 0 -0.30745775624609217 0.47728579204436761 0 -0.3640375775585698 0.5 0 -0.30745775624609217 0.47728579204436761 0 -0.33122457162539992 0.46023714195115112 0 -0.3640375775585698 0.5 0 -0.30745775624609217 0.47728579204436761 0 -0.33122457162539992 0.46023714195115112 0 -0.30745775624609217 0.47728579204436761 0 -0.31718999816658727 0.45065056632578487 0 -0.33122457162539992 0.46023714195115112 0 -0.33223168701086447 0.43660936806356893 0 -0.31148998866141242 0.43181261152586448 0 -0.31718999816658727 0.45065056632578487 0 -0.33223168701086447 0.43660936806356893 0 -0.31718999816658727 0.45065056632578487 0 -0.33122457162539992 0.46023714195115112 0 -0.33122457162539992 0.46023714195115112 0 -0.35499138700470761 0.44318849185793469 0 -0.33223168701086447 0.43660936806356893 0 -0.33122457162539992 0.46023714195115112 0 -0.35499138700470761 0.44318849185793469 0 -0.33122457162539992 0.46023714195115112 0 -0.35376164566254242 0.46494380824906301 0 -0.35499138700470761 0.44318849185793469 0 -0.38249991962136642 0.44345487931465249 0 -0.35499138700470761 0.44318849185793469 0 -0.37103467036260362 0.45695891695805302 0 -0.38249991962136642 0.44345487931465249 0 -0.37875820238401509 0.42613984176471847 0 -0.35499138700470761 0.44318849185793469 0 -0.35376164566254242 0.46494380824906301 0 -0.35499138700470761 0.44318849185793469 0 -0.37103467036260362 0.45695891695805302 0 -0.35376164566254242 0.46494380824906301 0 -0.37103467036260362 0.45695891695805302 0 -0.36943712044780219 0.47475959506207249 0 -0.33122457162539992 0.46023714195115112 0 -0.35376164566254242 0.46494380824906301 0 -0.3640375775585698 0.5 0 -0.38891458820749281 0.47713565504117422 0 -0.36943712044780219 0.47475959506207249 0 -0.3640375775585698 0.5 0 -0.35376164566254242 0.46494380824906301 0 -0.36943712044780219 0.47475959506207249 0 -0.3640375775585698 0.5 0 -0.1410608215807003 0.47118489318428192 0 -0.1506389915883973 0.47451242435581331 0 -0.15779819732271971 0.4695739402503486 0 -0.1410608215807003 0.47118489318428192 0 -0.15779819732271971 0.4695739402503486 0 -0.1455325599989582 0.47665965757352818 0 -0.14983465253105441 0.48099067897208148 0 -0.1405957742956809 0.47995063378193648 0 -0.14983465253105441 0.48099067897208148 0 -0.14427471349546869 0.48965289008050411 0 -0.1405957742956809 0.47995063378193648 0 -0.1455325599989582 0.47665965757352818 0 -0.1410608215807003 0.47118489318428192 0 -0.1506389915883973 0.47451242435581331 0 -0.1455325599989582 0.47665965757352818 0 -0.1410608215807003 0.47118489318428192 0 -0.1405957742956809 0.47995063378193648 0 -0.1506389915883973 0.47451242435581331 0 -0.15682389603308189 0.47748605108520858 0 -0.15779819732271971 0.4695739402503486 0 -0.1506389915883973 0.47451242435581331 0 -0.14983465253105441 0.48099067897208148 0 -0.15682389603308189 0.47748605108520858 0 -0.1455325599989582 0.47665965757352818 0 -0.1506389915883973 0.47451242435581331 0 -0.14983465253105441 0.48099067897208148 0 -0.14983465253105441 0.48099067897208148 0 -0.1558122254133027 0.48316327461493752 0 -0.15682389603308189 0.47748605108520858 0 -0.14983465253105441 0.48099067897208148 0 -0.1558122254133027 0.48316327461493752 0 -0.15140604362779489 0.486968875654338 0 -0.1558122254133027 0.48316327461493752 0 -0.15140604362779489 0.486968875654338 0 -0.15545271364459581 0.49281799385228547 0 -0.14983465253105441 0.48099067897208148 0 -0.15140604362779489 0.486968875654338 0 -0.14427471349546869 0.48965289008050411 0 -0.15140604362779489 0.486968875654338 0 -0.15545271364459581 0.49281799385228547 0 -0.14427471349546869 0.48965289008050411 0 -0.15453849507163009 0.5 0 -0.14427471349546869 0.48965289008050411 0 -0.12543772684428189 0.5 0 -0.15453849507163009 0.5 0 -0.15545271364459581 0.49281799385228547 0 -0.14427471349546869 0.48965289008050411 0 -0.14427471349546869 0.48965289008050411 0 -0.12543772684428189 0.5 0 -0.13178312884530541 0.48627570230508688 0 -0.14427471349546869 0.48965289008050411 0 -0.13178312884530541 0.48627570230508688 0 -0.1405957742956809 0.47995063378193648 0 -0.13178312884530541 0.48627570230508688 0 -0.1317912103042716 0.47600940211286807 0 -0.11642361318749669 0.48420448820259387 0 -0.1317912103042716 0.47600940211286807 0 -0.14083201439797821 0.46516349611765162 0 -0.12052644250191399 0.4682622397032008 0 -0.13178312884530541 0.48627570230508688 0 -0.1405957742956809 0.47995063378193648 0 -0.1317912103042716 0.47600940211286807 0 -0.1410608215807003 0.47118489318428192 0 -0.1405957742956809 0.47995063378193648 0 -0.1317912103042716 0.47600940211286807 0 -0.1410608215807003 0.47118489318428192 0 -0.1317912103042716 0.47600940211286807 0 -0.14083201439797821 0.46516349611765162 0 -0.12618187852634369 0.45882241462805679 0 -0.14083201439797821 0.46516349611765162 0 -0.12052644250191399 0.4682622397032008 0 -0.14083201439797821 0.46516349611765162 0 -0.12052644250191399 0.4682622397032008 0 -0.12618187852634369 0.45882241462805679 0 -0.13621980461969219 0.45775649261309698 0 -0.13482926781972801 0.45201676164804122 0 -0.13621980461969219 0.45775649261309698 0 -0.13482926781972801 0.45201676164804122 0 -0.1430360577347192 0.45502329805863873 0 -0.13621980461969219 0.45775649261309698 0 -0.14083201439797821 0.46516349611765162 0 -0.1430360577347192 0.45502329805863873 0 -0.12618187852634369 0.45882241462805679 0 -0.13621980461969219 0.45775649261309698 0 -0.14083201439797821 0.46516349611765162 0 -0.12618187852634369 0.45882241462805679 0 -0.13482926781972801 0.45201676164804122 0 -0.1248743097581413 0.44162978393037222 0 -0.13482926781972801 0.45201676164804122 0 -0.13973201497409549 0.44099892737807922 0 -0.1415241139788854 0.4488412036993919 0 -0.13482926781972801 0.45201676164804122 0 -0.1415241139788854 0.4488412036993919 0 -0.1430360577347192 0.45502329805863873 0 -0.13973201497409549 0.44099892737807922 0 -0.13491063247587859 0.43073185275000708 0 -0.1248743097581413 0.44162978393037222 0 -0.13482926781972801 0.45201676164804122 0 -0.13973201497409549 0.44099892737807922 0 -0.1248743097581413 0.44162978393037222 0 -0.13973201497409549 0.44099892737807922 0 -0.14849911538699881 0.44732582771280882 0 -0.14949031039727409 0.43903968606904947 0 -0.14849911538699881 0.44732582771280882 0 -0.1430360577347192 0.45502329805863873 0 -0.15230793746503779 0.45507497120342549 0 -0.13973201497409549 0.44099892737807922 0 -0.1415241139788854 0.4488412036993919 0 -0.14849911538699881 0.44732582771280882 0 -0.1415241139788854 0.4488412036993919 0 -0.14849911538699881 0.44732582771280882 0 -0.1430360577347192 0.45502329805863873 0 -0.14849911538699881 0.44732582771280882 0 -0.15230793746503779 0.45507497120342549 0 -0.15767924869329919 0.44641741059368378 0 -0.14949031039727409 0.43903968606904947 0 -0.15767924869329919 0.44641741059368378 0 -0.15912083936695831 0.4347249498771325 0 -0.14849911538699881 0.44732582771280882 0 -0.14949031039727409 0.43903968606904947 0 -0.15767924869329919 0.44641741059368378 0 -0.14083201439797821 0.46516349611765162 0 -0.16113758629404229 0.46206475253210239 0 -0.15779819732271971 0.4695739402503486 0 -0.1410608215807003 0.47118489318428192 0 -0.14083201439797821 0.46516349611765162 0 -0.15779819732271971 0.4695739402503486 0 -0.14083201439797821 0.46516349611765162 0 -0.16113758629404229 0.46206475253210239 0 -0.14083201439797821 0.46516349611765162 0 -0.15230793746503779 0.45507497120342549 0 -0.16113758629404229 0.46206475253210239 0 -0.14083201439797821 0.46516349611765162 0 -0.1430360577347192 0.45502329805863873 0 -0.15230793746503779 0.45507497120342549 0 -0.16113758629404229 0.46206475253210239 0 -0.16940388650370539 0.44815354093755089 0 -0.18144315819010631 0.45896600894655282 0 -0.16113758629404229 0.46206475253210239 0 -0.18144315819010631 0.45896600894655282 0 -0.16113758629404229 0.46206475253210239 0 -0.17453557306473899 0.46796298731641428 0 -0.15779819732271971 0.4695739402503486 0 -0.15230793746503779 0.45507497120342549 0 -0.16113758629404229 0.46206475253210239 0 -0.16013216473902109 0.45292766881669072 0 -0.16113758629404229 0.46206475253210239 0 -0.16013216473902109 0.45292766881669072 0 -0.16940388650370539 0.44815354093755089 0 -0.15767924869329919 0.44641741059368378 0 -0.16940388650370539 0.44815354093755089 0 -0.15912083936695831 0.4347249498771325 0 -0.15230793746503779 0.45507497120342549 0 -0.16013216473902109 0.45292766881669072 0 -0.15767924869329919 0.44641741059368378 0 -0.16013216473902109 0.45292766881669072 0 -0.15767924869329919 0.44641741059368378 0 -0.16940388650370539 0.44815354093755089 0 -0.1829590266345629 0.45699162349075462 0 -0.18255950863604661 0.43173185523385532 0 -0.1829590266345629 0.45699162349075462 0 -0.19557533522393281 0.44055915781337712 0 -0.18255950863604661 0.43173185523385532 0 -0.16940388650370539 0.44815354093755089 0 -0.1829590266345629 0.45699162349075462 0 -0.18255950863604661 0.43173185523385532 0 -0.16113758629404229 0.46206475253210239 0 -0.17453557306473899 0.46796298731641428 0 -0.18144315819010631 0.45896600894655282 0 -0.17453557306473899 0.46796298731641428 0 -0.18144315819010631 0.45896600894655282 0 -0.17453557306473899 0.46796298731641428 0 -0.18311948649431831 0.46713679563994498 0 -0.16940388650370539 0.44815354093755089 0 -0.18144315819010631 0.45896600894655282 0 -0.1829590266345629 0.45699162349075462 0 -0.18144315819010631 0.45896600894655282 0 -0.1829590266345629 0.45699162349075462 0 -0.18144315819010631 0.45896600894655282 0 -0.1829865290739871 0.45873048193697258 0 -0.1829590266345629 0.45699162349075462 0 -0.18144315819010631 0.45896600894655282 0 -0.1829865290739871 0.45873048193697258 0 -0.1829865290739871 0.45873048193697258 0 -0.1829590266345629 0.45699162349075462 0 -0.17453557306473899 0.46796298731641428 0 -0.18144315819010631 0.45896600894655282 0 -0.18311948649431831 0.46713679563994498 0 -0.1829865290739871 0.45873048193697258 0 -0.18311948649431831 0.46713679563994498 0 -0.18144315819010631 0.45896600894655282 0 -0.1829865290739871 0.45873048193697258 0 -0.18311948649431831 0.46713679563994498 0 -0.18311948649431831 0.46713679563994498 0 -0.18337937489664821 0.48356839781997168 0 -0.19511197543601369 0.47606725323690458 0 -0.18311948649431831 0.46713679563994498 0 -0.18337937489664821 0.48356839781997168 0 -0.18311948649431831 0.46713679563994498 0 -0.18337937489664821 0.48356839781997168 0 -0.17485937494801759 0.47808814193434568 0 -0.17453557306473899 0.46796298731641428 0 -0.18311948649431831 0.46713679563994498 0 -0.17485937494801759 0.47808814193434568 0 -0.17453557306473899 0.46796298731641428 0 -0.15779819732271971 0.4695739402503486 0 -0.17453557306473899 0.46796298731641428 0 -0.16499414335466689 0.48039049058434952 0 -0.17453557306473899 0.46796298731641428 0 -0.16499414335466689 0.48039049058434952 0 -0.15779819732271971 0.4695739402503486 0 -0.17453557306473899 0.46796298731641428 0 -0.17485937494801759 0.47808814193434568 0 -0.16499414335466689 0.48039049058434952 0 -0.17485937494801759 0.47808814193434568 0 -0.16499414335466689 0.48039049058434952 0 -0.1699453859209171 0.49288017845899518 0 -0.1558122254133027 0.48316327461493752 0 -0.16499414335466689 0.48039049058434952 0 -0.15682389603308189 0.47748605108520858 0 -0.16499414335466689 0.48039049058434952 0 -0.15682389603308189 0.47748605108520858 0 -0.15779819732271971 0.4695739402503486 0 -0.15453849507163009 0.5 0 -0.1699453859209171 0.49288017845899518 0 -0.18363926329897839 0.49999999999999828 0 -0.15453849507163009 0.5 0 -0.15545271364459581 0.49281799385228547 0 -0.1699453859209171 0.49288017845899518 0 -0.15545271364459581 0.49281799385228547 0 -0.16499414335466689 0.48039049058434952 0 -0.1699453859209171 0.49288017845899518 0 -0.15545271364459581 0.49281799385228547 0 -0.16499414335466689 0.48039049058434952 0 -0.1558122254133027 0.48316327461493752 0 -0.15545271364459581 0.49281799385228547 0 -0.16499414335466689 0.48039049058434952 0 -0.18337937489664821 0.48356839781997168 0 -0.18363926329897839 0.49999999999999828 0 -0.18337937489664821 0.48356839781997168 0 -0.1699453859209171 0.49288017845899518 0 -0.18363926329897839 0.49999999999999828 0 -0.18337937489664821 0.48356839781997168 0 -0.17485937494801759 0.47808814193434568 0 -0.1699453859209171 0.49288017845899518 0 -0.18337937489664821 0.48356839781997168 0 -0.18363926329897839 0.49999999999999828 0 -0.19848883175809501 0.48685236178056529 0 -0.18363926329897839 0.49999999999999828 0 -0.19848883175809501 0.48685236178056529 0 -0.20708556466301639 0.5 0 -0.18311948649431831 0.46713679563994498 0 -0.19511197543601369 0.47606725323690458 0 -0.20656524953558469 0.46488016823659339 0 -0.18337937489664821 0.48356839781997168 0 -0.19848883175809501 0.48685236178056529 0 -0.19511197543601369 0.47606725323690458 0 -0.19848883175809501 0.48685236178056529 0 -0.19511197543601369 0.47606725323690458 0 -0.206747867840962 0.47700509082497228 0 -0.19511197543601369 0.47606725323690458 0 -0.206747867840962 0.47700509082497228 0 -0.20656524953558469 0.46488016823659339 0 -0.19848883175809501 0.48685236178056529 0 -0.206747867840962 0.47700509082497228 0 -0.21585796601610141 0.48648558657266339 0 -0.206747867840962 0.47700509082497228 0 -0.21852396914967101 0.47285401242330122 0 -0.20656524953558469 0.46488016823659339 0 -0.206747867840962 0.47700509082497228 0 -0.21852396914967101 0.47285401242330122 0 -0.21585796601610141 0.48648558657266339 0 -0.20708556466301639 0.5 0 -0.21585796601610141 0.48648558657266339 0 -0.23053186602705439 0.5 0 -0.19848883175809501 0.48685236178056529 0 -0.20708556466301639 0.5 0 -0.21585796601610141 0.48648558657266339 0 -0.21585796601610141 0.48648558657266339 0 -0.23053186602705439 0.5 0 -0.2373192826940049 0.48342253064983348 0 -0.21852396914967101 0.47285401242330122 0 -0.2373192826940049 0.48342253064983348 0 -0.23001101257685119 0.46262354083324181 0 -0.21852396914967101 0.47285401242330122 0 -0.21585796601610141 0.48648558657266339 0 -0.2373192826940049 0.48342253064983348 0 -0.25474868654415728 0.48692894813519849 0 -0.25315469521642581 0.4750486889203015 0 -0.2373192826940049 0.48342253064983348 0 -0.25315469521642581 0.4750486889203015 0 -0.2373192826940049 0.48342253064983348 0 -0.23001101257685119 0.46262354083324181 0 -0.25397816739109252 0.5 0 -0.23053186602705439 0.5 0 -0.2373192826940049 0.48342253064983348 0 -0.25397816739109252 0.5 0 -0.25474868654415728 0.48692894813519849 0 -0.2373192826940049 0.48342253064983348 0 -0.26330490497154813 0.43976041958731371 0 -0.24129970279445639 0.44943490890582899 0 -0.24092688658692171 0.43286849171069308 0 -0.24129970279445639 0.44943490890582899 0 -0.2242493546558077 0.44235471361969553 0 -0.24092688658692171 0.43286849171069308 0 -0.25345677561811758 0.46036691342989022 0 -0.23001101257685119 0.46262354083324181 0 -0.25345677561811758 0.46036691342989022 0 -0.24129970279445639 0.44943490890582899 0 -0.23001101257685119 0.46262354083324181 0 -0.25345677561811758 0.46036691342989022 0 -0.25315469521642581 0.4750486889203015 0 -0.23001101257685119 0.46262354083324181 0 -0.24129970279445639 0.44943490890582899 0 -0.23001101257685119 0.46262354083324181 0 -0.2242493546558077 0.44235471361969553 0 -0.23001101257685119 0.46262354083324181 0 -0.2242493546558077 0.44235471361969553 0 -0.2144914677851314 0.45380351874251162 0 -0.2242493546558077 0.44235471361969553 0 -0.20880164963731279 0.443380440886459 0 -0.2144914677851314 0.45380351874251162 0 -0.20880164963731279 0.443380440886459 0 -0.2144914677851314 0.45380351874251162 0 -0.20415969833182021 0.45549933815243238 0 -0.23001101257685119 0.46262354083324181 0 -0.2144914677851314 0.45380351874251162 0 -0.20656524953558469 0.46488016823659339 0 -0.21852396914967101 0.47285401242330122 0 -0.23001101257685119 0.46262354083324181 0 -0.20656524953558469 0.46488016823659339 0 -0.23001101257685119 0.46262354083324181 0 -0.20656524953558469 0.46488016823659339 0 -0.2144914677851314 0.45380351874251162 0 -0.20415969833182021 0.45549933815243238 0 -0.20656524953558469 0.46488016823659339 0 -0.1829865290739871 0.45873048193697258 0 -0.1829590266345629 0.45699162349075462 0 -0.20415969833182021 0.45549933815243238 0 -0.1829865290739871 0.45873048193697258 0 -0.20415969833182021 0.45549933815243238 0 -0.18311948649431831 0.46713679563994498 0 -0.20415969833182021 0.45549933815243238 0 -0.20656524953558469 0.46488016823659339 0 -0.1829865290739871 0.45873048193697258 0 -0.18311948649431831 0.46713679563994498 0 -0.20415969833182021 0.45549933815243238 0 -0.18311948649431831 0.46713679563994498 0 -0.20656524953558469 0.46488016823659339 0 -0.1829590266345629 0.45699162349075462 0 -0.19557533522393281 0.44055915781337712 0 -0.1829590266345629 0.45699162349075462 0 -0.20415969833182021 0.45549933815243238 0 -0.19557533522393281 0.44055915781337712 0 -0.20880164963731279 0.443380440886459 0 -0.20415969833182021 0.45549933815243238 0 -0.19557533522393281 0.44055915781337712 0 -0.19557533522393281 0.44055915781337712 0 -0.20819164381331129 0.42412669213600601 0 -0.19557533522393281 0.44055915781337712 0 -0.19413142888046839 0.4217351031076268 0 -0.18255950863604661 0.43173185523385532 0 -0.19557533522393281 0.44055915781337712 0 -0.19413142888046839 0.4217351031076268 0 -0.20819164381331129 0.42412669213600601 0 -0.19413142888046839 0.4217351031076268 0 -0.20819164381331129 0.42412669213600601 0 -0.2021706660915297 0.40578572337793972 0 -0.19413142888046839 0.4217351031076268 0 -0.2021706660915297 0.40578572337793972 0 -0.18215999063752189 0.40647208697695608 0 -0.20819164381331129 0.42412669213600601 0 -0.22405449890785839 0.40643558214578251 0 -0.2021706660915297 0.40578572337793972 0 -0.20880164963731279 0.443380440886459 0 -0.19557533522393281 0.44055915781337712 0 -0.20819164381331129 0.42412669213600601 0 -0.2242493546558077 0.44235471361969553 0 -0.20880164963731279 0.443380440886459 0 -0.20819164381331129 0.42412669213600601 0 -0.2242493546558077 0.44235471361969553 0 -0.20819164381331129 0.42412669213600601 0 -0.22600929792909111 0.42518400498706249 0 -0.2242493546558077 0.44235471361969553 0 -0.22600929792909111 0.42518400498706249 0 -0.24092688658692171 0.43286849171069308 0 -0.20819164381331129 0.42412669213600601 0 -0.22600929792909111 0.42518400498706249 0 -0.22405449890785839 0.40643558214578251 0 -0.22600929792909111 0.42518400498706249 0 -0.22405449890785839 0.40643558214578251 0 -0.2382988550227183 0.41778448946306668 0 -0.2572482915111563 0.42152384209731297 0 -0.2382988550227183 0.41778448946306668 0 -0.2490618870264745 0.40647588616764979 0 -0.22405449890785839 0.40643558214578251 0 -0.2382988550227183 0.41778448946306668 0 -0.2490618870264745 0.40647588616764979 0 -0.2572482915111563 0.42152384209731297 0 -0.2382988550227183 0.41778448946306668 0 -0.24092688658692171 0.43286849171069308 0 -0.22600929792909111 0.42518400498706249 0 -0.2382988550227183 0.41778448946306668 0 -0.24092688658692171 0.43286849171069308 0 -0.24000210142933509 0.37809552861286783 0 -0.23801773827758249 0.39392053259368742 0 -0.22567210936962789 0.38582584627882549 0 -0.25152819264859128 0.38883491631829081 0 -0.24000210142933509 0.37809552861286783 0 -0.23801773827758249 0.39392053259368742 0 -0.25213085833087667 0.37355178257669552 0 -0.25152819264859128 0.38883491631829081 0 -0.24000210142933509 0.37809552861286783 0 -0.25152819264859128 0.38883491631829081 0 -0.2490618870264745 0.40647588616764979 0 -0.23801773827758249 0.39392053259368742 0 -0.22405449890785839 0.40643558214578251 0 -0.2490618870264745 0.40647588616764979 0 -0.23801773827758249 0.39392053259368742 0 -0.22405449890785839 0.40643558214578251 0 -0.22567210936962789 0.38582584627882549 0 -0.2099895612515065 0.38861519238670661 0 -0.22405449890785839 0.40643558214578251 0 -0.23801773827758249 0.39392053259368742 0 -0.22567210936962789 0.38582584627882549 0 -0.22567210936962789 0.38582584627882549 0 -0.21752164111765379 0.37637519474985792 0 -0.23054114355980421 0.3681661286558337 0 -0.24000210142933509 0.37809552861286783 0 -0.22567210936962789 0.38582584627882549 0 -0.23054114355980421 0.3681661286558337 0 -0.22567210936962789 0.38582584627882549 0 -0.21752164111765379 0.37637519474985792 0 -0.2099895612515065 0.38861519238670661 0 -0.21752164111765379 0.37637519474985792 0 -0.2099895612515065 0.38861519238670661 0 -0.20825127389149589 0.37038948781896619 0 -0.2099895612515065 0.38861519238670661 0 -0.1956253707180633 0.37355818799515828 0 -0.20825127389149589 0.37038948781896619 0 -0.22405449890785839 0.40643558214578251 0 -0.2099895612515065 0.38861519238670661 0 -0.2021706660915297 0.40578572337793972 0 -0.2021706660915297 0.40578572337793972 0 -0.19434121226752371 0.39112870189136351 0 -0.18215999063752189 0.40647208697695608 0 -0.2099895612515065 0.38861519238670661 0 -0.2021706660915297 0.40578572337793972 0 -0.19434121226752371 0.39112870189136351 0 -0.2099895612515065 0.38861519238670661 0 -0.19434121226752371 0.39112870189136351 0 -0.1956253707180633 0.37355818799515828 0 -0.19434121226752371 0.39112870189136351 0 -0.18176047263899719 0.38121231872005679 0 -0.1956253707180633 0.37355818799515828 0 -0.18176047263899719 0.38121231872005679 0 -0.16585623702428451 0.39107516703040651 0 -0.16689278400863089 0.37048631692620287 0 -0.16585623702428451 0.39107516703040651 0 -0.1532541744773912 0.375434017343177 0 -0.15169756500005979 0.38990146883471011 0 -0.16585623702428451 0.39107516703040651 0 -0.1532541744773912 0.375434017343177 0 -0.16689278400863089 0.37048631692620287 0 -0.16585623702428451 0.39107516703040651 0 -0.1665369108918931 0.40914444316194981 0 -0.1556916669008335 0.40278409093046019 0 -0.16585623702428451 0.39107516703040651 0 -0.18215999063752189 0.40647208697695608 0 -0.1665369108918931 0.40914444316194981 0 -0.16585623702428451 0.39107516703040651 0 -0.15169756500005979 0.38990146883471011 0 -0.1556916669008335 0.40278409093046019 0 -0.18176047263899719 0.38121231872005679 0 -0.16585623702428451 0.39107516703040651 0 -0.18215999063752189 0.40647208697695608 0 -0.18176047263899719 0.38121231872005679 0 -0.18215999063752189 0.40647208697695608 0 -0.19434121226752371 0.39112870189136351 0 -0.18176047263899719 0.38121231872005679 0 -0.18215999063752189 0.40647208697695608 0 -0.18215999063752189 0.40647208697695608 0 -0.18255950863604661 0.43173185523385532 0 -0.18215999063752189 0.40647208697695608 0 -0.16958367679162159 0.42493542776846188 0 -0.1665369108918931 0.40914444316194981 0 -0.19413142888046839 0.4217351031076268 0 -0.18215999063752189 0.40647208697695608 0 -0.18255950863604661 0.43173185523385532 0 -0.18215999063752189 0.40647208697695608 0 -0.18255950863604661 0.43173185523385532 0 -0.16958367679162159 0.42493542776846188 0 -0.16940388650370539 0.44815354093755089 0 -0.18255950863604661 0.43173185523385532 0 -0.16958367679162159 0.42493542776846188 0 -0.16940388650370539 0.44815354093755089 0 -0.16958367679162159 0.42493542776846188 0 -0.15912083936695831 0.4347249498771325 0 -0.16958367679162159 0.42493542776846188 0 -0.15912083936695831 0.4347249498771325 0 -0.15604886632200479 0.41831593774319042 0 -0.16958367679162159 0.42493542776846188 0 -0.1665369108918931 0.40914444316194981 0 -0.15604886632200479 0.41831593774319042 0 -0.1665369108918931 0.40914444316194981 0 -0.15604886632200479 0.41831593774319042 0 -0.1556916669008335 0.40278409093046019 0 -0.15604886632200479 0.41831593774319042 0 -0.14768726638806501 0.40958107086639878 0 -0.1556916669008335 0.40278409093046019 0 -0.15604886632200479 0.41831593774319042 0 -0.1455440964649429 0.41771164433310332 0 -0.14575226394851429 0.42876386523653243 0 -0.15604886632200479 0.41831593774319042 0 -0.1455440964649429 0.41771164433310332 0 -0.14768726638806501 0.40958107086639878 0 -0.1455440964649429 0.41771164433310332 0 -0.14768726638806501 0.40958107086639878 0 -0.13820848934052041 0.41088683445876423 0 -0.15912083936695831 0.4347249498771325 0 -0.15604886632200479 0.41831593774319042 0 -0.14575226394851429 0.42876386523653243 0 -0.14949031039727409 0.43903968606904947 0 -0.15912083936695831 0.4347249498771325 0 -0.14575226394851429 0.42876386523653243 0 -0.1455440964649429 0.41771164433310332 0 -0.14575226394851429 0.42876386523653243 0 -0.13557398954387551 0.42076075412316039 0 -0.13973201497409549 0.44099892737807922 0 -0.14949031039727409 0.43903968606904947 0 -0.14575226394851429 0.42876386523653243 0 -0.13491063247587859 0.43073185275000708 0 -0.1242188050129694 0.42501783294758849 0 -0.1248743097581413 0.44162978393037222 0 -0.13973201497409549 0.44099892737807922 0 -0.14575226394851429 0.42876386523653243 0 -0.13491063247587859 0.43073185275000708 0 -0.14575226394851429 0.42876386523653243 0 -0.13491063247587859 0.43073185275000708 0 -0.13557398954387551 0.42076075412316039 0 -0.13491063247587859 0.43073185275000708 0 -0.13557398954387551 0.42076075412316039 0 -0.1242188050129694 0.42501783294758849 0 -0.13820848934052041 0.41088683445876423 0 -0.13557398954387551 0.42076075412316039 0 -0.12623023605756489 0.41143854881348008 0 -0.1455440964649429 0.41771164433310332 0 -0.13820848934052041 0.41088683445876423 0 -0.13557398954387551 0.42076075412316039 0 -0.13557398954387551 0.42076075412316039 0 -0.12623023605756489 0.41143854881348008 0 -0.1242188050129694 0.42501783294758849 0 -0.13820848934052041 0.41088683445876423 0 -0.12623023605756489 0.41143854881348008 0 -0.13398515235888339 0.40371564514020769 0 -0.12997925716256209 0.39431640422262348 0 -0.14074253368576661 0.38200722200303072 0 -0.1429432129120235 0.39820684686647628 0 -0.12623023605756489 0.41143854881348008 0 -0.13398515235888339 0.40371564514020769 0 -0.12997925716256209 0.39431640422262348 0 -0.13398515235888339 0.40371564514020769 0 -0.12997925716256209 0.39431640422262348 0 -0.1429432129120235 0.39820684686647628 0 -0.13820848934052041 0.41088683445876423 0 -0.13398515235888339 0.40371564514020769 0 -0.1429432129120235 0.39820684686647628 0 -0.12997925716256209 0.39431640422262348 0 -0.14074253368576661 0.38200722200303072 0 -0.12523428666698541 0.37069662222368049 0 -0.12997925716256209 0.39431640422262348 0 -0.12523428666698541 0.37069662222368049 0 -0.12103247972044499 0.39311621374447298 0 -0.14074253368576661 0.38200722200303072 0 -0.15169756500005979 0.38990146883471011 0 -0.1429432129120235 0.39820684686647628 0 -0.14074253368576661 0.38200722200303072 0 -0.1532541744773912 0.375434017343177 0 -0.15169756500005979 0.38990146883471011 0 -0.15169756500005979 0.38990146883471011 0 -0.1556916669008335 0.40278409093046019 0 -0.1429432129120235 0.39820684686647628 0 -0.14768726638806501 0.40958107086639878 0 -0.1556916669008335 0.40278409093046019 0 -0.1429432129120235 0.39820684686647628 0 -0.14768726638806501 0.40958107086639878 0 -0.13820848934052041 0.41088683445876423 0 -0.1429432129120235 0.39820684686647628 0 -0.14407255521749979 0.34403263722221961 0 -0.15504053286571459 0.3545366000593369 0 -0.14129669608781389 0.36249735492572199 0 -0.14407255521749979 0.34403263722221961 0 -0.15504053286571459 0.3545366000593369 0 -0.1549481930100888 0.34056708499864929 0 -0.14074253368576661 0.38200722200303072 0 -0.1532541744773912 0.375434017343177 0 -0.14129669608781389 0.36249735492572199 0 -0.1532541744773912 0.375434017343177 0 -0.15504053286571459 0.3545366000593369 0 -0.14129669608781389 0.36249735492572199 0 -0.14129669608781389 0.36249735492572199 0 -0.12523428666698541 0.37069662222368049 0 -0.1294360936135257 0.3482770307028879 0 -0.12523428666698541 0.37069662222368049 0 -0.1294360936135257 0.3482770307028879 0 -0.14074253368576661 0.38200722200303072 0 -0.14129669608781389 0.36249735492572199 0 -0.12523428666698541 0.37069662222368049 0 -0.14407255521749979 0.34403263722221961 0 -0.14129669608781389 0.36249735492572199 0 -0.1294360936135257 0.3482770307028879 0 -0.1294360936135257 0.3482770307028879 0 -0.13363790056006589 0.32585743918209531 0 -0.14407255521749979 0.34403263722221961 0 -0.1294360936135257 0.3482770307028879 0 -0.13363790056006589 0.32585743918209531 0 -0.1294360936135257 0.3482770307028879 0 -0.13363790056006589 0.32585743918209531 0 -0.1154499742120704 0.34086754873962172 0 -0.12722248981549561 0.3181430308760943 0 -0.13363790056006589 0.32585743918209531 0 -0.1360408951285694 0.3130357752318072 0 -0.12722248981549561 0.3181430308760943 0 -0.1360408951285694 0.3130357752318072 0 -0.12136448477009221 0.30951812845445109 0 -0.12722248981549561 0.3181430308760943 0 -0.13363790056006589 0.32585743918209531 0 -0.12142985306419619 0.32461006626398298 0 -0.13363790056006589 0.32585743918209531 0 -0.12142985306419619 0.32461006626398298 0 -0.13363790056006589 0.32585743918209531 0 -0.1360408951285694 0.3130357752318072 0 -0.14290423209994971 0.32095809222069871 0 -0.13363790056006589 0.32585743918209531 0 -0.1360408951285694 0.3130357752318072 0 -0.14290423209994971 0.32095809222069871 0 -0.1532404752523272 0.32269894785805692 0 -0.1464174014568787 0.29836992735667278 0 -0.13363790056006589 0.32585743918209531 0 -0.14290423209994971 0.32095809222069871 0 -0.15729966860100811 0.32827511069417059 0 -0.13363790056006589 0.32585743918209531 0 -0.15729966860100811 0.32827511069417059 0 -0.14290423209994971 0.32095809222069871 0 -0.1532404752523272 0.32269894785805692 0 -0.15729966860100811 0.32827511069417059 0 -0.1532404752523272 0.32269894785805692 0 -0.15943794807189979 0.31595908059817063 0 -0.1547819877644892 0.3091453549012102 0 -0.14407255521749979 0.34403263722221961 0 -0.13363790056006589 0.32585743918209531 0 -0.14748957934716561 0.33468306802428371 0 -0.13363790056006589 0.32585743918209531 0 -0.14748957934716561 0.33468306802428371 0 -0.15729966860100811 0.32827511069417059 0 -0.14748957934716561 0.33468306802428371 0 -0.1549481930100888 0.34056708499864929 0 -0.15729966860100811 0.32827511069417059 0 -0.14407255521749979 0.34403263722221961 0 -0.14748957934716561 0.33468306802428371 0 -0.1549481930100888 0.34056708499864929 0 -0.15729966860100811 0.32827511069417059 0 -0.18096143664194889 0.33069278220625808 0 -0.1549481930100888 0.34056708499864929 0 -0.15729966860100811 0.32827511069417059 0 -0.16781010436956259 0.34240718275037813 0 -0.15729966860100811 0.32827511069417059 0 -0.16781010436956259 0.34240718275037813 0 -0.18096143664194889 0.33069278220625808 0 -0.15729966860100811 0.32827511069417059 0 -0.17028988351433311 0.32233995817617028 0 -0.18096143664194889 0.33069278220625808 0 -0.15943794807189979 0.31595908059817063 0 -0.16495134068588049 0.31685297469802859 0 -0.1638395481514221 0.30983277085387728 0 -0.1532404752523272 0.32269894785805692 0 -0.15943794807189979 0.31595908059817063 0 -0.16037638850537991 0.32126535467967993 0 -0.15943794807189979 0.31595908059817063 0 -0.16037638850537991 0.32126535467967993 0 -0.16495134068588049 0.31685297469802859 0 -0.15729966860100811 0.32827511069417059 0 -0.16037638850537991 0.32126535467967993 0 -0.17028988351433311 0.32233995817617028 0 -0.1532404752523272 0.32269894785805692 0 -0.15729966860100811 0.32827511069417059 0 -0.16037638850537991 0.32126535467967993 0 -0.16495134068588049 0.31685297469802859 0 -0.17285953122972289 0.31090601179704258 0 -0.1638395481514221 0.30983277085387728 0 -0.17028988351433311 0.32233995817617028 0 -0.16495134068588049 0.31685297469802859 0 -0.17285953122972289 0.31090601179704258 0 -0.16037638850537991 0.32126535467967993 0 -0.17028988351433311 0.32233995817617028 0 -0.16495134068588049 0.31685297469802859 0 -0.18077272512400111 0.31876138179813301 0 -0.17285953122972289 0.31090601179704258 0 -0.17028988351433311 0.32233995817617028 0 -0.18077272512400111 0.31876138179813301 0 -0.17285953122972289 0.31090601179704258 0 -0.17028988351433311 0.32233995817617028 0 -0.18077272512400111 0.31876138179813301 0 -0.18096143664194889 0.33069278220625808 0 -0.18077272512400111 0.31876138179813301 0 -0.19386790912735871 0.33176087567547108 0 -0.18077272512400111 0.31876138179813301 0 -0.18096143664194889 0.33069278220625808 0 -0.18077272512400111 0.31876138179813301 0 -0.18096143664194889 0.33069278220625808 0 -0.19386790912735871 0.33176087567547108 0 -0.18096143664194889 0.33069278220625808 0 -0.1813609546404725 0.35595255046315749 0 -0.18096143664194889 0.33069278220625808 0 -0.1813609546404725 0.35595255046315749 0 -0.19258948339875709 0.33633707034479371 0 -0.16781010436956259 0.34240718275037813 0 -0.18096143664194889 0.33069278220625808 0 -0.1813609546404725 0.35595255046315749 0 -0.18096143664194889 0.33069278220625808 0 -0.19386790912735871 0.33176087567547108 0 -0.15504053286571459 0.3545366000593369 0 -0.16781010436956259 0.34240718275037813 0 -0.1813609546404725 0.35595255046315749 0 -0.15504053286571459 0.3545366000593369 0 -0.1549481930100888 0.34056708499864929 0 -0.16781010436956259 0.34240718275037813 0 -0.1532541744773912 0.375434017343177 0 -0.15504053286571459 0.3545366000593369 0 -0.16689278400863089 0.37048631692620287 0 -0.15504053286571459 0.3545366000593369 0 -0.1813609546404725 0.35595255046315749 0 -0.16689278400863089 0.37048631692620287 0 -0.18176047263899719 0.38121231872005679 0 -0.1813609546404725 0.35595255046315749 0 -0.18176047263899719 0.38121231872005679 0 -0.1813609546404725 0.35595255046315749 0 -0.1956253707180633 0.37355818799515828 0 -0.18176047263899719 0.38121231872005679 0 -0.1813609546404725 0.35595255046315749 0 -0.16689278400863089 0.37048631692620287 0 -0.1813609546404725 0.35595255046315749 0 -0.1956253707180633 0.37355818799515828 0 -0.2000380028121157 0.35856944723279938 0 -0.1956253707180633 0.37355818799515828 0 -0.2000380028121157 0.35856944723279938 0 -0.20825127389149589 0.37038948781896619 0 -0.1813609546404725 0.35595255046315749 0 -0.1951678646333711 0.34883535218340811 0 -0.19258948339875709 0.33633707034479371 0 -0.1813609546404725 0.35595255046315749 0 -0.1951678646333711 0.34883535218340811 0 -0.2000380028121157 0.35856944723279938 0 -0.1951678646333711 0.34883535218340811 0 -0.2000380028121157 0.35856944723279938 0 -0.20668301768213909 0.34448234069288158 0 -0.20668301768213909 0.34448234069288158 0 -0.2120127789660084 0.36084248239747968 0 -0.21921666942493959 0.3569244055809645 0 -0.2000380028121157 0.35856944723279938 0 -0.20668301768213909 0.34448234069288158 0 -0.2120127789660084 0.36084248239747968 0 -0.2120127789660084 0.36084248239747968 0 -0.21921666942493959 0.3569244055809645 0 -0.20668301768213909 0.34448234069288158 0 -0.21921666942493959 0.3569244055809645 0 -0.22158808080033929 0.34557455345049992 0 -0.20668301768213909 0.34448234069288158 0 -0.21921666942493959 0.3569244055809645 0 -0.2000380028121157 0.35856944723279938 0 -0.20825127389149589 0.37038948781896619 0 -0.2120127789660084 0.36084248239747968 0 -0.2120127789660084 0.36084248239747968 0 -0.2199937556016836 0.36693485901855288 0 -0.21921666942493959 0.3569244055809645 0 -0.20825127389149589 0.37038948781896619 0 -0.2120127789660084 0.36084248239747968 0 -0.2199937556016836 0.36693485901855288 0 -0.21752164111765379 0.37637519474985792 0 -0.20825127389149589 0.37038948781896619 0 -0.2199937556016836 0.36693485901855288 0 -0.21752164111765379 0.37637519474985792 0 -0.23054114355980421 0.3681661286558337 0 -0.2199937556016836 0.36693485901855288 0 -0.23054114355980421 0.3681661286558337 0 -0.21921666942493959 0.3569244055809645 0 -0.23305195790672301 0.35812934693154008 0 -0.23054114355980421 0.3681661286558337 0 -0.2199937556016836 0.36693485901855288 0 -0.21921666942493959 0.3569244055809645 0 -0.23054114355980421 0.3681661286558337 0 -0.21921666942493959 0.3569244055809645 0 -0.21921666942493959 0.3569244055809645 0 -0.22158808080033929 0.34557455345049992 0 -0.23915963598069589 0.34607775607121571 0 -0.21921666942493959 0.3569244055809645 0 -0.23915963598069589 0.34607775607121571 0 -0.21921666942493959 0.3569244055809645 0 -0.23305195790672301 0.35812934693154008 0 -0.23915963598069589 0.34607775607121571 0 -0.23305195790672301 0.35812934693154008 0 -0.23915963598069589 0.34607775607121571 0 -0.24329038266145239 0.36134909741814653 0 -0.25407523553642281 0.3497448278934856 0 -0.23915963598069589 0.34607775607121571 0 -0.24329038266145239 0.36134909741814653 0 -0.25213085833087667 0.37355178257669552 0 -0.24000210142933509 0.37809552861286783 0 -0.24329038266145239 0.36134909741814653 0 -0.24000210142933509 0.37809552861286783 0 -0.23054114355980421 0.3681661286558337 0 -0.24329038266145239 0.36134909741814653 0 -0.23054114355980421 0.3681661286558337 0 -0.23305195790672301 0.35812934693154008 0 -0.24329038266145239 0.36134909741814653 0 -0.23582541811145999 0.32679902143390172 0 -0.24885494741763489 0.31718848033418301 0 -0.23189508169276829 0.30076725351495531 0 -0.23582541811145999 0.32679902143390172 0 -0.24885494741763489 0.31718848033418301 0 -0.24633099797708269 0.32737693631841108 0 -0.25451497659773847 0.32559442806853028 0 -0.24885494741763489 0.31718848033418301 0 -0.24633099797708269 0.32737693631841108 0 -0.24843663428782739 0.33758714710907461 0 -0.22129300011358269 0.33481371145693772 0 -0.25451497659773847 0.32559442806853028 0 -0.24633099797708269 0.32737693631841108 0 -0.24843663428782739 0.33758714710907461 0 -0.25910260253645218 0.33523110656146687 0 -0.23915963598069589 0.34607775607121571 0 -0.23582541811145999 0.32679902143390172 0 -0.24633099797708269 0.32737693631841108 0 -0.24843663428782739 0.33758714710907461 0 -0.25910260253645218 0.33523110656146687 0 -0.23915963598069589 0.34607775607121571 0 -0.24843663428782739 0.33758714710907461 0 -0.23582541811145999 0.32679902143390172 0 -0.24843663428782739 0.33758714710907461 0 -0.22129300011358269 0.33481371145693772 0 -0.23915963598069589 0.34607775607121571 0 -0.24843663428782739 0.33758714710907461 0 -0.22129300011358269 0.33481371145693772 0 -0.22158808080033929 0.34557455345049992 0 -0.23915963598069589 0.34607775607121571 0 -0.22129300011358269 0.33481371145693772 0 -0.23582541811145999 0.32679902143390172 0 -0.21954464392232159 0.31820766509236142 0 -0.23189508169276829 0.30076725351495531 0 -0.23582541811145999 0.32679902143390172 0 -0.22129300011358269 0.33481371145693772 0 -0.21954464392232159 0.31820766509236142 0 -0.21954464392232159 0.31820766509236142 0 -0.20492818889453221 0.32276220977772679 0 -0.20060783596013981 0.3076349397264902 0 -0.22129300011358269 0.33481371145693772 0 -0.21954464392232159 0.31820766509236142 0 -0.20492818889453221 0.32276220977772679 0 -0.22129300011358269 0.33481371145693772 0 -0.20492818889453221 0.32276220977772679 0 -0.19386790912735871 0.33176087567547108 0 -0.22129300011358269 0.33481371145693772 0 -0.19386790912735871 0.33176087567547108 0 -0.20668301768213909 0.34448234069288158 0 -0.22129300011358269 0.33481371145693772 0 -0.19386790912735871 0.33176087567547108 0 -0.20668301768213909 0.34448234069288158 0 -0.22158808080033929 0.34557455345049992 0 -0.22129300011358269 0.33481371145693772 0 -0.20668301768213909 0.34448234069288158 0 -0.19386790912735871 0.33176087567547108 0 -0.19258948339875709 0.33633707034479371 0 -0.20668301768213909 0.34448234069288158 0 -0.19386790912735871 0.33176087567547108 0 -0.1951678646333711 0.34883535218340811 0 -0.20668301768213909 0.34448234069288158 0 -0.19258948339875709 0.33633707034479371 0 -0.18096143664194889 0.33069278220625808 0 -0.19386790912735871 0.33176087567547108 0 -0.19258948339875709 0.33633707034479371 0 -0.19386790912735871 0.33176087567547108 0 -0.19258948339875709 0.33633707034479371 0 -0.18077272512400111 0.31876138179813301 0 -0.19386790912735871 0.33176087567547108 0 -0.20060783596013981 0.3076349397264902 0 -0.20492818889453221 0.32276220977772679 0 -0.19386790912735871 0.33176087567547108 0 -0.20060783596013981 0.3076349397264902 0 -0.19386790912735871 0.33176087567547108 0 -0.20060783596013981 0.3076349397264902 0 -0.20060783596013981 0.3076349397264902 0 -0.20734776279292019 0.28350900377750898 0 -0.23189508169276829 0.30076725351495531 0 -0.21954464392232159 0.31820766509236142 0 -0.20060783596013981 0.3076349397264902 0 -0.23189508169276829 0.30076725351495531 0 -0.20060783596013981 0.3076349397264902 0 -0.20734776279292019 0.28350900377750898 0 -0.18034630435624241 0.29180066960649809 0 -0.20734776279292019 0.28350900377750898 0 -0.19375927737912041 0.2730469699042487 0 -0.18034630435624241 0.29180066960649809 0 -0.20060783596013981 0.3076349397264902 0 -0.20734776279292019 0.28350900377750898 0 -0.20734776279292019 0.28350900377750898 0 -0.23189508169276829 0.30076725351495531 0 -0.22396762922540969 0.27514125130055722 0 -0.23189508169276829 0.30076725351495531 0 -0.2378434694439332 0.28391349183279069 0 -0.22396762922540969 0.27514125130055722 0 -0.25673188405007052 0.28646841290673969 0 -0.23189508169276829 0.30076725351495531 0 -0.2378434694439332 0.28391349183279069 0 -0.25673188405007052 0.28646841290673969 0 -0.23189508169276829 0.30076725351495531 0 -0.25505401324638421 0.30366623925853881 0 -0.25673188405007052 0.28646841290673969 0 -0.23189508169276829 0.30076725351495531 0 -0.25505401324638421 0.30366623925853881 0 -0.24885494741763489 0.31718848033418301 0 -0.23189508169276829 0.30076725351495531 0 -0.25265925142613249 0.26128234508680298 0 -0.23885305679183191 0.2684477152547543 0 -0.23951274761537589 0.2474853768326048 0 -0.23885305679183191 0.2684477152547543 0 -0.22811192938500721 0.25829645972706228 0 -0.23951274761537589 0.2474853768326048 0 -0.25621817608628389 0.2460965770837312 0 -0.25265925142613249 0.26128234508680298 0 -0.23951274761537589 0.2474853768326048 0 -0.25673188405007052 0.28646841290673969 0 -0.2378434694439332 0.28391349183279069 0 -0.23885305679183191 0.2684477152547543 0 -0.25265925142613249 0.26128234508680298 0 -0.25673188405007052 0.28646841290673969 0 -0.23885305679183191 0.2684477152547543 0 -0.23885305679183191 0.2684477152547543 0 -0.22396762922540969 0.27514125130055722 0 -0.22811192938500721 0.25829645972706228 0 -0.2378434694439332 0.28391349183279069 0 -0.23885305679183191 0.2684477152547543 0 -0.22396762922540969 0.27514125130055722 0 -0.22811192938500721 0.25829645972706228 0 -0.22371849106378741 0.2462845034026982 0 -0.23951274761537589 0.2474853768326048 0 -0.22396762922540969 0.27514125130055722 0 -0.22811192938500721 0.25829645972706228 0 -0.21408768962570049 0.25938306782852782 0 -0.22811192938500721 0.25829645972706228 0 -0.21408768962570049 0.25938306782852782 0 -0.22371849106378741 0.2462845034026982 0 -0.21408768962570049 0.25938306782852782 0 -0.19928355658839081 0.25766712263582692 0 -0.2066863838603582 0.24242880758937649 0 -0.21408768962570049 0.25938306782852782 0 -0.20163280817849061 0.26608937016207479 0 -0.19928355658839081 0.25766712263582692 0 -0.20734776279292019 0.28350900377750898 0 -0.21408768962570049 0.25938306782852782 0 -0.20734776279292019 0.28350900377750898 0 -0.22396762922540969 0.27514125130055722 0 -0.21408768962570049 0.25938306782852782 0 -0.20734776279292019 0.28350900377750898 0 -0.21408768962570049 0.25938306782852782 0 -0.20163280817849061 0.26608937016207479 0 -0.20734776279292019 0.28350900377750898 0 -0.20163280817849061 0.26608937016207479 0 -0.19375927737912041 0.2730469699042487 0 -0.20163280817849061 0.26608937016207479 0 -0.19375927737912041 0.2730469699042487 0 -0.19160269433399771 0.26436194023610149 0 -0.19375927737912041 0.2730469699042487 0 -0.19160269433399771 0.26436194023610149 0 -0.17991988358848049 0.26483995741486333 0 -0.19928355658839081 0.25766712263582692 0 -0.18259587964237009 0.2606558300825601 0 -0.2066863838603582 0.24242880758937649 0 -0.18259587964237009 0.2606558300825601 0 -0.19333963139412971 0.24385714112684301 0 -0.19928355658839081 0.25766712263582692 0 -0.19160269433399771 0.26436194023610149 0 -0.18259587964237009 0.2606558300825601 0 -0.18259587964237009 0.2606558300825601 0 -0.2066863838603582 0.24242880758937649 0 -0.20163280817849061 0.26608937016207479 0 -0.19928355658839081 0.25766712263582692 0 -0.19160269433399771 0.26436194023610149 0 -0.17991988358848049 0.26483995741486333 0 -0.17951502337729761 0.2392424245160312 0 -0.17991988358848049 0.26483995741486333 0 -0.17042143569771079 0.26099360542817968 0 -0.17951502337729761 0.2392424245160312 0 -0.18259587964237009 0.2606558300825601 0 -0.17991988358848049 0.26483995741486333 0 -0.17951502337729761 0.2392424245160312 0 -0.19160269433399771 0.26436194023610149 0 -0.18259587964237009 0.2606558300825601 0 -0.17991988358848049 0.26483995741486333 0 -0.18259587964237009 0.2606558300825601 0 -0.17991988358848049 0.26483995741486333 0 -0.17991988358848049 0.26483995741486333 0 -0.17042143569771079 0.26099360542817968 0 -0.17716480609589361 0.26914773470870201 0 -0.17042143569771079 0.26099360542817968 0 -0.1627301728603629 0.26968240911070368 0 -0.1532221513837192 0.25419418888983192 0 -0.17042143569771079 0.26099360542817968 0 -0.1532221513837192 0.25419418888983192 0 -0.17951502337729761 0.2392424245160312 0 -0.1627301728603629 0.26968240911070368 0 -0.1620479085915319 0.28265904931380531 0 -0.15271877240598841 0.27446820953958367 0 -0.17042143569771079 0.26099360542817968 0 -0.1627301728603629 0.26968240911070368 0 -0.1699765768805111 0.26885491792894611 0 -0.1627301728603629 0.26968240911070368 0 -0.1699765768805111 0.26885491792894611 0 -0.16860704672851359 0.27535934789532951 0 -0.1627301728603629 0.26968240911070368 0 -0.16860704672851359 0.27535934789532951 0 -0.1620479085915319 0.28265904931380531 0 -0.16860704672851359 0.27535934789532951 0 -0.17077339862397739 0.28423195702734899 0 -0.1620479085915319 0.28265904931380531 0 -0.17991988358848049 0.26483995741486333 0 -0.18034630435624241 0.29180066960649809 0 -0.17991988358848049 0.26483995741486333 0 -0.17716480609589361 0.26914773470870201 0 -0.18034630435624241 0.29180066960649809 0 -0.16860704672851359 0.27535934789532951 0 -0.17716480609589361 0.26914773470870201 0 -0.17077339862397739 0.28423195702734899 0 -0.19375927737912041 0.2730469699042487 0 -0.17991988358848049 0.26483995741486333 0 -0.18034630435624241 0.29180066960649809 0 -0.17042143569771079 0.26099360542817968 0 -0.1699765768805111 0.26885491792894611 0 -0.17716480609589361 0.26914773470870201 0 -0.1699765768805111 0.26885491792894611 0 -0.16860704672851359 0.27535934789532951 0 -0.17716480609589361 0.26914773470870201 0 -0.17991988358848049 0.26483995741486333 0 -0.17716480609589361 0.26914773470870201 0 -0.17716480609589361 0.26914773470870201 0 -0.18034630435624241 0.29180066960649809 0 -0.17077339862397739 0.28423195702734899 0 -0.18034630435624241 0.29180066960649809 0 -0.16501618616712291 0.29775164083812761 0 -0.17077339862397739 0.28423195702734899 0 -0.18077272512400111 0.31876138179813301 0 -0.18034630435624241 0.29180066960649809 0 -0.18077272512400111 0.31876138179813301 0 -0.18034630435624241 0.29180066960649809 0 -0.17285953122972289 0.31090601179704258 0 -0.18034630435624241 0.29180066960649809 0 -0.17285953122972289 0.31090601179704258 0 -0.16501618616712291 0.29775164083812761 0 -0.18077272512400111 0.31876138179813301 0 -0.20060783596013981 0.3076349397264902 0 -0.18034630435624241 0.29180066960649809 0 -0.16501618616712291 0.29775164083812761 0 -0.15329008091572741 0.28945008379417048 0 -0.1547819877644892 0.3091453549012102 0 -0.17285953122972289 0.31090601179704258 0 -0.16501618616712291 0.29775164083812761 0 -0.1638395481514221 0.30983277085387728 0 -0.16501618616712291 0.29775164083812761 0 -0.1638395481514221 0.30983277085387728 0 -0.1547819877644892 0.3091453549012102 0 -0.15943794807189979 0.31595908059817063 0 -0.1638395481514221 0.30983277085387728 0 -0.1547819877644892 0.3091453549012102 0 -0.16501618616712291 0.29775164083812761 0 -0.17077339862397739 0.28423195702734899 0 -0.1620479085915319 0.28265904931380531 0 -0.16501618616712291 0.29775164083812761 0 -0.1620479085915319 0.28265904931380531 0 -0.15329008091572741 0.28945008379417048 0 -0.1464174014568787 0.29836992735667278 0 -0.13959432766143021 0.2740409068552887 0 -0.1620479085915319 0.28265904931380531 0 -0.15329008091572741 0.28945008379417048 0 -0.15271877240598841 0.27446820953958367 0 -0.15329008091572741 0.28945008379417048 0 -0.1464174014568787 0.29836992735667278 0 -0.13959432766143021 0.2740409068552887 0 -0.15329008091572741 0.28945008379417048 0 -0.1464174014568787 0.29836992735667278 0 -0.1547819877644892 0.3091453549012102 0 -0.1532404752523272 0.32269894785805692 0 -0.1464174014568787 0.29836992735667278 0 -0.1360408951285694 0.3130357752318072 0 -0.14290423209994971 0.32095809222069871 0 -0.1464174014568787 0.29836992735667278 0 -0.1532404752523272 0.32269894785805692 0 -0.1464174014568787 0.29836992735667278 0 -0.1547819877644892 0.3091453549012102 0 -0.1360408951285694 0.3130357752318072 0 -0.1264253840414637 0.29528772621663357 0 -0.12136448477009221 0.30951812845445109 0 -0.1360408951285694 0.3130357752318072 0 -0.1464174014568787 0.29836992735667278 0 -0.1264253840414637 0.29528772621663357 0 -0.1464174014568787 0.29836992735667278 0 -0.1264253840414637 0.29528772621663357 0 -0.13959432766143021 0.2740409068552887 0 -0.1264253840414637 0.29528772621663357 0 -0.13959432766143021 0.2740409068552887 0 -0.1185373796182298 0.27837978510360878 0 -0.13959432766143021 0.2740409068552887 0 -0.1327712538659816 0.24971188635390451 0 -0.13959432766143021 0.2740409068552887 0 -0.116744543106582 0.25728181003509248 0 -0.1327712538659816 0.24971188635390451 0 -0.13959432766143021 0.2740409068552887 0 -0.1532221513837192 0.25419418888983192 0 -0.1327712538659816 0.24971188635390451 0 -0.1627301728603629 0.26968240911070368 0 -0.1532221513837192 0.25419418888983192 0 -0.15271877240598841 0.27446820953958367 0 -0.13959432766143021 0.2740409068552887 0 -0.1532221513837192 0.25419418888983192 0 -0.15271877240598841 0.27446820953958367 0 -0.15329008091572741 0.28945008379417048 0 -0.13959432766143021 0.2740409068552887 0 -0.15271877240598841 0.27446820953958367 0 -0.1061606963602142 0.26761343855331338 0 -0.1001789302111205 0.27974269320078388 0 -0.1185373796182298 0.27837978510360878 0 -0.1061606963602142 0.26761343855331338 0 -0.1001789302111205 0.27974269320078388 0 -0.092613028744971265 0.26767711662392979 0 -0.1061606963602142 0.26761343855331338 0 -0.10005120432924321 0.25626016583208688 0 -0.116744543106582 0.25728181003509248 0 -0.1061606963602142 0.26761343855331338 0 -0.10005120432924321 0.25626016583208688 0 -0.092613028744971265 0.26767711662392979 0 -0.10005120432924321 0.25626016583208688 0 -0.116744543106582 0.25728181003509248 0 -0.1045487088169635 0.24438495162540061 0 -0.13959432766143021 0.2740409068552887 0 -0.116744543106582 0.25728181003509248 0 -0.1185373796182298 0.27837978510360878 0 -0.1061606963602142 0.26761343855331338 0 -0.116744543106582 0.25728181003509248 0 -0.1185373796182298 0.27837978510360878 0 -0.1264253840414637 0.29528772621663357 0 -0.1127724140037699 0.30190213115774378 0 -0.1091517300735869 0.29135078386346752 0 -0.1264253840414637 0.29528772621663357 0 -0.1185373796182298 0.27837978510360878 0 -0.1091517300735869 0.29135078386346752 0 -0.1264253840414637 0.29528772621663357 0 -0.12136448477009221 0.30951812845445109 0 -0.1127724140037699 0.30190213115774378 0 -0.12136448477009221 0.30951812845445109 0 -0.1127724140037699 0.30190213115774378 0 -0.1061991548417472 0.31213959050036899 0 -0.1127724140037699 0.30190213115774378 0 -0.1061991548417472 0.31213959050036899 0 -0.1005146973405663 0.30141191014932889 0 -0.1127724140037699 0.30190213115774378 0 -0.1005146973405663 0.30141191014932889 0 -0.1091517300735869 0.29135078386346752 0 -0.1005146973405663 0.30141191014932889 0 -0.094430836728355921 0.29177030977787999 0 -0.089068024122243669 0.30112896568664949 0 -0.1061991548417472 0.31213959050036899 0 -0.1005146973405663 0.30141191014932889 0 -0.090928135519314904 0.31087631578889069 0 -0.1001789302111205 0.27974269320078388 0 -0.1185373796182298 0.27837978510360878 0 -0.1091517300735869 0.29135078386346752 0 -0.1005146973405663 0.30141191014932889 0 -0.1091517300735869 0.29135078386346752 0 -0.094430836728355921 0.29177030977787999 0 -0.1001789302111205 0.27974269320078388 0 -0.1091517300735869 0.29135078386346752 0 -0.094430836728355921 0.29177030977787999 0 -0.1001789302111205 0.27974269320078388 0 -0.094430836728355921 0.29177030977787999 0 -0.086145563619835275 0.2816538088019015 0 -0.094430836728355921 0.29177030977787999 0 -0.086145563619835275 0.2816538088019015 0 -0.081526075002782958 0.29533369696514911 0 -0.094430836728355921 0.29177030977787999 0 -0.081526075002782958 0.29533369696514911 0 -0.089068024122243669 0.30112896568664949 0 -0.086145563619835275 0.2816538088019015 0 -0.081526075002782958 0.29533369696514911 0 -0.070830210313899522 0.29195808219782299 0 -0.090928135519314904 0.31087631578889069 0 -0.079482369404140468 0.30560554845979909 0 -0.074915307566508993 0.31649039264194578 0 -0.090928135519314904 0.31087631578889069 0 -0.089068024122243669 0.30112896568664949 0 -0.079482369404140468 0.30560554845979909 0 -0.1005146973405663 0.30141191014932889 0 -0.090928135519314904 0.31087631578889069 0 -0.089068024122243669 0.30112896568664949 0 -0.081526075002782958 0.29533369696514911 0 -0.089068024122243669 0.30112896568664949 0 -0.079482369404140468 0.30560554845979909 0 -0.054647974243728172 0.30430181459310768 0 -0.074915307566508993 0.31649039264194578 0 -0.079482369404140468 0.30560554845979909 0 -0.068661557073843291 0.3005821027458685 0 -0.074915307566508993 0.31649039264194578 0 -0.068661557073843291 0.3005821027458685 0 -0.054647974243728172 0.30430181459310768 0 -0.074915307566508993 0.31649039264194578 0 -0.081526075002782958 0.29533369696514911 0 -0.079482369404140468 0.30560554845979909 0 -0.068661557073843291 0.3005821027458685 0 -0.070830210313899522 0.29195808219782299 0 -0.067453711470644842 0.27023673344429472 0 -0.052574645638654917 0.28480468584225688 0 -0.081526075002782958 0.29533369696514911 0 -0.068661557073843291 0.3005821027458685 0 -0.070830210313899522 0.29195808219782299 0 -0.068661557073843291 0.3005821027458685 0 -0.070830210313899522 0.29195808219782299 0 -0.068661557073843291 0.3005821027458685 0 -0.070830210313899522 0.29195808219782299 0 -0.059610011597539182 0.29372125904316332 0 -0.086145563619835275 0.2816538088019015 0 -0.070830210313899522 0.29195808219782299 0 -0.077256670317037021 0.26667642926106078 0 -0.070830210313899522 0.29195808219782299 0 -0.067453711470644842 0.27023673344429472 0 -0.070830210313899522 0.29195808219782299 0 -0.077256670317037021 0.26667642926106078 0 -0.070830210313899522 0.29195808219782299 0 -0.067453711470644842 0.27023673344429472 0 -0.077256670317037021 0.26667642926106078 0 -0.086145563619835275 0.2816538088019015 0 -0.077256670317037021 0.26667642926106078 0 -0.092613028744971265 0.26767711662392979 0 -0.1001789302111205 0.27974269320078388 0 -0.086145563619835275 0.2816538088019015 0 -0.092613028744971265 0.26767711662392979 0 -0.077256670317037021 0.26667642926106078 0 -0.086302411784292182 0.25447467192259482 0 -0.083666647235009842 0.24139059785004849 0 -0.077256670317037021 0.26667642926106078 0 -0.083666647235009842 0.24139059785004849 0 -0.10005120432924321 0.25626016583208688 0 -0.086302411784292182 0.25447467192259482 0 -0.094679029848152713 0.24609146959404629 0 -0.10005120432924321 0.25626016583208688 0 -0.092613028744971265 0.26767711662392979 0 -0.086302411784292182 0.25447467192259482 0 -0.077256670317037021 0.26667642926106078 0 -0.092613028744971265 0.26767711662392979 0 -0.086302411784292182 0.25447467192259482 0 -0.077256670317037021 0.26667642926106078 0 -0.064077212627390134 0.24851538469076631 0 -0.083666647235009842 0.24139059785004849 0 -0.067453711470644842 0.27023673344429472 0 -0.077256670317037021 0.26667642926106078 0 -0.064077212627390134 0.24851538469076631 0 -0.067453711470644842 0.27023673344429472 0 -0.064077212627390134 0.24851538469076631 0 -0.067453711470644842 0.27023673344429472 0 -0.04634179854296408 0.26632715615711849 0 -0.064077212627390134 0.24851538469076631 0 -0.04634179854296408 0.26632715615711849 0 -0.064077212627390134 0.24851538469076631 0 -0.046578861792199937 0.24361118962503389 0 -0.067453711470644842 0.27023673344429472 0 -0.04634179854296408 0.26632715615711849 0 -0.052574645638654917 0.28480468584225688 0 -0.04634179854296408 0.26632715615711849 0 -0.034380640920947357 0.29211323654426968 0 -0.052574645638654917 0.28480468584225688 0 -0.04634179854296408 0.26632715615711849 0 -0.022607631921228569 0.27169805167723737 0 -0.034380640920947357 0.29211323654426968 0 -0.04634179854296408 0.26632715615711849 0 -0.03068766995985707 0.25286978792993342 0 -0.022607631921228569 0.27169805167723737 0 -0.04634179854296408 0.26632715615711849 0 -0.03068766995985707 0.25286978792993342 0 -0.046578861792199937 0.24361118962503389 0 -0.03068766995985707 0.25286978792993342 0 -0.022607631921228569 0.27169805167723737 0 -0.0098044441781452579 0.25473951632571468 0 -0.022607631921228569 0.27169805167723737 0 -0.015153941911089409 0.29208252597919021 0 3.3590645499582607e-05 0.27236849017123349 0 -0.022607631921228569 0.27169805167723737 0 -0.0098044441781452579 0.25473951632571468 0 3.3590645499582607e-05 0.27236849017123349 0 -0.0098044441781452579 0.25473951632571468 0 0.0073806355134042019 0.25529449578482938 0 3.3590645499582607e-05 0.27236849017123349 0 -0.0088759444352828343 0.31092800175718183 0 -0.015153941911089409 0.29208252597919021 0 0.0083336089875100904 0.29343585490586271 0 -0.015153941911089409 0.29208252597919021 0 0.0083336089875100904 0.29343585490586271 0 3.3590645499582607e-05 0.27236849017123349 0 -0.022607631921228569 0.27169805167723737 0 -0.015153941911089409 0.29208252597919021 0 -0.034380640920947357 0.29211323654426968 0 -0.0088759444352828343 0.31092800175718183 0 -0.015153941911089409 0.29208252597919021 0 -0.03508050583840458 0.3127012881250415 0 -0.015153941911089409 0.29208252597919021 0 -0.034380640920947357 0.29211323654426968 0 -0.03508050583840458 0.3127012881250415 0 -0.034380640920947357 0.29211323654426968 0 -0.054647974243728172 0.30430181459310768 0 -0.034380640920947357 0.29211323654426968 0 -0.054647974243728172 0.30430181459310768 0 -0.03508050583840458 0.3127012881250415 0 -0.034380640920947357 0.29211323654426968 0 -0.052574645638654917 0.28480468584225688 0 -0.054647974243728172 0.30430181459310768 0 -0.052574645638654917 0.28480468584225688 0 -0.059610011597539182 0.29372125904316332 0 -0.054647974243728172 0.30430181459310768 0 -0.070830210313899522 0.29195808219782299 0 -0.052574645638654917 0.28480468584225688 0 -0.059610011597539182 0.29372125904316332 0 -0.068661557073843291 0.3005821027458685 0 -0.059610011597539182 0.29372125904316332 0 -0.054647974243728172 0.30430181459310768 0 -0.058679851530075752 0.32054224196392622 0 -0.045885169747561752 0.33132665820789581 0 -0.073191842414501496 0.33174208285196288 0 -0.054647974243728172 0.30430181459310768 0 -0.058679851530075752 0.32054224196392622 0 -0.03508050583840458 0.3127012881250415 0 -0.045885169747561752 0.33132665820789581 0 -0.067541502003893042 0.3482616942848048 0 -0.073191842414501496 0.33174208285196288 0 -0.045885169747561752 0.33132665820789581 0 -0.073191842414501496 0.33174208285196288 0 -0.045885169747561752 0.33132665820789581 0 -0.018578497080621779 0.33091123356382868 0 -0.045885169747561752 0.33132665820789581 0 -0.03508050583840458 0.3127012881250415 0 -0.018578497080621779 0.33091123356382868 0 -0.058679851530075752 0.32054224196392622 0 -0.045885169747561752 0.33132665820789581 0 -0.03508050583840458 0.3127012881250415 0 -0.0088759444352828343 0.31092800175718183 0 -0.03508050583840458 0.3127012881250415 0 -0.018578497080621779 0.33091123356382868 0 -0.018578497080621779 0.33091123356382868 0 -0.0050552824635438226 0.34569829691311771 0 -0.02749858990914332 0.35301881799134821 0 -0.045885169747561752 0.33132665820789581 0 -0.018578497080621779 0.33091123356382868 0 -0.02749858990914332 0.35301881799134821 0 -0.018578497080621779 0.33091123356382868 0 -0.0050552824635438226 0.34569829691311771 0 0.0064742168078369342 0.3347740657525386 0 -0.018578497080621779 0.33091123356382868 0 0.0087281755863181168 0.33049580891976171 0 -0.018578497080621779 0.33091123356382868 0 0.0064742168078369342 0.3347740657525386 0 0.0087281755863181168 0.33049580891976171 0 -0.018578497080621779 0.33091123356382868 0 -0.003280447873963227 0.32161399115684158 0 0.0087281755863181168 0.33049580891976171 0 -0.0088759444352828343 0.31092800175718183 0 -0.018578497080621779 0.33091123356382868 0 -0.003280447873963227 0.32161399115684158 0 -0.0088759444352828343 0.31092800175718183 0 -0.003280447873963227 0.32161399115684158 0 0.0056044744337335906 0.31412092038659428 0 -0.0052616759920083916 0.36132776784546622 0 -0.0045342830833226501 0.3863935686212247 0 -0.0052616759920083916 0.36132776784546622 0 -0.024169526760701381 0.37267007813580277 0 -0.0045342830833226501 0.3863935686212247 0 -0.0052616759920083916 0.36132776784546622 0 -0.0045342830833226501 0.3863935686212247 0 0.0079023355216259559 0.37348921158265391 0 -0.0052616759920083916 0.36132776784546622 0 -0.0050552824635438226 0.34569829691311771 0 0.0061318462344260851 0.35417601161121459 0 -0.0052616759920083916 0.36132776784546622 0 -0.0050552824635438226 0.34569829691311771 0 -0.02749858990914332 0.35301881799134821 0 -0.02749858990914332 0.35301881799134821 0 -0.024169526760701381 0.37267007813580277 0 -0.04149310004589906 0.37124785083274592 0 -0.0052616759920083916 0.36132776784546622 0 -0.02749858990914332 0.35301881799134821 0 -0.024169526760701381 0.37267007813580277 0 -0.02749858990914332 0.35301881799134821 0 -0.04149310004589906 0.37124785083274592 0 -0.051818441616049399 0.35735321764765782 0 -0.045885169747561752 0.33132665820789581 0 -0.02749858990914332 0.35301881799134821 0 -0.051818441616049399 0.35735321764765782 0 -0.045885169747561752 0.33132665820789581 0 -0.051818441616049399 0.35735321764765782 0 -0.067541502003893042 0.3482616942848048 0 -0.04149310004589906 0.37124785083274592 0 -0.051818441616049399 0.35735321764765782 0 -0.056875823715872062 0.37631267096962301 0 -0.051818441616049399 0.35735321764765782 0 -0.069616273344600341 0.3650636543096733 0 -0.056875823715872062 0.37631267096962301 0 -0.069616273344600341 0.3650636543096733 0 -0.085055645225370236 0.37193713089684588 0 -0.071788917171084016 0.3809272333041443 0 -0.069616273344600341 0.3650636543096733 0 -0.071788917171084016 0.3809272333041443 0 -0.056875823715872062 0.37631267096962301 0 -0.069616273344600341 0.3650636543096733 0 -0.085055645225370236 0.37193713089684588 0 -0.084100884505446297 0.3554636863979832 0 -0.085055645225370236 0.37193713089684588 0 -0.084100884505446297 0.3554636863979832 0 -0.1008292236537022 0.36036332390371462 0 -0.084100884505446297 0.3554636863979832 0 -0.067541502003893042 0.3482616942848048 0 -0.085709514220790303 0.34113927750747819 0 -0.084100884505446297 0.3554636863979832 0 -0.085709514220790303 0.34113927750747819 0 -0.099722393067727538 0.34687368244968458 0 -0.069616273344600341 0.3650636543096733 0 -0.084100884505446297 0.3554636863979832 0 -0.067541502003893042 0.3482616942848048 0 -0.051818441616049399 0.35735321764765782 0 -0.069616273344600341 0.3650636543096733 0 -0.067541502003893042 0.3482616942848048 0 -0.067541502003893042 0.3482616942848048 0 -0.073191842414501496 0.33174208285196288 0 -0.085709514220790303 0.34113927750747819 0 -0.058679851530075752 0.32054224196392622 0 -0.073191842414501496 0.33174208285196288 0 -0.074915307566508993 0.31649039264194578 0 -0.054647974243728172 0.30430181459310768 0 -0.058679851530075752 0.32054224196392622 0 -0.074915307566508993 0.31649039264194578 0 -0.073191842414501496 0.33174208285196288 0 -0.074915307566508993 0.31649039264194578 0 -0.095182640889289766 0.32867897069078372 0 -0.090928135519314904 0.31087631578889069 0 -0.074915307566508993 0.31649039264194578 0 -0.095182640889289766 0.32867897069078372 0 -0.074915307566508993 0.31649039264194578 0 -0.095182640889289766 0.32867897069078372 0 -0.073191842414501496 0.33174208285196288 0 -0.085709514220790303 0.34113927750747819 0 -0.095182640889289766 0.32867897069078372 0 -0.085709514220790303 0.34113927750747819 0 -0.095182640889289766 0.32867897069078372 0 -0.099722393067727538 0.34687368244968458 0 -0.095182640889289766 0.32867897069078372 0 -0.1154499742120704 0.34086754873962172 0 -0.095182640889289766 0.32867897069078372 0 -0.1098512680755149 0.32470257897991811 0 -0.1154499742120704 0.34086754873962172 0 -0.095182640889289766 0.32867897069078372 0 -0.1154499742120704 0.34086754873962172 0 -0.099722393067727538 0.34687368244968458 0 -0.1061991548417472 0.31213959050036899 0 -0.090928135519314904 0.31087631578889069 0 -0.095182640889289766 0.32867897069078372 0 -0.1061991548417472 0.31213959050036899 0 -0.095182640889289766 0.32867897069078372 0 -0.1098512680755149 0.32470257897991811 0 -0.1061991548417472 0.31213959050036899 0 -0.115330384384618 0.31728312261503783 0 -0.1098512680755149 0.32470257897991811 0 -0.12136448477009221 0.30951812845445109 0 -0.1061991548417472 0.31213959050036899 0 -0.115330384384618 0.31728312261503783 0 -0.115330384384618 0.31728312261503783 0 -0.1098512680755149 0.32470257897991811 0 -0.12142985306419619 0.32461006626398298 0 -0.12722248981549561 0.3181430308760943 0 -0.115330384384618 0.31728312261503783 0 -0.12142985306419619 0.32461006626398298 0 -0.12722248981549561 0.3181430308760943 0 -0.12136448477009221 0.30951812845445109 0 -0.115330384384618 0.31728312261503783 0 -0.1098512680755149 0.32470257897991811 0 -0.12142985306419619 0.32461006626398298 0 -0.1154499742120704 0.34086754873962172 0 -0.13363790056006589 0.32585743918209531 0 -0.12142985306419619 0.32461006626398298 0 -0.1154499742120704 0.34086754873962172 0 -0.12523428666698541 0.37069662222368049 0 -0.1294360936135257 0.3482770307028879 0 -0.1154159689866658 0.35521970897278921 0 -0.1154499742120704 0.34086754873962172 0 -0.1154159689866658 0.35521970897278921 0 -0.099722393067727538 0.34687368244968458 0 -0.1294360936135257 0.3482770307028879 0 -0.1154499742120704 0.34086754873962172 0 -0.1154159689866658 0.35521970897278921 0 -0.12523428666698541 0.37069662222368049 0 -0.1154159689866658 0.35521970897278921 0 -0.11117961403065831 0.36839673047223442 0 -0.12523428666698541 0.37069662222368049 0 -0.11117961403065831 0.36839673047223442 0 -0.1123930043347208 0.38073562172137532 0 -0.11117961403065831 0.36839673047223442 0 -0.1008292236537022 0.36036332390371462 0 -0.09970079949094271 0.37763208900548878 0 -0.1154159689866658 0.35521970897278921 0 -0.11117961403065831 0.36839673047223442 0 -0.1008292236537022 0.36036332390371462 0 -0.085055645225370236 0.37193713089684588 0 -0.1008292236537022 0.36036332390371462 0 -0.09970079949094271 0.37763208900548878 0 -0.084100884505446297 0.3554636863979832 0 -0.1008292236537022 0.36036332390371462 0 -0.099722393067727538 0.34687368244968458 0 -0.1154159689866658 0.35521970897278921 0 -0.1008292236537022 0.36036332390371462 0 -0.099722393067727538 0.34687368244968458 0 -0.1036554482544351 0.39516830989393792 0 -0.1102807352191843 0.41378788895710661 0 -0.09259379641793411 0.40948313349934218 0 -0.1036554482544351 0.39516830989393792 0 -0.09970079949094271 0.37763208900548878 0 -0.1123930043347208 0.38073562172137532 0 -0.1036554482544351 0.39516830989393792 0 -0.09970079949094271 0.37763208900548878 0 -0.084297773186445962 0.39217279846007119 0 -0.11117961403065831 0.36839673047223442 0 -0.09970079949094271 0.37763208900548878 0 -0.1123930043347208 0.38073562172137532 0 -0.12523428666698541 0.37069662222368049 0 -0.1123930043347208 0.38073562172137532 0 -0.12103247972044499 0.39311621374447298 0 -0.1036554482544351 0.39516830989393792 0 -0.1123930043347208 0.38073562172137532 0 -0.12103247972044499 0.39311621374447298 0 -0.12523428666698541 0.37069662222368049 0 -0.12103247972044499 0.39311621374447298 0 -0.1036554482544351 0.39516830989393792 0 -0.12103247972044499 0.39311621374447298 0 -0.1102807352191843 0.41378788895710661 0 -0.12997925716256209 0.39431640422262348 0 -0.1102807352191843 0.41378788895710661 0 -0.12997925716256209 0.39431640422262348 0 -0.12103247972044499 0.39311621374447298 0 -0.1102807352191843 0.41378788895710661 0 -0.12623023605756489 0.41143854881348008 0 -0.1102807352191843 0.41378788895710661 0 -0.1242188050129694 0.42501783294758849 0 -0.12623023605756489 0.41143854881348008 0 -0.12997925716256209 0.39431640422262348 0 -0.1102807352191843 0.41378788895710661 0 -0.1102807352191843 0.41378788895710661 0 -0.1104760497445479 0.43296770510105842 0 -0.1242188050129694 0.42501783294758849 0 -0.1104760497445479 0.43296770510105842 0 -0.1242188050129694 0.42501783294758849 0 -0.1248743097581413 0.44162978393037222 0 -0.1102807352191843 0.41378788895710661 0 -0.090582213275806372 0.43325937369158968 0 -0.1102807352191843 0.41378788895710661 0 -0.1104760497445479 0.43296770510105842 0 -0.090582213275806372 0.43325937369158968 0 -0.1102807352191843 0.41378788895710661 0 -0.09259379641793411 0.40948313349934218 0 -0.090582213275806372 0.43325937369158968 0 -0.09259379641793411 0.40948313349934218 0 -0.090582213275806372 0.43325937369158968 0 -0.074152812153798875 0.41302729649400538 0 -0.090582213275806372 0.43325937369158968 0 -0.066022972602334681 0.42956105407568013 0 -0.074152812153798875 0.41302729649400538 0 -0.066022972602334681 0.42956105407568013 0 -0.074152812153798875 0.41302729649400538 0 -0.049329429094603867 0.41198700835812702 0 -0.074152812153798875 0.41302729649400538 0 -0.063154715464804681 0.39516467689365731 0 -0.084297773186445962 0.39217279846007119 0 -0.09259379641793411 0.40948313349934218 0 -0.074152812153798875 0.41302729649400538 0 -0.084297773186445962 0.39217279846007119 0 -0.1036554482544351 0.39516830989393792 0 -0.09259379641793411 0.40948313349934218 0 -0.084297773186445962 0.39217279846007119 0 -0.085055645225370236 0.37193713089684588 0 -0.09970079949094271 0.37763208900548878 0 -0.084297773186445962 0.39217279846007119 0 -0.085055645225370236 0.37193713089684588 0 -0.084297773186445962 0.39217279846007119 0 -0.071788917171084016 0.3809272333041443 0 -0.063154715464804681 0.39516467689365731 0 -0.084297773186445962 0.39217279846007119 0 -0.071788917171084016 0.3809272333041443 0 -0.063154715464804681 0.39516467689365731 0 -0.071788917171084016 0.3809272333041443 0 -0.056875823715872062 0.37631267096962301 0 -0.04149310004589906 0.37124785083274592 0 -0.056875823715872062 0.37631267096962301 0 -0.04338349465279491 0.38811939282985902 0 -0.063154715464804681 0.39516467689365731 0 -0.056875823715872062 0.37631267096962301 0 -0.04338349465279491 0.38811939282985902 0 -0.063154715464804681 0.39516467689365731 0 -0.04338349465279491 0.38811939282985902 0 -0.049329429094603867 0.41198700835812702 0 -0.04338349465279491 0.38811939282985902 0 -0.024844401122877391 0.39948633252540261 0 -0.049329429094603867 0.41198700835812702 0 -0.024169526760701381 0.37267007813580277 0 -0.04149310004589906 0.37124785083274592 0 -0.04338349465279491 0.38811939282985902 0 -0.024169526760701381 0.37267007813580277 0 -0.04338349465279491 0.38811939282985902 0 -0.024844401122877391 0.39948633252540261 0 -0.024169526760701381 0.37267007813580277 0 -0.024844401122877391 0.39948633252540261 0 -0.0045342830833226501 0.3863935686212247 0 -0.024844401122877391 0.39948633252540261 0 -0.0045342830833226501 0.3863935686212247 0 -0.0038092142255275289 0.41137928311071797 0 -0.0045342830833226501 0.3863935686212247 0 -0.0038092142255275289 0.41137928311071797 0 -0.024169526760701381 0.37267007813580277 0 -0.0045342830833226501 0.3863935686212247 0 -0.0030841453677343121 0.43636499760021141 0 -0.0038092142255275289 0.41137928311071797 0 -0.026324668085478481 0.42779129271708288 0 -0.0030841453677343121 0.43636499760021141 0 -0.0038092142255275289 0.41137928311071797 0 -0.024844401122877391 0.39948633252540261 0 -0.0038092142255275289 0.41137928311071797 0 -0.026324668085478481 0.42779129271708288 0 -0.026324668085478481 0.42779129271708288 0 -0.049329429094603867 0.41198700835812702 0 -0.049413859365407042 0.43472239834070731 0 -0.024844401122877391 0.39948633252540261 0 -0.026324668085478481 0.42779129271708288 0 -0.049329429094603867 0.41198700835812702 0 -0.074152812153798875 0.41302729649400538 0 -0.063154715464804681 0.39516467689365731 0 -0.049329429094603867 0.41198700835812702 0 -0.066022972602334681 0.42956105407568013 0 -0.049329429094603867 0.41198700835812702 0 -0.049413859365407042 0.43472239834070731 0 -0.066022972602334681 0.42956105407568013 0 -0.049413859365407042 0.43472239834070731 0 -0.0708836913324285 0.45273085842607269 0 -0.0393713920190637 0.45112048084748302 0 -0.052402143273794041 0.47435943831340011 0 -0.0708836913324285 0.45273085842607269 0 -0.049413859365407042 0.43472239834070731 0 -0.0393713920190637 0.45112048084748302 0 -0.0708836913324285 0.45273085842607269 0 -0.0393713920190637 0.45112048084748302 0 -0.02876560419008364 0.47203163756026523 0 -0.052402143273794041 0.47435943831340011 0 -0.026324668085478481 0.42779129271708288 0 -0.049413859365407042 0.43472239834070731 0 -0.0393713920190637 0.45112048084748302 0 -0.0030841453677343121 0.43636499760021141 0 -0.026324668085478481 0.42779129271708288 0 -0.01888650882967766 0.45329231687868837 0 -0.026324668085478481 0.42779129271708288 0 -0.0393713920190637 0.45112048084748302 0 -0.01888650882967766 0.45329231687868837 0 -0.0393713920190637 0.45112048084748302 0 -0.01888650882967766 0.45329231687868837 0 -0.02876560419008364 0.47203163756026523 0 -0.01888650882967766 0.45329231687868837 0 -0.01341416680576474 0.47109478045738301 0 -0.02876560419008364 0.47203163756026523 0 -0.01888650882967766 0.45329231687868837 0 -0.002359076509941094 0.46135071208970457 0 -0.01341416680576474 0.47109478045738301 0 -0.0030841453677343121 0.43636499760021141 0 -0.01888650882967766 0.45329231687868837 0 -0.002359076509941094 0.46135071208970457 0 -0.0030841453677343121 0.43636499760021141 0 -0.002359076509941094 0.46135071208970457 0 -0.0090346539348886701 0.5 0 -0.0016340076521478781 0.48633642657919801 0 -0.017460482120078509 0.48648722646036041 0 -0.0016340076521478781 0.48633642657919801 0 -0.01341416680576474 0.47109478045738301 0 -0.017460482120078509 0.48648722646036041 0 -0.002359076509941094 0.46135071208970457 0 -0.0016340076521478781 0.48633642657919801 0 -0.01341416680576474 0.47109478045738301 0 -0.002359076509941094 0.46135071208970457 0 -0.0016340076521478781 0.48633642657919801 0 -0.002359076509941094 0.46135071208970457 0 -0.0016340076521478781 0.48633642657919801 0 0.0036787250480955699 0.47408322248379448 0 -0.01341416680576474 0.47109478045738301 0 -0.02876560419008364 0.47203163756026523 0 -0.017460482120078509 0.48648722646036041 0 -0.02876560419008364 0.47203163756026523 0 -0.017460482120078509 0.48648722646036041 0 -0.038135422162237087 0.5 0 -0.0090346539348886701 0.5 0 -0.017460482120078509 0.48648722646036041 0 -0.038135422162237087 0.5 0 -0.02876560419008364 0.47203163756026523 0 -0.038135422162237087 0.5 0 -0.052402143273794041 0.47435943831340011 0 -0.038135422162237087 0.5 0 -0.052402143273794041 0.47435943831340011 0 -0.067236190389585393 0.5 0 -0.052402143273794041 0.47435943831340011 0 -0.067236190389585393 0.5 0 -0.073349005429332273 0.47921852398434828 0 -0.067236190389585393 0.5 0 -0.073349005429332273 0.47921852398434828 0 -0.096336958616933588 0.5 0 -0.073349005429332273 0.47921852398434828 0 -0.096336958616933588 0.5 0 -0.093805091172543903 0.47224368257650851 0 -0.052402143273794041 0.47435943831340011 0 -0.073349005429332273 0.47921852398434828 0 -0.0708836913324285 0.45273085842607269 0 -0.0708836913324285 0.45273085842607269 0 -0.1043361340672995 0.45358667135048331 0 -0.093805091172543903 0.47224368257650851 0 -0.090582213275806372 0.43325937369158968 0 -0.0708836913324285 0.45273085842607269 0 -0.1043361340672995 0.45358667135048331 0 -0.090582213275806372 0.43325937369158968 0 -0.066022972602334681 0.42956105407568013 0 -0.0708836913324285 0.45273085842607269 0 -0.090582213275806372 0.43325937369158968 0 -0.0708836913324285 0.45273085842607269 0 -0.073349005429332273 0.47921852398434828 0 -0.0708836913324285 0.45273085842607269 0 -0.093805091172543903 0.47224368257650851 0 -0.1043361340672995 0.45358667135048331 0 -0.12052644250191399 0.4682622397032008 0 -0.093805091172543903 0.47224368257650851 0 -0.1104760497445479 0.43296770510105842 0 -0.090582213275806372 0.43325937369158968 0 -0.1043361340672995 0.45358667135048331 0 -0.12618187852634369 0.45882241462805679 0 -0.1043361340672995 0.45358667135048331 0 -0.1248743097581413 0.44162978393037222 0 -0.1104760497445479 0.43296770510105842 0 -0.1043361340672995 0.45358667135048331 0 -0.1248743097581413 0.44162978393037222 0 -0.12618187852634369 0.45882241462805679 0 -0.1043361340672995 0.45358667135048331 0 -0.12052644250191399 0.4682622397032008 0 -0.1317912103042716 0.47600940211286807 0 -0.12052644250191399 0.4682622397032008 0 -0.11642361318749669 0.48420448820259387 0 -0.12052644250191399 0.4682622397032008 0 -0.11642361318749669 0.48420448820259387 0 -0.093805091172543903 0.47224368257650851 0 -0.12543772684428189 0.5 0 -0.11642361318749669 0.48420448820259387 0 -0.096336958616933588 0.5 0 -0.12543772684428189 0.5 0 -0.13178312884530541 0.48627570230508688 0 -0.11642361318749669 0.48420448820259387 0 -0.11642361318749669 0.48420448820259387 0 -0.096336958616933588 0.5 0 -0.093805091172543903 0.47224368257650851 0 -0.1693268494853358 0.079538523923443544 0 -0.16945340910355561 0.089496265134995978 0 -0.1618062267740645 0.07958177760614682 0 -0.16945340910355561 0.089496265134995978 0 -0.1618062267740645 0.07958177760614682 0 -0.1616157516695074 0.095139316102685473 0 -0.1618062267740645 0.07958177760614682 0 -0.1616157516695074 0.095139316102685473 0 -0.14767322655010931 0.084806545451415583 0 -0.1618062267740645 0.07958177760614682 0 -0.16640070467345031 0.07104807823334372 0 -0.15517576509654349 0.068304766057398533 0 -0.16640070467345031 0.07104807823334372 0 -0.15517576509654349 0.068304766057398533 0 -0.16451238623864939 0.061110077383343737 0 -0.16640070467345031 0.07104807823334372 0 -0.17354141001077031 0.063798093567348918 0 -0.16451238623864939 0.061110077383343737 0 -0.17157411485926041 0.074087910936242465 0 -0.16640070467345031 0.07104807823334372 0 -0.17354141001077031 0.063798093567348918 0 -0.1693268494853358 0.079538523923443544 0 -0.17157411485926041 0.074087910936242465 0 -0.16640070467345031 0.07104807823334372 0 -0.1693268494853358 0.079538523923443544 0 -0.1618062267740645 0.07958177760614682 0 -0.16640070467345031 0.07104807823334372 0 -0.17354141001077031 0.063798093567348918 0 -0.17702749526748529 0.081966948020833708 0 -0.17656426821359539 0.052679136019797047 0 -0.18185637422210199 0.067243003367259677 0 -0.17702749526748529 0.081966948020833708 0 -0.17656426821359539 0.052679136019797047 0 -0.17702749526748529 0.081966948020833708 0 -0.17656426821359539 0.052679136019797047 0 -0.17157411485926041 0.074087910936242465 0 -0.17354141001077031 0.063798093567348918 0 -0.17702749526748529 0.081966948020833708 0 -0.18185637422210199 0.067243003367259677 0 -0.1853153676200878 0.058850167416455039 0 -0.18892740292417859 0.064703221589215376 0 -0.18185637422210199 0.067243003367259677 0 -0.19050021368002351 0.072419239531055349 0 -0.18892740292417859 0.064703221589215376 0 -0.18185637422210199 0.067243003367259677 0 -0.18141962227324601 0.075216957450553817 0 -0.17702749526748529 0.081966948020833708 0 -0.18185637422210199 0.067243003367259677 0 -0.18141962227324601 0.075216957450553817 0 -0.19050021368002351 0.072419239531055349 0 -0.18141962227324601 0.075216957450553817 0 -0.1867192510276118 0.077748512173410014 0 -0.19050021368002351 0.072419239531055349 0 -0.18141962227324601 0.075216957450553817 0 -0.1867192510276118 0.077748512173410014 0 -0.1819129998543452 0.079414551687582866 0 -0.18248563084903771 0.082725789105533951 0 -0.17702749526748529 0.081966948020833708 0 -0.17749072232138041 0.1112547600218704 0 -0.1867192510276118 0.077748512173410014 0 -0.18248563084903771 0.082725789105533951 0 -0.1819129998543452 0.079414551687582866 0 -0.18141962227324601 0.075216957450553817 0 -0.1819129998543452 0.079414551687582866 0 -0.17702749526748529 0.081966948020833708 0 -0.18248563084903771 0.082725789105533951 0 -0.1819129998543452 0.079414551687582866 0 -0.17702749526748529 0.081966948020833708 0 -0.1693268494853358 0.079538523923443544 0 -0.16945340910355561 0.089496265134995978 0 -0.17702749526748529 0.081966948020833708 0 -0.1693268494853358 0.079538523923443544 0 -0.17157411485926041 0.074087910936242465 0 -0.17702749526748529 0.081966948020833708 0 -0.17702749526748529 0.081966948020833708 0 -0.17749072232138041 0.1112547600218704 0 -0.16945340910355561 0.089496265134995978 0 -0.17702749526748529 0.081966948020833708 0 -0.17749072232138041 0.1112547600218704 0 -0.17749072232138041 0.1112547600218704 0 -0.1951643137470572 0.093770439387570487 0 -0.18248563084903771 0.082725789105533951 0 -0.17749072232138041 0.1112547600218704 0 -0.1951643137470572 0.093770439387570487 0 -0.17749072232138041 0.1112547600218704 0 -0.19150979458678249 0.1243728737611647 0 -0.17789558253256721 0.1368522929207025 0 -0.17749072232138041 0.1112547600218704 0 -0.17789558253256721 0.1368522929207025 0 -0.17749072232138041 0.1112547600218704 0 -0.16113979031376621 0.12743058591966341 0 -0.17749072232138041 0.1112547600218704 0 -0.15084139672814201 0.110160429760413 0 -0.16113979031376621 0.12743058591966341 0 -0.17749072232138041 0.1112547600218704 0 -0.1616157516695074 0.095139316102685473 0 -0.15084139672814201 0.110160429760413 0 -0.16945340910355561 0.089496265134995978 0 -0.17749072232138041 0.1112547600218704 0 -0.1616157516695074 0.095139316102685473 0 -0.1616157516695074 0.095139316102685473 0 -0.15084139672814201 0.110160429760413 0 -0.14767322655010931 0.084806545451415583 0 -0.15084139672814201 0.110160429760413 0 -0.1348328660863515 0.097215266237156234 0 -0.14767322655010931 0.084806545451415583 0 -0.15084139672814201 0.110160429760413 0 -0.13137241316615089 0.11357835761918721 0 -0.14300315410871919 0.1253406317882016 0 -0.15084139672814201 0.110160429760413 0 -0.16113979031376621 0.12743058591966341 0 -0.14300315410871919 0.1253406317882016 0 -0.13137241316615089 0.11357835761918721 0 -0.14300315410871919 0.1253406317882016 0 -0.12687331202938101 0.13192737382428379 0 -0.13137241316615089 0.11357835761918721 0 -0.1348328660863515 0.097215266237156234 0 -0.1198812247159142 0.095002477965890675 0 -0.15084139672814201 0.110160429760413 0 -0.13137241316615089 0.11357835761918721 0 -0.1348328660863515 0.097215266237156234 0 -0.1348328660863515 0.097215266237156234 0 -0.12533951967512769 0.078274991835817334 0 -0.1198812247159142 0.095002477965890675 0 -0.1348328660863515 0.097215266237156234 0 -0.12533951967512769 0.078274991835817334 0 -0.14767322655010931 0.084806545451415583 0 -0.1618062267740645 0.07958177760614682 0 -0.14767322655010931 0.084806545451415583 0 -0.15517576509654349 0.068304766057398533 0 -0.14767322655010931 0.084806545451415583 0 -0.15517576509654349 0.068304766057398533 0 -0.14001017723872511 0.063978020277280875 0 -0.12533951967512769 0.078274991835817334 0 -0.14767322655010931 0.084806545451415583 0 -0.14001017723872511 0.063978020277280875 0 -0.12533951967512769 0.078274991835817334 0 -0.14001017723872511 0.063978020277280875 0 -0.1248745965026067 0.059896082918310993 0 -0.14001017723872511 0.063978020277280875 0 -0.13626681081840961 0.042829268155062397 0 -0.1248745965026067 0.059896082918310993 0 -0.13626681081840961 0.042829268155062397 0 -0.1339340902388827 0.022300844741854581 0 -0.1180188049733784 0.030804183747700629 0 -0.13626681081840961 0.042829268155062397 0 -0.1339340902388827 0.022300844741854581 0 -0.15968783393996419 0.037567277286728401 0 -0.13626681081840961 0.042829268155062397 0 -0.15351002702878311 0.053877414325468623 0 -0.15968783393996419 0.037567277286728401 0 -0.13626681081840961 0.042829268155062397 0 -0.15968783393996419 0.037567277286728401 0 -0.14001017723872511 0.063978020277280875 0 -0.13626681081840961 0.042829268155062397 0 -0.15351002702878311 0.053877414325468623 0 -0.15517576509654349 0.068304766057398533 0 -0.14001017723872511 0.063978020277280875 0 -0.15351002702878311 0.053877414325468623 0 -0.12735709500343681 0.004015926865657337 0 -0.15177498865293759 0.016606981474429749 0 -0.12735709500343681 0.004015926865657337 0 -0.1339340902388827 0.022300844741854581 0 -0.15177498865293759 0.016606981474429749 0 -0.12735709500343681 0.004015926865657337 0 -0.1339340902388827 0.022300844741854581 0 -0.11835839359799651 0.016938700943610479 0 -0.1339340902388827 0.022300844741854581 0 -0.15177498865293759 0.016606981474429749 0 -0.15968783393996419 0.037567277286728401 0 -0.1339340902388827 0.022300844741854581 0 -0.15968783393996419 0.037567277286728401 0 -0.12735709500343681 0.004015926865657337 0 -0.15177498865293759 0.016606981474429749 0 -0.14801408494475049 0.0031182785745780331 0 -0.15177498865293759 0.016606981474429749 0 -0.14801408494475049 0.0031182785745780331 0 -0.1619193683370386 0.0066468078375689294 0 -0.15773416148281841 -0.0035868741371463562 0 -0.14801408494475049 0.0031182785745780331 0 -0.1619193683370386 0.0066468078375689294 0 -0.15177498865293759 0.016606981474429749 0 -0.1619193683370386 0.0066468078375689294 0 -0.16760309597538539 0.015861310899326669 0 -0.16716832075785379 -0.0032078365625175 0 -0.1619193683370386 0.0066468078375689294 0 -0.17584419881677341 0.0071523107965592754 0 -0.1619193683370386 0.0066468078375689294 0 -0.16760309597538539 0.015861310899326669 0 -0.17584419881677341 0.0071523107965592754 0 -0.15177498865293759 0.016606981474429749 0 -0.17619288230243149 0.029198036083215671 0 -0.15177498865293759 0.016606981474429749 0 -0.17619288230243149 0.029198036083215671 0 -0.15968783393996419 0.037567277286728401 0 -0.15177498865293759 0.016606981474429749 0 -0.16760309597538539 0.015861310899326669 0 -0.17619288230243149 0.029198036083215671 0 -0.17619288230243149 0.029198036083215671 0 -0.1852069371874478 0.015311100034367831 0 -0.17584419881677341 0.0071523107965592754 0 -0.17619288230243149 0.029198036083215671 0 -0.17584419881677341 0.0071523107965592754 0 -0.16760309597538539 0.015861310899326669 0 -0.17619288230243149 0.029198036083215671 0 -0.17584419881677341 0.0071523107965592754 0 -0.17619288230243149 0.029198036083215671 0 -0.19572946351785711 0.039272048382664133 0 -0.19029700863621521 0.024089069561314659 0 -0.17619288230243149 0.029198036083215671 0 -0.1852069371874478 0.015311100034367831 0 -0.19029700863621521 0.024089069561314659 0 -0.1852069371874478 0.015311100034367831 0 -0.18717715497560061 0.0062623078557712403 0 -0.17584419881677341 0.0071523107965592754 0 -0.18154179604087481 -0.0036104187285780349 0 -0.18717715497560061 0.0062623078557712403 0 -0.17584419881677341 0.0071523107965592754 0 -0.15351002702878311 0.053877414325468623 0 -0.1659033968134131 0.050269055427132232 0 -0.15968783393996419 0.037567277286728401 0 -0.1659033968134131 0.050269055427132232 0 -0.16451238623864939 0.061110077383343737 0 -0.17656426821359539 0.052679136019797047 0 -0.17354141001077031 0.063798093567348918 0 -0.16451238623864939 0.061110077383343737 0 -0.17656426821359539 0.052679136019797047 0 -0.16451238623864939 0.061110077383343737 0 -0.17656426821359539 0.052679136019797047 0 -0.15351002702878311 0.053877414325468623 0 -0.1659033968134131 0.050269055427132232 0 -0.16451238623864939 0.061110077383343737 0 -0.15517576509654349 0.068304766057398533 0 -0.15351002702878311 0.053877414325468623 0 -0.16451238623864939 0.061110077383343737 0 -0.15968783393996419 0.037567277286728401 0 -0.1762663423330757 0.033842591165095401 0 -0.1659033968134131 0.050269055427132232 0 -0.15968783393996419 0.037567277286728401 0 -0.1764827173319595 0.047523031967639129 0 -0.17619288230243149 0.029198036083215671 0 -0.15968783393996419 0.037567277286728401 0 -0.1762663423330757 0.033842591165095401 0 -0.15968783393996419 0.037567277286728401 0 -0.1764827173319595 0.047523031967639129 0 -0.15968783393996419 0.037567277286728401 0 -0.1762663423330757 0.033842591165095401 0 -0.1764827173319595 0.047523031967639129 0 -0.17619288230243149 0.029198036083215671 0 -0.19572946351785711 0.039272048382664133 0 -0.181281627628781 0.040827380692469641 0 -0.18051660755046151 0.049914261515807259 0 -0.1764827173319595 0.047523031967639129 0 -0.17619288230243149 0.029198036083215671 0 -0.1762663423330757 0.033842591165095401 0 -0.19572946351785711 0.039272048382664133 0 -0.1762663423330757 0.033842591165095401 0 -0.181281627628781 0.040827380692469641 0 -0.19572946351785711 0.039272048382664133 0 -0.1762663423330757 0.033842591165095401 0 -0.181281627628781 0.040827380692469641 0 -0.1764827173319595 0.047523031967639129 0 -0.1762663423330757 0.033842591165095401 0 -0.1764827173319595 0.047523031967639129 0 -0.17619288230243149 0.029198036083215671 0 -0.1762663423330757 0.033842591165095401 0 -0.181281627628781 0.040827380692469641 0 -0.18051660755046151 0.049914261515807259 0 -0.19572946351785711 0.039272048382664133 0 -0.18051660755046151 0.049914261515807259 0 -0.17656426821359539 0.052679136019797047 0 -0.1853153676200878 0.058850167416455039 0 -0.18051660755046151 0.049914261515807259 0 -0.1764827173319595 0.047523031967639129 0 -0.1764827173319595 0.047523031967639129 0 -0.17656426821359539 0.052679136019797047 0 -0.1659033968134131 0.050269055427132232 0 -0.1764827173319595 0.047523031967639129 0 -0.17656426821359539 0.052679136019797047 0 -0.18051660755046151 0.049914261515807259 0 -0.1764827173319595 0.047523031967639129 0 -0.17656426821359539 0.052679136019797047 0 -0.18051660755046151 0.049914261515807259 0 -0.17656426821359539 0.052679136019797047 0 -0.18185637422210199 0.067243003367259677 0 -0.17656426821359539 0.052679136019797047 0 -0.1853153676200878 0.058850167416455039 0 -0.1853153676200878 0.058850167416455039 0 -0.19803765617450109 0.060300476042091433 0 -0.18892740292417859 0.064703221589215376 0 -0.18051660755046151 0.049914261515807259 0 -0.19803765617450109 0.060300476042091433 0 -0.1977866825790292 0.05007637869738242 0 -0.18051660755046151 0.049914261515807259 0 -0.1853153676200878 0.058850167416455039 0 -0.19803765617450109 0.060300476042091433 0 -0.18051660755046151 0.049914261515807259 0 -0.19803765617450109 0.060300476042091433 0 -0.19803765617450109 0.060300476042091433 0 -0.1977866825790292 0.05007637869738242 0 -0.2066297839190599 0.054855205218219752 0 -0.18051660755046151 0.049914261515807259 0 -0.1977866825790292 0.05007637869738242 0 -0.19572946351785711 0.039272048382664133 0 -0.18051660755046151 0.049914261515807259 0 -0.19572946351785711 0.039272048382664133 0 -0.19572946351785711 0.039272048382664133 0 -0.2098237389609823 0.029412342647955388 0 -0.1977866825790292 0.05007637869738242 0 -0.19572946351785711 0.039272048382664133 0 -0.2073344650466164 0.045256152092875389 0 -0.19572946351785711 0.039272048382664133 0 -0.2073344650466164 0.045256152092875389 0 -0.2073344650466164 0.045256152092875389 0 -0.21702036639386221 0.038769314305699548 0 -0.2098237389609823 0.029412342647955388 0 -0.19572946351785711 0.039272048382664133 0 -0.2073344650466164 0.045256152092875389 0 -0.2098237389609823 0.029412342647955388 0 -0.21702036639386221 0.038769314305699548 0 -0.2098237389609823 0.029412342647955388 0 -0.2284051488343061 0.035137669629428533 0 -0.2073344650466164 0.045256152092875389 0 -0.21702036639386221 0.038769314305699548 0 -0.22251811273354419 0.045271092852538893 0 -0.2073344650466164 0.045256152092875389 0 -0.21769334509658461 0.055951218203848879 0 -0.22251811273354419 0.045271092852538893 0 -0.21769334509658461 0.055951218203848879 0 -0.20947987249717179 0.060448397508133619 0 -0.2066297839190599 0.054855205218219752 0 -0.21769334509658461 0.055951218203848879 0 -0.20947987249717179 0.060448397508133619 0 -0.2155587047985415 0.070686690568374386 0 -0.19803765617450109 0.060300476042091433 0 -0.20947987249717179 0.060448397508133619 0 -0.2066297839190599 0.054855205218219752 0 -0.1977866825790292 0.05007637869738242 0 -0.2073344650466164 0.045256152092875389 0 -0.2066297839190599 0.054855205218219752 0 -0.2073344650466164 0.045256152092875389 0 -0.21769334509658461 0.055951218203848879 0 -0.2066297839190599 0.054855205218219752 0 -0.1989264366345522 -0.0080023544535597537 0 -0.1965234412062255 0.0098537758749781944 0 -0.20713549204565579 6.5395444916274768e-05 0 -0.19066530249761049 -0.0041303576494283751 0 -0.18717715497560061 0.0062623078557712403 0 -0.1965234412062255 0.0098537758749781944 0 -0.1852069371874478 0.015311100034367831 0 -0.18717715497560061 0.0062623078557712403 0 -0.1965234412062255 0.0098537758749781944 0 -0.1965234412062255 0.0098537758749781944 0 -0.20113962024173071 0.02227838771243261 0 -0.2107847094499361 0.011405203725301251 0 -0.19572946351785711 0.039272048382664133 0 -0.20113962024173071 0.02227838771243261 0 -0.2098237389609823 0.029412342647955388 0 -0.19572946351785711 0.039272048382664133 0 -0.20113962024173071 0.02227838771243261 0 -0.19029700863621521 0.024089069561314659 0 -0.1965234412062255 0.0098537758749781944 0 -0.20113962024173071 0.02227838771243261 0 -0.19029700863621521 0.024089069561314659 0 -0.1852069371874478 0.015311100034367831 0 -0.1965234412062255 0.0098537758749781944 0 -0.19029700863621521 0.024089069561314659 0 -0.2098237389609823 0.029412342647955388 0 -0.2107847094499361 0.011405203725301251 0 -0.22391801440410891 0.019552636913248388 0 -0.20113962024173071 0.02227838771243261 0 -0.2098237389609823 0.029412342647955388 0 -0.2107847094499361 0.011405203725301251 0 -0.2098237389609823 0.029412342647955388 0 -0.22391801440410891 0.019552636913248388 0 -0.21702438745170211 -0.0043907958627755336 0 -0.2107847094499361 0.011405203725301251 0 -0.20713549204565579 6.5395444916274768e-05 0 -0.21702438745170211 -0.0043907958627755336 0 -0.2107847094499361 0.011405203725301251 0 -0.22391801440410891 0.019552636913248388 0 -0.1965234412062255 0.0098537758749781944 0 -0.2107847094499361 0.011405203725301251 0 -0.20713549204565579 6.5395444916274768e-05 0 -0.22867745033346079 0.0038692188645070222 0 -0.22391801440410891 0.019552636913248388 0 -0.2344599051246074 0.012178015861532989 0 -0.21702438745170211 -0.0043907958627755336 0 -0.22391801440410891 0.019552636913248388 0 -0.21702438745170211 -0.0043907958627755336 0 -0.22867745033346079 0.0038692188645070222 0 -0.22391801440410891 0.019552636913248388 0 -0.22391801440410891 0.019552636913248388 0 -0.2403792472176362 0.02548084658656756 0 -0.2344599051246074 0.012178015861532989 0 -0.2098237389609823 0.029412342647955388 0 -0.22391801440410891 0.019552636913248388 0 -0.2284051488343061 0.035137669629428533 0 -0.22391801440410891 0.019552636913248388 0 -0.2403792472176362 0.02548084658656756 0 -0.2284051488343061 0.035137669629428533 0 -0.22391801440410891 0.019552636913248388 0 -0.2344599051246074 0.012178015861532989 0 -0.22391801440410891 0.019552636913248388 0 -0.2284051488343061 0.035137669629428533 0 -0.2522816967992324 0.037264740289820159 0 -0.25157722050270093 0.012682655753942951 0 -0.2403792472176362 0.02548084658656756 0 -0.25157722050270093 0.012682655753942951 0 -0.2403792472176362 0.02548084658656756 0 -0.2344599051246074 0.012178015861532989 0 -0.25267499080189931 -0.0034516002120552492 0 -0.25157722050270093 0.012682655753942951 0 -0.2401015516947359 0.00075261550232862703 0 -0.25157722050270093 0.012682655753942951 0 -0.2344599051246074 0.012178015861532989 0 -0.2401015516947359 0.00075261550232862703 0 -0.22867745033346079 0.0038692188645070222 0 -0.2344599051246074 0.012178015861532989 0 -0.2401015516947359 0.00075261550232862703 0 -0.21769334509658461 0.055951218203848879 0 -0.23255980098598539 0.056775429521547523 0 -0.2155587047985415 0.070686690568374386 0 -0.23289228326450309 0.050722702345608793 0 -0.22641588552015429 0.052180110730886013 0 -0.22251811273354419 0.045271092852538893 0 -0.23289228326450309 0.050722702345608793 0 -0.23255980098598539 0.056775429521547523 0 -0.22641588552015429 0.052180110730886013 0 -0.21769334509658461 0.055951218203848879 0 -0.23255980098598539 0.056775429521547523 0 -0.22641588552015429 0.052180110730886013 0 -0.21769334509658461 0.055951218203848879 0 -0.22641588552015429 0.052180110730886013 0 -0.22251811273354419 0.045271092852538893 0 -0.21702036639386221 0.038769314305699548 0 -0.22251811273354419 0.045271092852538893 0 -0.2284051488343061 0.035137669629428533 0 -0.23289228326450309 0.050722702345608793 0 -0.22251811273354419 0.045271092852538893 0 -0.2284051488343061 0.035137669629428533 0 -0.23289228326450309 0.050722702345608793 0 -0.2284051488343061 0.035137669629428533 0 -0.2522816967992324 0.037264740289820159 0 -0.2403792472176362 0.02548084658656756 0 -0.2284051488343061 0.035137669629428533 0 -0.2522816967992324 0.037264740289820159 0 -0.23289228326450309 0.050722702345608793 0 -0.2284051488343061 0.035137669629428533 0 -0.2522816967992324 0.037264740289820159 0 -0.23289228326450309 0.050722702345608793 0 -0.23255980098598539 0.056775429521547523 0 -0.2522816967992324 0.037264740289820159 0 -0.23255980098598539 0.056775429521547523 0 -0.2522816967992324 0.037264740289820159 0 -0.23255980098598539 0.056775429521547523 0 -0.24906194248509719 0.058488871325365822 0 -0.23255980098598539 0.056775429521547523 0 -0.24906194248509719 0.058488871325365822 0 -0.23770452364983391 0.071010308971772351 0 -0.26257114212692878 0.06573449919026883 0 -0.24906194248509719 0.058488871325365822 0 -0.23770452364983391 0.071010308971772351 0 -0.25261226255175379 0.080423606239198905 0 -0.23770452364983391 0.071010308971772351 0 -0.23158356521460469 0.085326977986282804 0 -0.25261226255175379 0.080423606239198905 0 -0.23158356521460469 0.085326977986282804 0 -0.24377998071086901 0.096378574065869249 0 -0.23158356521460469 0.085326977986282804 0 -0.21283790517273879 0.076286118753275345 0 -0.22135706029896429 0.097751395037259853 0 -0.23158356521460469 0.085326977986282804 0 -0.22135706029896429 0.097751395037259853 0 -0.24377998071086901 0.096378574065869249 0 -0.23255980098598539 0.056775429521547523 0 -0.21283790517273879 0.076286118753275345 0 -0.23770452364983391 0.071010308971772351 0 -0.23158356521460469 0.085326977986282804 0 -0.21283790517273879 0.076286118753275345 0 -0.23255980098598539 0.056775429521547523 0 -0.23770452364983391 0.071010308971772351 0 -0.21283790517273879 0.076286118753275345 0 -0.23255980098598539 0.056775429521547523 0 -0.21283790517273879 0.076286118753275345 0 -0.2155587047985415 0.070686690568374386 0 -0.23770452364983391 0.071010308971772351 0 -0.21283790517273879 0.076286118753275345 0 -0.19803765617450109 0.060300476042091433 0 -0.20947987249717179 0.060448397508133619 0 -0.2155587047985415 0.070686690568374386 0 -0.19803765617450109 0.060300476042091433 0 -0.20333782300263301 0.070680183335342567 0 -0.2155587047985415 0.070686690568374386 0 -0.19803765617450109 0.060300476042091433 0 -0.2155587047985415 0.070686690568374386 0 -0.21283790517273879 0.076286118753275345 0 -0.19766176801088831 0.079505953929404904 0 -0.20333782300263301 0.070680183335342567 0 -0.21283790517273879 0.076286118753275345 0 -0.19766176801088831 0.079505953929404904 0 -0.20333782300263301 0.070680183335342567 0 -0.21283790517273879 0.076286118753275345 0 -0.2155587047985415 0.070686690568374386 0 -0.21283790517273879 0.076286118753275345 0 -0.1951643137470572 0.093770439387570487 0 -0.22135706029896429 0.097751395037259853 0 -0.21283790517273879 0.076286118753275345 0 -0.1951643137470572 0.093770439387570487 0 -0.21283790517273879 0.076286118753275345 0 -0.19766176801088831 0.079505953929404904 0 -0.1951643137470572 0.093770439387570487 0 -0.18248563084903771 0.082725789105533951 0 -0.19766176801088831 0.079505953929404904 0 -0.1951643137470572 0.093770439387570487 0 -0.1867192510276118 0.077748512173410014 0 -0.18248563084903771 0.082725789105533951 0 -0.19766176801088831 0.079505953929404904 0 -0.18248563084903771 0.082725789105533951 0 -0.19766176801088831 0.079505953929404904 0 -0.1867192510276118 0.077748512173410014 0 -0.19766176801088831 0.079505953929404904 0 -0.19050021368002351 0.072419239531055349 0 -0.19803765617450109 0.060300476042091433 0 -0.19050021368002351 0.072419239531055349 0 -0.18892740292417859 0.064703221589215376 0 -0.19803765617450109 0.060300476042091433 0 -0.20333782300263301 0.070680183335342567 0 -0.19050021368002351 0.072419239531055349 0 -0.20333782300263301 0.070680183335342567 0 -0.19766176801088831 0.079505953929404904 0 -0.19050021368002351 0.072419239531055349 0 -0.17749072232138041 0.1112547600218704 0 -0.19150979458678249 0.1243728737611647 0 -0.1951643137470572 0.093770439387570487 0 -0.19150979458678249 0.1243728737611647 0 -0.1951643137470572 0.093770439387570487 0 -0.20994497012605751 0.11823125198409511 0 -0.1951643137470572 0.093770439387570487 0 -0.20994497012605751 0.11823125198409511 0 -0.22135706029896429 0.097751395037259853 0 -0.20994497012605751 0.11823125198409511 0 -0.2348316268224595 0.11651500804646669 0 -0.2235388627286797 0.12965651036182041 0 -0.20994497012605751 0.11823125198409511 0 -0.22135706029896429 0.097751395037259853 0 -0.2348316268224595 0.11651500804646669 0 -0.22135706029896429 0.097751395037259853 0 -0.24377998071086901 0.096378574065869249 0 -0.2348316268224595 0.11651500804646669 0 -0.25136603029008331 0.1103208693098497 0 -0.24377998071086901 0.096378574065869249 0 -0.2348316268224595 0.11651500804646669 0 -0.25922316449870308 0.12628093809151891 0 -0.25136603029008331 0.1103208693098497 0 -0.2348316268224595 0.11651500804646669 0 -0.25922316449870308 0.12628093809151891 0 -0.2348316268224595 0.11651500804646669 0 -0.2369615480924761 0.1404602413506009 0 -0.2369615480924761 0.1404602413506009 0 -0.2235388627286797 0.12965651036182041 0 -0.2124173058737257 0.14341954006611901 0 -0.2348316268224595 0.11651500804646669 0 -0.2369615480924761 0.1404602413506009 0 -0.2235388627286797 0.12965651036182041 0 -0.2369615480924761 0.1404602413506009 0 -0.22679867445049531 0.16064067306310431 0 -0.2124173058737257 0.14341954006611901 0 -0.2369615480924761 0.1404602413506009 0 -0.247018622616726 0.15992587597476091 0 -0.22679867445049531 0.16064067306310431 0 -0.25846103874104392 0.14702121199507179 0 -0.2369615480924761 0.1404602413506009 0 -0.247018622616726 0.15992587597476091 0 -0.247018622616726 0.15992587597476091 0 -0.23359887481107691 0.1809086922627815 0 -0.247018622616726 0.15992587597476091 0 -0.23359887481107691 0.1809086922627815 0 -0.22679867445049531 0.16064067306310431 0 -0.26439180367967152 0.18225540552070321 0 -0.247018622616726 0.15992587597476091 0 -0.23359887481107691 0.1809086922627815 0 -0.23359887481107691 0.1809086922627815 0 -0.20517995294037331 0.17379218369948349 0 -0.2201791270054278 0.2018915085508021 0 -0.23359887481107691 0.1809086922627815 0 -0.22679867445049531 0.16064067306310431 0 -0.20517995294037331 0.17379218369948349 0 -0.22679867445049531 0.16064067306310431 0 -0.20517995294037331 0.17379218369948349 0 -0.2124173058737257 0.14341954006611901 0 -0.20517995294037331 0.17379218369948349 0 -0.19274338499996449 0.14807478539393409 0 -0.17830044274374979 0.16244982581953471 0 -0.19150979458678249 0.1243728737611647 0 -0.19274338499996449 0.14807478539393409 0 -0.2124173058737257 0.14341954006611901 0 -0.20994497012605751 0.11823125198409511 0 -0.2235388627286797 0.12965651036182041 0 -0.2124173058737257 0.14341954006611901 0 -0.19150979458678249 0.1243728737611647 0 -0.20994497012605751 0.11823125198409511 0 -0.2124173058737257 0.14341954006611901 0 -0.20517995294037331 0.17379218369948349 0 -0.19274338499996449 0.14807478539393409 0 -0.2124173058737257 0.14341954006611901 0 -0.22371849106378741 0.2462845034026982 0 -0.23019370483249479 0.22382880503591951 0 -0.2066863838603582 0.24242880758937649 0 -0.22371849106378741 0.2462845034026982 0 -0.23951274761537589 0.2474853768326048 0 -0.23019370483249479 0.22382880503591951 0 -0.25272375818517617 0.22994970808158929 0 -0.25621817608628389 0.2460965770837312 0 -0.23951274761537589 0.2474853768326048 0 -0.25370102580463139 0.2052288024824625 0 -0.25272375818517617 0.22994970808158929 0 -0.23019370483249479 0.22382880503591951 0 -0.25272375818517617 0.22994970808158929 0 -0.23951274761537589 0.2474853768326048 0 -0.23019370483249479 0.22382880503591951 0 -0.25370102580463139 0.2052288024824625 0 -0.23359887481107691 0.1809086922627815 0 -0.2201791270054278 0.2018915085508021 0 -0.25370102580463139 0.2052288024824625 0 -0.23019370483249479 0.22382880503591951 0 -0.2201791270054278 0.2018915085508021 0 -0.23019370483249479 0.22382880503591951 0 -0.2201791270054278 0.2018915085508021 0 -0.20675937919977869 0.22287432483882261 0 -0.25370102580463139 0.2052288024824625 0 -0.23019370483249479 0.22382880503591951 0 -0.23359887481107691 0.1809086922627815 0 -0.2201791270054278 0.2018915085508021 0 -0.20517995294037331 0.17379218369948349 0 -0.2201791270054278 0.2018915085508021 0 -0.19686056424972551 0.20437535499954981 0 -0.20517995294037331 0.17379218369948349 0 -0.19686056424972551 0.20437535499954981 0 -0.17870530295493239 0.18804735871836689 0 -0.19686056424972551 0.20437535499954981 0 -0.20675937919977869 0.22287432483882261 0 -0.19122946023172571 0.22600186257262461 0 -0.19686056424972551 0.20437535499954981 0 -0.19122946023172571 0.22600186257262461 0 -0.179110163166115 0.21364489161719899 0 -0.2201791270054278 0.2018915085508021 0 -0.19686056424972551 0.20437535499954981 0 -0.20675937919977869 0.22287432483882261 0 -0.2201791270054278 0.2018915085508021 0 -0.20675937919977869 0.22287432483882261 0 -0.23019370483249479 0.22382880503591951 0 -0.2066863838603582 0.24242880758937649 0 -0.23019370483249479 0.22382880503591951 0 -0.20675937919977869 0.22287432483882261 0 -0.2066863838603582 0.24242880758937649 0 -0.20675937919977869 0.22287432483882261 0 -0.19333963139412971 0.24385714112684301 0 -0.20675937919977869 0.22287432483882261 0 -0.19122946023172571 0.22600186257262461 0 -0.19333963139412971 0.24385714112684301 0 -0.19122946023172571 0.22600186257262461 0 -0.19333963139412971 0.24385714112684301 0 -0.17951502337729761 0.2392424245160312 0 -0.20675937919977869 0.22287432483882261 0 -0.19333963139412971 0.24385714112684301 0 -0.2066863838603582 0.24242880758937649 0 -0.18259587964237009 0.2606558300825601 0 -0.19333963139412971 0.24385714112684301 0 -0.2066863838603582 0.24242880758937649 0 -0.21408768962570049 0.25938306782852782 0 -0.22371849106378741 0.2462845034026982 0 -0.2066863838603582 0.24242880758937649 0 -0.1532221513837192 0.25419418888983192 0 -0.17951502337729761 0.2392424245160312 0 -0.15110003921584569 0.22881829817408891 0 -0.18259587964237009 0.2606558300825601 0 -0.19333963139412971 0.24385714112684301 0 -0.17951502337729761 0.2392424245160312 0 -0.17951502337729761 0.2392424245160312 0 -0.1619547442009632 0.2162214427956837 0 -0.179110163166115 0.21364489161719899 0 -0.19122946023172571 0.22600186257262461 0 -0.17951502337729761 0.2392424245160312 0 -0.179110163166115 0.21364489161719899 0 -0.17951502337729761 0.2392424245160312 0 -0.179110163166115 0.21364489161719899 0 -0.17951502337729761 0.2392424245160312 0 -0.1619547442009632 0.2162214427956837 0 -0.15110003921584569 0.22881829817408891 0 -0.1619547442009632 0.2162214427956837 0 -0.179110163166115 0.21364489161719899 0 -0.17870530295493239 0.18804735871836689 0 -0.19686056424972551 0.20437535499954981 0 -0.179110163166115 0.21364489161719899 0 -0.17870530295493239 0.18804735871836689 0 -0.179110163166115 0.21364489161719899 0 -0.17870530295493239 0.18804735871836689 0 -0.1619547442009632 0.2162214427956837 0 -0.17870530295493239 0.18804735871836689 0 -0.15775407484820861 0.18727827749961631 0 -0.14804225966403101 0.20585853828705919 0 -0.15775407484820861 0.18727827749961631 0 -0.13876353146598761 0.18223131465273959 0 -0.1619547442009632 0.2162214427956837 0 -0.14804225966403101 0.20585853828705919 0 -0.15775407484820861 0.18727827749961631 0 -0.13876353146598761 0.18223131465273959 0 -0.1245765098090509 0.17966052017845999 0 -0.1190175871807343 0.20067046473278771 0 -0.14804225966403101 0.20585853828705919 0 -0.13876353146598761 0.18223131465273959 0 -0.1190175871807343 0.20067046473278771 0 -0.14804225966403101 0.20585853828705919 0 -0.13479108425045189 0.2189379304695287 0 -0.1190175871807343 0.20067046473278771 0 -0.13479108425045189 0.2189379304695287 0 -0.12594818007053379 0.2253828658525201 0 -0.1190175871807343 0.20067046473278771 0 -0.1619547442009632 0.2162214427956837 0 -0.14804225966403101 0.20585853828705919 0 -0.15110003921584569 0.22881829817408891 0 -0.14804225966403101 0.20585853828705919 0 -0.15110003921584569 0.22881829817408891 0 -0.13479108425045189 0.2189379304695287 0 -0.15110003921584569 0.22881829817408891 0 -0.13479108425045189 0.2189379304695287 0 -0.1378537507735782 0.22769286600650679 0 -0.15110003921584569 0.22881829817408891 0 -0.1378537507735782 0.22769286600650679 0 -0.13827307027013019 0.2362506378269415 0 -0.13479108425045189 0.2189379304695287 0 -0.12594818007053379 0.2253828658525201 0 -0.1378537507735782 0.22769286600650679 0 -0.12594818007053379 0.2253828658525201 0 -0.1378537507735782 0.22769286600650679 0 -0.13827307027013019 0.2362506378269415 0 -0.12594818007053379 0.2253828658525201 0 -0.13827307027013019 0.2362506378269415 0 -0.1327712538659816 0.24971188635390451 0 -0.12594818007053379 0.2253828658525201 0 -0.1327712538659816 0.24971188635390451 0 -0.1532221513837192 0.25419418888983192 0 -0.15110003921584569 0.22881829817408891 0 -0.13827307027013019 0.2362506378269415 0 -0.1532221513837192 0.25419418888983192 0 -0.13827307027013019 0.2362506378269415 0 -0.1327712538659816 0.24971188635390451 0 -0.16317411874061041 0.14897554401654969 0 -0.16113979031376621 0.12743058591966341 0 -0.1447888583061562 0.1436064118174607 0 -0.16317411874061041 0.14897554401654969 0 -0.16113979031376621 0.12743058591966341 0 -0.17789558253256721 0.1368522929207025 0 -0.17749072232138041 0.1112547600218704 0 -0.16113979031376621 0.12743058591966341 0 -0.17789558253256721 0.1368522929207025 0 -0.19150979458678249 0.1243728737611647 0 -0.19274338499996449 0.14807478539393409 0 -0.17789558253256721 0.1368522929207025 0 -0.16317411874061041 0.14897554401654969 0 -0.17789558253256721 0.1368522929207025 0 -0.17830044274374979 0.16244982581953471 0 -0.17789558253256721 0.1368522929207025 0 -0.17830044274374979 0.16244982581953471 0 -0.19274338499996449 0.14807478539393409 0 -0.17789558253256721 0.1368522929207025 0 -0.17830044274374979 0.16244982581953471 0 -0.20517995294037331 0.17379218369948349 0 -0.17870530295493239 0.18804735871836689 0 -0.17830044274374979 0.16244982581953471 0 -0.17870530295493239 0.18804735871836689 0 -0.17830044274374979 0.16244982581953471 0 -0.17870530295493239 0.18804735871836689 0 -0.17830044274374979 0.16244982581953471 0 -0.15775407484820861 0.18727827749961631 0 -0.17830044274374979 0.16244982581953471 0 -0.15775407484820861 0.18727827749961631 0 -0.15245232938168229 0.1648839185887534 0 -0.16317411874061041 0.14897554401654969 0 -0.17830044274374979 0.16244982581953471 0 -0.15245232938168229 0.1648839185887534 0 -0.15775407484820861 0.18727827749961631 0 -0.15245232938168229 0.1648839185887534 0 -0.13876353146598761 0.18223131465273959 0 -0.13876353146598761 0.18223131465273959 0 -0.12843792629854631 0.15978223771525801 0 -0.1245765098090509 0.17966052017845999 0 -0.15245232938168229 0.1648839185887534 0 -0.13876353146598761 0.18223131465273959 0 -0.12843792629854631 0.15978223771525801 0 -0.12843792629854631 0.15978223771525801 0 -0.1447888583061562 0.1436064118174607 0 -0.12843792629854631 0.15978223771525801 0 -0.1447888583061562 0.1436064118174607 0 -0.1204435081575875 0.14623213693654391 0 -0.16317411874061041 0.14897554401654969 0 -0.15245232938168229 0.1648839185887534 0 -0.1447888583061562 0.1436064118174607 0 -0.15245232938168229 0.1648839185887534 0 -0.12843792629854631 0.15978223771525801 0 -0.1447888583061562 0.1436064118174607 0 -0.16113979031376621 0.12743058591966341 0 -0.1447888583061562 0.1436064118174607 0 -0.14300315410871919 0.1253406317882016 0 -0.16113979031376621 0.12743058591966341 0 -0.1447888583061562 0.1436064118174607 0 -0.1447888583061562 0.1436064118174607 0 -0.12687331202938101 0.13192737382428379 0 -0.1204435081575875 0.14623213693654391 0 -0.1447888583061562 0.1436064118174607 0 -0.14300315410871919 0.1253406317882016 0 -0.12687331202938101 0.13192737382428379 0 -0.12687331202938101 0.13192737382428379 0 -0.1130049083687871 0.13722853083192951 0 -0.10667563132183119 0.1260080396076822 0 -0.12687331202938101 0.13192737382428379 0 -0.1130049083687871 0.13722853083192951 0 -0.1204435081575875 0.14623213693654391 0 -0.10667563132183119 0.1260080396076822 0 -0.081978849477511453 0.1384377215961772 0 -0.096577670607123245 0.1239972751083621 0 -0.10667563132183119 0.1260080396076822 0 -0.1008242758955458 0.1385116675773613 0 -0.081978849477511453 0.1384377215961772 0 -0.10667563132183119 0.1260080396076822 0 -0.081978849477511453 0.1384377215961772 0 -0.1130049083687871 0.13722853083192951 0 -0.10667563132183119 0.1260080396076822 0 -0.1008242758955458 0.1385116675773613 0 -0.1130049083687871 0.13722853083192951 0 -0.1008242758955458 0.1385116675773613 0 -0.1078791741402548 0.14587794917826699 0 -0.094422293866394627 0.1556947047027778 0 -0.094582816169344081 0.14500609667275041 0 -0.1078791741402548 0.14587794917826699 0 -0.1008242758955458 0.1385116675773613 0 -0.094582816169344081 0.14500609667275041 0 -0.1078791741402548 0.14587794917826699 0 -0.12843792629854631 0.15978223771525801 0 -0.1204435081575875 0.14623213693654391 0 -0.1073217141416921 0.15896651377475199 0 -0.1078791741402548 0.14587794917826699 0 -0.1204435081575875 0.14623213693654391 0 -0.1073217141416921 0.15896651377475199 0 -0.1130049083687871 0.13722853083192951 0 -0.1078791741402548 0.14587794917826699 0 -0.1204435081575875 0.14623213693654391 0 -0.12843792629854631 0.15978223771525801 0 -0.1245765098090509 0.17966052017845999 0 -0.1120869942909358 0.17595806361305491 0 -0.1120869942909358 0.17595806361305491 0 -0.1073217141416921 0.15896651377475199 0 -0.12843792629854631 0.15978223771525801 0 -0.1120869942909358 0.17595806361305491 0 -0.12843792629854631 0.15978223771525801 0 -0.1120869942909358 0.17595806361305491 0 -0.1073217141416921 0.15896651377475199 0 -0.1245765098090509 0.17966052017845999 0 -0.1120869942909358 0.17595806361305491 0 -0.1190175871807343 0.20067046473278771 0 -0.1120869942909358 0.17595806361305491 0 -0.1020860412129876 0.1687304780430319 0 -0.095149617161195271 0.19271405424946009 0 -0.1020860412129876 0.1687304780430319 0 -0.095149617161195271 0.19271405424946009 0 -0.1120869942909358 0.17595806361305491 0 -0.095149617161195271 0.19271405424946009 0 -0.1020860412129876 0.1687304780430319 0 -0.093279947424905002 0.17994671451597891 0 -0.095149617161195271 0.19271405424946009 0 -0.1020860412129876 0.1687304780430319 0 -0.089956478385260899 0.16811851343374709 0 -0.093279947424905002 0.17994671451597891 0 -0.094422293866394627 0.1556947047027778 0 -0.1078791741402548 0.14587794917826699 0 -0.1020860412129876 0.1687304780430319 0 -0.1078791741402548 0.14587794917826699 0 -0.1073217141416921 0.15896651377475199 0 -0.1020860412129876 0.1687304780430319 0 -0.1120869942909358 0.17595806361305491 0 -0.1073217141416921 0.15896651377475199 0 -0.1020860412129876 0.1687304780430319 0 -0.1078791741402548 0.14587794917826699 0 -0.1020860412129876 0.1687304780430319 0 -0.094422293866394627 0.1556947047027778 0 -0.1020860412129876 0.1687304780430319 0 -0.089956478385260899 0.16811851343374709 0 -0.094422293866394627 0.1556947047027778 0 -0.089956478385260899 0.16811851343374709 0 -0.084742563178951485 0.15922574422532609 0 -0.089956478385260899 0.16811851343374709 0 -0.080023232193096983 0.1657260639694961 0 -0.084742563178951485 0.15922574422532609 0 -0.089956478385260899 0.16811851343374709 0 -0.080023232193096983 0.1657260639694961 0 -0.081293191825158789 0.17801619480298669 0 -0.080023232193096983 0.1657260639694961 0 -0.084742563178951485 0.15922574422532609 0 -0.074930767296401246 0.15918989644816289 0 -0.081293191825158789 0.17801619480298669 0 -0.095149617161195271 0.19271405424946009 0 -0.073474196407973841 0.19079473501472519 0 -0.081293191825158789 0.17801619480298669 0 -0.095149617161195271 0.19271405424946009 0 -0.093279947424905002 0.17994671451597891 0 -0.081293191825158789 0.17801619480298669 0 -0.095149617161195271 0.19271405424946009 0 -0.089956478385260899 0.16811851343374709 0 -0.093279947424905002 0.17994671451597891 0 -0.081293191825158789 0.17801619480298669 0 -0.064604308801312821 0.18244611143699499 0 -0.069549912031587807 0.17131438064227461 0 -0.073474196407973841 0.19079473501472519 0 -0.081293191825158789 0.17801619480298669 0 -0.069549912031587807 0.17131438064227461 0 -0.073474196407973841 0.19079473501472519 0 -0.069549912031587807 0.17131438064227461 0 -0.073474196407973841 0.19079473501472519 0 -0.064604308801312821 0.18244611143699499 0 -0.069549912031587807 0.17131438064227461 0 -0.062041409668937363 0.1723934095439342 0 -0.084742563178951485 0.15922574422532609 0 -0.074930767296401246 0.15918989644816289 0 -0.074588176879671189 0.15080810715310269 0 -0.080023232193096983 0.1657260639694961 0 -0.074930767296401246 0.15918989644816289 0 -0.06743676648912228 0.16331833535651319 0 -0.081293191825158789 0.17801619480298669 0 -0.069549912031587807 0.17131438064227461 0 -0.06743676648912228 0.16331833535651319 0 -0.080023232193096983 0.1657260639694961 0 -0.081293191825158789 0.17801619480298669 0 -0.06743676648912228 0.16331833535651319 0 -0.081293191825158789 0.17801619480298669 0 -0.06743676648912228 0.16331833535651319 0 -0.069549912031587807 0.17131438064227461 0 -0.062031688412593149 0.16441565219234799 0 -0.062041409668937363 0.1723934095439342 0 -0.069549912031587807 0.17131438064227461 0 -0.06743676648912228 0.16331833535651319 0 -0.062031688412593149 0.16441565219234799 0 -0.06743676648912228 0.16331833535651319 0 -0.06725389334219653 0.15771987894696021 0 -0.062031688412593149 0.16441565219234799 0 -0.074930767296401246 0.15918989644816289 0 -0.06743676648912228 0.16331833535651319 0 -0.06725389334219653 0.15771987894696021 0 -0.081978849477511453 0.1384377215961772 0 -0.05728206763319247 0.1508674035846734 0 -0.06725389334219653 0.15771987894696021 0 -0.074588176879671189 0.15080810715310269 0 -0.05728206763319247 0.1508674035846734 0 -0.074588176879671189 0.15080810715310269 0 -0.081978849477511453 0.1384377215961772 0 -0.05728206763319247 0.1508674035846734 0 -0.081978849477511453 0.1384377215961772 0 -0.06070043620975589 0.134524720015781 0 -0.05728206763319247 0.1508674035846734 0 -0.074930767296401246 0.15918989644816289 0 -0.06725389334219653 0.15771987894696021 0 -0.074588176879671189 0.15080810715310269 0 -0.071786582042575819 0.1280585334591178 0 -0.081978849477511453 0.1384377215961772 0 -0.08034823769671974 0.121089655777625 0 -0.071786582042575819 0.1280585334591178 0 -0.081978849477511453 0.1384377215961772 0 -0.06070043620975589 0.134524720015781 0 -0.071786582042575819 0.1280585334591178 0 -0.06070043620975589 0.134524720015781 0 -0.06411880478631618 0.11818203644688791 0 -0.081978849477511453 0.1384377215961772 0 -0.08034823769671974 0.121089655777625 0 -0.096577670607123245 0.1239972751083621 0 -0.1008242758955458 0.1385116675773613 0 -0.094582816169344081 0.14500609667275041 0 -0.081978849477511453 0.1384377215961772 0 -0.094582816169344081 0.14500609667275041 0 -0.081978849477511453 0.1384377215961772 0 -0.0854808471676783 0.14892295327365951 0 -0.094422293866394627 0.1556947047027778 0 -0.084742563178951485 0.15922574422532609 0 -0.0854808471676783 0.14892295327365951 0 -0.094422293866394627 0.1556947047027778 0 -0.094582816169344081 0.14500609667275041 0 -0.0854808471676783 0.14892295327365951 0 -0.084742563178951485 0.15922574422532609 0 -0.074588176879671189 0.15080810715310269 0 -0.0854808471676783 0.14892295327365951 0 -0.074588176879671189 0.15080810715310269 0 -0.081978849477511453 0.1384377215961772 0 -0.0854808471676783 0.14892295327365951 0 -0.1045487088169635 0.24438495162540061 0 -0.11455994162881621 0.23631135170566109 0 -0.098826177075254387 0.23394696074010041 0 -0.10005120432924321 0.25626016583208688 0 -0.094679029848152713 0.24609146959404629 0 -0.1045487088169635 0.24438495162540061 0 -0.094679029848152713 0.24609146959404629 0 -0.1045487088169635 0.24438495162540061 0 -0.098826177075254387 0.23394696074010041 0 -0.116744543106582 0.25728181003509248 0 -0.1045487088169635 0.24438495162540061 0 -0.11455994162881621 0.23631135170566109 0 -0.116744543106582 0.25728181003509248 0 -0.1327712538659816 0.24971188635390451 0 -0.11455994162881621 0.23631135170566109 0 -0.12594818007053379 0.2253828658525201 0 -0.1327712538659816 0.24971188635390451 0 -0.11455994162881621 0.23631135170566109 0 -0.11455994162881621 0.23631135170566109 0 -0.1144435087069731 0.2232582902708152 0 -0.1063794885369051 0.22193246116811141 0 -0.12594818007053379 0.2253828658525201 0 -0.1144435087069731 0.2232582902708152 0 -0.1108864245916369 0.20940648235696879 0 -0.12594818007053379 0.2253828658525201 0 -0.11455994162881621 0.23631135170566109 0 -0.1144435087069731 0.2232582902708152 0 -0.11455994162881621 0.23631135170566109 0 -0.1063794885369051 0.22193246116811141 0 -0.098826177075254387 0.23394696074010041 0 -0.1063794885369051 0.22193246116811141 0 -0.098826177075254387 0.23394696074010041 0 -0.089950704149474564 0.21660149084549701 0 -0.1063794885369051 0.22193246116811141 0 -0.089950704149474564 0.21660149084549701 0 -0.10053720550511509 0.21148400771379949 0 -0.095149617161195271 0.19271405424946009 0 -0.089950704149474564 0.21660149084549701 0 -0.1063794885369051 0.22193246116811141 0 -0.10053720550511509 0.21148400771379949 0 -0.089950704149474564 0.21660149084549701 0 -0.10053720550511509 0.21148400771379949 0 -0.1108864245916369 0.20940648235696879 0 -0.095149617161195271 0.19271405424946009 0 -0.1063794885369051 0.22193246116811141 0 -0.10053720550511509 0.21148400771379949 0 -0.1108864245916369 0.20940648235696879 0 -0.12594818007053379 0.2253828658525201 0 -0.1190175871807343 0.20067046473278771 0 -0.12594818007053379 0.2253828658525201 0 -0.1108864245916369 0.20940648235696879 0 -0.1190175871807343 0.20067046473278771 0 -0.12594818007053379 0.2253828658525201 0 -0.1108864245916369 0.20940648235696879 0 -0.1144435087069731 0.2232582902708152 0 -0.1063794885369051 0.22193246116811141 0 -0.1108864245916369 0.20940648235696879 0 -0.1120869942909358 0.17595806361305491 0 -0.1190175871807343 0.20067046473278771 0 -0.1108864245916369 0.20940648235696879 0 -0.1190175871807343 0.20067046473278771 0 -0.10682171669235439 0.1942096232944058 0 -0.1120869942909358 0.17595806361305491 0 -0.1190175871807343 0.20067046473278771 0 -0.10682171669235439 0.1942096232944058 0 -0.1108864245916369 0.20940648235696879 0 -0.095149617161195271 0.19271405424946009 0 -0.1108864245916369 0.20940648235696879 0 -0.10682171669235439 0.1942096232944058 0 -0.095149617161195271 0.19271405424946009 0 -0.1120869942909358 0.17595806361305491 0 -0.10682171669235439 0.1942096232944058 0 -0.095149617161195271 0.19271405424946009 0 -0.095149617161195271 0.19271405424946009 0 -0.077398480784349299 0.2102750893871779 0 -0.095149617161195271 0.19271405424946009 0 -0.073474196407973841 0.19079473501472519 0 -0.077398480784349299 0.2102750893871779 0 -0.095149617161195271 0.19271405424946009 0 -0.077398480784349299 0.2102750893871779 0 -0.087241526055590657 0.20514135106535239 0 -0.073474196407973841 0.19079473501472519 0 -0.077398480784349299 0.2102750893871779 0 -0.073474196407973841 0.19079473501472519 0 -0.077398480784349299 0.2102750893871779 0 -0.068984895145132993 0.20348567813270921 0 -0.064604308801312821 0.18244611143699499 0 -0.073474196407973841 0.19079473501472519 0 -0.062951628171730722 0.19451437844324071 0 -0.073474196407973841 0.19079473501472519 0 -0.062951628171730722 0.19451437844324071 0 -0.068984895145132993 0.20348567813270921 0 -0.062951628171730722 0.19451437844324071 0 -0.068984895145132993 0.20348567813270921 0 -0.057478398324341332 0.20606456403591589 0 -0.068984895145132993 0.20348567813270921 0 -0.075683327299925024 0.21197187487555791 0 -0.057478398324341332 0.20606456403591589 0 -0.075683327299925024 0.21197187487555791 0 -0.060700713784132942 0.2267940359372384 0 -0.057478398324341332 0.20606456403591589 0 -0.075683327299925024 0.21197187487555791 0 -0.057478398324341332 0.20606456403591589 0 -0.077398480784349299 0.2102750893871779 0 -0.068984895145132993 0.20348567813270921 0 -0.075683327299925024 0.21197187487555791 0 -0.075683327299925024 0.21197187487555791 0 -0.077884159070199604 0.2126860219832131 0 -0.060700713784132942 0.2267940359372384 0 -0.075683327299925024 0.21197187487555791 0 -0.077884159070199604 0.2126860219832131 0 -0.077398480784349299 0.2102750893871779 0 -0.075683327299925024 0.21197187487555791 0 -0.077884159070199604 0.2126860219832131 0 -0.077398480784349299 0.2102750893871779 0 -0.077884159070199604 0.2126860219832131 0 -0.077398480784349299 0.2102750893871779 0 -0.075683327299925024 0.21197187487555791 0 -0.077884159070199604 0.2126860219832131 0 -0.089950704149474564 0.21660149084549701 0 -0.077884159070199604 0.2126860219832131 0 -0.087241526055590657 0.20514135106535239 0 -0.089950704149474564 0.21660149084549701 0 -0.095149617161195271 0.19271405424946009 0 -0.087241526055590657 0.20514135106535239 0 -0.089950704149474564 0.21660149084549701 0 -0.095149617161195271 0.19271405424946009 0 -0.089950704149474564 0.21660149084549701 0 -0.077398480784349299 0.2102750893871779 0 -0.077884159070199604 0.2126860219832131 0 -0.087241526055590657 0.20514135106535239 0 -0.077884159070199604 0.2126860219832131 0 -0.083666647235009842 0.24139059785004849 0 -0.089950704149474564 0.21660149084549701 0 -0.083666647235009842 0.24139059785004849 0 -0.077884159070199604 0.2126860219832131 0 -0.089950704149474564 0.21660149084549701 0 -0.083666647235009842 0.24139059785004849 0 -0.098826177075254387 0.23394696074010041 0 -0.089950704149474564 0.21660149084549701 0 -0.083666647235009842 0.24139059785004849 0 -0.077884159070199604 0.2126860219832131 0 -0.083666647235009842 0.24139059785004849 0 -0.060700713784132942 0.2267940359372384 0 -0.075683327299925024 0.21197187487555791 0 -0.060700713784132942 0.2267940359372384 0 -0.064077212627390134 0.24851538469076631 0 -0.083666647235009842 0.24139059785004849 0 -0.060700713784132942 0.2267940359372384 0 -0.086302411784292182 0.25447467192259482 0 -0.083666647235009842 0.24139059785004849 0 -0.094679029848152713 0.24609146959404629 0 -0.098826177075254387 0.23394696074010041 0 -0.083666647235009842 0.24139059785004849 0 -0.086302411784292182 0.25447467192259482 0 -0.094679029848152713 0.24609146959404629 0 -0.083666647235009842 0.24139059785004849 0 -0.03068766995985707 0.25286978792993342 0 -0.034335222642673788 0.23481172099035691 0 -0.046578861792199937 0.24361118962503389 0 -0.034335222642673788 0.23481172099035691 0 -0.046578861792199937 0.24361118962503389 0 -0.045510089746351297 0.2289623102588538 0 -0.064077212627390134 0.24851538469076631 0 -0.046578861792199937 0.24361118962503389 0 -0.055802081643016588 0.23164020743468811 0 -0.064077212627390134 0.24851538469076631 0 -0.055802081643016588 0.23164020743468811 0 -0.060700713784132942 0.2267940359372384 0 -0.064077212627390134 0.24851538469076631 0 -0.060700713784132942 0.2267940359372384 0 -0.046578861792199937 0.24361118962503389 0 -0.055802081643016588 0.23164020743468811 0 -0.045510089746351297 0.2289623102588538 0 -0.055802081643016588 0.23164020743468811 0 -0.053252725762674542 0.2222055350902031 0 -0.045510089746351297 0.2289623102588538 0 -0.055802081643016588 0.23164020743468811 0 -0.060700713784132942 0.2267940359372384 0 -0.053252725762674542 0.2222055350902031 0 -0.055802081643016588 0.23164020743468811 0 -0.060700713784132942 0.2267940359372384 0 -0.053252725762674542 0.2222055350902031 0 -0.045510089746351297 0.2289623102588538 0 -0.046772345315528908 0.21756655778431969 0 -0.045510089746351297 0.2289623102588538 0 -0.036443083940353373 0.22210497005765251 0 -0.046772345315528908 0.21756655778431969 0 -0.034335222642673788 0.23481172099035691 0 -0.045510089746351297 0.2289623102588538 0 -0.036443083940353373 0.22210497005765251 0 -0.034335222642673788 0.23481172099035691 0 -0.036443083940353373 0.22210497005765251 0 -0.024866254401544021 0.22078734426404351 0 -0.036443083940353373 0.22210497005765251 0 -0.046772345315528908 0.21756655778431969 0 -0.031637039445344017 0.19767931081015269 0 -0.046772345315528908 0.21756655778431969 0 -0.057478398324341332 0.20606456403591589 0 -0.031637039445344017 0.19767931081015269 0 -0.060700713784132942 0.2267940359372384 0 -0.053252725762674542 0.2222055350902031 0 -0.057478398324341332 0.20606456403591589 0 -0.060700713784132942 0.2267940359372384 0 -0.057478398324341332 0.20606456403591589 0 -0.053252725762674542 0.2222055350902031 0 -0.046772345315528908 0.21756655778431969 0 -0.057478398324341332 0.20606456403591589 0 -0.062951628171730722 0.19451437844324071 0 -0.057478398324341332 0.20606456403591589 0 -0.054948738746262903 0.1897910154656581 0 -0.057478398324341332 0.20606456403591589 0 -0.054948738746262903 0.1897910154656581 0 -0.031637039445344017 0.19767931081015269 0 -0.057478398324341332 0.20606456403591589 0 -0.054948738746262903 0.1897910154656581 0 -0.054948738746262903 0.1897910154656581 0 -0.031637039445344017 0.19767931081015269 0 -0.039999697082172873 0.18418677263352329 0 -0.057478398324341332 0.20606456403591589 0 -0.031637039445344017 0.19767931081015269 0 -0.031637039445344017 0.19767931081015269 0 -0.0057956805663459468 0.1892940575843915 0 -0.031637039445344017 0.19767931081015269 0 -0.0057956805663459468 0.1892940575843915 0 -0.024775833668462071 0.17590936267321361 0 -0.031637039445344017 0.19767931081015269 0 -0.0057956805663459468 0.1892940575843915 0 -0.01019634689217482 0.20814994011246479 0 -0.0057956805663459468 0.1892940575843915 0 -0.01019634689217482 0.20814994011246479 0 0.0090806704795409685 0.20996839310177981 0 -0.01019634689217482 0.20814994011246479 0 0.00014186162909880781 0.2338185852574263 0 0.0090806704795409685 0.20996839310177981 0 -0.036443083940353373 0.22210497005765251 0 -0.031637039445344017 0.19767931081015269 0 -0.024866254401544021 0.22078734426404351 0 -0.031637039445344017 0.19767931081015269 0 -0.01019634689217482 0.20814994011246479 0 -0.024866254401544021 0.22078734426404351 0 -0.034335222642673788 0.23481172099035691 0 -0.024866254401544021 0.22078734426404351 0 -0.01991034591062427 0.239405390953495 0 -0.024866254401544021 0.22078734426404351 0 0.00014186162909880781 0.2338185852574263 0 -0.024866254401544021 0.22078734426404351 0 -0.01991034591062427 0.239405390953495 0 0.00014186162909880781 0.2338185852574263 0 -0.01019634689217482 0.20814994011246479 0 -0.024866254401544021 0.22078734426404351 0 0.00014186162909880781 0.2338185852574263 0 -0.0098044441781452579 0.25473951632571468 0 0.00014186162909880781 0.2338185852574263 0 0.0073806355134042019 0.25529449578482938 0 -0.0098044441781452579 0.25473951632571468 0 -0.01991034591062427 0.239405390953495 0 0.00014186162909880781 0.2338185852574263 0 -0.03068766995985707 0.25286978792993342 0 -0.034335222642673788 0.23481172099035691 0 -0.01991034591062427 0.239405390953495 0 -0.03068766995985707 0.25286978792993342 0 -0.0098044441781452579 0.25473951632571468 0 -0.01991034591062427 0.239405390953495 0 -0.045513089216113363 0.1481501368583191 0 -0.039963318838929777 0.1583549670989208 0 -0.028048700007850699 0.14601834090005769 0 -0.045513089216113363 0.1481501368583191 0 -0.037584816749385713 0.12707105787504261 0 -0.028048700007850699 0.14601834090005769 0 -0.037584816749385713 0.12707105787504261 0 -0.028048700007850699 0.14601834090005769 0 -0.045513089216113363 0.1481501368583191 0 -0.037584816749385713 0.12707105787504261 0 -0.045513089216113363 0.1481501368583191 0 -0.037584816749385713 0.12707105787504261 0 -0.049753839012929922 0.13582205838018921 0 -0.037584816749385713 0.12707105787504261 0 -0.049753839012929922 0.13582205838018921 0 -0.051208231868337763 0.1260313133231428 0 -0.049753839012929922 0.13582205838018921 0 -0.06070043620975589 0.134524720015781 0 -0.052276118599972977 0.1457036522838337 0 -0.051208231868337763 0.1260313133231428 0 -0.06070043620975589 0.134524720015781 0 -0.06411880478631618 0.11818203644688791 0 -0.06070043620975589 0.134524720015781 0 -0.06411880478631618 0.11818203644688791 0 -0.049753839012929922 0.13582205838018921 0 -0.051208231868337763 0.1260313133231428 0 -0.06070043620975589 0.134524720015781 0 -0.06070043620975589 0.134524720015781 0 -0.052276118599972977 0.1457036522838337 0 -0.05728206763319247 0.1508674035846734 0 -0.06070043620975589 0.134524720015781 0 -0.05728206763319247 0.1508674035846734 0 -0.045513089216113363 0.1481501368583191 0 -0.049753839012929922 0.13582205838018921 0 -0.052276118599972977 0.1457036522838337 0 -0.045513089216113363 0.1481501368583191 0 -0.052276118599972977 0.1457036522838337 0 -0.053440893212920608 0.15280063427064891 0 -0.052276118599972977 0.1457036522838337 0 -0.053440893212920608 0.15280063427064891 0 -0.05728206763319247 0.1508674035846734 0 -0.053440893212920608 0.15280063427064891 0 -0.05728206763319247 0.1508674035846734 0 -0.05728206763319247 0.1508674035846734 0 -0.062031688412593149 0.16441565219234799 0 -0.053441361682841117 0.16922921584159559 0 -0.053440893212920608 0.15280063427064891 0 -0.05728206763319247 0.1508674035846734 0 -0.053441361682841117 0.16922921584159559 0 -0.045513089216113363 0.1481501368583191 0 -0.053440893212920608 0.15280063427064891 0 -0.053441361682841117 0.16922921584159559 0 -0.045513089216113363 0.1481501368583191 0 -0.053441361682841117 0.16922921584159559 0 -0.05728206763319247 0.1508674035846734 0 -0.053441361682841117 0.16922921584159559 0 -0.06725389334219653 0.15771987894696021 0 -0.05728206763319247 0.1508674035846734 0 -0.062031688412593149 0.16441565219234799 0 -0.062031688412593149 0.16441565219234799 0 -0.053441361682841117 0.16922921584159559 0 -0.062041409668937363 0.1723934095439342 0 -0.053441361682841117 0.16922921584159559 0 -0.047633738945979477 0.17108968717192211 0 -0.039963318838929777 0.1583549670989208 0 -0.052991971448818453 0.17137768000779441 0 -0.053441361682841117 0.16922921584159559 0 -0.047633738945979477 0.17108968717192211 0 -0.052991971448818453 0.17137768000779441 0 -0.053441361682841117 0.16922921584159559 0 -0.054948738746262903 0.1897910154656581 0 -0.052419079168185397 0.17351746689540021 0 -0.046888846475854867 0.17837904804597579 0 -0.062951628171730722 0.19451437844324071 0 -0.054948738746262903 0.1897910154656581 0 -0.052419079168185397 0.17351746689540021 0 -0.062951628171730722 0.19451437844324071 0 -0.052991971448818453 0.17137768000779441 0 -0.052419079168185397 0.17351746689540021 0 -0.064604308801312821 0.18244611143699499 0 -0.062951628171730722 0.19451437844324071 0 -0.053441361682841117 0.16922921584159559 0 -0.062951628171730722 0.19451437844324071 0 -0.052991971448818453 0.17137768000779441 0 -0.053441361682841117 0.16922921584159559 0 -0.054948738746262903 0.1897910154656581 0 -0.052419079168185397 0.17351746689540021 0 -0.062951628171730722 0.19451437844324071 0 -0.053441361682841117 0.16922921584159559 0 -0.064604308801312821 0.18244611143699499 0 -0.053441361682841117 0.16922921584159559 0 -0.062041409668937363 0.1723934095439342 0 -0.052991971448818453 0.17137768000779441 0 -0.047633738945979477 0.17108968717192211 0 -0.052419079168185397 0.17351746689540021 0 -0.047633738945979477 0.17108968717192211 0 -0.052419079168185397 0.17351746689540021 0 -0.046888846475854867 0.17837904804597579 0 -0.054948738746262903 0.1897910154656581 0 -0.046888846475854867 0.17837904804597579 0 -0.039999697082172873 0.18418677263352329 0 -0.031637039445344017 0.19767931081015269 0 -0.039999697082172873 0.18418677263352329 0 -0.024775833668462071 0.17590936267321361 0 -0.046888846475854867 0.17837904804597579 0 -0.039999697082172873 0.18418677263352329 0 -0.039442978436673673 0.17331029806337539 0 -0.047633738945979477 0.17108968717192211 0 -0.046888846475854867 0.17837904804597579 0 -0.039442978436673673 0.17331029806337539 0 -0.039442978436673673 0.17331029806337539 0 -0.032139483942643897 0.16694135859911591 0 -0.024775833668462071 0.17590936267321361 0 -0.039999697082172873 0.18418677263352329 0 -0.039442978436673673 0.17331029806337539 0 -0.024775833668462071 0.17590936267321361 0 -0.045513089216113363 0.1481501368583191 0 -0.053441361682841117 0.16922921584159559 0 -0.039963318838929777 0.1583549670989208 0 -0.039963318838929777 0.1583549670989208 0 -0.032139483942643897 0.16694135859911591 0 -0.02343924065842673 0.15869802647678349 0 -0.047633738945979477 0.17108968717192211 0 -0.039442978436673673 0.17331029806337539 0 -0.039963318838929777 0.1583549670989208 0 -0.039442978436673673 0.17331029806337539 0 -0.039963318838929777 0.1583549670989208 0 -0.032139483942643897 0.16694135859911591 0 -0.032139483942643897 0.16694135859911591 0 -0.02343924065842673 0.15869802647678349 0 -0.024775833668462071 0.17590936267321361 0 -0.02343924065842673 0.15869802647678349 0 -0.024775833668462071 0.17590936267321361 0 -0.0048034666842798916 0.1614245706846468 0 -0.0057956805663459468 0.1892940575843915 0 -0.024775833668462071 0.17590936267321361 0 -0.0048034666842798916 0.1614245706846468 0 -0.0048034666842798916 0.1614245706846468 0 -0.01090464080839405 0.14353955890474629 0 0.011098566836083609 0.13484946890849181 0 -0.02343924065842673 0.15869802647678349 0 -0.0048034666842798916 0.1614245706846468 0 -0.01090464080839405 0.14353955890474629 0 -0.039963318838929777 0.1583549670989208 0 -0.02343924065842673 0.15869802647678349 0 -0.028048700007850699 0.14601834090005769 0 -0.02343924065842673 0.15869802647678349 0 -0.01090464080839405 0.14353955890474629 0 -0.028048700007850699 0.14601834090005769 0 -0.037584816749385713 0.12707105787504261 0 -0.0187932077553963 0.1304023687453105 0 -0.02482114599867602 0.1199028763409456 0 -0.01090464080839405 0.14353955890474629 0 -0.028048700007850699 0.14601834090005769 0 -0.0187932077553963 0.1304023687453105 0 -0.037584816749385713 0.12707105787504261 0 -0.028048700007850699 0.14601834090005769 0 -0.0187932077553963 0.1304023687453105 0 -0.0064436606074630637 0.13109611639504981 0 -0.007175360702145514 0.1155930690216506 0 0.011098566836083609 0.13484946890849181 0 -0.01090464080839405 0.14353955890474629 0 -0.0064436606074630637 0.13109611639504981 0 0.011098566836083609 0.13484946890849181 0 -0.0187932077553963 0.1304023687453105 0 -0.0064436606074630637 0.13109611639504981 0 -0.007175360702145514 0.1155930690216506 0 -0.01090464080839405 0.14353955890474629 0 -0.0187932077553963 0.1304023687453105 0 -0.0064436606074630637 0.13109611639504981 0 -0.007175360702145514 0.1155930690216506 0 -0.0040088977147468936 0.097024336429998151 0 -0.013655752966245171 0.094180689311720855 0 -0.007175360702145514 0.1155930690216506 0 -0.0040088977147468936 0.097024336429998151 0 0.0025937760044158291 0.1064596481343341 0 -0.007175360702145514 0.1155930690216506 0 -0.013655752966245171 0.094180689311720855 0 -0.02544928824037461 0.096336669134809427 0 -0.029459919491476121 0.1011230655410132 0 -0.021580178673492881 0.1105609364200745 0 -0.037915498494119543 0.10215930426450601 0 -0.007175360702145514 0.1155930690216506 0 -0.02544928824037461 0.096336669134809427 0 -0.007175360702145514 0.1155930690216506 0 -0.02544928824037461 0.096336669134809427 0 -0.0241566231860777 0.1021061234229471 0 -0.02544928824037461 0.096336669134809427 0 -0.029459919491476121 0.1011230655410132 0 -0.035034026511796899 0.0954599165668297 0 -0.02544928824037461 0.096336669134809427 0 -0.029459919491476121 0.1011230655410132 0 -0.0241566231860777 0.1021061234229471 0 -0.02544928824037461 0.096336669134809427 0 -0.0241566231860777 0.1021061234229471 0 -0.029459919491476121 0.1011230655410132 0 -0.0241566231860777 0.1021061234229471 0 -0.021580178673492881 0.1105609364200745 0 -0.02482114599867602 0.1199028763409456 0 -0.021580178673492881 0.1105609364200745 0 -0.032585978911933711 0.11378053360982859 0 -0.007175360702145514 0.1155930690216506 0 -0.0241566231860777 0.1021061234229471 0 -0.021580178673492881 0.1105609364200745 0 -0.0187932077553963 0.1304023687453105 0 -0.007175360702145514 0.1155930690216506 0 -0.02482114599867602 0.1199028763409456 0 -0.007175360702145514 0.1155930690216506 0 -0.02482114599867602 0.1199028763409456 0 -0.021580178673492881 0.1105609364200745 0 -0.01109578586274463 0.07592966442077155 0 -0.01963881101933795 0.057650575484614511 0 -0.0089029190745683329 0.062319161291970238 0 -0.0031702267477386531 0.067180855403790804 0 -0.01109578586274463 0.07592966442077155 0 0.0065236609159091173 0.071671444604676282 0 -0.0031702267477386531 0.067180855403790804 0 -0.0089029190745683329 0.062319161291970238 0 0.00079413703044923156 0.058803151297745167 0 -0.0031702267477386531 0.067180855403790804 0 -0.01109578586274463 0.07592966442077155 0 -0.0089029190745683329 0.062319161291970238 0 -0.0040088977147468936 0.097024336429998151 0 -0.01109578586274463 0.07592966442077155 0 0.011643404763696401 0.092949868607662828 0 -0.0040088977147468936 0.097024336429998151 0 -0.013655752966245171 0.094180689311720855 0 -0.01109578586274463 0.07592966442077155 0 -0.013655752966245171 0.094180689311720855 0 -0.01109578586274463 0.07592966442077155 0 -0.02054943231121421 0.086019707551374502 0 -0.02544928824037461 0.096336669134809427 0 -0.02054943231121421 0.086019707551374502 0 -0.029642132364781061 0.077623064684345475 0 -0.02544928824037461 0.096336669134809427 0 -0.029642132364781061 0.077623064684345475 0 -0.036673455980692451 0.084509049595857907 0 -0.01109578586274463 0.07592966442077155 0 -0.02054943231121421 0.086019707551374502 0 -0.029642132364781061 0.077623064684345475 0 -0.02544928824037461 0.096336669134809427 0 -0.029642132364781061 0.077623064684345475 0 -0.013655752966245171 0.094180689311720855 0 -0.02544928824037461 0.096336669134809427 0 -0.02054943231121421 0.086019707551374502 0 -0.02544928824037461 0.096336669134809427 0 -0.036673455980692451 0.084509049595857907 0 -0.01109578586274463 0.07592966442077155 0 -0.033834976489186493 0.058909460233881362 0 -0.01109578586274463 0.07592966442077155 0 -0.029642132364781061 0.077623064684345475 0 -0.033834976489186493 0.058909460233881362 0 -0.01109578586274463 0.07592966442077155 0 -0.033834976489186493 0.058909460233881362 0 -0.01963881101933795 0.057650575484614511 0 -0.029642132364781061 0.077623064684345475 0 -0.033834976489186493 0.058909460233881362 0 -0.029642132364781061 0.077623064684345475 0 -0.036732086871232597 0.066761861307427367 0 -0.033834976489186493 0.058909460233881362 0 -0.042969512877196837 0.063698159366550891 0 -0.036732086871232597 0.066761861307427367 0 -0.038306240480512441 0.072768089837317376 0 -0.042969512877196837 0.063698159366550891 0 -0.038306240480512441 0.072768089837317376 0 -0.046136221960229658 0.070392563092827029 0 -0.042969512877196837 0.063698159366550891 0 -0.036732086871232597 0.066761861307427367 0 -0.038907572144486188 0.060810532415041758 0 -0.029642132364781061 0.077623064684345475 0 -0.036732086871232597 0.066761861307427367 0 -0.038306240480512441 0.072768089837317376 0 -0.038306240480512441 0.072768089837317376 0 -0.046136221960229658 0.070392563092827029 0 -0.043586306971417507 0.077534071189344175 0 -0.038306240480512441 0.072768089837317376 0 -0.043586306971417507 0.077534071189344175 0 -0.036673455980692451 0.084509049595857907 0 -0.043586306971417507 0.077534071189344175 0 -0.036673455980692451 0.084509049595857907 0 -0.046978765451358998 0.084182386091036676 0 -0.029642132364781061 0.077623064684345475 0 -0.038306240480512441 0.072768089837317376 0 -0.036673455980692451 0.084509049595857907 0 -0.02544928824037461 0.096336669134809427 0 -0.036673455980692451 0.084509049595857907 0 -0.035034026511796899 0.0954599165668297 0 -0.036673455980692451 0.084509049595857907 0 -0.044089979176562301 0.093675305350012283 0 -0.035034026511796899 0.0954599165668297 0 -0.036673455980692451 0.084509049595857907 0 -0.044089979176562301 0.093675305350012283 0 -0.046978765451358998 0.084182386091036676 0 -0.044089979176562301 0.093675305350012283 0 -0.057144835734191893 0.088207312209507505 0 -0.046978765451358998 0.084182386091036676 0 -0.057144835734191893 0.088207312209507505 0 -0.046978765451358998 0.084182386091036676 0 -0.053399249393930842 0.076986192110461482 0 -0.043586306971417507 0.077534071189344175 0 -0.046978765451358998 0.084182386091036676 0 -0.053399249393930842 0.076986192110461482 0 -0.053399249393930842 0.076986192110461482 0 -0.070406408885084593 0.061857930521202607 0 -0.059815066152941319 0.061788281472960463 0 -0.057144835734191893 0.088207312209507505 0 -0.053399249393930842 0.076986192110461482 0 -0.070406408885084593 0.061857930521202607 0 -0.046136221960229658 0.070392563092827029 0 -0.043586306971417507 0.077534071189344175 0 -0.053399249393930842 0.076986192110461482 0 -0.046136221960229658 0.070392563092827029 0 -0.053399249393930842 0.076986192110461482 0 -0.05257832837313995 0.068950164376806455 0 -0.053399249393930842 0.076986192110461482 0 -0.05257832837313995 0.068950164376806455 0 -0.059815066152941319 0.061788281472960463 0 -0.05257832837313995 0.068950164376806455 0 -0.052166049838275927 0.062310195238599278 0 -0.059815066152941319 0.061788281472960463 0 -0.046136221960229658 0.070392563092827029 0 -0.05257832837313995 0.068950164376806455 0 -0.052166049838275927 0.062310195238599278 0 -0.042969512877196837 0.063698159366550891 0 -0.046136221960229658 0.070392563092827029 0 -0.052166049838275927 0.062310195238599278 0 -0.021580178673492881 0.1105609364200745 0 -0.043883262583300407 0.11455669389781301 0 -0.021580178673492881 0.1105609364200745 0 -0.043883262583300407 0.11455669389781301 0 -0.032585978911933711 0.11378053360982859 0 -0.037584816749385713 0.12707105787504261 0 -0.051208231868337763 0.1260313133231428 0 -0.043883262583300407 0.11455669389781301 0 -0.037584816749385713 0.12707105787504261 0 -0.043883262583300407 0.11455669389781301 0 -0.037584816749385713 0.12707105787504261 0 -0.032585978911933711 0.11378053360982859 0 -0.037584816749385713 0.12707105787504261 0 -0.043883262583300407 0.11455669389781301 0 -0.032585978911933711 0.11378053360982859 0 -0.037584816749385713 0.12707105787504261 0 -0.02482114599867602 0.1199028763409456 0 -0.032585978911933711 0.11378053360982859 0 -0.021580178673492881 0.1105609364200745 0 -0.043883262583300407 0.11455669389781301 0 -0.037915498494119543 0.10215930426450601 0 -0.044089979176562301 0.093675305350012283 0 -0.043883262583300407 0.11455669389781301 0 -0.037915498494119543 0.10215930426450601 0 -0.044089979176562301 0.093675305350012283 0 -0.037915498494119543 0.10215930426450601 0 -0.035034026511796899 0.0954599165668297 0 -0.029459919491476121 0.1011230655410132 0 -0.037915498494119543 0.10215930426450601 0 -0.035034026511796899 0.0954599165668297 0 -0.044089979176562301 0.093675305350012283 0 -0.057144835734191893 0.088207312209507505 0 -0.043883262583300407 0.11455669389781301 0 -0.057144835734191893 0.088207312209507505 0 -0.043883262583300407 0.11455669389781301 0 -0.057144835734191893 0.088207312209507505 0 -0.043883262583300407 0.11455669389781301 0 -0.056175626513735713 0.104231459755559 0 -0.056175626513735713 0.104231459755559 0 -0.061770267295803899 0.1005995653590098 0 -0.06411880478631618 0.11818203644688791 0 -0.057144835734191893 0.088207312209507505 0 -0.056175626513735713 0.104231459755559 0 -0.061770267295803899 0.1005995653590098 0 -0.043883262583300407 0.11455669389781301 0 -0.06411880478631618 0.11818203644688791 0 -0.051208231868337763 0.1260313133231428 0 -0.043883262583300407 0.11455669389781301 0 -0.06411880478631618 0.11818203644688791 0 -0.043883262583300407 0.11455669389781301 0 -0.056175626513735713 0.104231459755559 0 -0.06411880478631618 0.11818203644688791 0 -0.071786582042575819 0.1280585334591178 0 -0.06411880478631618 0.11818203644688791 0 -0.08034823769671974 0.121089655777625 0 -0.06411880478631618 0.11818203644688791 0 -0.08034823769671974 0.121089655777625 0 -0.075381325115152609 0.106019298300689 0 -0.06411880478631618 0.11818203644688791 0 -0.08034823769671974 0.121089655777625 0 -0.08034823769671974 0.121089655777625 0 -0.096577670607123245 0.1239972751083621 0 -0.08034823769671974 0.121089655777625 0 -0.092569001324263961 0.1124699312803344 0 -0.096577670607123245 0.1239972751083621 0 -0.08034823769671974 0.121089655777625 0 -0.083967771981719092 0.1102844810624737 0 -0.092569001324263961 0.1124699312803344 0 -0.08034823769671974 0.121089655777625 0 -0.083967771981719092 0.1102844810624737 0 -0.075381325115152609 0.106019298300689 0 -0.087572523790740042 0.10155903889124659 0 -0.082071947835387321 0.094412947715560025 0 -0.09233625647768956 0.091651488650119919 0 -0.083967771981719092 0.1102844810624737 0 -0.092569001324263961 0.1124699312803344 0 -0.087572523790740042 0.10155903889124659 0 -0.083967771981719092 0.1102844810624737 0 -0.087572523790740042 0.10155903889124659 0 -0.075381325115152609 0.106019298300689 0 -0.087572523790740042 0.10155903889124659 0 -0.082071947835387321 0.094412947715560025 0 -0.075381325115152609 0.106019298300689 0 -0.06411880478631618 0.11818203644688791 0 -0.06964180214897181 0.091777453024084701 0 -0.082071947835387321 0.094412947715560025 0 -0.075381325115152609 0.106019298300689 0 -0.06964180214897181 0.091777453024084701 0 -0.06411880478631618 0.11818203644688791 0 -0.075381325115152609 0.106019298300689 0 -0.06964180214897181 0.091777453024084701 0 -0.061770267295803899 0.1005995653590098 0 -0.06411880478631618 0.11818203644688791 0 -0.06964180214897181 0.091777453024084701 0 -0.057144835734191893 0.088207312209507505 0 -0.061770267295803899 0.1005995653590098 0 -0.06964180214897181 0.091777453024084701 0 -0.06964180214897181 0.091777453024084701 0 -0.075164799511626648 0.065372869601281192 0 -0.057144835734191893 0.088207312209507505 0 -0.06964180214897181 0.091777453024084701 0 -0.068089461569968729 0.076803891339018993 0 -0.06964180214897181 0.091777453024084701 0 -0.068089461569968729 0.076803891339018993 0 -0.075164799511626648 0.065372869601281192 0 -0.057144835734191893 0.088207312209507505 0 -0.068089461569968729 0.076803891339018993 0 -0.070406408885084593 0.061857930521202607 0 -0.06964180214897181 0.091777453024084701 0 -0.075164799511626648 0.065372869601281192 0 -0.08073347634316104 0.073575546631144614 0 -0.057144835734191893 0.088207312209507505 0 -0.070406408885084593 0.061857930521202607 0 -0.068089461569968729 0.076803891339018993 0 -0.075164799511626648 0.065372869601281192 0 -0.070406408885084593 0.061857930521202607 0 -0.089923560922876636 0.068178037636278263 0 -0.08578586832533959 0.082170087930996366 0 -0.103675070998617 0.083967309240415983 0 -0.08073347634316104 0.073575546631144614 0 -0.089923560922876636 0.068178037636278263 0 -0.083186879645449088 0.059889597987781727 0 -0.075164799511626648 0.065372869601281192 0 -0.08073347634316104 0.073575546631144614 0 -0.083186879645449088 0.059889597987781727 0 -0.08073347634316104 0.073575546631144614 0 -0.089923560922876636 0.068178037636278263 0 -0.08578586832533959 0.082170087930996366 0 -0.06964180214897181 0.091777453024084701 0 -0.08073347634316104 0.073575546631144614 0 -0.08578586832533959 0.082170087930996366 0 -0.082071947835387321 0.094412947715560025 0 -0.06964180214897181 0.091777453024084701 0 -0.08578586832533959 0.082170087930996366 0 -0.082071947835387321 0.094412947715560025 0 -0.08578586832533959 0.082170087930996366 0 -0.09233625647768956 0.091651488650119919 0 -0.09233625647768956 0.091651488650119919 0 -0.103675070998617 0.083967309240415983 0 -0.10429444750695741 0.1014886749251958 0 -0.08578586832533959 0.082170087930996366 0 -0.09233625647768956 0.091651488650119919 0 -0.103675070998617 0.083967309240415983 0 -0.103675070998617 0.083967309240415983 0 -0.1198812247159142 0.095002477965890675 0 -0.10429444750695741 0.1014886749251958 0 -0.089923560922876636 0.068178037636278263 0 -0.103675070998617 0.083967309240415983 0 -0.10785209906359081 0.065371441260914459 0 -0.12533951967512769 0.078274991835817334 0 -0.103675070998617 0.083967309240415983 0 -0.10785209906359081 0.065371441260914459 0 -0.12533951967512769 0.078274991835817334 0 -0.10785209906359081 0.065371441260914459 0 -0.1248745965026067 0.059896082918310993 0 -0.12533951967512769 0.078274991835817334 0 -0.103675070998617 0.083967309240415983 0 -0.1198812247159142 0.095002477965890675 0 -0.13137241316615089 0.11357835761918721 0 -0.1198812247159142 0.095002477965890675 0 -0.10429444750695741 0.1014886749251958 0 -0.13137241316615089 0.11357835761918721 0 -0.12687331202938101 0.13192737382428379 0 -0.10667563132183119 0.1260080396076822 0 -0.13137241316615089 0.11357835761918721 0 -0.10667563132183119 0.1260080396076822 0 -0.1062978327852654 0.11550845570815239 0 -0.13137241316615089 0.11357835761918721 0 -0.1062978327852654 0.11550845570815239 0 -0.10429444750695741 0.1014886749251958 0 -0.13137241316615089 0.11357835761918721 0 -0.10667563132183119 0.1260080396076822 0 -0.10667563132183119 0.1260080396076822 0 -0.1062978327852654 0.11550845570815239 0 -0.096577670607123245 0.1239972751083621 0 -0.092569001324263961 0.1124699312803344 0 -0.1062978327852654 0.11550845570815239 0 -0.096577670607123245 0.1239972751083621 0 -0.092569001324263961 0.1124699312803344 0 -0.1062978327852654 0.11550845570815239 0 -0.10429444750695741 0.1014886749251958 0 -0.092569001324263961 0.1124699312803344 0 -0.087572523790740042 0.10155903889124659 0 -0.10429444750695741 0.1014886749251958 0 -0.087572523790740042 0.10155903889124659 0 -0.09233625647768956 0.091651488650119919 0 -0.10429444750695741 0.1014886749251958 0 -0.10370969952600501 0.019997694726909911 0 -0.098524362227562057 0.035744340183224317 0 -0.08645931971955316 0.02325136753113614 0 -0.10370969952600501 0.019997694726909911 0 -0.08645931971955316 0.02325136753113614 0 -0.091682611010439896 0.0063963380850077774 0 -0.10370969952600501 0.019997694726909911 0 -0.1180188049733784 0.030804183747700629 0 -0.098524362227562057 0.035744340183224317 0 -0.10370969952600501 0.019997694726909911 0 -0.10877227824827949 0.0075748546359299482 0 -0.091682611010439896 0.0063963380850077774 0 -0.1029392013539359 -0.0085751277431150782 0 -0.10877227824827949 0.0075748546359299482 0 -0.091682611010439896 0.0063963380850077774 0 -0.10370969952600501 0.019997694726909911 0 -0.10877227824827949 0.0075748546359299482 0 -0.11835839359799651 0.016938700943610479 0 -0.1029392013539359 -0.0085751277431150782 0 -0.12735709500343681 0.004015926865657337 0 -0.10877227824827949 0.0075748546359299482 0 -0.12735709500343681 0.004015926865657337 0 -0.10877227824827949 0.0075748546359299482 0 -0.11835839359799651 0.016938700943610479 0 -0.1339340902388827 0.022300844741854581 0 -0.11835839359799651 0.016938700943610479 0 -0.1180188049733784 0.030804183747700629 0 -0.10370969952600501 0.019997694726909911 0 -0.11835839359799651 0.016938700943610479 0 -0.1180188049733784 0.030804183747700629 0 -0.1180188049733784 0.030804183747700629 0 -0.1128457876968547 0.048091259023394652 0 -0.098524362227562057 0.035744340183224317 0 -0.13626681081840961 0.042829268155062397 0 -0.1128457876968547 0.048091259023394652 0 -0.13626681081840961 0.042829268155062397 0 -0.1180188049733784 0.030804183747700629 0 -0.1128457876968547 0.048091259023394652 0 -0.13626681081840961 0.042829268155062397 0 -0.1128457876968547 0.048091259023394652 0 -0.1248745965026067 0.059896082918310993 0 -0.10785209906359081 0.065371441260914459 0 -0.1128457876968547 0.048091259023394652 0 -0.1248745965026067 0.059896082918310993 0 -0.1128457876968547 0.048091259023394652 0 -0.089424764575299687 0.053353249891726941 0 -0.089923560922876636 0.068178037636278263 0 -0.10785209906359081 0.065371441260914459 0 -0.089424764575299687 0.053353249891726941 0 -0.10785209906359081 0.065371441260914459 0 -0.1128457876968547 0.048091259023394652 0 -0.089424764575299687 0.053353249891726941 0 -0.1128457876968547 0.048091259023394652 0 -0.098524362227562057 0.035744340183224317 0 -0.089424764575299687 0.053353249891726941 0 -0.098524362227562057 0.035744340183224317 0 -0.080687796874281473 0.038968286178477703 0 -0.08645931971955316 0.02325136753113614 0 -0.098524362227562057 0.035744340183224317 0 -0.080687796874281473 0.038968286178477703 0 -0.089424764575299687 0.053353249891726941 0 -0.080687796874281473 0.038968286178477703 0 -0.089424764575299687 0.053353249891726941 0 -0.083186879645449088 0.059889597987781727 0 -0.075164799511626648 0.065372869601281192 0 -0.080687796874281473 0.038968286178477703 0 -0.083186879645449088 0.059889597987781727 0 -0.089923560922876636 0.068178037636278263 0 -0.089424764575299687 0.053353249891726941 0 -0.083186879645449088 0.059889597987781727 0 -0.075164799511626648 0.065372869601281192 0 -0.080687796874281473 0.038968286178477703 0 -0.071303082845968715 0.053347503409362687 0 -0.075164799511626648 0.065372869601281192 0 -0.080687796874281473 0.038968286178477703 0 -0.075164799511626648 0.065372869601281192 0 -0.070406408885084593 0.061857930521202607 0 -0.071303082845968715 0.053347503409362687 0 -0.071303082845968715 0.053347503409362687 0 -0.064856269609628314 0.055117702274744398 0 -0.065400139349222536 0.045420728471107522 0 -0.070406408885084593 0.061857930521202607 0 -0.071303082845968715 0.053347503409362687 0 -0.064856269609628314 0.055117702274744398 0 -0.070406408885084593 0.061857930521202607 0 -0.064856269609628314 0.055117702274744398 0 -0.059815066152941319 0.061788281472960463 0 -0.080687796874281473 0.038968286178477703 0 -0.065400139349222536 0.045420728471107522 0 -0.063264057366842208 0.031259222641012697 0 -0.080687796874281473 0.038968286178477703 0 -0.063264057366842208 0.031259222641012697 0 -0.073460039823911166 0.024685388153665749 0 -0.080687796874281473 0.038968286178477703 0 -0.071303082845968715 0.053347503409362687 0 -0.065400139349222536 0.045420728471107522 0 -0.063264057366842208 0.031259222641012697 0 -0.073460039823911166 0.024685388153665749 0 -0.061440697951084179 0.017621877449499421 0 -0.073460039823911166 0.024685388153665749 0 -0.076769634387976737 0.01135693610240161 0 -0.061440697951084179 0.017621877449499421 0 -0.080687796874281473 0.038968286178477703 0 -0.073460039823911166 0.024685388153665749 0 -0.08645931971955316 0.02325136753113614 0 -0.073460039823911166 0.024685388153665749 0 -0.08645931971955316 0.02325136753113614 0 -0.076769634387976737 0.01135693610240161 0 -0.08645931971955316 0.02325136753113614 0 -0.091682611010439896 0.0063963380850077774 0 -0.076769634387976737 0.01135693610240161 0 -0.091682611010439896 0.0063963380850077774 0 -0.078933949510919491 0.00072378658541613432 0 -0.076769634387976737 0.01135693610240161 0 -0.086097875964997059 -0.0058870606910941042 0 -0.091682611010439896 0.0063963380850077774 0 -0.078933949510919491 0.00072378658541613432 0 -0.078933949510919491 0.00072378658541613432 0 -0.076769634387976737 0.01135693610240161 0 -0.068462160169621672 0.0025537029525893409 0 -0.068462160169621672 0.0025537029525893409 0 -0.057836245250817257 0.0062936453779614283 0 -0.061440697951084179 0.017621877449499421 0 -0.076769634387976737 0.01135693610240161 0 -0.068462160169621672 0.0025537029525893409 0 -0.061440697951084179 0.017621877449499421 0 -0.057836245250817257 0.0062936453779614283 0 -0.061440697951084179 0.017621877449499421 0 -0.042678209040760022 0.019440128409622049 0 -0.057836245250817257 0.0062936453779614283 0 -0.042678209040760022 0.019440128409622049 0 -0.044352522143416888 0.0050416822031405977 0 -0.063264057366842208 0.031259222641012697 0 -0.042678209040760022 0.019440128409622049 0 -0.05195897498334151 0.039592758420259042 0 -0.063264057366842208 0.031259222641012697 0 -0.061440697951084179 0.017621877449499421 0 -0.042678209040760022 0.019440128409622049 0 -0.042678209040760022 0.019440128409622049 0 -0.038256592764973757 0.039174794321751791 0 -0.042678209040760022 0.019440128409622049 0 -0.038256592764973757 0.039174794321751791 0 -0.027511467414372541 0.03001296694831072 0 -0.042678209040760022 0.019440128409622049 0 -0.028180513839983729 0.018098474401369 0 -0.027511467414372541 0.03001296694831072 0 -0.042678209040760022 0.019440128409622049 0 -0.032770024037711037 0.0084985419153508525 0 -0.028180513839983729 0.018098474401369 0 -0.032770024037711037 0.0084985419153508525 0 -0.03614709390981162 0.0015378833132510439 0 -0.044352522143416888 0.0050416822031405977 0 -0.029539197120254941 -0.00051038393964639519 0 -0.032770024037711037 0.0084985419153508525 0 -0.03614709390981162 0.0015378833132510439 0 -0.042678209040760022 0.019440128409622049 0 -0.032770024037711037 0.0084985419153508525 0 -0.044352522143416888 0.0050416822031405977 0 -0.042969512877196837 0.063698159366550891 0 -0.047980875447113908 0.056604040506729722 0 -0.052166049838275927 0.062310195238599278 0 -0.047980875447113908 0.056604040506729722 0 -0.052166049838275927 0.062310195238599278 0 -0.055804220694704088 0.051985500715961808 0 -0.064856269609628314 0.055117702274744398 0 -0.059815066152941319 0.061788281472960463 0 -0.055804220694704088 0.051985500715961808 0 -0.052166049838275927 0.062310195238599278 0 -0.059815066152941319 0.061788281472960463 0 -0.055804220694704088 0.051985500715961808 0 -0.064856269609628314 0.055117702274744398 0 -0.065400139349222536 0.045420728471107522 0 -0.055804220694704088 0.051985500715961808 0 -0.047980875447113908 0.056604040506729722 0 -0.055804220694704088 0.051985500715961808 0 -0.046350630683546529 0.050276175962098407 0 -0.055804220694704088 0.051985500715961808 0 -0.05195897498334151 0.039592758420259042 0 -0.046350630683546529 0.050276175962098407 0 -0.065400139349222536 0.045420728471107522 0 -0.055804220694704088 0.051985500715961808 0 -0.05195897498334151 0.039592758420259042 0 -0.065400139349222536 0.045420728471107522 0 -0.063264057366842208 0.031259222641012697 0 -0.05195897498334151 0.039592758420259042 0 -0.042678209040760022 0.019440128409622049 0 -0.05195897498334151 0.039592758420259042 0 -0.038256592764973757 0.039174794321751791 0 -0.05195897498334151 0.039592758420259042 0 -0.038256592764973757 0.039174794321751791 0 -0.046350630683546529 0.050276175962098407 0 -0.038256592764973757 0.039174794321751791 0 -0.033834976489186493 0.058909460233881362 0 -0.038256592764973757 0.039174794321751791 0 -0.038513274033404883 0.055407770980391423 0 -0.033834976489186493 0.058909460233881362 0 -0.038256592764973757 0.039174794321751791 0 -0.046350630683546529 0.050276175962098407 0 -0.038513274033404883 0.055407770980391423 0 -0.038256592764973757 0.039174794321751791 0 -0.033834976489186493 0.058909460233881362 0 -0.02879531395286377 0.050132256585483953 0 -0.046350630683546529 0.050276175962098407 0 -0.038513274033404883 0.055407770980391423 0 -0.042914570065583427 0.057802329486214707 0 -0.036732086871232597 0.066761861307427367 0 -0.033834976489186493 0.058909460233881362 0 -0.038907572144486188 0.060810532415041758 0 -0.038513274033404883 0.055407770980391423 0 -0.033834976489186493 0.058909460233881362 0 -0.038513274033404883 0.055407770980391423 0 -0.033834976489186493 0.058909460233881362 0 -0.038907572144486188 0.060810532415041758 0 -0.042969512877196837 0.063698159366550891 0 -0.038907572144486188 0.060810532415041758 0 -0.042914570065583427 0.057802329486214707 0 -0.038513274033404883 0.055407770980391423 0 -0.038907572144486188 0.060810532415041758 0 -0.042914570065583427 0.057802329486214707 0 -0.047980875447113908 0.056604040506729722 0 -0.046350630683546529 0.050276175962098407 0 -0.042914570065583427 0.057802329486214707 0 -0.042969512877196837 0.063698159366550891 0 -0.047980875447113908 0.056604040506729722 0 -0.042914570065583427 0.057802329486214707 0 -0.033834976489186493 0.058909460233881362 0 -0.01963881101933795 0.057650575484614511 0 -0.02879531395286377 0.050132256585483953 0 -0.01963881101933795 0.057650575484614511 0 -0.02879531395286377 0.050132256585483953 0 -0.02345087553795689 0.044794196301688183 0 -0.01963881101933795 0.057650575484614511 0 -0.02345087553795689 0.044794196301688183 0 -0.012175026131353321 0.050402421608982242 0 -0.02345087553795689 0.044794196301688183 0 -0.014695186475719159 0.0359408453649432 0 -0.012175026131353321 0.050402421608982242 0 -0.038256592764973757 0.039174794321751791 0 -0.02879531395286377 0.050132256585483953 0 -0.02345087553795689 0.044794196301688183 0 -0.038256592764973757 0.039174794321751791 0 -0.02345087553795689 0.044794196301688183 0 -0.027511467414372541 0.03001296694831072 0 -0.02345087553795689 0.044794196301688183 0 -0.014695186475719159 0.0359408453649432 0 -0.027511467414372541 0.03001296694831072 0 -0.014695186475719159 0.0359408453649432 0 -0.0023331541944977092 0.045311556235899067 0 0.00074240361007229996 0.028778475488121531 0 -0.014695186475719159 0.0359408453649432 0 -0.0023331541944977092 0.045311556235899067 0 -0.012175026131353321 0.050402421608982242 0 -0.0023331541944977092 0.045311556235899067 0 -0.012175026131353321 0.050402421608982242 0 0.00079413703044923156 0.058803151297745167 0 -0.012175026131353321 0.050402421608982242 0 -0.0089029190745683329 0.062319161291970238 0 0.00079413703044923156 0.058803151297745167 0 -0.01963881101933795 0.057650575484614511 0 -0.012175026131353321 0.050402421608982242 0 -0.0089029190745683329 0.062319161291970238 0 -0.021996997598287969 0.010981086364913869 0 -0.02112675760807068 0.0030512678310729521 0 -0.0083058662928979787 0.012079608812324741 0 -0.021996997598287969 0.010981086364913869 0 -0.01661374249992489 0.02103319015209278 0 -0.0083058662928979787 0.012079608812324741 0 -0.021996997598287969 0.010981086364913869 0 -0.02112675760807068 0.0030512678310729521 0 -0.02631380729169577 0.0053104208567875946 0 -0.029539197120254941 -0.00051038393964639519 0 -0.02112675760807068 0.0030512678310729521 0 -0.02631380729169577 0.0053104208567875946 0 -0.029539197120254941 -0.00051038393964639519 0 -0.032770024037711037 0.0084985419153508525 0 -0.02631380729169577 0.0053104208567875946 0 -0.032770024037711037 0.0084985419153508525 0 -0.021996997598287969 0.010981086364913869 0 -0.02631380729169577 0.0053104208567875946 0 -0.032770024037711037 0.0084985419153508525 0 -0.021996997598287969 0.010981086364913869 0 -0.028180513839983729 0.018098474401369 0 -0.028180513839983729 0.018098474401369 0 -0.027511467414372541 0.03001296694831072 0 -0.01661374249992489 0.02103319015209278 0 -0.014695186475719159 0.0359408453649432 0 -0.027511467414372541 0.03001296694831072 0 -0.01661374249992489 0.02103319015209278 0 -0.021996997598287969 0.010981086364913869 0 -0.028180513839983729 0.018098474401369 0 -0.01661374249992489 0.02103319015209278 0 -0.01661374249992489 0.02103319015209278 0 0.00074240361007229996 0.028778475488121531 0 -0.0083058662928979787 0.012079608812324741 0 0.0060294939382754481 0.01286563290641534 0 0.00074240361007229996 0.028778475488121531 0 -0.014695186475719159 0.0359408453649432 0 -0.01661374249992489 0.02103319015209278 0 0.00074240361007229996 0.028778475488121531 0 -0.0083058662928979787 0.012079608812324741 0 0.00074240361007229996 0.028778475488121531 0 -0.01661374249992489 0.02103319015209278 0 -0.0083058662928979787 0.012079608812324741 0 0.00074240361007229996 0.028778475488121531 0 -0.0072764121498596901 -0.0036325873431357339 0 -0.0083058662928979787 0.012079608812324741 0 0.0012074066645448821 -0.00065723147797176382 0 -0.0072764121498596901 -0.0036325873431357339 0 -0.013607688627124061 -0.00178224205395049 0 -0.0083058662928979787 0.012079608812324741 0 -0.017354136195868258 -0.0046192578634720229 0 -0.0083058662928979787 0.012079608812324741 0 -0.017354136195868258 -0.0046192578634720229 0 -0.013607688627124061 -0.00178224205395049 0 -0.0083058662928979787 0.012079608812324741 0 -0.0083058662928979787 0.012079608812324741 0 0.0060294939382754481 0.01286563290641534 0 0.0012074066645448821 -0.00065723147797176382 0 -0.017354136195868258 -0.0046192578634720229 0 -0.02112675760807068 0.0030512678310729521 0 -0.0083058662928979787 0.012079608812324741 0 0.0060294939382754481 0.01286563290641534 0 0.0012074066645448821 -0.00065723147797176382 0 0.01265631079038235 -0.01012693536007268 0 0.0060294939382754481 0.01286563290641534 0 0.020311547060899309 0.014329649790385431 0 0.01265631079038235 -0.01012693536007268 0 0.00074240361007229996 0.028778475488121531 0 0.015746539320639769 0.024046632949657649 0 0.022626785018342459 0.038544513255683338 0 0.0060294939382754481 0.01286563290641534 0 0.00074240361007229996 0.028778475488121531 0 0.015746539320639769 0.024046632949657649 0 0.0060294939382754481 0.01286563290641534 0 0.015746539320639769 0.024046632949657649 0 0.020311547060899309 0.014329649790385431 0 0.015746539320639769 0.024046632949657649 0 0.029022466975609298 0.02571489330768258 0 0.020311547060899309 0.014329649790385431 0 0.015746539320639769 0.024046632949657649 0 0.029022466975609298 0.02571489330768258 0 0.022626785018342459 0.038544513255683338 0 0.020311547060899309 0.014329649790385431 0 0.034885408484197772 0.0062912350017927032 0 0.01265631079038235 -0.01012693536007268 0 0.029022466975609298 0.02571489330768258 0 0.020311547060899309 0.014329649790385431 0 0.034885408484197772 0.0062912350017927032 0 0.00079413703044923156 0.058803151297745167 0 0.01366790099406239 0.052632887419703241 0 0.0065236609159091173 0.071671444604676282 0 -0.0023331541944977092 0.045311556235899067 0 0.00079413703044923156 0.058803151297745167 0 0.01366790099406239 0.052632887419703241 0 0.00074240361007229996 0.028778475488121531 0 0.01366790099406239 0.052632887419703241 0 0.022626785018342459 0.038544513255683338 0 0.00074240361007229996 0.028778475488121531 0 0.022626785018342459 0.038544513255683338 0 -0.0023331541944977092 0.045311556235899067 0 0.00074240361007229996 0.028778475488121531 0 0.01366790099406239 0.052632887419703241 0 0.00074240361007229996 0.028778475488121531 0 0.01366790099406239 0.052632887419703241 0 0.029022466975609298 0.02571489330768258 0 0.022626785018342459 0.038544513255683338 0 0.037630953216902623 0.033668105561091018 0 0.01366790099406239 0.052632887419703241 0 0.022626785018342459 0.038544513255683338 0 0.025434983742737761 0.055249644843112657 0 0.022626785018342459 0.038544513255683338 0 0.025434983742737761 0.055249644843112657 0 0.034616451435572633 0.051242168749322393 0 0.025434983742737761 0.055249644843112657 0 0.034062632092931817 0.061255223706808547 0 0.02703491536905472 0.067401080742933134 0 0.01366790099406239 0.052632887419703241 0 0.025434983742737761 0.055249644843112657 0 0.02703491536905472 0.067401080742933134 0 0.034616451435572633 0.051242168749322393 0 0.044511166426612833 0.04831055102324476 0 0.060132464308973767 0.062986029428160187 0 0.034616451435572633 0.051242168749322393 0 0.060132464308973767 0.062986029428160187 0 0.044258496001147778 0.063884183083345675 0 0.034062632092931817 0.061255223706808547 0 0.034616451435572633 0.051242168749322393 0 0.044258496001147778 0.063884183083345675 0 0.025434983742737761 0.055249644843112657 0 0.034062632092931817 0.061255223706808547 0 0.034616451435572633 0.051242168749322393 0 0.022626785018342459 0.038544513255683338 0 0.044511166426612833 0.04831055102324476 0 0.022626785018342459 0.038544513255683338 0 0.034616451435572633 0.051242168749322393 0 0.044511166426612833 0.04831055102324476 0 0.022626785018342459 0.038544513255683338 0 0.044511166426612833 0.04831055102324476 0 0.037630953216902623 0.033668105561091018 0 0.044511166426612833 0.04831055102324476 0 0.037630953216902623 0.033668105561091018 0 0.0484135161167236 0.034205204957136963 0 0.0484135161167236 0.034205204957136963 0 0.060669767880595721 0.038134724015348051 0 0.0518117103670514 0.042737821036878322 0 0.0484135161167236 0.034205204957136963 0 0.060669767880595721 0.038134724015348051 0 0.057623658326613529 0.02352368721002385 0 0.060669767880595721 0.038134724015348051 0 0.0518117103670514 0.042737821036878322 0 0.059559274975242667 0.047504887075434543 0 0.044511166426612833 0.04831055102324476 0 0.0518117103670514 0.042737821036878322 0 0.059559274975242667 0.047504887075434543 0 0.044511166426612833 0.04831055102324476 0 0.0484135161167236 0.034205204957136963 0 0.0518117103670514 0.042737821036878322 0 0.044511166426612833 0.04831055102324476 0 0.066395547834883203 0.05807658879080619 0 0.060132464308973767 0.062986029428160187 0 0.034616451435572633 0.051242168749322393 0 0.060132464308973767 0.062986029428160187 0 0.044511166426612833 0.04831055102324476 0 0.066395547834883203 0.05807658879080619 0 0.044511166426612833 0.04831055102324476 0 0.059559274975242667 0.047504887075434543 0 0.066395547834883203 0.05807658879080619 0 0.034885408484197772 0.0062912350017927032 0 0.052968053050369737 0.0090809173488315582 0 0.042517259973231587 -0.011683923625132649 0 0.034885408484197772 0.0062912350017927032 0 0.043580831547224863 0.021565365261707499 0 0.052968053050369737 0.0090809173488315582 0 0.029022466975609298 0.02571489330768258 0 0.034885408484197772 0.0062912350017927032 0 0.043580831547224863 0.021565365261707499 0 0.029022466975609298 0.02571489330768258 0 0.037630953216902623 0.033668105561091018 0 0.043580831547224863 0.021565365261707499 0 0.037630953216902623 0.033668105561091018 0 0.0484135161167236 0.034205204957136963 0 0.043580831547224863 0.021565365261707499 0 0.057623658326613529 0.02352368721002385 0 0.052968053050369737 0.0090809173488315582 0 0.071708216805815503 0.016768608491387289 0 0.043580831547224863 0.021565365261707499 0 0.057623658326613529 0.02352368721002385 0 0.052968053050369737 0.0090809173488315582 0 0.0484135161167236 0.034205204957136963 0 0.043580831547224863 0.021565365261707499 0 0.057623658326613529 0.02352368721002385 0 0.052968053050369737 0.0090809173488315582 0 0.071708216805815503 0.016768608491387289 0 0.067492943165135169 -0.0019794682467893379 0 0.083930998993742512 0.0059737405228527038 0 0.071708216805815503 0.016768608491387289 0 0.067492943165135169 -0.0019794682467893379 0 0.083930998993742512 0.0059737405228527038 0 0.098495163759696414 0.0029673617968291321 0 0.094917995650245529 0.021722354499223519 0 0.083930998993742512 0.0059737405228527038 0 0.071708216805815503 0.016768608491387289 0 0.094917995650245529 0.021722354499223519 0 0.071708216805815503 0.016768608491387289 0 0.07449934060461412 0.03258063005354956 0 0.094917995650245529 0.021722354499223519 0 0.07449934060461412 0.03258063005354956 0 0.087237150257314613 0.037926204838731957 0 0.094917995650245529 0.021722354499223519 0 0.057623658326613529 0.02352368721002385 0 0.071708216805815503 0.016768608491387289 0 0.07449934060461412 0.03258063005354956 0 0.060669767880595721 0.038134724015348051 0 0.057623658326613529 0.02352368721002385 0 0.07449934060461412 0.03258063005354956 0 0.060669767880595721 0.038134724015348051 0 0.069155187538762042 0.045022305850501279 0 0.07449934060461412 0.03258063005354956 0 0.060669767880595721 0.038134724015348051 0 0.059559274975242667 0.047504887075434543 0 0.069155187538762042 0.045022305850501279 0 0.069155187538762042 0.045022305850501279 0 0.07449934060461412 0.03258063005354956 0 0.079692196512252927 0.044953406994506007 0 0.059559274975242667 0.047504887075434543 0 0.069155187538762042 0.045022305850501279 0 0.067326156772233525 0.050603546620565112 0 0.059559274975242667 0.047504887075434543 0 0.066395547834883203 0.05807658879080619 0 0.067326156772233525 0.050603546620565112 0 0.066395547834883203 0.05807658879080619 0 0.067326156772233525 0.050603546620565112 0 0.074194616740046182 0.051810404765518438 0 0.069155187538762042 0.045022305850501279 0 0.067326156772233525 0.050603546620565112 0 0.074194616740046182 0.051810404765518438 0 0.069155187538762042 0.045022305850501279 0 0.074194616740046182 0.051810404765518438 0 0.079692196512252927 0.044953406994506007 0 0.066395547834883203 0.05807658879080619 0 0.074194616740046182 0.051810404765518438 0 0.080343143758095259 0.058335218209008277 0 0.066395547834883203 0.05807658879080619 0 0.080343143758095259 0.058335218209008277 0 0.08827992924315356 0.067842626558367619 0 0.080343143758095259 0.058335218209008277 0 0.083306510346727383 0.05351440315152866 0 0.090416084875221875 0.058235299142909973 0 0.074194616740046182 0.051810404765518438 0 0.083306510346727383 0.05351440315152866 0 0.079692196512252927 0.044953406994506007 0 0.083306510346727383 0.05351440315152866 0 0.089760373586053266 0.048866493307206167 0 0.079692196512252927 0.044953406994506007 0 0.074194616740046182 0.051810404765518438 0 0.080343143758095259 0.058335218209008277 0 0.083306510346727383 0.05351440315152866 0 0.083306510346727383 0.05351440315152866 0 0.089760373586053266 0.048866493307206167 0 0.090416084875221875 0.058235299142909973 0 0.089760373586053266 0.048866493307206167 0 0.090416084875221875 0.058235299142909973 0 0.099395501669828634 0.055681054702382278 0 0.080343143758095259 0.058335218209008277 0 0.090416084875221875 0.058235299142909973 0 0.08827992924315356 0.067842626558367619 0 0.087237150257314613 0.037926204838731957 0 0.098930039005792711 0.04227996871225087 0 0.094917995650245529 0.021722354499223519 0 0.07449934060461412 0.03258063005354956 0 0.079692196512252927 0.044953406994506007 0 0.087237150257314613 0.037926204838731957 0 0.089760373586053266 0.048866493307206167 0 0.079692196512252927 0.044953406994506007 0 0.087237150257314613 0.037926204838731957 0 0.089760373586053266 0.048866493307206167 0 0.087237150257314613 0.037926204838731957 0 0.098930039005792711 0.04227996871225087 0 0.10894092886672049 0.033503019923715648 0 0.098930039005792711 0.04227996871225087 0 0.11550376979223601 0.054551475820320147 0 0.10894092886672049 0.033503019923715648 0 0.098930039005792711 0.04227996871225087 0 0.094917995650245529 0.021722354499223519 0 0.098930039005792711 0.04227996871225087 0 0.099395501669828634 0.055681054702382278 0 0.11550376979223601 0.054551475820320147 0 0.099395501669828634 0.055681054702382278 0 0.11550376979223601 0.054551475820320147 0 0.10561354398445311 0.069921878226714862 0 0.090416084875221875 0.058235299142909973 0 0.099395501669828634 0.055681054702382278 0 0.095618088847860577 0.065038419849084594 0 0.089760373586053266 0.048866493307206167 0 0.098930039005792711 0.04227996871225087 0 0.099395501669828634 0.055681054702382278 0 0.10894092886672049 0.033503019923715648 0 0.11961069471150609 0.02296590295220987 0 0.12977361784467401 0.039215218793308727 0 0.10894092886672049 0.033503019923715648 0 0.11550376979223601 0.054551475820320147 0 0.12977361784467401 0.039215218793308727 0 0.11961069471150609 0.02296590295220987 0 0.1158546052028349 0.0064685721448778594 0 0.094917995650245529 0.021722354499223519 0 0.11961069471150609 0.02296590295220987 0 0.1158546052028349 0.0064685721448778594 0 0.13894824890776639 0.02136224913872127 0 0.1158546052028349 0.0064685721448778594 0 0.098495163759696414 0.0029673617968291321 0 0.094917995650245529 0.021722354499223519 0 0.10894092886672049 0.033503019923715648 0 0.11961069471150609 0.02296590295220987 0 0.094917995650245529 0.021722354499223519 0 0.097728221435088053 0.099184528615223033 0 0.110275064223293 0.10236359857942121 0 0.11116449005577619 0.086473750785835857 0 0.099894961061174667 0.1104201015940532 0 0.11150799601301251 0.1117412241471519 0 0.110275064223293 0.10236359857942121 0 0.097728221435088053 0.099184528615223033 0 0.099894961061174667 0.1104201015940532 0 0.110275064223293 0.10236359857942121 0 0.097728221435088053 0.099184528615223033 0 0.099894961061174667 0.1104201015940532 0 0.084925795867796111 0.1103515185161017 0 0.099894961061174667 0.1104201015940532 0 0.096984900528893664 0.1212489081817222 0 0.084925795867796111 0.1103515185161017 0 0.099894961061174667 0.1104201015940532 0 0.096984900528893664 0.1212489081817222 0 0.10712684862241641 0.1210429748963526 0 0.096984900528893664 0.1212489081817222 0 0.10712684862241641 0.1210429748963526 0 0.10589272808503949 0.13156516273042271 0 0.099894961061174667 0.1104201015940532 0 0.10712684862241641 0.1210429748963526 0 0.11150799601301251 0.1117412241471519 0 0.10712684862241641 0.1210429748963526 0 0.11150799601301251 0.1117412241471519 0 0.1187293914863337 0.1182846474287873 0 0.11150799601301251 0.1117412241471519 0 0.1187293914863337 0.1182846474287873 0 0.1197878353292403 0.1092484053650479 0 0.10712684862241641 0.1210429748963526 0 0.1187293914863337 0.1182846474287873 0 0.114987521205969 0.1268010028982309 0 0.1187293914863337 0.1182846474287873 0 0.12813823657366311 0.12049833089676459 0 0.12624189261331301 0.1140678077034443 0 0.1187293914863337 0.1182846474287873 0 0.12212988809696081 0.1249307776834532 0 0.12813823657366311 0.12049833089676459 0 0.1187293914863337 0.1182846474287873 0 0.12212988809696081 0.1249307776834532 0 0.114987521205969 0.1268010028982309 0 0.1187293914863337 0.1182846474287873 0 0.1197878353292403 0.1092484053650479 0 0.12624189261331301 0.1140678077034443 0 0.1216961693062274 0.1020981758197984 0 0.110275064223293 0.10236359857942121 0 0.11116449005577619 0.086473750785835857 0 0.1197878353292403 0.1092484053650479 0 0.1216961693062274 0.1020981758197984 0 0.1302764983332621 0.10693497851168419 0 0.1216961693062274 0.1020981758197984 0 0.11116449005577619 0.086473750785835857 0 0.13668050292917741 0.098217611464673699 0 0.1197878353292403 0.1092484053650479 0 0.1216961693062274 0.1020981758197984 0 0.110275064223293 0.10236359857942121 0 0.11150799601301251 0.1117412241471519 0 0.1197878353292403 0.1092484053650479 0 0.110275064223293 0.10236359857942121 0 0.11116449005577619 0.086473750785835857 0 0.1207366242219714 0.074251990558816788 0 0.1300820653953097 0.084166932106396392 0 0.11116449005577619 0.086473750785835857 0 0.13668050292917741 0.098217611464673699 0 0.11116449005577619 0.086473750785835857 0 0.1207366242219714 0.074251990558816788 0 0.10561354398445311 0.069921878226714862 0 0.11550376979223601 0.054551475820320147 0 0.1207366242219714 0.074251990558816788 0 0.13255022158949201 0.068763676371196639 0 0.11550376979223601 0.054551475820320147 0 0.1207366242219714 0.074251990558816788 0 0.10561354398445311 0.069921878226714862 0 0.11116449005577619 0.086473750785835857 0 0.10561354398445311 0.069921878226714862 0 0.085648477182374977 0.074729890106998029 0 0.10561354398445311 0.069921878226714862 0 0.095618088847860577 0.065038419849084594 0 0.085648477182374977 0.074729890106998029 0 0.099395501669828634 0.055681054702382278 0 0.10561354398445311 0.069921878226714862 0 0.095618088847860577 0.065038419849084594 0 0.11116449005577619 0.086473750785835857 0 0.085648477182374977 0.074729890106998029 0 0.11116449005577619 0.086473750785835857 0 0.090808031879269946 0.087622927320568048 0 0.085648477182374977 0.074729890106998029 0 0.097728221435088053 0.099184528615223033 0 0.11116449005577619 0.086473750785835857 0 0.090808031879269946 0.087622927320568048 0 0.097728221435088053 0.099184528615223033 0 0.090808031879269946 0.087622927320568048 0 0.080235742217082393 0.093435287859391092 0 0.090808031879269946 0.087622927320568048 0 0.078675001300488379 0.083882301042573534 0 0.085648477182374977 0.074729890106998029 0 0.090808031879269946 0.087622927320568048 0 0.078675001300488379 0.083882301042573534 0 0.080235742217082393 0.093435287859391092 0 0.066395547834883203 0.05807658879080619 0 0.08827992924315356 0.067842626558367619 0 0.085648477182374977 0.074729890106998029 0 0.095618088847860577 0.065038419849084594 0 0.08827992924315356 0.067842626558367619 0 0.085648477182374977 0.074729890106998029 0 0.090416084875221875 0.058235299142909973 0 0.095618088847860577 0.065038419849084594 0 0.08827992924315356 0.067842626558367619 0 0.066395547834883203 0.05807658879080619 0 0.085648477182374977 0.074729890106998029 0 0.060132464308973767 0.062986029428160187 0 0.066395547834883203 0.05807658879080619 0 0.08827992924315356 0.067842626558367619 0 0.085648477182374977 0.074729890106998029 0 0.068637102026180674 0.07792917868559901 0 0.060132464308973767 0.062986029428160187 0 0.085648477182374977 0.074729890106998029 0 0.060132464308973767 0.062986029428160187 0 0.078675001300488379 0.083882301042573534 0 0.085648477182374977 0.074729890106998029 0 0.068637102026180674 0.07792917868559901 0 0.080235742217082393 0.093435287859391092 0 0.069503799956795384 0.087722797055870286 0 0.068523875558259784 0.095111972458496966 0 0.078675001300488379 0.083882301042573534 0 0.080235742217082393 0.093435287859391092 0 0.069503799956795384 0.087722797055870286 0 0.078675001300488379 0.083882301042573534 0 0.068637102026180674 0.07792917868559901 0 0.069503799956795384 0.087722797055870286 0 0.068637102026180674 0.07792917868559901 0 0.069503799956795384 0.087722797055870286 0 0.060111091978902922 0.083782113849914977 0 0.069503799956795384 0.087722797055870286 0 0.06135777996986308 0.093915161513068182 0 0.060111091978902922 0.083782113849914977 0 0.069503799956795384 0.087722797055870286 0 0.068523875558259784 0.095111972458496966 0 0.06135777996986308 0.093915161513068182 0 0.068523875558259784 0.095111972458496966 0 0.071520258741129425 0.10189571548122769 0 0.062413973273008162 0.1018934272394761 0 0.068523875558259784 0.095111972458496966 0 0.062413973273008162 0.1018934272394761 0 0.06135777996986308 0.093915161513068182 0 0.071520258741129425 0.10189571548122769 0 0.072821304814728441 0.1108529925529516 0 0.063718101814298073 0.11016590081819259 0 0.071520258741129425 0.10189571548122769 0 0.063718101814298073 0.11016590081819259 0 0.062413973273008162 0.1018934272394761 0 0.071520258741129425 0.10189571548122769 0 0.084925795867796111 0.1103515185161017 0 0.072821304814728441 0.1108529925529516 0 0.080235742217082393 0.093435287859391092 0 0.068523875558259784 0.095111972458496966 0 0.071520258741129425 0.10189571548122769 0 0.097728221435088053 0.099184528615223033 0 0.080235742217082393 0.093435287859391092 0 0.084925795867796111 0.1103515185161017 0 0.080235742217082393 0.093435287859391092 0 0.071520258741129425 0.10189571548122769 0 0.084925795867796111 0.1103515185161017 0 0.084925795867796111 0.1103515185161017 0 0.074154959480044275 0.1204842858357125 0 0.087075880893963842 0.12621803440601359 0 0.096984900528893664 0.1212489081817222 0 0.084925795867796111 0.1103515185161017 0 0.087075880893963842 0.12621803440601359 0 0.084925795867796111 0.1103515185161017 0 0.074154959480044275 0.1204842858357125 0 0.072821304814728441 0.1108529925529516 0 0.074154959480044275 0.1204842858357125 0 0.072821304814728441 0.1108529925529516 0 0.063718101814298073 0.11016590081819259 0 0.074154959480044275 0.1204842858357125 0 0.063718101814298073 0.11016590081819259 0 0.060124536552058239 0.11864948812996751 0 0.074154959480044275 0.1204842858357125 0 0.060124536552058239 0.11864948812996751 0 0.061109117960118017 0.12720913792676911 0 0.060124536552058239 0.11864948812996751 0 0.052595679859244633 0.1236025024456274 0 0.054913207086597561 0.11271600588853189 0 0.060124536552058239 0.11864948812996751 0 0.052595679859244633 0.1236025024456274 0 0.061109117960118017 0.12720913792676911 0 0.052595679859244633 0.1236025024456274 0 0.054913207086597561 0.11271600588853189 0 0.046771683079868627 0.1089772416004138 0 0.063718101814298073 0.11016590081819259 0 0.060124536552058239 0.11864948812996751 0 0.054913207086597561 0.11271600588853189 0 0.063718101814298073 0.11016590081819259 0 0.062413973273008162 0.1018934272394761 0 0.053620768430252298 0.1031656988462608 0 0.063718101814298073 0.11016590081819259 0 0.054913207086597561 0.11271600588853189 0 0.053620768430252298 0.1031656988462608 0 0.06135777996986308 0.093915161513068182 0 0.053620768430252298 0.1031656988462608 0 0.051535176025136201 0.090416251810209708 0 0.062413973273008162 0.1018934272394761 0 0.06135777996986308 0.093915161513068182 0 0.053620768430252298 0.1031656988462608 0 0.053620768430252298 0.1031656988462608 0 0.042875633238578528 0.09739353282270094 0 0.051535176025136201 0.090416251810209708 0 0.053620768430252298 0.1031656988462608 0 0.046771683079868627 0.1089772416004138 0 0.042875633238578528 0.09739353282270094 0 0.054913207086597561 0.11271600588853189 0 0.053620768430252298 0.1031656988462608 0 0.046771683079868627 0.1089772416004138 0 0.046771683079868627 0.1089772416004138 0 0.042875633238578528 0.09739353282270094 0 0.034382595390138257 0.1099700727945534 0 0.042875633238578528 0.09739353282270094 0 0.034382595390138257 0.1099700727945534 0 0.030708755379597181 0.088685576768743155 0 0.034382595390138257 0.1099700727945534 0 0.030708755379597181 0.088685576768743155 0 0.052595679859244633 0.1236025024456274 0 0.046771683079868627 0.1089772416004138 0 0.034382595390138257 0.1099700727945534 0 0.034382595390138257 0.1099700727945534 0 0.02520709702204247 0.1232263280856261 0 0.037354296692750887 0.12718670835402709 0 0.052595679859244633 0.1236025024456274 0 0.034382595390138257 0.1099700727945534 0 0.037354296692750887 0.12718670835402709 0 0.034382595390138257 0.1099700727945534 0 0.037354296692750887 0.12718670835402709 0 0.052595679859244633 0.1236025024456274 0 0.034382595390138257 0.1099700727945534 0 0.060132464308973767 0.062986029428160187 0 0.051537231586459821 0.0703604747810012 0 0.044258496001147778 0.063884183083345675 0 0.051537231586459821 0.0703604747810012 0 0.045053238281461433 0.071665999821029613 0 0.044258496001147778 0.063884183083345675 0 0.060132464308973767 0.062986029428160187 0 0.058160070023191839 0.074213970699792686 0 0.051537231586459821 0.0703604747810012 0 0.068637102026180674 0.07792917868559901 0 0.060132464308973767 0.062986029428160187 0 0.058160070023191839 0.074213970699792686 0 0.051537231586459821 0.0703604747810012 0 0.049495561811348857 0.078896267932753172 0 0.045053238281461433 0.071665999821029613 0 0.058160070023191839 0.074213970699792686 0 0.051537231586459821 0.0703604747810012 0 0.049495561811348857 0.078896267932753172 0 0.049495561811348857 0.078896267932753172 0 0.051535176025136201 0.090416251810209708 0 0.041750220721871581 0.085344735896560275 0 0.049495561811348857 0.078896267932753172 0 0.060111091978902922 0.083782113849914977 0 0.051535176025136201 0.090416251810209708 0 0.068637102026180674 0.07792917868559901 0 0.058160070023191839 0.074213970699792686 0 0.060111091978902922 0.083782113849914977 0 0.058160070023191839 0.074213970699792686 0 0.049495561811348857 0.078896267932753172 0 0.060111091978902922 0.083782113849914977 0 0.06135777996986308 0.093915161513068182 0 0.060111091978902922 0.083782113849914977 0 0.051535176025136201 0.090416251810209708 0 0.042875633238578528 0.09739353282270094 0 0.051535176025136201 0.090416251810209708 0 0.041750220721871581 0.085344735896560275 0 0.042875633238578528 0.09739353282270094 0 0.041750220721871581 0.085344735896560275 0 0.030708755379597181 0.088685576768743155 0 0.041750220721871581 0.085344735896560275 0 0.037489048909448763 0.07466528487264068 0 0.030708755379597181 0.088685576768743155 0 0.049495561811348857 0.078896267932753172 0 0.041750220721871581 0.085344735896560275 0 0.037489048909448763 0.07466528487264068 0 0.037489048909448763 0.07466528487264068 0 0.02703491536905472 0.067401080742933134 0 0.030708755379597181 0.088685576768743155 0 0.049495561811348857 0.078896267932753172 0 0.045053238281461433 0.071665999821029613 0 0.037489048909448763 0.07466528487264068 0 0.045053238281461433 0.071665999821029613 0 0.037489048909448763 0.07466528487264068 0 0.037579666130808903 0.067774354445351542 0 0.034062632092931817 0.061255223706808547 0 0.037579666130808903 0.067774354445351542 0 0.02703491536905472 0.067401080742933134 0 0.037489048909448763 0.07466528487264068 0 0.037579666130808903 0.067774354445351542 0 0.02703491536905472 0.067401080742933134 0 0.034062632092931817 0.061255223706808547 0 0.037579666130808903 0.067774354445351542 0 0.044258496001147778 0.063884183083345675 0 0.045053238281461433 0.071665999821029613 0 0.037579666130808903 0.067774354445351542 0 0.044258496001147778 0.063884183083345675 0 0.02703491536905472 0.067401080742933134 0 0.030708755379597181 0.088685576768743155 0 0.01366790099406239 0.052632887419703241 0 0.026593398378051959 0.076487299351285121 0 0.01366790099406239 0.052632887419703241 0 0.02703491536905472 0.067401080742933134 0 0.026593398378051959 0.076487299351285121 0 0.02703491536905472 0.067401080742933134 0 0.026593398378051959 0.076487299351285121 0 0.030708755379597181 0.088685576768743155 0 0.01366790099406239 0.052632887419703241 0 0.026593398378051959 0.076487299351285121 0 0.01611389888654503 0.070322973248010373 0 0.026593398378051959 0.076487299351285121 0 0.01611389888654503 0.070322973248010373 0 0.01767063525815666 0.080500261616376856 0 0.01767063525815666 0.080500261616376856 0 0.030708755379597181 0.088685576768743155 0 0.011643404763696401 0.092949868607662828 0 0.026593398378051959 0.076487299351285121 0 0.01767063525815666 0.080500261616376856 0 0.030708755379597181 0.088685576768743155 0 0.01767063525815666 0.080500261616376856 0 0.011643404763696401 0.092949868607662828 0 0.0065236609159091173 0.071671444604676282 0 -0.01109578586274463 0.07592966442077155 0 0.011643404763696401 0.092949868607662828 0 0.0065236609159091173 0.071671444604676282 0 -0.01109578586274463 0.07592966442077155 0 0.011643404763696401 0.092949868607662828 0 0.01366790099406239 0.052632887419703241 0 0.01611389888654503 0.070322973248010373 0 0.0065236609159091173 0.071671444604676282 0 0.01611389888654503 0.070322973248010373 0 0.01767063525815666 0.080500261616376856 0 0.0065236609159091173 0.071671444604676282 0 -0.0031702267477386531 0.067180855403790804 0 0.00079413703044923156 0.058803151297745167 0 0.0065236609159091173 0.071671444604676282 0 0.034382595390138257 0.1099700727945534 0 0.02520709702204247 0.1232263280856261 0 0.01356063639681436 0.11371506303709419 0 0.02520709702204247 0.1232263280856261 0 0.01356063639681436 0.11371506303709419 0 0.011098566836083609 0.13484946890849181 0 0.034382595390138257 0.1099700727945534 0 0.011643404763696401 0.092949868607662828 0 0.01356063639681436 0.11371506303709419 0 0.034382595390138257 0.1099700727945534 0 0.011643404763696401 0.092949868607662828 0 0.034382595390138257 0.1099700727945534 0 0.030708755379597181 0.088685576768743155 0 0.011643404763696401 0.092949868607662828 0 -0.0040088977147468936 0.097024336429998151 0 0.011643404763696401 0.092949868607662828 0 0.0025937760044158291 0.1064596481343341 0 0.011643404763696401 0.092949868607662828 0 0.0025937760044158291 0.1064596481343341 0 0.01356063639681436 0.11371506303709419 0 -0.007175360702145514 0.1155930690216506 0 0.0025937760044158291 0.1064596481343341 0 0.01356063639681436 0.11371506303709419 0 -0.007175360702145514 0.1155930690216506 0 0.01356063639681436 0.11371506303709419 0 0.011098566836083609 0.13484946890849181 0 -0.007175360702145514 0.1155930690216506 0 0.011098566836083609 0.13484946890849181 0 0.02520709702204247 0.1232263280856261 0 0.011098566836083609 0.13484946890849181 0 0.028759663239593541 0.13617761485890201 0 0.02520709702204247 0.1232263280856261 0 0.028759663239593541 0.13617761485890201 0 0.037354296692750887 0.12718670835402709 0 0.011098566836083609 0.13484946890849181 0 0.029372494374312729 0.15410586879533311 0 0.013538337341477229 0.1636201682865295 0 0.011098566836083609 0.13484946890849181 0 0.028759663239593541 0.13617761485890201 0 0.029372494374312729 0.15410586879533311 0 0.011098566836083609 0.13484946890849181 0 0.029372494374312729 0.15410586879533311 0 -0.0048034666842798916 0.1614245706846468 0 0.011098566836083609 0.13484946890849181 0 0.013538337341477229 0.1636201682865295 0 -0.0057956805663459468 0.1892940575843915 0 -0.0048034666842798916 0.1614245706846468 0 0.013538337341477229 0.1636201682865295 0 -0.0057956805663459468 0.1892940575843915 0 0.013538337341477229 0.1636201682865295 0 0.020045678312652242 0.18090880435863019 0 -0.0057956805663459468 0.1892940575843915 0 0.020045678312652242 0.18090880435863019 0 0.029372494374312729 0.15410586879533311 0 0.013538337341477229 0.1636201682865295 0 0.020045678312652242 0.18090880435863019 0 0.029372494374312729 0.15410586879533311 0 0.045887037191650451 0.17252355113286891 0 0.04813315871709322 0.1541455757588851 0 0.029372494374312729 0.15410586879533311 0 0.020045678312652242 0.18090880435863019 0 0.045887037191650451 0.17252355113286891 0 0.020045678312652242 0.18090880435863019 0 0.045887037191650451 0.17252355113286891 0 0.020045678312652242 0.18090880435863019 0 0.045887037191650451 0.17252355113286891 0 0.041991232206495782 0.1919910870650737 0 0.045887037191650451 0.17252355113286891 0 0.060802696405823108 0.1787365445376432 0 0.041991232206495782 0.1919910870650737 0 0.045887037191650451 0.17252355113286891 0 0.071728396070648653 0.1641382979071076 0 0.045887037191650451 0.17252355113286891 0 0.060802696405823108 0.1787365445376432 0 0.071728396070648653 0.1641382979071076 0 0.045887037191650451 0.17252355113286891 0 0.059657673584757237 0.15824269734654939 0 0.04813315871709322 0.1541455757588851 0 0.045887037191650451 0.17252355113286891 0 0.059657673584757237 0.15824269734654939 0 0.071728396070648653 0.1641382979071076 0 0.059657673584757237 0.15824269734654939 0 0.04813315871709322 0.1541455757588851 0 0.060329678829100349 0.1474246815113264 0 0.04813315871709322 0.1541455757588851 0 0.050215372913412007 0.1458935282758238 0 0.060329678829100349 0.1474246815113264 0 0.050215372913412007 0.1458935282758238 0 0.060329678829100349 0.1474246815113264 0 0.052072656112092337 0.13760051191958289 0 0.050215372913412007 0.1458935282758238 0 0.052072656112092337 0.13760051191958289 0 0.040325997995362128 0.14440334391350099 0 0.060329678829100349 0.1474246815113264 0 0.062159468211553673 0.13737243366585769 0 0.052072656112092337 0.13760051191958289 0 0.062159468211553673 0.13737243366585769 0 0.054733357378362921 0.13083888414419281 0 0.052072656112092337 0.13760051191958289 0 0.052595679859244633 0.1236025024456274 0 0.054733357378362921 0.13083888414419281 0 0.061109117960118017 0.12720913792676911 0 0.062159468211553673 0.13737243366585769 0 0.054733357378362921 0.13083888414419281 0 0.061109117960118017 0.12720913792676911 0 0.052595679859244633 0.1236025024456274 0 0.054733357378362921 0.13083888414419281 0 0.046346625143134958 0.1312929959830558 0 0.054733357378362921 0.13083888414419281 0 0.052072656112092337 0.13760051191958289 0 0.046346625143134958 0.1312929959830558 0 0.037354296692750887 0.12718670835402709 0 0.040325997995362128 0.14440334391350099 0 0.046346625143134958 0.1312929959830558 0 0.037354296692750887 0.12718670835402709 0 0.040325997995362128 0.14440334391350099 0 0.028759663239593541 0.13617761485890201 0 0.037354296692750887 0.12718670835402709 0 0.040325997995362128 0.14440334391350099 0 0.052072656112092337 0.13760051191958289 0 0.046346625143134958 0.1312929959830558 0 0.040325997995362128 0.14440334391350099 0 0.052595679859244633 0.1236025024456274 0 0.046346625143134958 0.1312929959830558 0 0.037354296692750887 0.12718670835402709 0 0.028759663239593541 0.13617761485890201 0 0.029372494374312729 0.15410586879533311 0 0.040325997995362128 0.14440334391350099 0 0.029372494374312729 0.15410586879533311 0 0.04813315871709322 0.1541455757588851 0 0.040325997995362128 0.14440334391350099 0 0.04813315871709322 0.1541455757588851 0 0.050215372913412007 0.1458935282758238 0 0.040325997995362128 0.14440334391350099 0 0.025149977659741599 0.24684982625080901 0 0.00014186162909880781 0.2338185852574263 0 0.02177620002751179 0.22559840920251981 0 0.025149977659741599 0.24684982625080901 0 0.00014186162909880781 0.2338185852574263 0 0.025149977659741599 0.24684982625080901 0 0.00014186162909880781 0.2338185852574263 0 0.0073806355134042019 0.25529449578482938 0 0.00014186162909880781 0.2338185852574263 0 0.02177620002751179 0.22559840920251981 0 0.0090806704795409685 0.20996839310177981 0 0.025149977659741599 0.24684982625080901 0 0.02177620002751179 0.22559840920251981 0 0.039960986899899173 0.22780444499479169 0 0.02177620002751179 0.22559840920251981 0 0.0090806704795409685 0.20996839310177981 0 0.034547503469278373 0.20955079640779209 0 0.0090806704795409685 0.20996839310177981 0 0.02162293693503077 0.1981024475624624 0 0.034547503469278373 0.20955079640779209 0 -0.0057956805663459468 0.1892940575843915 0 0.0090806704795409685 0.20996839310177981 0 0.02162293693503077 0.1981024475624624 0 -0.0057956805663459468 0.1892940575843915 0 0.020045678312652242 0.18090880435863019 0 0.02162293693503077 0.1981024475624624 0 0.020045678312652242 0.18090880435863019 0 0.02162293693503077 0.1981024475624624 0 0.041991232206495782 0.1919910870650737 0 0.02162293693503077 0.1981024475624624 0 0.041991232206495782 0.1919910870650737 0 0.034547503469278373 0.20955079640779209 0 0.041991232206495782 0.1919910870650737 0 0.05849467095877426 0.1965416733816682 0 0.050764695011206777 0.20916964222725651 0 0.060802696405823108 0.1787365445376432 0 0.041991232206495782 0.1919910870650737 0 0.05849467095877426 0.1965416733816682 0 0.050764695011206777 0.20916964222725651 0 0.066981886553135278 0.20878848804672309 0 0.05849467095877426 0.1965416733816682 0 0.050764695011206777 0.20916964222725651 0 0.066981886553135278 0.20878848804672309 0 0.050764695011206777 0.20916964222725651 0 0.061514006406540499 0.23071042489022231 0 0.066981886553135278 0.20878848804672309 0 0.050764695011206777 0.20916964222725651 0 0.034547503469278373 0.20955079640779209 0 0.039960986899899173 0.22780444499479169 0 0.050764695011206777 0.20916964222725651 0 0.034547503469278373 0.20955079640779209 0 0.041991232206495782 0.1919910870650737 0 0.050764695011206777 0.20916964222725651 0 0.034547503469278373 0.20955079640779209 0 0.02177620002751179 0.22559840920251981 0 0.034547503469278373 0.20955079640779209 0 0.039960986899899173 0.22780444499479169 0 0.039960986899899173 0.22780444499479169 0 0.061514006406540499 0.23071042489022231 0 0.045472231705318063 0.24424317023843681 0 0.050764695011206777 0.20916964222725651 0 0.039960986899899173 0.22780444499479169 0 0.061514006406540499 0.23071042489022231 0 0.061514006406540499 0.23071042489022231 0 0.056046126259945157 0.25263236173372139 0 0.061514006406540499 0.23071042489022231 0 0.056046126259945157 0.25263236173372139 0 0.067905867336300579 0.25358800162702 0 0.061514006406540499 0.23071042489022231 0 0.045472231705318063 0.24424317023843681 0 0.056046126259945157 0.25263236173372139 0 0.025149977659741599 0.24684982625080901 0 0.039960986899899173 0.22780444499479169 0 0.045472231705318063 0.24424317023843681 0 0.092857250133516089 0.24175825718487831 0 0.078525547080241467 0.2465942846531784 0 0.093798877441032588 0.2579700649065903 0 0.092857250133516089 0.24175825718487831 0 0.078525547080241467 0.2465942846531784 0 0.081986142109724491 0.22560265144644431 0 0.061514006406540499 0.23071042489022231 0 0.078525547080241467 0.2465942846531784 0 0.067905867336300579 0.25358800162702 0 0.061514006406540499 0.23071042489022231 0 0.078525547080241467 0.2465942846531784 0 0.081986142109724491 0.22560265144644431 0 0.061514006406540499 0.23071042489022231 0 0.081986142109724491 0.22560265144644431 0 0.066981886553135278 0.20878848804672309 0 0.061514006406540499 0.23071042489022231 0 0.066981886553135278 0.20878848804672309 0 0.081986142109724491 0.22560265144644431 0 0.09236794217301933 0.20819183719001669 0 0.066981886553135278 0.20878848804672309 0 0.09236794217301933 0.20819183719001669 0 0.066981886553135278 0.20878848804672309 0 0.09236794217301933 0.20819183719001669 0 0.066981886553135278 0.20878848804672309 0 0.071445073857882777 0.19089458628000441 0 0.060802696405823108 0.1787365445376432 0 0.05849467095877426 0.1965416733816682 0 0.071445073857882777 0.19089458628000441 0 0.066981886553135278 0.20878848804672309 0 0.071445073857882777 0.19089458628000441 0 0.05849467095877426 0.1965416733816682 0 0.066981886553135278 0.20878848804672309 0 0.071445073857882777 0.19089458628000441 0 0.09236794217301933 0.20819183719001669 0 0.071445073857882777 0.19089458628000441 0 0.086464584236575506 0.1862285865309723 0 0.09236794217301933 0.20819183719001669 0 0.086464584236575506 0.1862285865309723 0 0.1023855527362314 0.18749689463882899 0 0.09236794217301933 0.20819183719001669 0 0.11775399779290339 0.20759518633331239 0 0.1023855527362314 0.18749689463882899 0 0.11775399779290339 0.20759518633331239 0 0.1023855527362314 0.18749689463882899 0 0.12550986450034471 0.186594373040398 0 0.09236794217301933 0.20819183719001669 0 0.11775399779290339 0.20759518633331239 0 0.09236794217301933 0.20819183719001669 0 0.11775399779290339 0.20759518633331239 0 0.10906069526472741 0.22998953009969161 0 0.092857250133516089 0.24175825718487831 0 0.081986142109724491 0.22560265144644431 0 0.10906069526472741 0.22998953009969161 0 0.081986142109724491 0.22560265144644431 0 0.09236794217301933 0.20819183719001669 0 0.10906069526472741 0.22998953009969161 0 0.11775399779290339 0.20759518633331239 0 0.10906069526472741 0.22998953009969161 0 0.1382648444377183 0.22719855966067881 0 0.10906069526472741 0.22998953009969161 0 0.12787711237058769 0.24521089126939841 0 0.1100607559553454 0.25396994184181759 0 0.092857250133516089 0.24175825718487831 0 0.10906069526472741 0.22998953009969161 0 0.1100607559553454 0.25396994184181759 0 0.081151633673542972 0.15313158297098389 0 0.083920606388658545 0.14050817004821939 0 0.0975697549496468 0.15575304468134629 0 0.081151633673542972 0.15313158297098389 0 0.083920606388658545 0.14050817004821939 0 0.071387777285217918 0.15212681924726251 0 0.074154959480044275 0.1204842858357125 0 0.087075880893963842 0.12621803440601359 0 0.083920606388658545 0.14050817004821939 0 0.087075880893963842 0.12621803440601359 0 0.083920606388658545 0.14050817004821939 0 0.097906888154765004 0.1362305538396491 0 0.062159468211553673 0.13737243366585769 0 0.061109117960118017 0.12720913792676911 0 0.083920606388658545 0.14050817004821939 0 0.074154959480044275 0.1204842858357125 0 0.061109117960118017 0.12720913792676911 0 0.083920606388658545 0.14050817004821939 0 0.061109117960118017 0.12720913792676911 0 0.083920606388658545 0.14050817004821939 0 0.062159468211553673 0.13737243366585769 0 0.083920606388658545 0.14050817004821939 0 0.069449382678632612 0.1443580261181665 0 0.060329678829100349 0.1474246815113264 0 0.062159468211553673 0.13737243366585769 0 0.069449382678632612 0.1443580261181665 0 0.060329678829100349 0.1474246815113264 0 0.069449382678632612 0.1443580261181665 0 0.071387777285217918 0.15212681924726251 0 0.083920606388658545 0.14050817004821939 0 0.069449382678632612 0.1443580261181665 0 0.071387777285217918 0.15212681924726251 0 0.059657673584757237 0.15824269734654939 0 0.060329678829100349 0.1474246815113264 0 0.071387777285217918 0.15212681924726251 0 0.059657673584757237 0.15824269734654939 0 0.071387777285217918 0.15212681924726251 0 0.071728396070648653 0.1641382979071076 0 0.081151633673542972 0.15313158297098389 0 0.071387777285217918 0.15212681924726251 0 0.071728396070648653 0.1641382979071076 0 0.071445073857882777 0.19089458628000441 0 0.075908261162629706 0.17300068451328551 0 0.086464584236575506 0.1862285865309723 0 0.060802696405823108 0.1787365445376432 0 0.071445073857882777 0.19089458628000441 0 0.075908261162629706 0.17300068451328551 0 0.071445073857882777 0.19089458628000441 0 0.075908261162629706 0.17300068451328551 0 0.060802696405823108 0.1787365445376432 0 0.071728396070648653 0.1641382979071076 0 0.075908261162629706 0.17300068451328551 0 0.086464584236575506 0.1862285865309723 0 0.090216091253114361 0.17155893003272579 0 0.1023855527362314 0.18749689463882899 0 0.075908261162629706 0.17300068451328551 0 0.086464584236575506 0.1862285865309723 0 0.090216091253114361 0.17155893003272579 0 0.081151633673542972 0.15313158297098389 0 0.071728396070648653 0.1641382979071076 0 0.0975697549496468 0.15575304468134629 0 0.071728396070648653 0.1641382979071076 0 0.090216091253114361 0.17155893003272579 0 0.0975697549496468 0.15575304468134629 0 0.071728396070648653 0.1641382979071076 0 0.075908261162629706 0.17300068451328551 0 0.090216091253114361 0.17155893003272579 0 0.071728396070648653 0.1641382979071076 0 0.0975697549496468 0.15575304468134629 0 0.090216091253114361 0.17155893003272579 0 0.1064810698159025 0.16893633516972181 0 0.0975697549496468 0.15575304468134629 0 0.1064810698159025 0.16893633516972181 0 0.1067320948171991 0.1538072021696697 0 0.0975697549496468 0.15575304468134629 0 0.090216091253114361 0.17155893003272579 0 0.1064810698159025 0.16893633516972181 0 0.1023855527362314 0.18749689463882899 0 0.1064810698159025 0.16893633516972181 0 0.12954358324573961 0.16710623429112001 0 0.12550986450034471 0.186594373040398 0 0.1064810698159025 0.16893633516972181 0 0.1023855527362314 0.18749689463882899 0 0.12550986450034471 0.186594373040398 0 0.1064810698159025 0.16893633516972181 0 0.1067320948171991 0.1538072021696697 0 0.12954358324573961 0.16710623429112001 0 0.1067320948171991 0.1538072021696697 0 0.1262856736452258 0.1537478882528979 0 0.12954358324573961 0.16710623429112001 0 0.1067320948171991 0.1538072021696697 0 0.12954358324573961 0.16710623429112001 0 0.1148569119608701 0.14824987142416859 0 0.1067320948171991 0.1538072021696697 0 0.1262856736452258 0.1537478882528979 0 0.118317888191051 0.14254191757659121 0 0.1148569119608701 0.14824987142416859 0 0.1262856736452258 0.1537478882528979 0 0.118317888191051 0.14254191757659121 0 0.12756241452120801 0.13893694775055651 0 0.1262856736452258 0.1537478882528979 0 0.1148569119608701 0.14824987142416859 0 0.1067320948171991 0.1538072021696697 0 0.1080919911900045 0.14290247769751591 0 0.118317888191051 0.14254191757659121 0 0.1148569119608701 0.14824987142416859 0 0.1080919911900045 0.14290247769751591 0 0.083920606388658545 0.14050817004821939 0 0.1067320948171991 0.1538072021696697 0 0.1067320948171991 0.1538072021696697 0 0.1080919911900045 0.14290247769751591 0 0.097906888154765004 0.1362305538396491 0 0.083920606388658545 0.14050817004821939 0 0.1067320948171991 0.1538072021696697 0 0.097906888154765004 0.1362305538396491 0 0.083920606388658545 0.14050817004821939 0 0.1067320948171991 0.1538072021696697 0 0.0975697549496468 0.15575304468134629 0 0.096984900528893664 0.1212489081817222 0 0.097906888154765004 0.1362305538396491 0 0.10589272808503949 0.13156516273042271 0 0.096984900528893664 0.1212489081817222 0 0.087075880893963842 0.12621803440601359 0 0.097906888154765004 0.1362305538396491 0 0.1080919911900045 0.14290247769751591 0 0.097906888154765004 0.1362305538396491 0 0.10589272808503949 0.13156516273042271 0 0.1080919911900045 0.14290247769751591 0 0.10589272808503949 0.13156516273042271 0 0.11327312463209829 0.13597294690712769 0 0.10712684862241641 0.1210429748963526 0 0.10589272808503949 0.13156516273042271 0 0.114987521205969 0.1268010028982309 0 0.10589272808503949 0.13156516273042271 0 0.114987521205969 0.1268010028982309 0 0.11327312463209829 0.13597294690712769 0 0.114987521205969 0.1268010028982309 0 0.11327312463209829 0.13597294690712769 0 0.1203000125167645 0.13336293759413789 0 0.118317888191051 0.14254191757659121 0 0.1080919911900045 0.14290247769751591 0 0.11327312463209829 0.13597294690712769 0 0.118317888191051 0.14254191757659121 0 0.1203000125167645 0.13336293759413789 0 0.12756241452120801 0.13893694775055651 0 0.118317888191051 0.14254191757659121 0 0.11327312463209829 0.13597294690712769 0 0.1203000125167645 0.13336293759413789 0 0.12212988809696081 0.1249307776834532 0 0.114987521205969 0.1268010028982309 0 0.1203000125167645 0.13336293759413789 0 0.12212988809696081 0.1249307776834532 0 0.1203000125167645 0.13336293759413789 0 0.12788127083107459 0.1291064789800366 0 0.12788127083107459 0.1291064789800366 0 0.13409394305489639 0.1257339851238449 0 0.12813823657366311 0.12049833089676459 0 0.12788127083107459 0.1291064789800366 0 0.13410827310584911 0.13282331674432049 0 0.13409394305489639 0.1257339851238449 0 0.12788127083107459 0.1291064789800366 0 0.12756241452120801 0.13893694775055651 0 0.13410827310584911 0.13282331674432049 0 0.1203000125167645 0.13336293759413789 0 0.12788127083107459 0.1291064789800366 0 0.12756241452120801 0.13893694775055651 0 0.13410827310584911 0.13282331674432049 0 0.14295710802469111 0.12768772724150559 0 0.13848136883728299 0.14203914735535511 0 0.12756241452120801 0.13893694775055651 0 0.13410827310584911 0.13282331674432049 0 0.13848136883728299 0.14203914735535511 0 0.13410827310584911 0.13282331674432049 0 0.13409394305489639 0.1257339851238449 0 0.14295710802469111 0.12768772724150559 0 0.14295710802469111 0.12768772724150559 0 0.15698787762036359 0.14007723406829989 0 0.15364605026385231 0.1227496740475859 0 0.14295710802469111 0.12768772724150559 0 0.13848136883728299 0.14203914735535511 0 0.15698787762036359 0.14007723406829989 0 0.13848136883728299 0.14203914735535511 0 0.1441447949138806 0.1573716891147208 0 0.15698787762036359 0.14007723406829989 0 0.1441447949138806 0.1573716891147208 0 0.1598153361361678 0.15982657838785511 0 0.15698787762036359 0.14007723406829989 0 0.13848136883728299 0.14203914735535511 0 0.1262856736452258 0.1537478882528979 0 0.1441447949138806 0.1573716891147208 0 0.12756241452120801 0.13893694775055651 0 0.13848136883728299 0.14203914735535511 0 0.1262856736452258 0.1537478882528979 0 0.1262856736452258 0.1537478882528979 0 0.12954358324573961 0.16710623429112001 0 0.1441447949138806 0.1573716891147208 0 0.12954358324573961 0.16710623429112001 0 0.12550986450034471 0.186594373040398 0 0.15375492999850379 0.1814330523327968 0 0.12954358324573961 0.16710623429112001 0 0.15375492999850379 0.1814330523327968 0 0.1441447949138806 0.1573716891147208 0 0.15375492999850379 0.1814330523327968 0 0.1441447949138806 0.1573716891147208 0 0.1598153361361678 0.15982657838785511 0 0.1598153361361678 0.15982657838785511 0 0.17205847002769489 0.1711246398383999 0 0.17247097746626519 0.1464629757798975 0 0.15375492999850379 0.1814330523327968 0 0.1598153361361678 0.15982657838785511 0 0.17205847002769489 0.1711246398383999 0 0.15375492999850379 0.1814330523327968 0 0.17205847002769489 0.1711246398383999 0 0.18411838942066619 0.18828130780555291 0 0.17205847002769489 0.1711246398383999 0 0.18411838942066619 0.18828130780555291 0 0.19050902449260759 0.164433536692701 0 0.17205847002769489 0.1711246398383999 0 0.17247097746626519 0.1464629757798975 0 0.19050902449260759 0.164433536692701 0 0.17247097746626519 0.1464629757798975 0 0.1903693880120208 0.14015559280000461 0 0.19050902449260759 0.164433536692701 0 0.17247097746626519 0.1464629757798975 0 0.18002451345814399 0.12716596121819479 0 0.1903693880120208 0.14015559280000461 0 0.17247097746626519 0.1464629757798975 0 0.18002451345814399 0.12716596121819479 0 0.16417220099380411 0.12505127510387981 0 0.15698787762036359 0.14007723406829989 0 0.16417220099380411 0.12505127510387981 0 0.15364605026385231 0.1227496740475859 0 0.17247097746626519 0.1464629757798975 0 0.15698787762036359 0.14007723406829989 0 0.16417220099380411 0.12505127510387981 0 0.1598153361361678 0.15982657838785511 0 0.17247097746626519 0.1464629757798975 0 0.15698787762036359 0.14007723406829989 0 0.14702044576598061 0.2478904659134552 0 0.1382648444377183 0.22719855966067881 0 0.15828943790025421 0.22969507774947781 0 0.14702044576598061 0.2478904659134552 0 0.12787711237058769 0.24521089126939841 0 0.1382648444377183 0.22719855966067881 0 0.10906069526472741 0.22998953009969161 0 0.12787711237058769 0.24521089126939841 0 0.1382648444377183 0.22719855966067881 0 0.1382648444377183 0.22719855966067881 0 0.14314005341278749 0.20699853547660821 0 0.15828943790025421 0.22969507774947781 0 0.14314005341278749 0.20699853547660821 0 0.16852610903267151 0.206401884619904 0 0.11775399779290339 0.20759518633331239 0 0.1382648444377183 0.22719855966067881 0 0.14314005341278749 0.20699853547660821 0 0.11775399779290339 0.20759518633331239 0 0.14314005341278749 0.20699853547660821 0 0.11775399779290339 0.20759518633331239 0 0.12550986450034471 0.186594373040398 0 0.14314005341278749 0.20699853547660821 0 0.15375492999850379 0.1814330523327968 0 0.14314005341278749 0.20699853547660821 0 0.16852610903267151 0.206401884619904 0 0.12550986450034471 0.186594373040398 0 0.15375492999850379 0.1814330523327968 0 0.14314005341278749 0.20699853547660821 0 0.15375492999850379 0.1814330523327968 0 0.18411838942066619 0.18828130780555291 0 0.16852610903267151 0.206401884619904 0 0.18411838942066619 0.18828130780555291 0 0.16852610903267151 0.206401884619904 0 0.1878214256448299 0.20672411698152671 0 0.16852610903267151 0.206401884619904 0 0.17766068788986381 0.23020170431202469 0 0.1878214256448299 0.20672411698152671 0 0.14314005341278749 0.20699853547660821 0 0.16852610903267151 0.206401884619904 0 0.15828943790025421 0.22969507774947781 0 0.16852610903267151 0.206401884619904 0 0.15828943790025421 0.22969507774947781 0 0.17766068788986381 0.23020170431202469 0 0.17766068788986381 0.23020170431202469 0 0.19353513124668931 0.22246748781277501 0 0.1878214256448299 0.20672411698152671 0 0.17766068788986381 0.23020170431202469 0 0.18692125413578081 0.24552837502103991 0 0.19379669244916639 0.23440003217329089 0 0.17766068788986381 0.23020170431202469 0 0.18692125413578081 0.24552837502103991 0 0.16774616909827719 0.2460930353984315 0 0.15828943790025421 0.22969507774947781 0 0.17766068788986381 0.23020170431202469 0 0.16774616909827719 0.2460930353984315 0 0.14702044576598061 0.2478904659134552 0 0.15828943790025421 0.22969507774947781 0 0.16774616909827719 0.2460930353984315 0 0.21557305570370441 0.24515722135805329 0 0.2029257889591993 0.24295866219667439 0 0.23007231546290949 0.2334513308517342 0 0.2029257889591993 0.24295866219667439 0 0.23007231546290949 0.2334513308517342 0 0.21557305570370441 0.24515722135805329 0 0.2029257889591993 0.24295866219667439 0 0.20107379594449931 0.25686311186437227 0 0.18692125413578081 0.24552837502103991 0 0.2029257889591993 0.24295866219667439 0 0.20107379594449931 0.25686311186437227 0 0.18692125413578081 0.24552837502103991 0 0.19379669244916639 0.23440003217329089 0 0.2029257889591993 0.24295866219667439 0 0.17766068788986381 0.23020170431202469 0 0.19379669244916639 0.23440003217329089 0 0.19353513124668931 0.22246748781277501 0 0.19379669244916639 0.23440003217329089 0 0.2029257889591993 0.24295866219667439 0 0.20920449219815451 0.22515354045629349 0 0.19379669244916639 0.23440003217329089 0 0.19353513124668931 0.22246748781277501 0 0.20920449219815451 0.22515354045629349 0 0.2029257889591993 0.24295866219667439 0 0.20920449219815451 0.22515354045629349 0 0.23007231546290949 0.2334513308517342 0 0.19353513124668931 0.22246748781277501 0 0.20920449219815451 0.22515354045629349 0 0.20732414099141369 0.20672295990195361 0 0.20920449219815451 0.22515354045629349 0 0.20732414099141369 0.20672295990195361 0 0.22783619495118521 0.20973527166224001 0 0.19353513124668931 0.22246748781277501 0 0.20732414099141369 0.20672295990195361 0 0.1878214256448299 0.20672411698152671 0 0.18411838942066619 0.18828130780555291 0 0.1878214256448299 0.20672411698152671 0 0.20343121377691101 0.18825927067945539 0 0.20732414099141369 0.20672295990195361 0 0.1878214256448299 0.20672411698152671 0 0.20343121377691101 0.18825927067945539 0 0.20732414099141369 0.20672295990195361 0 0.20343121377691101 0.18825927067945539 0 0.2219787971027708 0.18678942035429349 0 0.20732414099141369 0.20672295990195361 0 0.22783619495118521 0.20973527166224001 0 0.2219787971027708 0.18678942035429349 0 0.24528107816237801 0.1907036486386274 0 0.22783619495118521 0.20973527166224001 0 0.2219787971027708 0.18678942035429349 0 0.24528107816237801 0.1907036486386274 0 0.25242827713160498 0.21540237912569379 0 0.24528107816237801 0.1907036486386274 0 0.22783619495118521 0.20973527166224001 0 0.25242827713160498 0.21540237912569379 0 0.20920449219815451 0.22515354045629349 0 0.22783619495118521 0.20973527166224001 0 0.23007231546290949 0.2334513308517342 0 0.23007231546290949 0.2334513308517342 0 0.25242827713160498 0.21540237912569379 0 0.23007231546290949 0.2334513308517342 0 0.25511338863332461 0.22468137717712711 0 0.25242827713160498 0.21540237912569379 0 0.23007231546290949 0.2334513308517342 0 0.25511338863332461 0.22468137717712711 0 0.23007231546290949 0.2334513308517342 0 0.2457442494512444 0.24022391879071339 0 0.25511338863332461 0.22468137717712711 0 0.22783619495118521 0.20973527166224001 0 0.23007231546290949 0.2334513308517342 0 0.25242827713160498 0.21540237912569379 0 0.2457442494512444 0.24022391879071339 0 0.23628031136540401 0.25597328662156199 0 0.26221447651104962 0.2479993693513689 0 0.23007231546290949 0.2334513308517342 0 0.2457442494512444 0.24022391879071339 0 0.23628031136540401 0.25597328662156199 0 0.21557305570370441 0.24515722135805329 0 0.23007231546290949 0.2334513308517342 0 0.23628031136540401 0.25597328662156199 0 0.21557305570370441 0.24515722135805329 0 0.23007231546290949 0.2334513308517342 0 0.21023583046185859 0.14706018503428281 0 0.22521494488481819 0.12557893006429149 0 0.2001236667938262 0.1180422718546187 0 0.18002451345814399 0.12716596121819479 0 0.1903693880120208 0.14015559280000461 0 0.2001236667938262 0.1180422718546187 0 0.21023583046185859 0.14706018503428281 0 0.1903693880120208 0.14015559280000461 0 0.2001236667938262 0.1180422718546187 0 0.21023583046185859 0.14706018503428281 0 0.1903693880120208 0.14015559280000461 0 0.19050902449260759 0.164433536692701 0 0.18411838942066619 0.18828130780555291 0 0.20343121377691101 0.18825927067945539 0 0.19050902449260759 0.164433536692701 0 0.20343121377691101 0.18825927067945539 0 0.19050902449260759 0.164433536692701 0 0.20962662881846919 0.1707346457134423 0 0.20343121377691101 0.18825927067945539 0 0.20962662881846919 0.1707346457134423 0 0.2219787971027708 0.18678942035429349 0 0.21023583046185859 0.14706018503428281 0 0.20962662881846919 0.1707346457134423 0 0.2254160648188453 0.164078398330023 0 0.21023583046185859 0.14706018503428281 0 0.19050902449260759 0.164433536692701 0 0.20962662881846919 0.1707346457134423 0 0.20962662881846919 0.1707346457134423 0 0.2254160648188453 0.164078398330023 0 0.2219787971027708 0.18678942035429349 0 0.2254160648188453 0.164078398330023 0 0.2219787971027708 0.18678942035429349 0 0.23714843650665229 0.1758398884969993 0 0.24528107816237801 0.1907036486386274 0 0.2219787971027708 0.18678942035429349 0 0.23714843650665229 0.1758398884969993 0 0.24528107816237801 0.1907036486386274 0 0.23714843650665229 0.1758398884969993 0 0.25292738168467233 0.17649485219682931 0 0.2254160648188453 0.164078398330023 0 0.24653130607993951 0.16237692388552691 0 0.23688534306575301 0.1458043597726891 0 0.23714843650665229 0.1758398884969993 0 0.24653130607993951 0.16237692388552691 0 0.25292738168467233 0.17649485219682931 0 0.2254160648188453 0.164078398330023 0 0.23714843650665229 0.1758398884969993 0 0.24653130607993951 0.16237692388552691 0 0.24653130607993951 0.16237692388552691 0 0.2496536413094039 0.15044712256699261 0 0.23688534306575301 0.1458043597726891 0 0.2496536413094039 0.15044712256699261 0 0.23688534306575301 0.1458043597726891 0 0.25004344172447263 0.14019424959050239 0 0.21023583046185859 0.14706018503428281 0 0.2254160648188453 0.164078398330023 0 0.23688534306575301 0.1458043597726891 0 0.21023583046185859 0.14706018503428281 0 0.23688534306575301 0.1458043597726891 0 0.22521494488481819 0.12557893006429149 0 0.22521494488481819 0.12557893006429149 0 0.25030622297580962 0.13311558827396619 0 0.23688534306575301 0.1458043597726891 0 0.22521494488481819 0.12557893006429149 0 0.25030622297580962 0.13311558827396619 0 0.23688534306575301 0.1458043597726891 0 0.25004344172447263 0.14019424959050239 0 0.25030622297580962 0.13311558827396619 0 0.22521494488481819 0.12557893006429149 0 0.2369469616243938 0.1144798656387125 0 0.25030622297580962 0.13311558827396619 0 0.2369469616243938 0.1144798656387125 0 0.25094552198087999 0.11589449234768209 0 0.25030622297580962 0.13311558827396619 0 0.2369469616243938 0.1144798656387125 0 0.25158482098595109 0.098673396421397969 0 0.25094552198087999 0.11589449234768209 0 0.2369469616243938 0.1144798656387125 0 0.2308580048349978 0.09939168424622695 0 0.25158482098595109 0.098673396421397969 0 0.2308580048349978 0.09939168424622695 0 0.2177667053289645 0.10879872465146249 0 0.21723881235993189 0.092441087960636145 0 0.2369469616243938 0.1144798656387125 0 0.2308580048349978 0.09939168424622695 0 0.2177667053289645 0.10879872465146249 0 0.22521494488481819 0.12557893006429149 0 0.2369469616243938 0.1144798656387125 0 0.2177667053289645 0.10879872465146249 0 0.2177667053289645 0.10879872465146249 0 0.1970849337058638 0.1019164286603922 0 0.2001236667938262 0.1180422718546187 0 0.22521494488481819 0.12557893006429149 0 0.2177667053289645 0.10879872465146249 0 0.2001236667938262 0.1180422718546187 0 0.22521494488481819 0.12557893006429149 0 0.2001236667938262 0.1180422718546187 0 0.1970849337058638 0.1019164286603922 0 0.20420713705815571 0.090978010823124941 0 0.21723881235993189 0.092441087960636145 0 0.1970849337058638 0.1019164286603922 0 0.21723881235993189 0.092441087960636145 0 0.2177667053289645 0.10879872465146249 0 0.1970849337058638 0.1019164286603922 0 0.21723881235993189 0.092441087960636145 0 0.1970849337058638 0.1019164286603922 0 0.1916307843626972 0.08827444688259839 0 0.17503238870283441 0.11050561364494491 0 0.2001236667938262 0.1180422718546187 0 0.17503238870283441 0.11050561364494491 0 0.1970849337058638 0.1019164286603922 0 0.2001236667938262 0.1180422718546187 0 0.17503238870283441 0.11050561364494491 0 0.1916307843626972 0.08827444688259839 0 0.2082291800225603 0.066043280120252124 0 0.19067723801237901 0.065525043857756982 0 0.1916307843626972 0.08827444688259839 0 0.2082291800225603 0.066043280120252124 0 0.1916307843626972 0.08827444688259839 0 0.21087401780412959 0.081280079788873041 0 0.20420713705815571 0.090978010823124941 0 0.1970849337058638 0.1019164286603922 0 0.1916307843626972 0.08827444688259839 0 0.20420713705815571 0.090978010823124941 0 0.1916307843626972 0.08827444688259839 0 0.21087401780412959 0.081280079788873041 0 0.2082291800225603 0.066043280120252124 0 0.21087401780412959 0.081280079788873041 0 0.20420713705815571 0.090978010823124941 0 0.21723881235993189 0.092441087960636145 0 0.21087401780412959 0.081280079788873041 0 0.21723881235993189 0.092441087960636145 0 0.22613356481757629 0.0775902723280468 0 0.21087401780412959 0.081280079788873041 0 0.2082291800225603 0.066043280120252124 0 0.22613356481757629 0.0775902723280468 0 0.2082291800225603 0.066043280120252124 0 0.22613356481757629 0.0775902723280468 0 0.2082291800225603 0.066043280120252124 0 0.2259496113806885 0.070300708218039992 0 0.21450653174737461 0.057635669175196122 0 0.2259496113806885 0.070300708218039992 0 0.21450653174737461 0.057635669175196122 0 0.2082291800225603 0.066043280120252124 0 0.2259496113806885 0.070300708218039992 0 0.22613356481757629 0.0775902723280468 0 0.2259496113806885 0.070300708218039992 0 0.2248665156508784 0.061611733455129589 0 0.21450653174737461 0.057635669175196122 0 0.2259496113806885 0.070300708218039992 0 0.22613356481757629 0.0775902723280468 0 0.23739269101400209 0.082965747260884265 0 0.2259496113806885 0.070300708218039992 0 0.23739269101400209 0.082965747260884265 0 0.237967452106535 0.070105640596903412 0 0.2259496113806885 0.070300708218039992 0 0.23739269101400209 0.082965747260884265 0 0.2259496113806885 0.070300708218039992 0 0.2330718446673557 0.064441819436705627 0 0.2248665156508784 0.061611733455129589 0 0.2259496113806885 0.070300708218039992 0 0.2330718446673557 0.064441819436705627 0 0.237967452106535 0.070105640596903412 0 0.2308580048349978 0.09939168424622695 0 0.21723881235993189 0.092441087960636145 0 0.23739269101400209 0.082965747260884265 0 0.21723881235993189 0.092441087960636145 0 0.22613356481757629 0.0775902723280468 0 0.23739269101400209 0.082965747260884265 0 0.21723881235993189 0.092441087960636145 0 0.23739269101400209 0.082965747260884265 0 0.23739269101400209 0.082965747260884265 0 0.25158482098595109 0.098673396421397969 0 0.23739269101400209 0.082965747260884265 0 0.25243039498113262 0.075895774732197205 0 0.25158482098595109 0.098673396421397969 0 0.2308580048349978 0.09939168424622695 0 0.23739269101400209 0.082965747260884265 0 0.25158482098595109 0.098673396421397969 0 0.23739269101400209 0.082965747260884265 0 0.25243039498113262 0.075895774732197205 0 0.23934469018649959 0.064583282500140851 0 0.237967452106535 0.070105640596903412 0 0.24496427956833819 0.066036472520138348 0 0.2330718446673557 0.064441819436705627 0 0.23934469018649959 0.064583282500140851 0 0.2376257901407148 0.059976102198904507 0 0.2330718446673557 0.064441819436705627 0 0.23934469018649959 0.064583282500140851 0 0.237967452106535 0.070105640596903412 0 0.23739269101400209 0.082965747260884265 0 0.237967452106535 0.070105640596903412 0 0.24429048066179679 0.072622021298478806 0 0.24429048066179679 0.072622021298478806 0 0.24842415088314279 0.069033451464499671 0 0.25243039498113262 0.075895774732197205 0 0.23739269101400209 0.082965747260884265 0 0.24429048066179679 0.072622021298478806 0 0.25243039498113262 0.075895774732197205 0 0.24842415088314279 0.069033451464499671 0 0.24853219730195361 0.063845178725116872 0 0.25274476311700622 0.067427493409812952 0 0.237967452106535 0.070105640596903412 0 0.24429048066179679 0.072622021298478806 0 0.24496427956833819 0.066036472520138348 0 0.24429048066179679 0.072622021298478806 0 0.24842415088314279 0.069033451464499671 0 0.24496427956833819 0.066036472520138348 0 0.23934469018649959 0.064583282500140851 0 0.24496427956833819 0.066036472520138348 0 0.24309408444955441 0.062356377748052388 0 0.24496427956833819 0.066036472520138348 0 0.24602681454492631 0.062964227281045088 0 0.24309408444955441 0.062356377748052388 0 0.24496427956833819 0.066036472520138348 0 0.24602681454492631 0.062964227281045088 0 0.24853219730195361 0.063845178725116872 0 0.24842415088314279 0.069033451464499671 0 0.24496427956833819 0.066036472520138348 0 0.24853219730195361 0.063845178725116872 0 0.24751669685985911 0.059618880130872708 0 0.24309408444955441 0.062356377748052388 0 0.2376257901407148 0.059976102198904507 0 0.24751669685985911 0.059618880130872708 0 0.24426241142214139 0.049994713685017962 0 0.2310385276818335 0.053106641608170198 0 0.24751669685985911 0.059618880130872708 0 0.2376257901407148 0.059976102198904507 0 0.2310385276818335 0.053106641608170198 0 0.24751669685985911 0.059618880130872708 0 0.2310385276818335 0.053106641608170198 0 0.24853219730195361 0.063845178725116872 0 0.24751669685985911 0.059618880130872708 0 0.2530174900015254 0.0600809219264858 0 0.24602681454492631 0.062964227281045088 0 0.24853219730195361 0.063845178725116872 0 0.24751669685985911 0.059618880130872708 0 0.24602681454492631 0.062964227281045088 0 0.24751669685985911 0.059618880130872708 0 0.24309408444955441 0.062356377748052388 0 0.23934469018649959 0.064583282500140851 0 0.24309408444955441 0.062356377748052388 0 0.2376257901407148 0.059976102198904507 0 0.24426241142214139 0.049994713685017962 0 0.23928634064401511 0.040096757013566242 0 0.2310385276818335 0.053106641608170198 0 0.24751669685985911 0.059618880130872708 0 0.24426241142214139 0.049994713685017962 0 0.25102243244437311 0.053297338652025752 0 0.24426241142214139 0.049994713685017962 0 0.25174039047255609 0.044464402284776217 0 0.25102243244437311 0.053297338652025752 0 0.23928634064401511 0.040096757013566242 0 0.2320502206633881 0.021165953515508481 0 0.25044211127373811 0.032849993626191502 0 0.23928634064401511 0.040096757013566242 0 0.25044211127373811 0.032849993626191502 0 0.25174039047255609 0.044464402284776217 0 0.24426241142214139 0.049994713685017962 0 0.23928634064401511 0.040096757013566242 0 0.25174039047255609 0.044464402284776217 0 0.22618438235043381 0.038998837361733103 0 0.2320502206633881 0.021165953515508481 0 0.20963369093729961 0.03941564640516447 0 0.23928634064401511 0.040096757013566242 0 0.22618438235043381 0.038998837361733103 0 0.2320502206633881 0.021165953515508481 0 0.22618438235043381 0.038998837361733103 0 0.2310385276818335 0.053106641608170198 0 0.21456035850380811 0.046594403085467223 0 0.23928634064401511 0.040096757013566242 0 0.22618438235043381 0.038998837361733103 0 0.2310385276818335 0.053106641608170198 0 0.2310385276818335 0.053106641608170198 0 0.21456035850380811 0.046594403085467223 0 0.2248665156508784 0.061611733455129589 0 0.2310385276818335 0.053106641608170198 0 0.21456035850380811 0.046594403085467223 0 0.2248665156508784 0.061611733455129589 0 0.21456035850380811 0.046594403085467223 0 0.2330718446673557 0.064441819436705627 0 0.2248665156508784 0.061611733455129589 0 0.23150027442910881 0.059501590197602497 0 0.2248665156508784 0.061611733455129589 0 0.23150027442910881 0.059501590197602497 0 0.2310385276818335 0.053106641608170198 0 0.2330718446673557 0.064441819436705627 0 0.2376257901407148 0.059976102198904507 0 0.23150027442910881 0.059501590197602497 0 0.2376257901407148 0.059976102198904507 0 0.23150027442910881 0.059501590197602497 0 0.2310385276818335 0.053106641608170198 0 0.2320502206633881 0.021165953515508481 0 0.22999165343287109 0.0038227322559807589 0 0.25446675038947358 0.0029162606258486688 0 0.2320502206633881 0.021165953515508481 0 0.2600935707136679 0.019574361616358959 0 0.25446675038947358 0.0029162606258486688 0 0.22999165343287109 0.0038227322559807589 0 0.25446675038947358 0.0029162606258486688 0 0.24138147174972829 -0.0061427828714447699 0 0.2320502206633881 0.021165953515508481 0 0.25446675038947358 0.0029162606258486688 0 0.2320502206633881 0.021165953515508481 0 0.2600935707136679 0.019574361616358959 0 0.25044211127373811 0.032849993626191502 0 0.2320502206633881 0.021165953515508481 0 0.20963369093729961 0.03941564640516447 0 0.22999165343287109 0.0038227322559807589 0 0.21340461703840111 0.0096506044731711187 0 0.21351355446813719 -0.0021103410187178909 0 0.2320502206633881 0.021165953515508481 0 0.22999165343287109 0.0038227322559807589 0 0.21340461703840111 0.0096506044731711187 0 0.21340461703840111 0.0096506044731711187 0 0.1998105265397013 0.00335350757378736 0 0.21351355446813719 -0.0021103410187178909 0 0.21340461703840111 0.0096506044731711187 0 0.20371525389429951 0.01279949030761077 0 0.2082588668535221 0.02245160931237615 0 0.21340461703840111 0.0096506044731711187 0 0.20371525389429951 0.01279949030761077 0 0.1998105265397013 0.00335350757378736 0 0.2320502206633881 0.021165953515508481 0 0.2082588668535221 0.02245160931237615 0 0.20963369093729961 0.03941564640516447 0 0.2320502206633881 0.021165953515508481 0 0.21340461703840111 0.0096506044731711187 0 0.2082588668535221 0.02245160931237615 0 0.2082588668535221 0.02245160931237615 0 0.19338700514557339 0.015742239871108451 0 0.20963369093729961 0.03941564640516447 0 0.19338700514557339 0.015742239871108451 0 0.1989601287501698 0.040429129743079398 0 0.18048502430789731 0.01998114488410483 0 0.1989601287501698 0.040429129743079398 0 0.18048502430789731 0.01998114488410483 0 0.19338700514557339 0.015742239871108451 0 0.20963369093729961 0.03941564640516447 0 0.20371525389429951 0.01279949030761077 0 0.2082588668535221 0.02245160931237615 0 0.19338700514557339 0.015742239871108451 0 0.19338700514557339 0.015742239871108451 0 0.1998105265397013 0.00335350757378736 0 0.17714031935384769 -0.0079311666629475405 0 0.20371525389429951 0.01279949030761077 0 0.19338700514557339 0.015742239871108451 0 0.1998105265397013 0.00335350757378736 0 0.21450653174737461 0.057635669175196122 0 0.2029561920580818 0.044851916216142339 0 0.21450653174737461 0.057635669175196122 0 0.2029561920580818 0.044851916216142339 0 0.2021088015620611 0.053433964061651712 0 0.21450653174737461 0.057635669175196122 0 0.21456035850380811 0.046594403085467223 0 0.2029561920580818 0.044851916216142339 0 0.2082291800225603 0.066043280120252124 0 0.21450653174737461 0.057635669175196122 0 0.2021088015620611 0.053433964061651712 0 0.2248665156508784 0.061611733455129589 0 0.21450653174737461 0.057635669175196122 0 0.21456035850380811 0.046594403085467223 0 0.2082291800225603 0.066043280120252124 0 0.21450653174737461 0.057635669175196122 0 0.22618438235043381 0.038998837361733103 0 0.21456035850380811 0.046594403085467223 0 0.20963369093729961 0.03941564640516447 0 0.21456035850380811 0.046594403085467223 0 0.20963369093729961 0.03941564640516447 0 0.21456035850380811 0.046594403085467223 0 0.20530753189452691 0.042937648913457381 0 0.2029561920580818 0.044851916216142339 0 0.20963369093729961 0.03941564640516447 0 0.20530753189452691 0.042937648913457381 0 0.1989601287501698 0.040429129743079398 0 0.21456035850380811 0.046594403085467223 0 0.20530753189452691 0.042937648913457381 0 0.21456035850380811 0.046594403085467223 0 0.20963369093729961 0.03941564640516447 0 0.20530753189452691 0.042937648913457381 0 0.20963369093729961 0.03941564640516447 0 0.20530753189452691 0.042937648913457381 0 0.20530753189452691 0.042937648913457381 0 0.2029561920580818 0.044851916216142339 0 0.1989601287501698 0.040429129743079398 0 0.1774654858828027 0.031934360706524292 0 0.2029561920580818 0.044851916216142339 0 0.1989601287501698 0.040429129743079398 0 0.19971656766465989 0.047489351670260083 0 0.1989601287501698 0.040429129743079398 0 0.19133087755196571 0.045131483978966998 0 0.19971656766465989 0.047489351670260083 0 0.2029561920580818 0.044851916216142339 0 0.19971656766465989 0.047489351670260083 0 0.19338700514557339 0.015742239871108451 0 0.20963369093729961 0.03941564640516447 0 0.1989601287501698 0.040429129743079398 0 0.1989601287501698 0.040429129743079398 0 0.19133087755196571 0.045131483978966998 0 0.18298678422305309 0.040980100737508622 0 0.20530753189452691 0.042937648913457381 0 0.2029561920580818 0.044851916216142339 0 0.1989601287501698 0.040429129743079398 0 0.20530753189452691 0.042937648913457381 0 0.1989601287501698 0.040429129743079398 0 0.2029561920580818 0.044851916216142339 0 0.1989601287501698 0.040429129743079398 0 0.2082291800225603 0.066043280120252124 0 0.18513553631762919 0.051149603126408108 0 0.2021088015620611 0.053433964061651712 0 0.19971656766465989 0.047489351670260083 0 0.18513553631762919 0.051149603126408108 0 0.2082291800225603 0.066043280120252124 0 0.2021088015620611 0.053433964061651712 0 0.18513553631762919 0.051149603126408108 0 0.19067723801237901 0.065525043857756982 0 0.2082291800225603 0.066043280120252124 0 0.18513553631762919 0.051149603126408108 0 0.19133087755196571 0.045131483978966998 0 0.19971656766465989 0.047489351670260083 0 0.18513553631762919 0.051149603126408108 0 0.2029561920580818 0.044851916216142339 0 0.2021088015620611 0.053433964061651712 0 0.19971656766465989 0.047489351670260083 0 0.17734631865053521 0.060730067185729229 0 0.18513553631762919 0.051149603126408108 0 0.16725106424272049 0.052894846580172288 0 0.19067723801237901 0.065525043857756982 0 0.17734631865053521 0.060730067185729229 0 0.18513553631762919 0.051149603126408108 0 0.18298678422305309 0.040980100737508622 0 0.1774654858828027 0.031934360706524292 0 0.1620418926126978 0.036255926132564682 0 0.19133087755196571 0.045131483978966998 0 0.18513553631762919 0.051149603126408108 0 0.18298678422305309 0.040980100737508622 0 0.18513553631762919 0.051149603126408108 0 0.18298678422305309 0.040980100737508622 0 0.1620418926126978 0.036255926132564682 0 0.1989601287501698 0.040429129743079398 0 0.18298678422305309 0.040980100737508622 0 0.1774654858828027 0.031934360706524292 0 0.18513553631762919 0.051149603126408108 0 0.1620418926126978 0.036255926132564682 0 0.1620418926126978 0.036255926132564682 0 0.16725106424272049 0.052894846580172288 0 0.15541952745182569 0.04677658384696623 0 0.18513553631762919 0.051149603126408108 0 0.1620418926126978 0.036255926132564682 0 0.16725106424272049 0.052894846580172288 0 0.16725106424272049 0.052894846580172288 0 0.15507694825043991 0.057889849327421902 0 0.15541952745182569 0.04677658384696623 0 0.16725106424272049 0.052894846580172288 0 0.15507694825043991 0.057889849327421902 0 0.1653937448538241 0.067538194789913991 0 0.17734631865053521 0.060730067185729229 0 0.16725106424272049 0.052894846580172288 0 0.1653937448538241 0.067538194789913991 0 0.18048502430789731 0.01998114488410483 0 0.1657030786406338 0.0084270166623369204 0 0.17714031935384769 -0.0079311666629475405 0 0.19338700514557339 0.015742239871108451 0 0.17714031935384769 -0.0079311666629475405 0 0.19338700514557339 0.015742239871108451 0 0.18048502430789731 0.01998114488410483 0 0.17714031935384769 -0.0079311666629475405 0 0.1989601287501698 0.040429129743079398 0 0.1774654858828027 0.031934360706524292 0 0.18048502430789731 0.01998114488410483 0 0.1774654858828027 0.031934360706524292 0 0.18048502430789731 0.01998114488410483 0 0.16935520337559401 0.020657770454092759 0 0.1774654858828027 0.031934360706524292 0 0.15597084301543529 0.02343959166996953 0 0.1774654858828027 0.031934360706524292 0 0.1620418926126978 0.036255926132564682 0 0.15597084301543529 0.02343959166996953 0 0.1774654858828027 0.031934360706524292 0 0.16935520337559401 0.020657770454092759 0 0.15597084301543529 0.02343959166996953 0 0.16935520337559401 0.020657770454092759 0 0.1657030786406338 0.0084270166623369204 0 0.15597084301543529 0.02343959166996953 0 0.18048502430789731 0.01998114488410483 0 0.16935520337559401 0.020657770454092759 0 0.1657030786406338 0.0084270166623369204 0 0.1657030786406338 0.0084270166623369204 0 0.14883794818754281 0.01110572894874149 0 0.15480995508657039 -0.001084596553268768 0 0.1657030786406338 0.0084270166623369204 0 0.14883794818754281 0.01110572894874149 0 0.15597084301543529 0.02343959166996953 0 0.14883794818754281 0.01110572894874149 0 0.13464870039648349 0.00080453217212592717 0 0.15480995508657039 -0.001084596553268768 0 0.14883794818754281 0.01110572894874149 0 0.13894824890776639 0.02136224913872127 0 0.13464870039648349 0.00080453217212592717 0 0.1620418926126978 0.036255926132564682 0 0.13894824890776639 0.02136224913872127 0 0.14883794818754281 0.01110572894874149 0 0.15597084301543529 0.02343959166996953 0 0.13894824890776639 0.02136224913872127 0 0.1620418926126978 0.036255926132564682 0 0.15597084301543529 0.02343959166996953 0 0.13894824890776639 0.02136224913872127 0 0.11961069471150609 0.02296590295220987 0 0.13894824890776639 0.02136224913872127 0 0.12977361784467401 0.039215218793308727 0 0.1158546052028349 0.0064685721448778594 0 0.13894824890776639 0.02136224913872127 0 0.1158546052028349 0.0064685721448778594 0 0.13894824890776639 0.02136224913872127 0 0.13464870039648349 0.00080453217212592717 0 0.14278372382386809 0.048416123664777412 0 0.1428601767931531 0.062084067640591357 0 0.15507694825043991 0.057889849327421902 0 0.14278372382386809 0.048416123664777412 0 0.15507694825043991 0.057889849327421902 0 0.15541952745182569 0.04677658384696623 0 0.1620418926126978 0.036255926132564682 0 0.13894824890776639 0.02136224913872127 0 0.14579340212816641 0.038405220315267663 0 0.1620418926126978 0.036255926132564682 0 0.15541952745182569 0.04677658384696623 0 0.14579340212816641 0.038405220315267663 0 0.14278372382386809 0.048416123664777412 0 0.15541952745182569 0.04677658384696623 0 0.14579340212816641 0.038405220315267663 0 0.14278372382386809 0.048416123664777412 0 0.14579340212816641 0.038405220315267663 0 0.12977361784467401 0.039215218793308727 0 0.13894824890776639 0.02136224913872127 0 0.14579340212816641 0.038405220315267663 0 0.12977361784467401 0.039215218793308727 0 0.11550376979223601 0.054551475820320147 0 0.12977361784467401 0.039215218793308727 0 0.1326943019686847 0.054606112458038862 0 0.11550376979223601 0.054551475820320147 0 0.1326943019686847 0.054606112458038862 0 0.13255022158949201 0.068763676371196639 0 0.14278372382386809 0.048416123664777412 0 0.12977361784467401 0.039215218793308727 0 0.1326943019686847 0.054606112458038862 0 0.14278372382386809 0.048416123664777412 0 0.1428601767931531 0.062084067640591357 0 0.1326943019686847 0.054606112458038862 0 0.1428601767931531 0.062084067640591357 0 0.1326943019686847 0.054606112458038862 0 0.13255022158949201 0.068763676371196639 0 0.1207366242219714 0.074251990558816788 0 0.13255022158949201 0.068763676371196639 0 0.13578085374332971 0.077614708003019631 0 0.13255022158949201 0.068763676371196639 0 0.13578085374332971 0.077614708003019631 0 0.1430759120552613 0.073085192731263071 0 0.1428601767931531 0.062084067640591357 0 0.13255022158949201 0.068763676371196639 0 0.1430759120552613 0.073085192731263071 0 0.1428601767931531 0.062084067640591357 0 0.1430759120552613 0.073085192731263071 0 0.15260580868734391 0.069203578475014266 0 0.1430759120552613 0.073085192731263071 0 0.14969883640752091 0.076610515579137797 0 0.14563192422462459 0.083183778073064013 0 0.13578085374332971 0.077614708003019631 0 0.1430759120552613 0.073085192731263071 0 0.14563192422462459 0.083183778073064013 0 0.1430759120552613 0.073085192731263071 0 0.14969883640752091 0.076610515579137797 0 0.15260580868734391 0.069203578475014266 0 0.14969883640752091 0.076610515579137797 0 0.15260580868734391 0.069203578475014266 0 0.15677919641446331 0.080277826610221981 0 0.1428601767931531 0.062084067640591357 0 0.15507694825043991 0.057889849327421902 0 0.15260580868734391 0.069203578475014266 0 0.1506819444987289 0.088437751930635633 0 0.14868901735932749 0.09586058707093438 0 0.157853861938485 0.092527754269896317 0 0.1506819444987289 0.088437751930635633 0 0.15677919641446331 0.080277826610221981 0 0.157853861938485 0.092527754269896317 0 0.14969883640752091 0.076610515579137797 0 0.14563192422462459 0.083183778073064013 0 0.15677919641446331 0.080277826610221981 0 0.1506819444987289 0.088437751930635633 0 0.14563192422462459 0.083183778073064013 0 0.15677919641446331 0.080277826610221981 0 0.14563192422462459 0.083183778073064013 0 0.1444557225567443 0.090338813629061501 0 0.13888671887288589 0.088270852986767859 0 0.1506819444987289 0.088437751930635633 0 0.14563192422462459 0.083183778073064013 0 0.1444557225567443 0.090338813629061501 0 0.1444557225567443 0.090338813629061501 0 0.14209274384079601 0.094639397504520467 0 0.14868901735932749 0.09586058707093438 0 0.1506819444987289 0.088437751930635633 0 0.1444557225567443 0.090338813629061501 0 0.14868901735932749 0.09586058707093438 0 0.1444557225567443 0.090338813629061501 0 0.13888671887288589 0.088270852986767859 0 0.14209274384079601 0.094639397504520467 0 0.13888671887288589 0.088270852986767859 0 0.13668050292917741 0.098217611464673699 0 0.14209274384079601 0.094639397504520467 0 0.13888671887288589 0.088270852986767859 0 0.1300820653953097 0.084166932106396392 0 0.13668050292917741 0.098217611464673699 0 0.11116449005577619 0.086473750785835857 0 0.1300820653953097 0.084166932106396392 0 0.13668050292917741 0.098217611464673699 0 0.13578085374332971 0.077614708003019631 0 0.13888671887288589 0.088270852986767859 0 0.1300820653953097 0.084166932106396392 0 0.13578085374332971 0.077614708003019631 0 0.14563192422462459 0.083183778073064013 0 0.13888671887288589 0.088270852986767859 0 0.1207366242219714 0.074251990558816788 0 0.13578085374332971 0.077614708003019631 0 0.1300820653953097 0.084166932106396392 0 0.1216961693062274 0.1020981758197984 0 0.1302764983332621 0.10693497851168419 0 0.13668050292917741 0.098217611464673699 0 0.1302764983332621 0.10693497851168419 0 0.13758713408363871 0.1043360441680015 0 0.13668050292917741 0.098217611464673699 0 0.1302764983332621 0.10693497851168419 0 0.1360833458267342 0.1084620534226548 0 0.13758713408363871 0.1043360441680015 0 0.1360833458267342 0.1084620534226548 0 0.13758713408363871 0.1043360441680015 0 0.14314356584317489 0.10755645506983 0 0.13758713408363871 0.1043360441680015 0 0.13668050292917741 0.098217611464673699 0 0.14175175748584509 0.1005091223711649 0 0.13668050292917741 0.098217611464673699 0 0.14209274384079601 0.094639397504520467 0 0.14175175748584509 0.1005091223711649 0 0.12813823657366311 0.12049833089676459 0 0.13246275659848361 0.1130811342378658 0 0.13708322035591489 0.118794437000363 0 0.12212988809696081 0.1249307776834532 0 0.12788127083107459 0.1291064789800366 0 0.12813823657366311 0.12049833089676459 0 0.1197878353292403 0.1092484053650479 0 0.1302764983332621 0.10693497851168419 0 0.12624189261331301 0.1140678077034443 0 0.12813823657366311 0.12049833089676459 0 0.12624189261331301 0.1140678077034443 0 0.13246275659848361 0.1130811342378658 0 0.1302764983332621 0.10693497851168419 0 0.12624189261331301 0.1140678077034443 0 0.13246275659848361 0.1130811342378658 0 0.138866780176991 0.11235807520418389 0 0.13708322035591489 0.118794437000363 0 0.14572099158606311 0.1154247658161887 0 0.1360833458267342 0.1084620534226548 0 0.13246275659848361 0.1130811342378658 0 0.138866780176991 0.11235807520418389 0 0.1302764983332621 0.10693497851168419 0 0.1360833458267342 0.1084620534226548 0 0.13246275659848361 0.1130811342378658 0 0.1360833458267342 0.1084620534226548 0 0.138866780176991 0.11235807520418389 0 0.14314356584317489 0.10755645506983 0 0.13246275659848361 0.1130811342378658 0 0.138866780176991 0.11235807520418389 0 0.13708322035591489 0.118794437000363 0 0.13409394305489639 0.1257339851238449 0 0.14295710802469111 0.12768772724150559 0 0.13708322035591489 0.118794437000363 0 0.13409394305489639 0.1257339851238449 0 0.12813823657366311 0.12049833089676459 0 0.13708322035591489 0.118794437000363 0 0.14572099158606311 0.1154247658161887 0 0.15364605026385231 0.1227496740475859 0 0.15839207309433961 0.10550736800805539 0 0.14295710802469111 0.12768772724150559 0 0.13708322035591489 0.118794437000363 0 0.14572099158606311 0.1154247658161887 0 0.14295710802469111 0.12768772724150559 0 0.14572099158606311 0.1154247658161887 0 0.15364605026385231 0.1227496740475859 0 0.138866780176991 0.11235807520418389 0 0.14572099158606311 0.1154247658161887 0 0.14314356584317489 0.10755645506983 0 0.14572099158606311 0.1154247658161887 0 0.14314356584317489 0.10755645506983 0 0.15839207309433961 0.10550736800805539 0 0.14175175748584509 0.1005091223711649 0 0.15839207309433961 0.10550736800805539 0 0.14175175748584509 0.1005091223711649 0 0.14314356584317489 0.10755645506983 0 0.15839207309433961 0.10550736800805539 0 0.14175175748584509 0.1005091223711649 0 0.14868901735932749 0.09586058707093438 0 0.15839207309433961 0.10550736800805539 0 0.14209274384079601 0.094639397504520467 0 0.14175175748584509 0.1005091223711649 0 0.14868901735932749 0.09586058707093438 0 0.13758713408363871 0.1043360441680015 0 0.14175175748584509 0.1005091223711649 0 0.14314356584317489 0.10755645506983 0 0.14868901735932749 0.09586058707093438 0 0.15839207309433961 0.10550736800805539 0 0.157853861938485 0.092527754269896317 0 0.15839207309433961 0.10550736800805539 0 0.17503238870283441 0.11050561364494491 0 0.15839207309433961 0.10550736800805539 0 0.1705578526620479 0.095927182961129481 0 0.157853861938485 0.092527754269896317 0 0.15839207309433961 0.10550736800805539 0 0.1705578526620479 0.095927182961129481 0 0.17503238870283441 0.11050561364494491 0 0.16417220099380411 0.12505127510387981 0 0.15839207309433961 0.10550736800805539 0 0.17503238870283441 0.11050561364494491 0 0.16417220099380411 0.12505127510387981 0 0.15364605026385231 0.1227496740475859 0 0.15839207309433961 0.10550736800805539 0 0.16417220099380411 0.12505127510387981 0 0.17503238870283441 0.11050561364494491 0 0.18002451345814399 0.12716596121819479 0 0.16417220099380411 0.12505127510387981 0 0.17503238870283441 0.11050561364494491 0 0.18002451345814399 0.12716596121819479 0 0.2001236667938262 0.1180422718546187 0 0.17503238870283441 0.11050561364494491 0 0.1916307843626972 0.08827444688259839 0 0.1705578526620479 0.095927182961129481 0 0.17503238870283441 0.11050561364494491 0 0.1916307843626972 0.08827444688259839 0 0.17503238870283441 0.11050561364494491 0 0.1916307843626972 0.08827444688259839 0 0.17935943521264269 0.07135827912697662 0 0.16988015521188329 0.08282073200015258 0 0.1916307843626972 0.08827444688259839 0 0.1705578526620479 0.095927182961129481 0 0.16988015521188329 0.08282073200015258 0 0.19067723801237901 0.065525043857756982 0 0.1916307843626972 0.08827444688259839 0 0.17935943521264269 0.07135827912697662 0 0.19067723801237901 0.065525043857756982 0 0.17734631865053521 0.060730067185729229 0 0.17935943521264269 0.07135827912697662 0 0.17734631865053521 0.060730067185729229 0 0.17935943521264269 0.07135827912697662 0 0.1653937448538241 0.067538194789913991 0 0.17935943521264269 0.07135827912697662 0 0.1653937448538241 0.067538194789913991 0 0.16988015521188329 0.08282073200015258 0 0.15507694825043991 0.057889849327421902 0 0.15260580868734391 0.069203578475014266 0 0.1653937448538241 0.067538194789913991 0 0.15260580868734391 0.069203578475014266 0 0.1653937448538241 0.067538194789913991 0 0.15677919641446331 0.080277826610221981 0 0.1653937448538241 0.067538194789913991 0 0.15677919641446331 0.080277826610221981 0 0.16988015521188329 0.08282073200015258 0 0.15677919641446331 0.080277826610221981 0 0.157853861938485 0.092527754269896317 0 0.16988015521188329 0.08282073200015258 0 0.1705578526620479 0.095927182961129481 0 0.157853861938485 0.092527754269896317 0 0.16988015521188329 0.08282073200015258 0 0.099456207782380623 0.4822659283708195 0 0.1141892196830592 0.48396198267476093 0 0.11304725129434449 0.46767028325629811 0 0.099456207782380623 0.4822659283708195 0 0.11304725129434449 0.46767028325629811 0 0.096803680563272876 0.46646214520586099 0 0.099456207782380623 0.4822659283708195 0 0.10782601469385079 0.5 0 0.078267650747156567 0.50000000000000133 0 0.099456207782380623 0.4822659283708195 0 0.10782601469385079 0.5 0 0.1141892196830592 0.48396198267476093 0 0.10782601469385079 0.5 0 0.1249193769550877 0.49369376296818718 0 0.1141892196830592 0.48396198267476093 0 0.1249193769550877 0.49369376296818718 0 0.1141892196830592 0.48396198267476093 0 0.12569724768963239 0.47617993877849962 0 0.10782601469385079 0.5 0 0.1249193769550877 0.49369376296818718 0 0.13738437864054501 0.5 0 0.1141892196830592 0.48396198267476093 0 0.11304725129434449 0.46767028325629811 0 0.12569724768963239 0.47617993877849962 0 0.11304725129434449 0.46767028325629811 0 0.1267882431275838 0.46370707134437261 0 0.12569724768963239 0.47617993877849962 0 0.11304725129434449 0.46767028325629811 0 0.1221607865463437 0.4507156547582637 0 0.1004821270038239 0.44949914822431608 0 0.11304725129434449 0.46767028325629811 0 0.1221607865463437 0.4507156547582637 0 0.1267882431275838 0.46370707134437261 0 0.1221607865463437 0.4507156547582637 0 0.1004821270038239 0.44949914822431608 0 0.12259086230274099 0.42947812748907283 0 0.1004821270038239 0.44949914822431608 0 0.096803680563272876 0.46646214520586099 0 0.084307548883437972 0.45862843933572522 0 0.11304725129434449 0.46767028325629811 0 0.1004821270038239 0.44949914822431608 0 0.096803680563272876 0.46646214520586099 0 0.084307548883437972 0.45862843933572522 0 0.070120974899159305 0.46867166915081548 0 0.08254081050968877 0.47642281665818748 0 0.096803680563272876 0.46646214520586099 0 0.084307548883437972 0.45862843933572522 0 0.08254081050968877 0.47642281665818748 0 0.084307548883437972 0.45862843933572522 0 0.083205653112744402 0.44008551456546158 0 0.070599818540594342 0.45171728711773013 0 0.1004821270038239 0.44949914822431608 0 0.084307548883437972 0.45862843933572522 0 0.083205653112744402 0.44008551456546158 0 0.1004821270038239 0.44949914822431608 0 0.083205653112744402 0.44008551456546158 0 0.095892719888732866 0.42453745382262881 0 0.070599818540594342 0.45171728711773013 0 0.057347956450285731 0.44480695268810438 0 0.068330088192809502 0.43602814955066621 0 0.083205653112744402 0.44008551456546158 0 0.070599818540594342 0.45171728711773013 0 0.068330088192809502 0.43602814955066621 0 0.070599818540594342 0.45171728711773013 0 0.070120974899159305 0.46867166915081548 0 0.05832870883015126 0.45973880463956351 0 0.084307548883437972 0.45862843933572522 0 0.070599818540594342 0.45171728711773013 0 0.070120974899159305 0.46867166915081548 0 0.070120974899159305 0.46867166915081548 0 0.08254081050968877 0.47642281665818748 0 0.061557047466102868 0.48310025102256282 0 0.070120974899159305 0.46867166915081548 0 0.061557047466102868 0.48310025102256282 0 0.05832870883015126 0.45973880463956351 0 0.099456207782380623 0.4822659283708195 0 0.096803680563272876 0.46646214520586099 0 0.08254081050968877 0.47642281665818748 0 0.099456207782380623 0.4822659283708195 0 0.08254081050968877 0.47642281665818748 0 0.078267650747156567 0.50000000000000133 0 0.078267650747156567 0.50000000000000133 0 0.049166882519808157 0.5 0 0.061557047466102868 0.48310025102256282 0 0.08254081050968877 0.47642281665818748 0 0.078267650747156567 0.50000000000000133 0 0.061557047466102868 0.48310025102256282 0 0.078267650747156567 0.50000000000000133 0 0.061557047466102868 0.48310025102256282 0 0.049166882519808157 0.5 0 0.061557047466102868 0.48310025102256282 0 0.038208171894904559 0.48286056860770488 0 0.061557047466102868 0.48310025102256282 0 0.044846444185049857 0.46620050204512359 0 0.05832870883015126 0.45973880463956351 0 0.061557047466102868 0.48310025102256282 0 0.044846444185049857 0.46620050204512359 0 0.061557047466102868 0.48310025102256282 0 0.038208171894904559 0.48286056860770488 0 0.044846444185049857 0.46620050204512359 0 0.038208171894904559 0.48286056860770488 0 0.029572045059576241 0.469060477695939 0 0.044846444185049857 0.46620050204512359 0 0.049166882519808157 0.5 0 0.038208171894904559 0.48286056860770488 0 0.020066114292459799 0.5 0 0.038208171894904559 0.48286056860770488 0 0.020066114292459799 0.5 0 0.021055159894441029 0.48095839664786189 0 0.038208171894904559 0.48286056860770488 0 0.029572045059576241 0.469060477695939 0 0.021055159894441029 0.48095839664786189 0 0.029572045059576241 0.469060477695939 0 0.021055159894441029 0.48095839664786189 0 0.01561460841948897 0.46598216811131982 0 0.021055159894441029 0.48095839664786189 0 0.0030933759349822849 0.48266358315495572 0 0.01561460841948897 0.46598216811131982 0 0.0030933759349822849 0.48266358315495572 0 0.01561460841948897 0.46598216811131982 0 0.0036787250480955699 0.47408322248379448 0 0.0030933759349822849 0.48266358315495572 0 0.01561460841948897 0.46598216811131982 0 -0.0016340076521478781 0.48633642657919801 0 0.0036787250480955699 0.47408322248379448 0 0.0030933759349822849 0.48266358315495572 0 0.020066114292459799 0.5 0 0.021055159894441029 0.48095839664786189 0 0.0030933759349822849 0.48266358315495572 0 -0.0090346539348886701 0.5 0 -0.0016340076521478781 0.48633642657919801 0 0.020066114292459799 0.5 0 -0.0016340076521478781 0.48633642657919801 0 0.020066114292459799 0.5 0 0.0030933759349822849 0.48266358315495572 0 -0.0030841453677343121 0.43636499760021141 0 -0.002359076509941094 0.46135071208970457 0 0.010470448459028871 0.45111158928184719 0 -0.0030841453677343121 0.43636499760021141 0 0.010470448459028871 0.45111158928184719 0 0.017893296784651399 0.43894227458572882 0 -0.002359076509941094 0.46135071208970457 0 0.010470448459028871 0.45111158928184719 0 0.01561460841948897 0.46598216811131982 0 -0.002359076509941094 0.46135071208970457 0 0.0036787250480955699 0.47408322248379448 0 0.01561460841948897 0.46598216811131982 0 0.010470448459028871 0.45111158928184719 0 0.01561460841948897 0.46598216811131982 0 0.0281358409039968 0.44930075306768458 0 0.029572045059576241 0.469060477695939 0 0.01561460841948897 0.46598216811131982 0 0.0281358409039968 0.44930075306768458 0 0.01561460841948897 0.46598216811131982 0 0.0281358409039968 0.44930075306768458 0 0.010470448459028871 0.45111158928184719 0 0.0281358409039968 0.44930075306768458 0 0.017893296784651399 0.43894227458572882 0 0.0281358409039968 0.44930075306768458 0 0.017893296784651399 0.43894227458572882 0 0.03800042812263172 0.43615865433005307 0 0.0281358409039968 0.44930075306768458 0 0.017893296784651399 0.43894227458572882 0 0.0281358409039968 0.44930075306768458 0 0.04587361322417214 0.448769157871174 0 0.03800042812263172 0.43615865433005307 0 0.0281358409039968 0.44930075306768458 0 0.03800042812263172 0.43615865433005307 0 0.04587361322417214 0.448769157871174 0 0.049411209704934803 0.43621283219101809 0 0.03800042812263172 0.43615865433005307 0 0.029572045059576241 0.469060477695939 0 0.0281358409039968 0.44930075306768458 0 0.044846444185049857 0.46620050204512359 0 0.0281358409039968 0.44930075306768458 0 0.04587361322417214 0.448769157871174 0 0.044846444185049857 0.46620050204512359 0 0.0281358409039968 0.44930075306768458 0 0.044846444185049857 0.46620050204512359 0 0.04587361322417214 0.448769157871174 0 0.044846444185049857 0.46620050204512359 0 0.05832870883015126 0.45973880463956351 0 0.04587361322417214 0.448769157871174 0 0.057347956450285731 0.44480695268810438 0 0.049411209704934803 0.43621283219101809 0 0.04587361322417214 0.448769157871174 0 0.05832870883015126 0.45973880463956351 0 0.057347956450285731 0.44480695268810438 0 0.070599818540594342 0.45171728711773013 0 0.05832870883015126 0.45973880463956351 0 0.057347956450285731 0.44480695268810438 0 0.057347956450285731 0.44480695268810438 0 0.058238482531349368 0.43512174465279091 0 0.068330088192809502 0.43602814955066621 0 0.057347956450285731 0.44480695268810438 0 0.058238482531349368 0.43512174465279091 0 0.049411209704934803 0.43621283219101809 0 0.058238482531349368 0.43512174465279091 0 0.05412352915042095 0.42739076434297479 0 0.063786863135573219 0.4234822836218442 0 0.05412352915042095 0.42739076434297479 0 0.047865015341267358 0.42301655559242213 0 0.049411209704934803 0.43621283219101809 0 0.05412352915042095 0.42739076434297479 0 0.047865015341267358 0.42301655559242213 0 0.058238482531349368 0.43512174465279091 0 0.05412352915042095 0.42739076434297479 0 0.049411209704934803 0.43621283219101809 0 0.047865015341267358 0.42301655559242213 0 0.055388731832649349 0.41299308245440008 0 0.044385004541519633 0.40583709082877739 0 0.055388731832649349 0.41299308245440008 0 0.057103340742871267 0.4006394318358022 0 0.0691327228978319 0.40699071288372829 0 0.05412352915042095 0.42739076434297479 0 0.055388731832649349 0.41299308245440008 0 0.063786863135573219 0.4234822836218442 0 0.047865015341267358 0.42301655559242213 0 0.055388731832649349 0.41299308245440008 0 0.05412352915042095 0.42739076434297479 0 0.047865015341267358 0.42301655559242213 0 0.055388731832649349 0.41299308245440008 0 0.055388731832649349 0.41299308245440008 0 0.044385004541519633 0.40583709082877739 0 0.057103340742871267 0.4006394318358022 0 0.047865015341267358 0.42301655559242213 0 0.030398582533070099 0.41080889326869052 0 0.044385004541519633 0.40583709082877739 0 0.047865015341267358 0.42301655559242213 0 0.035686717363660143 0.42423985257235269 0 0.030398582533070099 0.41080889326869052 0 0.047865015341267358 0.42301655559242213 0 0.030398582533070099 0.41080889326869052 0 0.047865015341267358 0.42301655559242213 0 0.049411209704934803 0.43621283219101809 0 0.03800042812263172 0.43615865433005307 0 0.047865015341267358 0.42301655559242213 0 0.03800042812263172 0.43615865433005307 0 0.047865015341267358 0.42301655559242213 0 0.035686717363660143 0.42423985257235269 0 0.03800042812263172 0.43615865433005307 0 0.035686717363660143 0.42423985257235269 0 0.03800042812263172 0.43615865433005307 0 0.0264828434576714 0.42697530709824522 0 0.017893296784651399 0.43894227458572882 0 0.0264828434576714 0.42697530709824522 0 0.013451351612083251 0.42022136891186163 0 0.017893296784651399 0.43894227458572882 0 0.03800042812263172 0.43615865433005307 0 0.0264828434576714 0.42697530709824522 0 0.030398582533070099 0.41080889326869052 0 0.013451351612083251 0.42022136891186163 0 0.012932149724872831 0.39860123094495892 0 0.0264828434576714 0.42697530709824522 0 0.030398582533070099 0.41080889326869052 0 0.013451351612083251 0.42022136891186163 0 0.035686717363660143 0.42423985257235269 0 0.0264828434576714 0.42697530709824522 0 0.030398582533070099 0.41080889326869052 0 -0.0038092142255275289 0.41137928311071797 0 0.013451351612083251 0.42022136891186163 0 0.012932149724872831 0.39860123094495892 0 -0.0030841453677343121 0.43636499760021141 0 0.017893296784651399 0.43894227458572882 0 0.013451351612083251 0.42022136891186163 0 -0.0030841453677343121 0.43636499760021141 0 -0.0038092142255275289 0.41137928311071797 0 0.013451351612083251 0.42022136891186163 0 -0.0045342830833226501 0.3863935686212247 0 0.012932149724872831 0.39860123094495892 0 0.0079023355216259559 0.37348921158265391 0 0.012932149724872831 0.39860123094495892 0 0.025375843575522711 0.38021681034322929 0 0.0079023355216259559 0.37348921158265391 0 -0.0045342830833226501 0.3863935686212247 0 0.012932149724872831 0.39860123094495892 0 -0.0045342830833226501 0.3863935686212247 0 -0.0038092142255275289 0.41137928311071797 0 0.012932149724872831 0.39860123094495892 0 0.030398582533070099 0.41080889326869052 0 0.012932149724872831 0.39860123094495892 0 0.030398582533070099 0.41080889326869052 0 0.012932149724872831 0.39860123094495892 0 0.030218872497922818 0.39559608178221078 0 0.012932149724872831 0.39860123094495892 0 0.030218872497922818 0.39559608178221078 0 0.025375843575522711 0.38021681034322929 0 0.025375843575522711 0.38021681034322929 0 0.045236422390978262 0.39339421550307069 0 0.045418656597819553 0.37354288132317159 0 0.030218872497922818 0.39559608178221078 0 0.025375843575522711 0.38021681034322929 0 0.045236422390978262 0.39339421550307069 0 0.030398582533070099 0.41080889326869052 0 0.030218872497922818 0.39559608178221078 0 0.044385004541519633 0.40583709082877739 0 0.030218872497922818 0.39559608178221078 0 0.045236422390978262 0.39339421550307069 0 0.044385004541519633 0.40583709082877739 0 0.045236422390978262 0.39339421550307069 0 0.057103340742871267 0.4006394318358022 0 0.06607043693335328 0.38973814947632979 0 0.045236422390978262 0.39339421550307069 0 0.044385004541519633 0.40583709082877739 0 0.057103340742871267 0.4006394318358022 0 0.045236422390978262 0.39339421550307069 0 0.06607043693335328 0.38973814947632979 0 0.045418656597819553 0.37354288132317159 0 0.06607043693335328 0.38973814947632979 0 0.066778362586220691 0.36264744131756171 0 0.045418656597819553 0.37354288132317159 0 0.06607043693335328 0.38973814947632979 0 0.086713905658550791 0.37461406501925459 0 0.066778362586220691 0.36264744131756171 0 0.091303312773641829 0.3995757594209417 0 0.1025776524751303 0.38486691706586951 0 0.086713905658550791 0.37461406501925459 0 0.06607043693335328 0.38973814947632979 0 0.091303312773641829 0.3995757594209417 0 0.086713905658550791 0.37461406501925459 0 0.091303312773641829 0.3995757594209417 0 0.086713905658550791 0.37461406501925459 0 0.06607043693335328 0.38973814947632979 0 0.091303312773641829 0.3995757594209417 0 0.0691327228978319 0.40699071288372829 0 0.057103340742871267 0.4006394318358022 0 0.06607043693335328 0.38973814947632979 0 0.0691327228978319 0.40699071288372829 0 0.055388731832649349 0.41299308245440008 0 0.0691327228978319 0.40699071288372829 0 0.063786863135573219 0.4234822836218442 0 0.0691327228978319 0.40699071288372829 0 0.077714875811277062 0.4214876261871765 0 0.063786863135573219 0.4234822836218442 0 0.083205653112744402 0.44008551456546158 0 0.077714875811277062 0.4214876261871765 0 0.068330088192809502 0.43602814955066621 0 0.058238482531349368 0.43512174465279091 0 0.068330088192809502 0.43602814955066621 0 0.063786863135573219 0.4234822836218442 0 0.077714875811277062 0.4214876261871765 0 0.068330088192809502 0.43602814955066621 0 0.063786863135573219 0.4234822836218442 0 0.083205653112744402 0.44008551456546158 0 0.077714875811277062 0.4214876261871765 0 0.095892719888732866 0.42453745382262881 0 0.091303312773641829 0.3995757594209417 0 0.0691327228978319 0.40699071288372829 0 0.077714875811277062 0.4214876261871765 0 0.091303312773641829 0.3995757594209417 0 0.095892719888732866 0.42453745382262881 0 0.091303312773641829 0.3995757594209417 0 0.077714875811277062 0.4214876261871765 0 0.095892719888732866 0.42453745382262881 0 0.091303312773641829 0.3995757594209417 0 0.095892719888732866 0.42453745382262881 0 0.115428724103706 0.40267530492779557 0 0.1004821270038239 0.44949914822431608 0 0.095892719888732866 0.42453745382262881 0 0.12259086230274099 0.42947812748907283 0 0.1004821270038239 0.44949914822431608 0 0.095892719888732866 0.42453745382262881 0 0.095892719888732866 0.42453745382262881 0 0.12259086230274099 0.42947812748907283 0 0.115428724103706 0.40267530492779557 0 0.115428724103706 0.40267530492779557 0 0.119448870245615 0.38256434187866972 0 0.13692284990477191 0.38930777957628943 0 0.119448870245615 0.38256434187866972 0 0.1025776524751303 0.38486691706586951 0 0.1087205780393706 0.3656269003386084 0 0.115428724103706 0.40267530492779557 0 0.119448870245615 0.38256434187866972 0 0.1025776524751303 0.38486691706586951 0 0.1025776524751303 0.38486691706586951 0 0.1087205780393706 0.3656269003386084 0 0.086713905658550791 0.37461406501925459 0 0.091303312773641829 0.3995757594209417 0 0.115428724103706 0.40267530492779557 0 0.1025776524751303 0.38486691706586951 0 0.1087205780393706 0.3656269003386084 0 0.1202868522871179 0.34060046584014031 0 0.0915497208986496 0.34709204532757532 0 0.1087205780393706 0.3656269003386084 0 0.0915497208986496 0.34709204532757532 0 0.086713905658550791 0.37461406501925459 0 0.119448870245615 0.38256434187866972 0 0.1087205780393706 0.3656269003386084 0 0.13274728415341139 0.36410634055334368 0 0.1087205780393706 0.3656269003386084 0 0.1202868522871179 0.34060046584014031 0 0.13274728415341139 0.36410634055334368 0 0.1202868522871179 0.34060046584014031 0 0.1104734498024164 0.31171603628350752 0 0.14183880654046921 0.32250528078568202 0 0.1202868522871179 0.34060046584014031 0 0.1016552612267161 0.33013161519950079 0 0.1104734498024164 0.31171603628350752 0 0.1016552612267161 0.33013161519950079 0 0.081254576285268804 0.3210829637434266 0 0.1104734498024164 0.31171603628350752 0 0.1202868522871179 0.34060046584014031 0 0.1016552612267161 0.33013161519950079 0 0.0915497208986496 0.34709204532757532 0 0.081254576285268804 0.3210829637434266 0 0.072654821413094289 0.33942743407960763 0 0.0915497208986496 0.34709204532757532 0 0.1016552612267161 0.33013161519950079 0 0.081254576285268804 0.3210829637434266 0 0.0915497208986496 0.34709204532757532 0 0.081254576285268804 0.3210829637434266 0 0.06358813508901956 0.32234581427363851 0 0.071244474661197085 0.3036312559279935 0 0.081254576285268804 0.3210829637434266 0 0.06358813508901956 0.32234581427363851 0 0.072654821413094289 0.33942743407960763 0 0.06358813508901956 0.32234581427363851 0 0.072654821413094289 0.33942743407960763 0 0.055199983679349987 0.34246375673151652 0 0.072654821413094289 0.33942743407960763 0 0.066778362586220691 0.36264744131756171 0 0.055199983679349987 0.34246375673151652 0 0.072654821413094289 0.33942743407960763 0 0.0915497208986496 0.34709204532757532 0 0.066778362586220691 0.36264744131756171 0 0.0915497208986496 0.34709204532757532 0 0.086713905658550791 0.37461406501925459 0 0.066778362586220691 0.36264744131756171 0 0.066778362586220691 0.36264744131756171 0 0.044951457965310811 0.3555124197003488 0 0.045418656597819553 0.37354288132317159 0 0.066778362586220691 0.36264744131756171 0 0.044951457965310811 0.3555124197003488 0 0.055199983679349987 0.34246375673151652 0 0.044951457965310811 0.3555124197003488 0 0.021903196078839001 0.35746348141110651 0 0.035457090884324839 0.34144453771838768 0 0.044951457965310811 0.3555124197003488 0 0.035457090884324839 0.34144453771838768 0 0.055199983679349987 0.34246375673151652 0 0.044951457965310811 0.3555124197003488 0 0.045418656597819553 0.37354288132317159 0 0.021903196078839001 0.35746348141110651 0 0.025375843575522711 0.38021681034322929 0 0.021903196078839001 0.35746348141110651 0 0.0079023355216259559 0.37348921158265391 0 0.025375843575522711 0.38021681034322929 0 0.045418656597819553 0.37354288132317159 0 0.021903196078839001 0.35746348141110651 0 0.021903196078839001 0.35746348141110651 0 0.017151683724365509 0.3376665205351736 0 0.035457090884324839 0.34144453771838768 0 0.021903196078839001 0.35746348141110651 0 0.0095650341834115256 0.34490192427506011 0 0.017151683724365509 0.3376665205351736 0 0.021903196078839001 0.35746348141110651 0 0.0095650341834115256 0.34490192427506011 0 0.0061318462344260851 0.35417601161121459 0 -0.0050552824635438226 0.34569829691311771 0 0.0095650341834115256 0.34490192427506011 0 0.0061318462344260851 0.35417601161121459 0 0.021903196078839001 0.35746348141110651 0 0.0061318462344260851 0.35417601161121459 0 0.0079023355216259559 0.37348921158265391 0 -0.0052616759920083916 0.36132776784546622 0 0.0061318462344260851 0.35417601161121459 0 0.0079023355216259559 0.37348921158265391 0 0.0087281755863181168 0.33049580891976171 0 0.020410497070949891 0.30832150289807031 0 0.0056044744337335906 0.31412092038659428 0 0.0087281755863181168 0.33049580891976171 0 0.020410497070949891 0.30832150289807031 0 -0.003280447873963227 0.32161399115684158 0 0.0056044744337335906 0.31412092038659428 0 0.0087281755863181168 0.33049580891976171 0 0.0064742168078369342 0.3347740657525386 0 0.0087281755863181168 0.33049580891976171 0 -0.0050552824635438226 0.34569829691311771 0 0.0095650341834115256 0.34490192427506011 0 0.0064742168078369342 0.3347740657525386 0 0.0095650341834115256 0.34490192427506011 0 0.0064742168078369342 0.3347740657525386 0 0.017151683724365509 0.3376665205351736 0 0.0064742168078369342 0.3347740657525386 0 0.0087281755863181168 0.33049580891976171 0 0.017151683724365509 0.3376665205351736 0 0.0087281755863181168 0.33049580891976171 0 0.025353163704189718 0.33024288796319817 0 0.017151683724365509 0.3376665205351736 0 0.0087281755863181168 0.33049580891976171 0 0.025353163704189718 0.33024288796319817 0 0.025353163704189718 0.33024288796319817 0 0.017151683724365509 0.3376665205351736 0 0.035457090884324839 0.34144453771838768 0 0.0087281755863181168 0.33049580891976171 0 0.025353163704189718 0.33024288796319817 0 0.020410497070949891 0.30832150289807031 0 0.025353163704189718 0.33024288796319817 0 0.038017806832533571 0.30672300381527179 0 0.020410497070949891 0.30832150289807031 0 0.025353163704189718 0.33024288796319817 0 0.045812945845809312 0.32351293560108041 0 0.038017806832533571 0.30672300381527179 0 0.025353163704189718 0.33024288796319817 0 0.045812945845809312 0.32351293560108041 0 0.035457090884324839 0.34144453771838768 0 0.045812945845809312 0.32351293560108041 0 0.035457090884324839 0.34144453771838768 0 0.055199983679349987 0.34246375673151652 0 0.06358813508901956 0.32234581427363851 0 0.045812945845809312 0.32351293560108041 0 0.055199983679349987 0.34246375673151652 0 0.06358813508901956 0.32234581427363851 0 0.045812945845809312 0.32351293560108041 0 0.055148108477292443 0.3057593846019967 0 0.055148108477292443 0.3057593846019967 0 0.047586914097201803 0.29032131063477928 0 0.038017806832533571 0.30672300381527179 0 0.055148108477292443 0.3057593846019967 0 0.047586914097201803 0.29032131063477928 0 0.066935962560195753 0.28615893812798288 0 0.047586914097201803 0.29032131063477928 0 0.050578246113349837 0.27455429857722041 0 0.066935962560195753 0.28615893812798288 0 0.047586914097201803 0.29032131063477928 0 0.032092818555581597 0.28614719687637868 0 0.038017806832533571 0.30672300381527179 0 0.047586914097201803 0.29032131063477928 0 0.032092818555581597 0.28614719687637868 0 0.050578246113349837 0.27455429857722041 0 0.045812945845809312 0.32351293560108041 0 0.055148108477292443 0.3057593846019967 0 0.038017806832533571 0.30672300381527179 0 0.032092818555581597 0.28614719687637868 0 0.038017806832533571 0.30672300381527179 0 0.020410497070949891 0.30832150289807031 0 0.032092818555581597 0.28614719687637868 0 0.020410497070949891 0.30832150289807031 0 0.032092818555581597 0.28614719687637868 0 0.020410497070949891 0.30832150289807031 0 0.0083336089875100904 0.29343585490586271 0 0.032092818555581597 0.28614719687637868 0 0.0083336089875100904 0.29343585490586271 0 0.021382191810826279 0.2686960609189637 0 -0.0088759444352828343 0.31092800175718183 0 0.0056044744337335906 0.31412092038659428 0 0.0083336089875100904 0.29343585490586271 0 0.0056044744337335906 0.31412092038659428 0 0.020410497070949891 0.30832150289807031 0 0.0083336089875100904 0.29343585490586271 0 0.0073806355134042019 0.25529449578482938 0 3.3590645499582607e-05 0.27236849017123349 0 0.021382191810826279 0.2686960609189637 0 0.0083336089875100904 0.29343585490586271 0 3.3590645499582607e-05 0.27236849017123349 0 0.021382191810826279 0.2686960609189637 0 0.025149977659741599 0.24684982625080901 0 0.0073806355134042019 0.25529449578482938 0 0.021382191810826279 0.2686960609189637 0 0.025149977659741599 0.24684982625080901 0 0.021382191810826279 0.2686960609189637 0 0.043775140040213267 0.26397289085468728 0 0.025149977659741599 0.24684982625080901 0 0.045472231705318063 0.24424317023843681 0 0.050158093690384618 0.2598810672441918 0 0.025149977659741599 0.24684982625080901 0 0.050158093690384618 0.2598810672441918 0 0.025149977659741599 0.24684982625080901 0 0.043775140040213267 0.26397289085468728 0 0.050158093690384618 0.2598810672441918 0 0.032092818555581597 0.28614719687637868 0 0.043775140040213267 0.26397289085468728 0 0.032092818555581597 0.28614719687637868 0 0.021382191810826279 0.2686960609189637 0 0.043775140040213267 0.26397289085468728 0 0.032092818555581597 0.28614719687637868 0 0.043775140040213267 0.26397289085468728 0 0.050578246113349837 0.27455429857722041 0 0.050578246113349837 0.27455429857722041 0 0.063875668081316214 0.2678607518654692 0 0.066935962560195753 0.28615893812798288 0 0.043775140040213267 0.26397289085468728 0 0.050578246113349837 0.27455429857722041 0 0.050158093690384618 0.2598810672441918 0 0.050578246113349837 0.27455429857722041 0 0.056046126259945157 0.25263236173372139 0 0.063875668081316214 0.2678607518654692 0 0.050578246113349837 0.27455429857722041 0 0.050158093690384618 0.2598810672441918 0 0.056046126259945157 0.25263236173372139 0 0.045472231705318063 0.24424317023843681 0 0.050158093690384618 0.2598810672441918 0 0.056046126259945157 0.25263236173372139 0 0.050578246113349837 0.27455429857722041 0 0.056046126259945157 0.25263236173372139 0 0.078525547080241467 0.2465942846531784 0 0.067905867336300579 0.25358800162702 0 0.079567988853459573 0.27014218499250892 0 0.067905867336300579 0.25358800162702 0 0.079567988853459573 0.27014218499250892 0 0.063875668081316214 0.2678607518654692 0 0.056046126259945157 0.25263236173372139 0 0.067905867336300579 0.25358800162702 0 0.063875668081316214 0.2678607518654692 0 0.078525547080241467 0.2465942846531784 0 0.079567988853459573 0.27014218499250892 0 0.093798877441032588 0.2579700649065903 0 0.079567988853459573 0.27014218499250892 0 0.063875668081316214 0.2678607518654692 0 0.066935962560195753 0.28615893812798288 0 0.079567988853459573 0.27014218499250892 0 0.066935962560195753 0.28615893812798288 0 0.087430381393448858 0.29852998767476718 0 0.066935962560195753 0.28615893812798288 0 0.071244474661197085 0.3036312559279935 0 0.087430381393448858 0.29852998767476718 0 0.055148108477292443 0.3057593846019967 0 0.066935962560195753 0.28615893812798288 0 0.071244474661197085 0.3036312559279935 0 0.06358813508901956 0.32234581427363851 0 0.055148108477292443 0.3057593846019967 0 0.071244474661197085 0.3036312559279935 0 0.081254576285268804 0.3210829637434266 0 0.087430381393448858 0.29852998767476718 0 0.1104734498024164 0.31171603628350752 0 0.081254576285268804 0.3210829637434266 0 0.071244474661197085 0.3036312559279935 0 0.087430381393448858 0.29852998767476718 0 0.079567988853459573 0.27014218499250892 0 0.087430381393448858 0.29852998767476718 0 0.1079828451826004 0.27738565586056829 0 0.087430381393448858 0.29852998767476718 0 0.1104734498024164 0.31171603628350752 0 0.1079828451826004 0.27738565586056829 0 0.1104734498024164 0.31171603628350752 0 0.1079828451826004 0.27738565586056829 0 0.13401849175413849 0.29214957311260448 0 0.1079828451826004 0.27738565586056829 0 0.13401849175413849 0.29214957311260448 0 0.1100607559553454 0.25396994184181759 0 0.1079828451826004 0.27738565586056829 0 0.13366986361514199 0.26692500362740812 0 0.12787711237058769 0.24521089126939841 0 0.1100607559553454 0.25396994184181759 0 0.13366986361514199 0.26692500362740812 0 0.092857250133516089 0.24175825718487831 0 0.1100607559553454 0.25396994184181759 0 0.093798877441032588 0.2579700649065903 0 0.1100607559553454 0.25396994184181759 0 0.093798877441032588 0.2579700649065903 0 0.1079828451826004 0.27738565586056829 0 0.079567988853459573 0.27014218499250892 0 0.093798877441032588 0.2579700649065903 0 0.1079828451826004 0.27738565586056829 0 0.13366986361514199 0.26692500362740812 0 0.1558685034792309 0.28595093384994291 0 0.15959452244756481 0.26367036214955358 0 0.14702044576598061 0.2478904659134552 0 0.13366986361514199 0.26692500362740812 0 0.15959452244756481 0.26367036214955358 0 0.14702044576598061 0.2478904659134552 0 0.12787711237058769 0.24521089126939841 0 0.13366986361514199 0.26692500362740812 0 0.1079828451826004 0.27738565586056829 0 0.13366986361514199 0.26692500362740812 0 0.13401849175413849 0.29214957311260448 0 0.1104734498024164 0.31171603628350752 0 0.13401849175413849 0.29214957311260448 0 0.14183880654046921 0.32250528078568202 0 0.13401849175413849 0.29214957311260448 0 0.16005413832567669 0.30691349036464077 0 0.14183880654046921 0.32250528078568202 0 0.13401849175413849 0.29214957311260448 0 0.16005413832567669 0.30691349036464077 0 0.13401849175413849 0.29214957311260448 0 0.1558685034792309 0.28595093384994291 0 0.16005413832567669 0.30691349036464077 0 0.13366986361514199 0.26692500362740812 0 0.13401849175413849 0.29214957311260448 0 0.1558685034792309 0.28595093384994291 0 0.1558685034792309 0.28595093384994291 0 0.1700220001876428 0.28782965529906401 0 0.16005413832567669 0.30691349036464077 0 0.1558685034792309 0.28595093384994291 0 0.1700220001876428 0.28782965529906401 0 0.17370236977615991 0.27502287964280692 0 0.1700220001876428 0.28782965529906401 0 0.16005413832567669 0.30691349036464077 0 0.1764196225356903 0.29880027385689728 0 0.16005413832567669 0.30691349036464077 0 0.1764196225356903 0.29880027385689728 0 0.18686192329242929 0.31378732528256248 0 0.1764196225356903 0.29880027385689728 0 0.18674031124236579 0.30201460306836742 0 0.19086383386244751 0.2907864273273883 0 0.1764196225356903 0.29880027385689728 0 0.18674031124236579 0.30201460306836742 0 0.18686192329242929 0.31378732528256248 0 0.1700220001876428 0.28782965529906401 0 0.18013512871176271 0.28566990799825959 0 0.17370236977615991 0.27502287964280692 0 0.1700220001876428 0.28782965529906401 0 0.1764196225356903 0.29880027385689728 0 0.18013512871176271 0.28566990799825959 0 0.1764196225356903 0.29880027385689728 0 0.18013512871176271 0.28566990799825959 0 0.19086383386244751 0.2907864273273883 0 0.18013512871176271 0.28566990799825959 0 0.1896678171968729 0.27591030386514148 0 0.19086383386244751 0.2907864273273883 0 0.18251379545819379 0.26835647973838378 0 0.17370236977615991 0.27502287964280692 0 0.1896678171968729 0.27591030386514148 0 0.18013512871176271 0.28566990799825959 0 0.17370236977615991 0.27502287964280692 0 0.1896678171968729 0.27591030386514148 0 0.18251379545819379 0.26835647973838378 0 0.17370236977615991 0.27502287964280692 0 0.17699066645021869 0.2595722272450377 0 0.17370236977615991 0.27502287964280692 0 0.15959452244756481 0.26367036214955358 0 0.17699066645021869 0.2595722272450377 0 0.1558685034792309 0.28595093384994291 0 0.17370236977615991 0.27502287964280692 0 0.15959452244756481 0.26367036214955358 0 0.16774616909827719 0.2460930353984315 0 0.15959452244756481 0.26367036214955358 0 0.17699066645021869 0.2595722272450377 0 0.14702044576598061 0.2478904659134552 0 0.16774616909827719 0.2460930353984315 0 0.15959452244756481 0.26367036214955358 0 0.18692125413578081 0.24552837502103991 0 0.16774616909827719 0.2460930353984315 0 0.17699066645021869 0.2595722272450377 0 0.18692125413578081 0.24552837502103991 0 0.17699066645021869 0.2595722272450377 0 0.19242781921148469 0.26384338938458129 0 0.18251379545819379 0.26835647973838378 0 0.17699066645021869 0.2595722272450377 0 0.19242781921148469 0.26384338938458129 0 0.18692125413578081 0.24552837502103991 0 0.19242781921148469 0.26384338938458129 0 0.20107379594449931 0.25686311186437227 0 0.18692125413578081 0.24552837502103991 0 0.20107379594449931 0.25686311186437227 0 0.19242781921148469 0.26384338938458129 0 0.20107379594449931 0.25686311186437227 0 0.2008998280478862 0.26959186196165702 0 0.19242781921148469 0.26384338938458129 0 0.20107379594449931 0.25686311186437227 0 0.19242781921148469 0.26384338938458129 0 0.1896678171968729 0.27591030386514148 0 0.2008998280478862 0.26959186196165702 0 0.18251379545819379 0.26835647973838378 0 0.19242781921148469 0.26384338938458129 0 0.1896678171968729 0.27591030386514148 0 0.1896678171968729 0.27591030386514148 0 0.2008998280478862 0.26959186196165702 0 0.20354188417430641 0.281093168015905 0 0.2008998280478862 0.26959186196165702 0 0.2177878237122676 0.27024933667828532 0 0.20354188417430641 0.281093168015905 0 0.2177878237122676 0.27024933667828532 0 0.20354188417430641 0.281093168015905 0 0.2166033006779626 0.28924568688104418 0 0.21557305570370441 0.24515722135805329 0 0.20107379594449931 0.25686311186437227 0 0.2177878237122676 0.27024933667828532 0 0.20107379594449931 0.25686311186437227 0 0.2177878237122676 0.27024933667828532 0 0.20107379594449931 0.25686311186437227 0 0.2008998280478862 0.26959186196165702 0 0.2177878237122676 0.27024933667828532 0 0.21557305570370441 0.24515722135805329 0 0.20107379594449931 0.25686311186437227 0 0.21557305570370441 0.24515722135805329 0 0.2177878237122676 0.27024933667828532 0 0.23628031136540401 0.25597328662156199 0 0.2177878237122676 0.27024933667828532 0 0.23628031136540401 0.25597328662156199 0 0.23450185148003599 0.28363556149219821 0 0.2177878237122676 0.27024933667828532 0 0.23450185148003599 0.28363556149219821 0 0.2166033006779626 0.28924568688104418 0 0.2177878237122676 0.27024933667828532 0 0.23450185148003599 0.28363556149219821 0 0.23628031136540401 0.25597328662156199 0 0.23450185148003599 0.28363556149219821 0 0.25102838231212438 0.26850893423506528 0 0.23450185148003599 0.28363556149219821 0 0.25953152444998728 0.28294166139542631 0 0.25102838231212438 0.26850893423506528 0 0.23628031136540401 0.25597328662156199 0 0.25102838231212438 0.26850893423506528 0 0.26221447651104962 0.2479993693513689 0 0.2297645605960125 0.30261029929826411 0 0.25121587924780342 0.29702178630611242 0 0.2484846271056145 0.31037308609574782 0 0.2297645605960125 0.30261029929826411 0 0.23798581837376781 0.31938142953188831 0 0.2484846271056145 0.31037308609574782 0 0.2297645605960125 0.30261029929826411 0 0.25121587924780342 0.29702178630611242 0 0.23450185148003599 0.28363556149219821 0 0.2297645605960125 0.30261029929826411 0 0.25121587924780342 0.29702178630611242 0 0.23450185148003599 0.28363556149219821 0 0.25121587924780342 0.29702178630611242 0 0.23450185148003599 0.28363556149219821 0 0.25953152444998728 0.28294166139542631 0 0.25121587924780342 0.29702178630611242 0 0.23450185148003599 0.28363556149219821 0 0.2297645605960125 0.30261029929826411 0 0.2166033006779626 0.28924568688104418 0 0.2297645605960125 0.30261029929826411 0 0.20831324194422091 0.30819881229041318 0 0.2297645605960125 0.30261029929826411 0 0.20831324194422091 0.30819881229041318 0 0.21977364325038071 0.31928170538083578 0 0.20831324194422091 0.30819881229041318 0 0.2166033006779626 0.28924568688104418 0 0.20288664267638859 0.29424953150154581 0 0.2297645605960125 0.30261029929826411 0 0.20831324194422091 0.30819881229041318 0 0.2166033006779626 0.28924568688104418 0 0.20354188417430641 0.281093168015905 0 0.2166033006779626 0.28924568688104418 0 0.20288664267638859 0.29424953150154581 0 0.20354188417430641 0.281093168015905 0 0.20288664267638859 0.29424953150154581 0 0.19086383386244751 0.2907864273273883 0 0.20288664267638859 0.29424953150154581 0 0.19086383386244751 0.2907864273273883 0 0.19511095272300569 0.3019235629929784 0 0.1896678171968729 0.27591030386514148 0 0.20354188417430641 0.281093168015905 0 0.19086383386244751 0.2907864273273883 0 0.20831324194422091 0.30819881229041318 0 0.18686192329242929 0.31378732528256248 0 0.20831324194422091 0.30819881229041318 0 0.19511095272300569 0.3019235629929784 0 0.18686192329242929 0.31378732528256248 0 0.20831324194422091 0.30819881229041318 0 0.20288664267638859 0.29424953150154581 0 0.19511095272300569 0.3019235629929784 0 0.18674031124236579 0.30201460306836742 0 0.19086383386244751 0.2907864273273883 0 0.19511095272300569 0.3019235629929784 0 0.18674031124236579 0.30201460306836742 0 0.19511095272300569 0.3019235629929784 0 0.18686192329242929 0.31378732528256248 0 0.20141288137377081 0.31920030670374799 0 0.18686192329242929 0.31378732528256248 0 0.18608978489721489 0.32167740761667712 0 0.20831324194422091 0.30819881229041318 0 0.20141288137377081 0.31920030670374799 0 0.18686192329242929 0.31378732528256248 0 0.20141288137377081 0.31920030670374799 0 0.21212543146875301 0.33644132486871342 0 0.18608978489721489 0.32167740761667712 0 0.21212543146875301 0.33644132486871342 0 0.18608978489721489 0.32167740761667712 0 0.19231113454718349 0.34165597013868199 0 0.21212543146875301 0.33644132486871342 0 0.18608978489721489 0.32167740761667712 0 0.20831324194422091 0.30819881229041318 0 0.20141288137377081 0.31920030670374799 0 0.21977364325038071 0.31928170538083578 0 0.20141288137377081 0.31920030670374799 0 0.21212543146875301 0.33644132486871342 0 0.21977364325038071 0.31928170538083578 0 0.21977364325038071 0.31928170538083578 0 0.2290399257457596 0.32985805959198788 0 0.23798581837376781 0.31938142953188831 0 0.2297645605960125 0.30261029929826411 0 0.21977364325038071 0.31928170538083578 0 0.23798581837376781 0.31938142953188831 0 0.21212543146875301 0.33644132486871342 0 0.21977364325038071 0.31928170538083578 0 0.2290399257457596 0.32985805959198788 0 0.21212543146875301 0.33644132486871342 0 0.23060518033342339 0.33807106122714048 0 0.2290399257457596 0.32985805959198788 0 0.21212543146875301 0.33644132486871342 0 0.23060518033342339 0.33807106122714048 0 0.23816107804029091 0.35120524212074949 0 0.23060518033342339 0.33807106122714048 0 0.2290399257457596 0.32985805959198788 0 0.2430942860788903 0.33477961832711151 0 0.23060518033342339 0.33807106122714048 0 0.2430942860788903 0.33477961832711151 0 0.23816107804029091 0.35120524212074949 0 0.2484846271056145 0.31037308609574782 0 0.23798581837376781 0.31938142953188831 0 0.25508783524565293 0.32209220201309929 0 0.2430942860788903 0.33477961832711151 0 0.23798581837376781 0.31938142953188831 0 0.25508783524565293 0.32209220201309929 0 0.2290399257457596 0.32985805959198788 0 0.2430942860788903 0.33477961832711151 0 0.23798581837376781 0.31938142953188831 0 0.23439037865920059 0.35560025357312369 0 0.2386764282036242 0.37725286527910618 0 0.24311907173897271 0.36013203008567057 0 0.23439037865920059 0.35560025357312369 0 0.2386764282036242 0.37725286527910618 0 0.2492643002430574 0.365916522193315 0 0.24311907173897271 0.36013203008567057 0 0.2386764282036242 0.37725286527910618 0 0.2492643002430574 0.365916522193315 0 0.2386764282036242 0.37725286527910618 0 0.25383912625151372 0.37755129754335942 0 0.24311907173897271 0.36013203008567057 0 0.23816107804029091 0.35120524212074949 0 0.2641967246118288 0.36596915937278562 0 0.2430942860788903 0.33477961832711151 0 0.23816107804029091 0.35120524212074949 0 0.26173146881309822 0.35734024057335978 0 0.24311907173897271 0.36013203008567057 0 0.23816107804029091 0.35120524212074949 0 0.23439037865920059 0.35560025357312369 0 0.21212543146875301 0.33644132486871342 0 0.23816107804029091 0.35120524212074949 0 0.21848510057545151 0.35453686872473111 0 0.23816107804029091 0.35120524212074949 0 0.23439037865920059 0.35560025357312369 0 0.21848510057545151 0.35453686872473111 0 0.21212543146875301 0.33644132486871342 0 0.23816107804029091 0.35120524212074949 0 0.23439037865920059 0.35560025357312369 0 0.22513916990612379 0.36868200325308897 0 0.2386764282036242 0.37725286527910618 0 0.23439037865920059 0.35560025357312369 0 0.22513916990612379 0.36868200325308897 0 0.21848510057545151 0.35453686872473111 0 0.22513916990612379 0.36868200325308897 0 0.20931495008602691 0.36890180222237801 0 0.21961872799640589 0.38146559318592133 0 0.22513916990612379 0.36868200325308897 0 0.20931495008602691 0.36890180222237801 0 0.21848510057545151 0.35453686872473111 0 0.20931495008602691 0.36890180222237801 0 0.21848510057545151 0.35453686872473111 0 0.2018014651714847 0.35413555731190122 0 0.21212543146875301 0.33644132486871342 0 0.21848510057545151 0.35453686872473111 0 0.2018014651714847 0.35413555731190122 0 0.19231113454718349 0.34165597013868199 0 0.2018014651714847 0.35413555731190122 0 0.1832131523033072 0.3569188224833833 0 0.19231113454718349 0.34165597013868199 0 0.21212543146875301 0.33644132486871342 0 0.2018014651714847 0.35413555731190122 0 0.20931495008602691 0.36890180222237801 0 0.2018014651714847 0.35413555731190122 0 0.19217836357317111 0.36996972767433872 0 0.20931495008602691 0.36890180222237801 0 0.19217836357317111 0.36996972767433872 0 0.20289108470775991 0.38370682355227331 0 0.2018014651714847 0.35413555731190122 0 0.19217836357317111 0.36996972767433872 0 0.1832131523033072 0.3569188224833833 0 0.19217836357317111 0.36996972767433872 0 0.17197644233242751 0.37002706837148541 0 0.1832131523033072 0.3569188224833833 0 0.17197644233242751 0.37002706837148541 0 0.16866852787741549 0.35230522619665788 0 0.1832131523033072 0.3569188224833833 0 0.17197644233242751 0.37002706837148541 0 0.16866852787741549 0.35230522619665788 0 0.15186920095361911 0.35620033980905319 0 0.17197644233242751 0.37002706837148541 0 0.15186920095361911 0.35620033980905319 0 0.15185568245476189 0.37707061606136422 0 0.16866852787741549 0.35230522619665788 0 0.1579580049025659 0.33927316190663209 0 0.15186920095361911 0.35620033980905319 0 0.16866852787741549 0.35230522619665788 0 0.1832131523033072 0.3569188224833833 0 0.17832583889515771 0.33910673841273542 0 0.19231113454718349 0.34165597013868199 0 0.1832131523033072 0.3569188224833833 0 0.17832583889515771 0.33910673841273542 0 0.17832583889515771 0.33910673841273542 0 0.18608978489721489 0.32167740761667712 0 0.16647560889869609 0.32578562508456149 0 0.19231113454718349 0.34165597013868199 0 0.17832583889515771 0.33910673841273542 0 0.18608978489721489 0.32167740761667712 0 0.16005413832567669 0.30691349036464077 0 0.18608978489721489 0.32167740761667712 0 0.16005413832567669 0.30691349036464077 0 0.18686192329242929 0.31378732528256248 0 0.18608978489721489 0.32167740761667712 0 0.16005413832567669 0.30691349036464077 0 0.18608978489721489 0.32167740761667712 0 0.16647560889869609 0.32578562508456149 0 0.17832583889515771 0.33910673841273542 0 0.16647560889869609 0.32578562508456149 0 0.1579580049025659 0.33927316190663209 0 0.16866852787741549 0.35230522619665788 0 0.17832583889515771 0.33910673841273542 0 0.1579580049025659 0.33927316190663209 0 0.16647560889869609 0.32578562508456149 0 0.1579580049025659 0.33927316190663209 0 0.14183880654046921 0.32250528078568202 0 0.1579580049025659 0.33927316190663209 0 0.14183880654046921 0.32250528078568202 0 0.14054269679001921 0.34363296691054102 0 0.16005413832567669 0.30691349036464077 0 0.16647560889869609 0.32578562508456149 0 0.14183880654046921 0.32250528078568202 0 0.1202868522871179 0.34060046584014031 0 0.14183880654046921 0.32250528078568202 0 0.14054269679001921 0.34363296691054102 0 0.1202868522871179 0.34060046584014031 0 0.14054269679001921 0.34363296691054102 0 0.13274728415341139 0.36410634055334368 0 0.13274728415341139 0.36410634055334368 0 0.15186920095361911 0.35620033980905319 0 0.15185568245476189 0.37707061606136422 0 0.14054269679001921 0.34363296691054102 0 0.13274728415341139 0.36410634055334368 0 0.15186920095361911 0.35620033980905319 0 0.1579580049025659 0.33927316190663209 0 0.14054269679001921 0.34363296691054102 0 0.15186920095361911 0.35620033980905319 0 0.15352992747694119 0.40026604784697911 0 0.13692284990477191 0.38930777957628943 0 0.1397509022148696 0.40843688002483958 0 0.15352992747694119 0.40026604784697911 0 0.15185568245476189 0.37707061606136422 0 0.13692284990477191 0.38930777957628943 0 0.13274728415341139 0.36410634055334368 0 0.15185568245476189 0.37707061606136422 0 0.13692284990477191 0.38930777957628943 0 0.119448870245615 0.38256434187866972 0 0.13274728415341139 0.36410634055334368 0 0.13692284990477191 0.38930777957628943 0 0.115428724103706 0.40267530492779557 0 0.13692284990477191 0.38930777957628943 0 0.1397509022148696 0.40843688002483958 0 0.12259086230274099 0.42947812748907283 0 0.1397509022148696 0.40843688002483958 0 0.14363603346764281 0.42707530835579988 0 0.12259086230274099 0.42947812748907283 0 0.115428724103706 0.40267530492779557 0 0.1397509022148696 0.40843688002483958 0 0.12259086230274099 0.42947812748907283 0 0.14363603346764281 0.42707530835579988 0 0.13510526379757609 0.44116740875256688 0 0.14363603346764281 0.42707530835579988 0 0.16526304614212209 0.42908608809292892 0 0.1507341445198021 0.44370602134863157 0 0.14363603346764281 0.42707530835579988 0 0.15527295380072001 0.4153931176925994 0 0.16526304614212209 0.42908608809292892 0 0.14363603346764281 0.42707530835579988 0 0.1507341445198021 0.44370602134863157 0 0.13510526379757609 0.44116740875256688 0 0.1397509022148696 0.40843688002483958 0 0.14363603346764281 0.42707530835579988 0 0.15527295380072001 0.4153931176925994 0 0.15352992747694119 0.40026604784697911 0 0.1397509022148696 0.40843688002483958 0 0.15527295380072001 0.4153931176925994 0 0.15527295380072001 0.4153931176925994 0 0.1711416470664554 0.41062619466687539 0 0.16526304614212209 0.42908608809292892 0 0.15352992747694119 0.40026604784697911 0 0.15527295380072001 0.4153931176925994 0 0.1711416470664554 0.41062619466687539 0 0.16526304614212209 0.42908608809292892 0 0.1809560021812836 0.43814832633623357 0 0.16598328874466911 0.44273574664910909 0 0.16526304614212209 0.42908608809292892 0 0.18469425222239219 0.42125941149134333 0 0.1809560021812836 0.43814832633623357 0 0.1711416470664554 0.41062619466687539 0 0.16526304614212209 0.42908608809292892 0 0.18469425222239219 0.42125941149134333 0 0.1711416470664554 0.41062619466687539 0 0.18469425222239219 0.42125941149134333 0 0.1843100454414533 0.40126956181167389 0 0.1711416470664554 0.41062619466687539 0 0.1843100454414533 0.40126956181167389 0 0.16952276405911931 0.3912061138884545 0 0.1843100454414533 0.40126956181167389 0 0.16952276405911931 0.3912061138884545 0 0.18589276442329861 0.38606835492789338 0 0.15352992747694119 0.40026604784697911 0 0.1711416470664554 0.41062619466687539 0 0.16952276405911931 0.3912061138884545 0 0.15352992747694119 0.40026604784697911 0 0.15185568245476189 0.37707061606136422 0 0.16952276405911931 0.3912061138884545 0 0.17197644233242751 0.37002706837148541 0 0.15185568245476189 0.37707061606136422 0 0.16952276405911931 0.3912061138884545 0 0.17197644233242751 0.37002706837148541 0 0.16952276405911931 0.3912061138884545 0 0.18589276442329861 0.38606835492789338 0 0.19217836357317111 0.36996972767433872 0 0.17197644233242751 0.37002706837148541 0 0.18589276442329861 0.38606835492789338 0 0.18589276442329861 0.38606835492789338 0 0.20289108470775991 0.38370682355227331 0 0.19700705340585539 0.39579078134538831 0 0.19217836357317111 0.36996972767433872 0 0.18589276442329861 0.38606835492789338 0 0.20289108470775991 0.38370682355227331 0 0.19700705340585539 0.39579078134538831 0 0.21316338490038089 0.39704202397260657 0 0.19877798755638451 0.41086714246249401 0 0.1843100454414533 0.40126956181167389 0 0.19700705340585539 0.39579078134538831 0 0.19877798755638451 0.41086714246249401 0 0.1843100454414533 0.40126956181167389 0 0.18589276442329861 0.38606835492789338 0 0.19700705340585539 0.39579078134538831 0 0.20289108470775991 0.38370682355227331 0 0.19700705340585539 0.39579078134538831 0 0.21316338490038089 0.39704202397260657 0 0.20931495008602691 0.36890180222237801 0 0.20289108470775991 0.38370682355227331 0 0.21961872799640589 0.38146559318592133 0 0.20289108470775991 0.38370682355227331 0 0.21316338490038089 0.39704202397260657 0 0.21961872799640589 0.38146559318592133 0 0.22513916990612379 0.36868200325308897 0 0.21961872799640589 0.38146559318592133 0 0.2386764282036242 0.37725286527910618 0 0.21961872799640589 0.38146559318592133 0 0.22852735017452019 0.39320804083607441 0 0.2386764282036242 0.37725286527910618 0 0.21316338490038089 0.39704202397260657 0 0.21961872799640589 0.38146559318592133 0 0.22852735017452019 0.39320804083607441 0 0.21316338490038089 0.39704202397260657 0 0.22852735017452019 0.39320804083607441 0 0.22983145469658259 0.40925978250573319 0 0.21316338490038089 0.39704202397260657 0 0.22983145469658259 0.40925978250573319 0 0.22852735017452019 0.39320804083607441 0 0.2429624777480478 0.39890547698508871 0 0.22983145469658259 0.40925978250573319 0 0.2429624777480478 0.39890547698508871 0 0.2386764282036242 0.37725286527910618 0 0.22852735017452019 0.39320804083607441 0 0.2429624777480478 0.39890547698508871 0 0.2386764282036242 0.37725286527910618 0 0.2429624777480478 0.39890547698508871 0 0.2386764282036242 0.37725286527910618 0 0.25341304662754638 0.38974012394171498 0 0.2386764282036242 0.37725286527910618 0 0.25383912625151372 0.37755129754335942 0 0.25341304662754638 0.38974012394171498 0 0.24649952449278431 0.42147754103885982 0 0.22996656543308741 0.44177288309861867 0 0.24946733303660301 0.43176723098649622 0 0.24649952449278431 0.42147754103885982 0 0.22996656543308741 0.44177288309861867 0 0.24649952449278431 0.42147754103885982 0 0.22738899126970491 0.42458926785457718 0 0.22996656543308741 0.44177288309861867 0 0.24946733303660301 0.43176723098649622 0 0.24649952449278431 0.42147754103885982 0 0.2429624777480478 0.39890547698508871 0 0.24649952449278431 0.42147754103885982 0 0.24649952449278431 0.42147754103885982 0 0.22983145469658259 0.40925978250573319 0 0.22738899126970491 0.42458926785457718 0 0.24649952449278431 0.42147754103885982 0 0.22983145469658259 0.40925978250573319 0 0.2429624777480478 0.39890547698508871 0 0.24649952449278431 0.42147754103885982 0 0.22983145469658259 0.40925978250573319 0 0.21316338490038089 0.39704202397260657 0 0.22983145469658259 0.40925978250573319 0 0.21370806227123909 0.41789950377956148 0 0.22983145469658259 0.40925978250573319 0 0.22738899126970491 0.42458926785457718 0 0.21370806227123909 0.41789950377956148 0 0.22738899126970491 0.42458926785457718 0 0.21739304288862979 0.43200563017257382 0 0.22996656543308741 0.44177288309861867 0 0.22738899126970491 0.42458926785457718 0 0.21739304288862979 0.43200563017257382 0 0.21370806227123909 0.41789950377956148 0 0.21739304288862979 0.43200563017257382 0 0.1999317510848099 0.43097584272053618 0 0.2111195299095035 0.44359306409302351 0 0.21739304288862979 0.43200563017257382 0 0.21370806227123909 0.41789950377956148 0 0.1999317510848099 0.43097584272053618 0 0.21370806227123909 0.41789950377956148 0 0.19877798755638451 0.41086714246249401 0 0.1999317510848099 0.43097584272053618 0 0.21316338490038089 0.39704202397260657 0 0.21370806227123909 0.41789950377956148 0 0.19877798755638451 0.41086714246249401 0 0.18469425222239219 0.42125941149134333 0 0.19877798755638451 0.41086714246249401 0 0.1999317510848099 0.43097584272053618 0 0.18469425222239219 0.42125941149134333 0 0.1843100454414533 0.40126956181167389 0 0.19877798755638451 0.41086714246249401 0 0.18469425222239219 0.42125941149134333 0 0.1999317510848099 0.43097584272053618 0 0.1809560021812836 0.43814832633623357 0 0.1999317510848099 0.43097584272053618 0 0.19479511809318301 0.4526549487178691 0 0.2111195299095035 0.44359306409302351 0 0.1999317510848099 0.43097584272053618 0 0.19479511809318301 0.4526549487178691 0 0.1809560021812836 0.43814832633623357 0 0.19479511809318301 0.4526549487178691 0 0.213169792932182 0.46047172596691099 0 0.19211155850092579 0.47790980627879082 0 0.19479511809318301 0.4526549487178691 0 0.19211155850092579 0.47790980627879082 0 0.18348770279874721 0.46143911161818069 0 0.213169792932182 0.46047172596691099 0 0.2111195299095035 0.44359306409302351 0 0.22996656543308741 0.44177288309861867 0 0.19479511809318301 0.4526549487178691 0 0.213169792932182 0.46047172596691099 0 0.2111195299095035 0.44359306409302351 0 0.21739304288862979 0.43200563017257382 0 0.2111195299095035 0.44359306409302351 0 0.22996656543308741 0.44177288309861867 0 0.22996656543308741 0.44177288309861867 0 0.22854105436186559 0.46372788353366717 0 0.24141841662185301 0.45603819576859073 0 0.213169792932182 0.46047172596691099 0 0.22854105436186559 0.46372788353366717 0 0.221321310837439 0.47674074212904899 0 0.213169792932182 0.46047172596691099 0 0.22996656543308741 0.44177288309861867 0 0.22854105436186559 0.46372788353366717 0 0.24141841662185301 0.45603819576859073 0 0.23645949407781469 0.47608243786178739 0 0.25047151807745072 0.47036873115219768 0 0.22854105436186559 0.46372788353366717 0 0.24141841662185301 0.45603819576859073 0 0.23645949407781469 0.47608243786178739 0 0.24141841662185301 0.45603819576859073 0 0.25047151807745072 0.47036873115219768 0 0.25477099823403621 0.45804476415031298 0 0.24141841662185301 0.45603819576859073 0 0.25282491994113748 0.44831200937164878 0 0.25477099823403621 0.45804476415031298 0 0.22996656543308741 0.44177288309861867 0 0.24141841662185301 0.45603819576859073 0 0.24583280085865111 0.44361242472787987 0 0.24946733303660301 0.43176723098649622 0 0.22996656543308741 0.44177288309861867 0 0.24583280085865111 0.44361242472787987 0 0.24141841662185301 0.45603819576859073 0 0.24583280085865111 0.44361242472787987 0 0.25282491994113748 0.44831200937164878 0 0.24904418528453851 0.48634810883828161 0 0.23645949407781469 0.47608243786178739 0 0.23352830384551029 0.49999999999999978 0 0.24904418528453851 0.48634810883828161 0 0.23352830384551029 0.49999999999999978 0 0.25181722630913472 0.5 0 0.24904418528453851 0.48634810883828161 0 0.23645949407781469 0.47608243786178739 0 0.25047151807745072 0.47036873115219768 0 0.23645949407781469 0.47608243786178739 0 0.221321310837439 0.47674074212904899 0 0.23352830384551029 0.49999999999999978 0 0.22854105436186559 0.46372788353366717 0 0.23645949407781469 0.47608243786178739 0 0.221321310837439 0.47674074212904899 0 0.23352830384551029 0.49999999999999978 0 0.2128199311732181 0.48895490313939532 0 0.21702906166474581 0.5 0 0.23352830384551029 0.49999999999999978 0 0.2128199311732181 0.48895490313939532 0 0.221321310837439 0.47674074212904899 0 0.23352830384551029 0.49999999999999978 0 0.2128199311732181 0.48895490313939532 0 0.2128199311732181 0.48895490313939532 0 0.21702906166474581 0.5 0 0.20052981948398141 0.49999999999999989 0 0.213169792932182 0.46047172596691099 0 0.221321310837439 0.47674074212904899 0 0.19211155850092579 0.47790980627879082 0 0.221321310837439 0.47674074212904899 0 0.2128199311732181 0.48895490313939532 0 0.19211155850092579 0.47790980627879082 0 0.2128199311732181 0.48895490313939532 0 0.19211155850092579 0.47790980627879082 0 0.2128199311732181 0.48895490313939532 0 0.20052981948398141 0.49999999999999989 0 0.19295831529489699 0.4905304616351287 0 0.2128199311732181 0.48895490313939532 0 0.19211155850092579 0.47790980627879082 0 0.19295831529489699 0.4905304616351287 0 0.20052981948398141 0.49999999999999989 0 0.1839227339461352 0.49861489743603538 0 0.20052981948398141 0.49999999999999989 0 0.19295831529489699 0.4905304616351287 0 0.1839227339461352 0.49861489743603538 0 0.19211155850092579 0.47790980627879082 0 0.19295831529489699 0.4905304616351287 0 0.1809625144841838 0.48570342190566712 0 0.1839227339461352 0.49861489743603538 0 0.1809625144841838 0.48570342190566712 0 0.16731564840828889 0.49722979487207219 0 0.1839227339461352 0.49861489743603538 0 0.16731564840828889 0.49722979487207219 0 0.1839227339461352 0.49861489743603538 0 0.1669427425872391 0.49999999999999922 0 0.16731564840828889 0.49722979487207219 0 0.19295831529489699 0.4905304616351287 0 0.1839227339461352 0.49861489743603538 0 0.1809625144841838 0.48570342190566712 0 0.1809625144841838 0.48570342190566712 0 0.16731564840828889 0.49722979487207219 0 0.16935941711846161 0.48204725214512889 0 0.16731564840828889 0.49722979487207219 0 0.157708884996551 0.48584061526662409 0 0.14611751268168829 0.49546177892012921 0 0.16731564840828889 0.49722979487207219 0 0.14611751268168829 0.49546177892012921 0 0.1669427425872391 0.49999999999999922 0 0.16731564840828889 0.49722979487207219 0 0.14611751268168829 0.49546177892012921 0 0.1669427425872391 0.49999999999999922 0 0.16731564840828889 0.49722979487207219 0 0.16731564840828889 0.49722979487207219 0 0.16935941711846161 0.48204725214512889 0 0.16731564840828889 0.49722979487207219 0 0.157708884996551 0.48584061526662409 0 0.16935941711846161 0.48204725214512889 0 0.16382575626869561 0.4735735187060508 0 0.15802571703479451 0.46684670821381258 0 0.1531189490294651 0.47544631339495541 0 0.157708884996551 0.48584061526662409 0 0.16382575626869561 0.4735735187060508 0 0.1531189490294651 0.47544631339495541 0 0.157708884996551 0.48584061526662409 0 0.16382575626869561 0.4735735187060508 0 0.16935941711846161 0.48204725214512889 0 0.16935941711846161 0.48204725214512889 0 0.17140318582863401 0.46686470941818559 0 0.16382575626869561 0.4735735187060508 0 0.16935941711846161 0.48204725214512889 0 0.17140318582863401 0.46686470941818559 0 0.1809625144841838 0.48570342190566712 0 0.16935941711846161 0.48204725214512889 0 0.17140318582863401 0.46686470941818559 0 0.19211155850092579 0.47790980627879082 0 0.1809625144841838 0.48570342190566712 0 0.17140318582863401 0.46686470941818559 0 0.19211155850092579 0.47790980627879082 0 0.17140318582863401 0.46686470941818559 0 0.19479511809318301 0.4526549487178691 0 0.18348770279874721 0.46143911161818069 0 0.17341546959919829 0.45191605883299152 0 0.19211155850092579 0.47790980627879082 0 0.18348770279874721 0.46143911161818069 0 0.17140318582863401 0.46686470941818559 0 0.18348770279874721 0.46143911161818069 0 0.17341546959919829 0.45191605883299152 0 0.17140318582863401 0.46686470941818559 0 0.17341546959919829 0.45191605883299152 0 0.17140318582863401 0.46686470941818559 0 0.19479511809318301 0.4526549487178691 0 0.1809560021812836 0.43814832633623357 0 0.17341546959919829 0.45191605883299152 0 0.1809560021812836 0.43814832633623357 0 0.17341546959919829 0.45191605883299152 0 0.16598328874466911 0.44273574664910909 0 0.17341546959919829 0.45191605883299152 0 0.16598328874466911 0.44273574664910909 0 0.15954778128093949 0.4508222386347599 0 0.16598328874466911 0.44273574664910909 0 0.15954778128093949 0.4508222386347599 0 0.1507341445198021 0.44370602134863157 0 0.16526304614212209 0.42908608809292892 0 0.16598328874466911 0.44273574664910909 0 0.1507341445198021 0.44370602134863157 0 0.16382575626869561 0.4735735187060508 0 0.1651762257979181 0.46354347419730452 0 0.17140318582863401 0.46686470941818559 0 0.1651762257979181 0.46354347419730452 0 0.17140318582863401 0.46686470941818559 0 0.17341546959919829 0.45191605883299152 0 0.1651762257979181 0.46354347419730452 0 0.17140318582863401 0.46686470941818559 0 0.17341546959919829 0.45191605883299152 0 0.15954778128093949 0.4508222386347599 0 0.1651762257979181 0.46354347419730452 0 0.15954778128093949 0.4508222386347599 0 0.1651762257979181 0.46354347419730452 0 0.1582471669695637 0.45974252444074731 0 0.16382575626869561 0.4735735187060508 0 0.1651762257979181 0.46354347419730452 0 0.15802571703479451 0.46684670821381258 0 0.1651762257979181 0.46354347419730452 0 0.1582471669695637 0.45974252444074731 0 0.15802571703479451 0.46684670821381258 0 0.14976048710833001 0.46192771033000529 0 0.1507341445198021 0.44370602134863157 0 0.136404492151351 0.45486193181106682 0 0.1582471669695637 0.45974252444074731 0 0.15802571703479451 0.46684670821381258 0 0.14976048710833001 0.46192771033000529 0 0.15802571703479451 0.46684670821381258 0 0.14976048710833001 0.46192771033000529 0 0.1531189490294651 0.47544631339495541 0 0.15954778128093949 0.4508222386347599 0 0.1582471669695637 0.45974252444074731 0 0.14976048710833001 0.46192771033000529 0 0.14976048710833001 0.46192771033000529 0 0.136404492151351 0.45486193181106682 0 0.13663143795624749 0.46910754811773492 0 0.15954778128093949 0.4508222386347599 0 0.14976048710833001 0.46192771033000529 0 0.1507341445198021 0.44370602134863157 0 0.1507341445198021 0.44370602134863157 0 0.13510526379757609 0.44116740875256688 0 0.136404492151351 0.45486193181106682 0 0.1221607865463437 0.4507156547582637 0 0.12259086230274099 0.42947812748907283 0 0.13510526379757609 0.44116740875256688 0 0.1221607865463437 0.4507156547582637 0 0.13510526379757609 0.44116740875256688 0 0.136404492151351 0.45486193181106682 0 0.136404492151351 0.45486193181106682 0 0.1267882431275838 0.46370707134437261 0 0.13663143795624749 0.46910754811773492 0 0.1221607865463437 0.4507156547582637 0 0.136404492151351 0.45486193181106682 0 0.1267882431275838 0.46370707134437261 0 0.1267882431275838 0.46370707134437261 0 0.12569724768963239 0.47617993877849962 0 0.13663143795624749 0.46910754811773492 0 0.12569724768963239 0.47617993877849962 0 0.13663143795624749 0.46910754811773492 0 0.1364132019148096 0.48384982340983701 0 0.13663143795624749 0.46910754811773492 0 0.1364132019148096 0.48384982340983701 0 0.14361111091913481 0.47574478002545789 0 0.1249193769550877 0.49369376296818718 0 0.1364132019148096 0.48384982340983701 0 0.14611751268168829 0.49546177892012921 0 0.1249193769550877 0.49369376296818718 0 0.14611751268168829 0.49546177892012921 0 0.1249193769550877 0.49369376296818718 0 0.12569724768963239 0.47617993877849962 0 0.1364132019148096 0.48384982340983701 0 0.1249193769550877 0.49369376296818718 0 0.13738437864054501 0.5 0 0.14611751268168829 0.49546177892012921 0 0.1364132019148096 0.48384982340983701 0 0.14611751268168829 0.49546177892012921 0 0.14718343377546941 0.48347361591025501 0 0.1669427425872391 0.49999999999999922 0 0.13738437864054501 0.5 0 0.14611751268168829 0.49546177892012921 0 0.157708884996551 0.48584061526662409 0 0.14611751268168829 0.49546177892012921 0 0.14718343377546941 0.48347361591025501 0 0.157708884996551 0.48584061526662409 0 0.1531189490294651 0.47544631339495541 0 0.14718343377546941 0.48347361591025501 0 0.14976048710833001 0.46192771033000529 0 0.1531189490294651 0.47544631339495541 0 0.14361111091913481 0.47574478002545789 0 0.14976048710833001 0.46192771033000529 0 0.13663143795624749 0.46910754811773492 0 0.14361111091913481 0.47574478002545789 0 0.1364132019148096 0.48384982340983701 0 0.14361111091913481 0.47574478002545789 0 0.14718343377546941 0.48347361591025501 0 0.1531189490294651 0.47544631339495541 0 0.14361111091913481 0.47574478002545789 0 0.14718343377546941 0.48347361591025501 0 0.35832214194920592 0.47929915408112939 0 0.34611268429232461 0.46591887339206078 0 0.3375369348076922 0.4829399206954248 0 0.35832214194920592 0.47929915408112939 0 0.35850557312216419 0.5 0 0.3375369348076922 0.4829399206954248 0 0.35850557312216419 0.5 0 0.37801407526051067 0.48065415083330842 0 0.38797204790529932 0.5 0 0.35832214194920592 0.47929915408112939 0 0.35850557312216419 0.5 0 0.37801407526051067 0.48065415083330842 0 0.35832214194920592 0.47929915408112939 0 0.36980735363827261 0.46050290225189661 0 0.37801407526051067 0.48065415083330842 0 0.36980735363827261 0.46050290225189661 0 0.34502769605759259 0.44546544446971242 0 0.36959298495063608 0.43610817863788948 0 0.35832214194920592 0.47929915408112939 0 0.36980735363827261 0.46050290225189661 0 0.34611268429232461 0.46591887339206078 0 0.36980735363827261 0.46050290225189661 0 0.34502769605759259 0.44546544446971242 0 0.34611268429232461 0.46591887339206078 0 0.36980735363827261 0.46050290225189661 0 0.34611268429232461 0.46591887339206078 0 0.34611268429232461 0.46591887339206078 0 0.3317687487832644 0.45597005559148451 0 0.32241801494637662 0.47133484453222518 0 0.34502769605759259 0.44546544446971242 0 0.34611268429232461 0.46591887339206078 0 0.3317687487832644 0.45597005559148451 0 0.34611268429232461 0.46591887339206078 0 0.32241801494637662 0.47133484453222518 0 0.34502769605759259 0.44546544446971242 0 0.3317687487832644 0.45597005559148451 0 0.32480939915707069 0.44218818576869201 0 0.34502769605759259 0.44546544446971242 0 0.32480939915707069 0.44218818576869201 0 0.33523501366627878 0.43221560569608392 0 0.3107318966111981 0.4514989769174147 0 0.3227404476219688 0.42624713816244092 0 0.3317687487832644 0.45597005559148451 0 0.32480939915707069 0.44218818576869201 0 0.3107318966111981 0.4514989769174147 0 0.32480939915707069 0.44218818576869201 0 0.3107318966111981 0.4514989769174147 0 0.3227404476219688 0.42624713816244092 0 0.3317687487832644 0.45597005559148451 0 0.32241801494637662 0.47133484453222518 0 0.3107318966111981 0.4514989769174147 0 0.32241801494637662 0.47133484453222518 0 0.3375369348076922 0.4829399206954248 0 0.31372501333874958 0.48784291822244708 0 0.34611268429232461 0.46591887339206078 0 0.32241801494637662 0.47133484453222518 0 0.3375369348076922 0.4829399206954248 0 0.35850557312216419 0.5 0 0.3375369348076922 0.4829399206954248 0 0.32903909833902928 0.5 0 0.32903909833902928 0.5 0 0.31372501333874958 0.48784291822244708 0 0.29957262355589431 0.5 0 0.3375369348076922 0.4829399206954248 0 0.32903909833902928 0.5 0 0.31372501333874958 0.48784291822244708 0 0.31372501333874958 0.48784291822244708 0 0.30130976803097798 0.48891801032572652 0 0.29957262355589431 0.5 0 0.31372501333874958 0.48784291822244708 0 0.30130976803097798 0.48891801032572652 0 0.29872334560042851 0.47675081567238892 0 0.30130976803097798 0.48891801032572652 0 0.29957262355589431 0.5 0 0.28978827390519868 0.49553967616935518 0 0.32241801494637662 0.47133484453222518 0 0.29872334560042851 0.47675081567238892 0 0.32241801494637662 0.47133484453222518 0 0.31372501333874958 0.48784291822244708 0 0.29872334560042851 0.47675081567238892 0 0.29872334560042851 0.47675081567238892 0 0.28397488520641462 0.48012192141307769 0 0.28978827390519868 0.49553967616935518 0 0.29872334560042851 0.47675081567238892 0 0.28929399795500932 0.47058792179259418 0 0.29703527816799058 0.46117092995693892 0 0.29872334560042851 0.47675081567238892 0 0.28929399795500932 0.47058792179259418 0 0.28397488520641462 0.48012192141307769 0 0.29872334560042851 0.47675081567238892 0 0.28397488520641462 0.48012192141307769 0 0.28929399795500932 0.47058792179259418 0 0.28397488520641462 0.48012192141307769 0 0.27920072977811172 0.47805830749059319 0 0.28397488520641462 0.48012192141307769 0 0.28978827390519868 0.49553967616935518 0 0.27010614877275918 0.50000000000000067 0 0.29957262355589431 0.5 0 0.28978827390519868 0.49553967616935518 0 0.27010614877275918 0.50000000000000067 0 0.30130976803097798 0.48891801032572652 0 0.29872334560042851 0.47675081567238892 0 0.28978827390519868 0.49553967616935518 0 0.29872334560042851 0.47675081567238892 0 0.28978827390519868 0.49553967616935518 0 0.28397488520641462 0.48012192141307769 0 0.27010614877275918 0.50000000000000067 0 0.27920072977811172 0.47805830749059319 0 0.27010614877275918 0.50000000000000067 0 0.26909437115437917 0.48384867389528768 0 0.26130641782501518 0.49139676135406141 0 0.27010614877275918 0.50000000000000067 0 0.27920072977811172 0.47805830749059319 0 0.26909437115437917 0.48384867389528768 0 0.27010614877275918 0.50000000000000067 0 0.27920072977811172 0.47805830749059319 0 0.27920072977811172 0.47805830749059319 0 0.27306774476234302 0.47644699960251641 0 0.26909437115437917 0.48384867389528768 0 0.27920072977811172 0.47805830749059319 0 0.27306774476234302 0.47644699960251641 0 0.27643472525740193 0.46726539210963169 0 0.26824582816420722 0.47348896141386071 0 0.27306774476234302 0.47644699960251641 0 0.27643472525740193 0.46726539210963169 0 0.26824582816420722 0.47348896141386071 0 0.26909437115437917 0.48384867389528768 0 0.25993240985832161 0.47939275616227872 0 0.26824582816420722 0.47348896141386071 0 0.27306774476234302 0.47644699960251641 0 0.26909437115437917 0.48384867389528768 0 0.24904418528453851 0.48634810883828161 0 0.25993240985832161 0.47939275616227872 0 0.25047151807745072 0.47036873115219768 0 0.26824582816420722 0.47348896141386071 0 0.25993240985832161 0.47939275616227872 0 0.26165523792153211 0.46576309323832682 0 0.25993240985832161 0.47939275616227872 0 0.25047151807745072 0.47036873115219768 0 0.26165523792153211 0.46576309323832682 0 0.27010614877275918 0.50000000000000067 0 0.25181722630913472 0.5 0 0.26130641782501518 0.49139676135406141 0 0.24904418528453851 0.48634810883828161 0 0.25993240985832161 0.47939275616227872 0 0.26130641782501518 0.49139676135406141 0 0.24904418528453851 0.48634810883828161 0 0.25181722630913472 0.5 0 0.26130641782501518 0.49139676135406141 0 0.26909437115437917 0.48384867389528768 0 0.25993240985832161 0.47939275616227872 0 0.26130641782501518 0.49139676135406141 0 0.26490489917960358 0.45079530358348557 0 0.25548676926057468 0.44017180441404491 0 0.26331147225899149 0.43380076267102891 0 0.24946733303660301 0.43176723098649622 0 0.24583280085865111 0.44361242472787987 0 0.25548676926057468 0.44017180441404491 0 0.24583280085865111 0.44361242472787987 0 0.25548676926057468 0.44017180441404491 0 0.25282491994113748 0.44831200937164878 0 0.26490489917960358 0.45079530358348557 0 0.25548676926057468 0.44017180441404491 0 0.25282491994113748 0.44831200937164878 0 0.26490489917960358 0.45079530358348557 0 0.25282491994113748 0.44831200937164878 0 0.25477099823403621 0.45804476415031298 0 0.25047151807745072 0.47036873115219768 0 0.25477099823403621 0.45804476415031298 0 0.26165523792153211 0.46576309323832682 0 0.26490489917960358 0.45079530358348557 0 0.25477099823403621 0.45804476415031298 0 0.26165523792153211 0.46576309323832682 0 0.26490489917960358 0.45079530358348557 0 0.27160577401557351 0.46248804296782559 0 0.27679169795675967 0.45600994403837303 0 0.26490489917960358 0.45079530358348557 0 0.26165523792153211 0.46576309323832682 0 0.27160577401557351 0.46248804296782559 0 0.26824582816420722 0.47348896141386071 0 0.27160577401557351 0.46248804296782559 0 0.27643472525740193 0.46726539210963169 0 0.26824582816420722 0.47348896141386071 0 0.26165523792153211 0.46576309323832682 0 0.27160577401557351 0.46248804296782559 0 0.27160577401557351 0.46248804296782559 0 0.27643472525740193 0.46726539210963169 0 0.27679169795675967 0.45600994403837303 0 0.27643472525740193 0.46726539210963169 0 0.27679169795675967 0.45600994403837303 0 0.28829531078346382 0.45611661498118572 0 0.27903440424894049 0.4453257315987294 0 0.26331147225899149 0.43380076267102891 0 0.26490489917960358 0.45079530358348557 0 0.27903440424894049 0.4453257315987294 0 0.26331147225899149 0.43380076267102891 0 0.26490489917960358 0.45079530358348557 0 0.27679169795675967 0.45600994403837303 0 0.27903440424894049 0.4453257315987294 0 0.27903440424894049 0.4453257315987294 0 0.2917470315179379 0.44281751567604499 0 0.28179675760275558 0.42932557237874241 0 0.27679169795675967 0.45600994403837303 0 0.27903440424894049 0.4453257315987294 0 0.28829531078346382 0.45611661498118572 0 0.27903440424894049 0.4453257315987294 0 0.2917470315179379 0.44281751567604499 0 0.28829531078346382 0.45611661498118572 0 0.2917470315179379 0.44281751567604499 0 0.28829531078346382 0.45611661498118572 0 0.29813183988985342 0.45090032042111128 0 0.27920072977811172 0.47805830749059319 0 0.27643472525740193 0.46726539210963169 0 0.28829531078346382 0.45611661498118572 0 0.28929399795500932 0.47058792179259418 0 0.27920072977811172 0.47805830749059319 0 0.28829531078346382 0.45611661498118572 0 0.27920072977811172 0.47805830749059319 0 0.28829531078346382 0.45611661498118572 0 0.28829531078346382 0.45611661498118572 0 0.29703527816799058 0.46117092995693892 0 0.29813183988985342 0.45090032042111128 0 0.28929399795500932 0.47058792179259418 0 0.28829531078346382 0.45611661498118572 0 0.29703527816799058 0.46117092995693892 0 0.29872334560042851 0.47675081567238892 0 0.29703527816799058 0.46117092995693892 0 0.3107318966111981 0.4514989769174147 0 0.29872334560042851 0.47675081567238892 0 0.3107318966111981 0.4514989769174147 0 0.32241801494637662 0.47133484453222518 0 0.29872334560042851 0.47675081567238892 0 0.3107318966111981 0.4514989769174147 0 0.29703527816799058 0.46117092995693892 0 0.29813183988985342 0.45090032042111128 0 0.3107318966111981 0.4514989769174147 0 0.30159082278473881 0.44219288247638061 0 0.3107318966111981 0.4514989769174147 0 0.30884109342504262 0.43428586920116352 0 0.2917470315179379 0.44281751567604499 0 0.30159082278473881 0.44219288247638061 0 0.29850225247966211 0.43146173016616862 0 0.2917470315179379 0.44281751567604499 0 0.30159082278473881 0.44219288247638061 0 0.29813183988985342 0.45090032042111128 0 0.30159082278473881 0.44219288247638061 0 0.29813183988985342 0.45090032042111128 0 0.3107318966111981 0.4514989769174147 0 0.30884109342504262 0.43428586920116352 0 0.29850225247966211 0.43146173016616862 0 0.30862162828234507 0.42004495563460759 0 0.29850225247966211 0.43146173016616862 0 0.30862162828234507 0.42004495563460759 0 0.29547148538100448 0.41817397575591742 0 0.30159082278473881 0.44219288247638061 0 0.30884109342504262 0.43428586920116352 0 0.29850225247966211 0.43146173016616862 0 0.30862162828234507 0.42004495563460759 0 0.30304430461131138 0.40735012112542651 0 0.3196782615082488 0.40265332564926309 0 0.30862162828234507 0.42004495563460759 0 0.30304430461131138 0.40735012112542651 0 0.29547148538100448 0.41817397575591742 0 0.30304430461131138 0.40735012112542651 0 0.29062365375375682 0.40708788978866228 0 0.29547148538100448 0.41817397575591742 0 0.29062365375375682 0.40708788978866228 0 0.29547148538100448 0.41817397575591742 0 0.28288479604298378 0.41446876034122271 0 0.29547148538100448 0.41817397575591742 0 0.28288479604298378 0.41446876034122271 0 0.28179675760275558 0.42932557237874241 0 0.29062365375375682 0.40708788978866228 0 0.28288479604298378 0.41446876034122271 0 0.28001120465417539 0.40182109974822727 0 0.29850225247966211 0.43146173016616862 0 0.29547148538100448 0.41817397575591742 0 0.28179675760275558 0.42932557237874241 0 0.2917470315179379 0.44281751567604499 0 0.29850225247966211 0.43146173016616862 0 0.28179675760275558 0.42932557237874241 0 0.28179675760275558 0.42932557237874241 0 0.27042562322166658 0.41684269204638819 0 0.26331147225899149 0.43380076267102891 0 0.27903440424894049 0.4453257315987294 0 0.28179675760275558 0.42932557237874241 0 0.26331147225899149 0.43380076267102891 0 0.27042562322166658 0.41684269204638819 0 0.26380858941988822 0.4002294757553399 0 0.28001120465417539 0.40182109974822727 0 0.28288479604298378 0.41446876034122271 0 0.28179675760275558 0.42932557237874241 0 0.27042562322166658 0.41684269204638819 0 0.28288479604298378 0.41446876034122271 0 0.27042562322166658 0.41684269204638819 0 0.28001120465417539 0.40182109974822727 0 0.24649952449278431 0.42147754103885982 0 0.25492995388566009 0.41993008507457552 0 0.26380858941988822 0.4002294757553399 0 0.27042562322166658 0.41684269204638819 0 0.25492995388566009 0.41993008507457552 0 0.26380858941988822 0.4002294757553399 0 0.24649952449278431 0.42147754103885982 0 0.26380858941988822 0.4002294757553399 0 0.2429624777480478 0.39890547698508871 0 0.24649952449278431 0.42147754103885982 0 0.26380858941988822 0.4002294757553399 0 0.24946733303660301 0.43176723098649622 0 0.24649952449278431 0.42147754103885982 0 0.26331147225899149 0.43380076267102891 0 0.24649952449278431 0.42147754103885982 0 0.25492995388566009 0.41993008507457552 0 0.26331147225899149 0.43380076267102891 0 0.24649952449278431 0.42147754103885982 0 0.26331147225899149 0.43380076267102891 0 0.27042562322166658 0.41684269204638819 0 0.25492995388566009 0.41993008507457552 0 0.26331147225899149 0.43380076267102891 0 0.24946733303660301 0.43176723098649622 0 0.25548676926057468 0.44017180441404491 0 0.26331147225899149 0.43380076267102891 0 0.26350653962281989 0.38010735630523079 0 0.25341304662754638 0.38974012394171498 0 0.26380858941988822 0.4002294757553399 0 0.26350653962281989 0.38010735630523079 0 0.25383912625151372 0.37755129754335942 0 0.25710864090743918 0.37145542319719338 0 0.26350653962281989 0.38010735630523079 0 0.25383912625151372 0.37755129754335942 0 0.25341304662754638 0.38974012394171498 0 0.2429624777480478 0.39890547698508871 0 0.25341304662754638 0.38974012394171498 0 0.26380858941988822 0.4002294757553399 0 0.26380858941988822 0.4002294757553399 0 0.28001120465417539 0.40182109974822727 0 0.28036865154730628 0.37990086281960789 0 0.26350653962281989 0.38010735630523079 0 0.28036865154730628 0.37990086281960789 0 0.2641967246118288 0.36596915937278562 0 0.26380858941988822 0.4002294757553399 0 0.28036865154730628 0.37990086281960789 0 0.26350653962281989 0.38010735630523079 0 0.26380858941988822 0.4002294757553399 0 0.28036865154730628 0.37990086281960789 0 0.28036865154730628 0.37990086281960789 0 0.29170647807930872 0.39362549197251728 0 0.2987730087010142 0.37934426936791982 0 0.28036865154730628 0.37990086281960789 0 0.29170647807930872 0.39362549197251728 0 0.28001120465417539 0.40182109974822727 0 0.28036865154730628 0.37990086281960789 0 0.29170647807930872 0.39362549197251728 0 0.29062365375375682 0.40708788978866228 0 0.28001120465417539 0.40182109974822727 0 0.29170647807930872 0.39362549197251728 0 0.30304430461131138 0.40735012112542651 0 0.29062365375375682 0.40708788978866228 0 0.29170647807930872 0.39362549197251728 0 0.30304430461131138 0.40735012112542651 0 0.30637452063024528 0.39219955594670219 0 0.3196782615082488 0.40265332564926309 0 0.30304430461131138 0.40735012112542651 0 0.29170647807930872 0.39362549197251728 0 0.30304430461131138 0.40735012112542651 0 0.29170647807930872 0.39362549197251728 0 0.30637452063024528 0.39219955594670219 0 0.30637452063024528 0.39219955594670219 0 0.2987730087010142 0.37934426936791982 0 0.31661607539452802 0.37905951313608538 0 0.29170647807930872 0.39362549197251728 0 0.30637452063024528 0.39219955594670219 0 0.2987730087010142 0.37934426936791982 0 0.31661607539452802 0.37905951313608538 0 0.32905198958534931 0.38831461949406398 0 0.3196782615082488 0.40265332564926309 0 0.31661607539452802 0.37905951313608538 0 0.32905198958534931 0.38831461949406398 0 0.33389487655237682 0.3658352592629312 0 0.32905198958534931 0.38831461949406398 0 0.34270248502322931 0.38427053755298168 0 0.33389487655237682 0.3658352592629312 0 0.32905198958534931 0.38831461949406398 0 0.34270248502322931 0.38427053755298168 0 0.33272146632259869 0.40525883785771122 0 0.34270248502322931 0.38427053755298168 0 0.33272146632259869 0.40525883785771122 0 0.34270248502322931 0.38427053755298168 0 0.33272146632259869 0.40525883785771122 0 0.34670895149724801 0.40816004440777182 0 0.31661607539452802 0.37905951313608538 0 0.3196782615082488 0.40265332564926309 0 0.32905198958534931 0.38831461949406398 0 0.33272146632259869 0.40525883785771122 0 0.3196782615082488 0.40265332564926309 0 0.30637452063024528 0.39219955594670219 0 0.31661607539452802 0.37905951313608538 0 0.3196782615082488 0.40265332564926309 0 0.3196782615082488 0.40265332564926309 0 0.3227404476219688 0.42624713816244092 0 0.30862162828234507 0.42004495563460759 0 0.3196782615082488 0.40265332564926309 0 0.3227404476219688 0.42624713816244092 0 0.33272146632259869 0.40525883785771122 0 0.3196782615082488 0.40265332564926309 0 0.3227404476219688 0.42624713816244092 0 0.33272146632259869 0.40525883785771122 0 0.3227404476219688 0.42624713816244092 0 0.32480939915707069 0.44218818576869201 0 0.3227404476219688 0.42624713816244092 0 0.3107318966111981 0.4514989769174147 0 0.30884109342504262 0.43428586920116352 0 0.3227404476219688 0.42624713816244092 0 0.32480939915707069 0.44218818576869201 0 0.3227404476219688 0.42624713816244092 0 0.33523501366627878 0.43221560569608392 0 0.30884109342504262 0.43428586920116352 0 0.30862162828234507 0.42004495563460759 0 0.3227404476219688 0.42624713816244092 0 0.34502769605759259 0.44546544446971242 0 0.33523501366627878 0.43221560569608392 0 0.34795858503051302 0.425881111768525 0 0.3227404476219688 0.42624713816244092 0 0.33523501366627878 0.43221560569608392 0 0.33659904832278342 0.4201421825902541 0 0.33523501366627878 0.43221560569608392 0 0.33659904832278342 0.4201421825902541 0 0.34795858503051302 0.425881111768525 0 0.33272146632259869 0.40525883785771122 0 0.3227404476219688 0.42624713816244092 0 0.33659904832278342 0.4201421825902541 0 0.33272146632259869 0.40525883785771122 0 0.33659904832278342 0.4201421825902541 0 0.34670895149724801 0.40816004440777182 0 0.33659904832278342 0.4201421825902541 0 0.34670895149724801 0.40816004440777182 0 0.34795858503051302 0.425881111768525 0 0.34670895149724801 0.40816004440777182 0 0.34795858503051302 0.425881111768525 0 0.36336601300371613 0.41450991002864218 0 0.34670895149724801 0.40816004440777182 0 0.36336601300371613 0.41450991002864218 0 0.35690611128064731 0.3988976866485166 0 0.34502769605759259 0.44546544446971242 0 0.34795858503051302 0.425881111768525 0 0.36959298495063608 0.43610817863788948 0 0.34795858503051302 0.425881111768525 0 0.36959298495063608 0.43610817863788948 0 0.36336601300371613 0.41450991002864218 0 0.36959298495063608 0.43610817863788948 0 0.36336601300371613 0.41450991002864218 0 0.38530342098431941 0.41064856824057122 0 0.36336601300371613 0.41450991002864218 0 0.3736470799201031 0.39378130610698531 0 0.38530342098431941 0.41064856824057122 0 0.3736470799201031 0.39378130610698531 0 0.3601059063978746 0.38125551426405008 0 0.35690611128064731 0.3988976866485166 0 0.36336601300371613 0.41450991002864218 0 0.3736470799201031 0.39378130610698531 0 0.35690611128064731 0.3988976866485166 0 0.3736470799201031 0.39378130610698531 0 0.3601059063978746 0.38125551426405008 0 0.37414389550204002 0.36898578533419818 0 0.34270248502322931 0.38427053755298168 0 0.3601059063978746 0.38125551426405008 0 0.35690611128064731 0.3988976866485166 0 0.34270248502322931 0.38427053755298168 0 0.3601059063978746 0.38125551426405008 0 0.35268350372385993 0.36328223724825232 0 0.34270248502322931 0.38427053755298168 0 0.34670895149724801 0.40816004440777182 0 0.35690611128064731 0.3988976866485166 0 0.35268350372385993 0.36328223724825232 0 0.36266452242448938 0.34229393694352239 0 0.35030182712711511 0.35130594720886232 0 0.35268350372385993 0.36328223724825232 0 0.36266452242448938 0.34229393694352239 0 0.35030182712711511 0.35130594720886232 0 0.35146565257524442 0.34420791440797271 0 0.36266452242448938 0.34229393694352239 0 0.35030182712711511 0.35130594720886232 0 0.35146565257524442 0.34420791440797271 0 0.34269927497721508 0.34493512072036142 0 0.35030182712711511 0.35130594720886232 0 0.35268350372385993 0.36328223724825232 0 0.33389487655237682 0.3658352592629312 0 0.34270248502322931 0.38427053755298168 0 0.35268350372385993 0.36328223724825232 0 0.3601059063978746 0.38125551426405008 0 0.35268350372385993 0.36328223724825232 0 0.37414389550204002 0.36898578533419818 0 0.35268350372385993 0.36328223724825232 0 0.37414389550204002 0.36898578533419818 0 0.36300645299402812 0.35604351837507042 0 0.37414389550204002 0.36898578533419818 0 0.37228166628853332 0.35471301169251829 0 0.36300645299402812 0.35604351837507042 0 0.35268350372385993 0.36328223724825232 0 0.36300645299402812 0.35604351837507042 0 0.36266452242448938 0.34229393694352239 0 0.37228166628853332 0.35471301169251829 0 0.36300645299402812 0.35604351837507042 0 0.36840829020790361 0.34668560051738673 0 0.36300645299402812 0.35604351837507042 0 0.36840829020790361 0.34668560051738673 0 0.36266452242448938 0.34229393694352239 0 0.36840829020790361 0.34668560051738673 0 0.36266452242448938 0.34229393694352239 0 0.36587418437400321 0.34278907974668538 0 0.37228166628853332 0.35471301169251829 0 0.36840829020790361 0.34668560051738673 0 0.37486749369974542 0.34694596905823039 0 0.37486749369974542 0.34694596905823039 0 0.37256750073976291 0.34304532959464751 0 0.37670219357667811 0.34177383067972761 0 0.36840829020790361 0.34668560051738673 0 0.37486749369974542 0.34694596905823039 0 0.37256750073976291 0.34304532959464751 0 0.36124897776362869 0.33531944770056321 0 0.36266452242448938 0.34229393694352239 0 0.36411885078159001 0.32644375487552563 0 0.37256750073976291 0.34304532959464751 0 0.36916640720496519 0.34145859007673351 0 0.37369311900952262 0.33836265764115908 0 0.37256750073976291 0.34304532959464751 0 0.37369311900952262 0.33836265764115908 0 0.37670219357667811 0.34177383067972761 0 0.36266452242448938 0.34229393694352239 0 0.37014896644917339 0.316543878568457 0 0.36770298492566261 0.33637877995368609 0 0.36266452242448938 0.34229393694352239 0 0.37368960646642962 0.31911015363466272 0 0.36770298492566261 0.33637877995368609 0 0.36985494237623989 0.33311962493185521 0 0.37368960646642962 0.31911015363466272 0 0.36266452242448938 0.34229393694352239 0 0.37368960646642962 0.31911015363466272 0 0.36266452242448938 0.34229393694352239 0 0.37014896644917339 0.316543878568457 0 0.36411885078159001 0.32644375487552563 0 0.36840829020790361 0.34668560051738673 0 0.36916640720496519 0.34145859007673351 0 0.36587418437400321 0.34278907974668538 0 0.36840829020790361 0.34668560051738673 0 0.37256750073976291 0.34304532959464751 0 0.36916640720496519 0.34145859007673351 0 0.36916640720496519 0.34145859007673351 0 0.36587418437400321 0.34278907974668538 0 0.36708394454210669 0.33994961910346172 0 0.36916640720496519 0.34145859007673351 0 0.37010024416019238 0.33739894816112592 0 0.36708394454210669 0.33994961910346172 0 0.36916640720496519 0.34145859007673351 0 0.37010024416019238 0.33739894816112592 0 0.37369311900952262 0.33836265764115908 0 0.36770298492566261 0.33637877995368609 0 0.37010024416019238 0.33739894816112592 0 0.36708394454210669 0.33994961910346172 0 0.37010024416019238 0.33739894816112592 0 0.37369311900952262 0.33836265764115908 0 0.3722735272100694 0.33425106354392481 0 0.3722735272100694 0.33425106354392481 0 0.37245621682226088 0.32924087979990557 0 0.375263113682131 0.33313320718557798 0 0.37369311900952262 0.33836265764115908 0 0.3722735272100694 0.33425106354392481 0 0.375263113682131 0.33313320718557798 0 0.3722735272100694 0.33425106354392481 0 0.37245621682226088 0.32924087979990557 0 0.36985494237623989 0.33311962493185521 0 0.37245621682226088 0.32924087979990557 0 0.37577016905582622 0.32787937856968757 0 0.375263113682131 0.33313320718557798 0 0.37010024416019238 0.33739894816112592 0 0.3722735272100694 0.33425106354392481 0 0.36985494237623989 0.33311962493185521 0 0.36770298492566261 0.33637877995368609 0 0.37010024416019238 0.33739894816112592 0 0.36985494237623989 0.33311962493185521 0 0.36128237795215928 0.33126347269122047 0 0.36124897776362869 0.33531944770056321 0 0.36411885078159001 0.32644375487552563 0 0.36150631125237548 0.32912422255951068 0 0.36128237795215928 0.33126347269122047 0 0.36411885078159001 0.32644375487552563 0 0.36150631125237548 0.32912422255951068 0 0.35994194411877378 0.32646204206530971 0 0.35835984371964152 0.33045614064968309 0 0.36128237795215928 0.33126347269122047 0 0.35899626180536931 0.33430086833413269 0 0.35835984371964152 0.33045614064968309 0 0.36150631125237548 0.32912422255951068 0 0.36128237795215928 0.33126347269122047 0 0.35835984371964152 0.33045614064968309 0 0.36128237795215928 0.33126347269122047 0 0.36124897776362869 0.33531944770056321 0 0.35899626180536931 0.33430086833413269 0 0.36124897776362869 0.33531944770056321 0 0.36001134864139028 0.33778823672905661 0 0.35899626180536931 0.33430086833413269 0 0.36124897776362869 0.33531944770056321 0 0.36001134864139028 0.33778823672905661 0 0.36266452242448938 0.34229393694352239 0 0.36001134864139028 0.33778823672905661 0 0.36266452242448938 0.34229393694352239 0 0.3582225103283424 0.33883319475427592 0 0.36266452242448938 0.34229393694352239 0 0.36587418437400321 0.34278907974668538 0 0.36708394454210669 0.33994961910346172 0 0.36770298492566261 0.33637877995368609 0 0.36266452242448938 0.34229393694352239 0 0.36708394454210669 0.33994961910346172 0 0.36266452242448938 0.34229393694352239 0 0.37368960646642962 0.31911015363466272 0 0.37014896644917339 0.316543878568457 0 0.37014896644917339 0.316543878568457 0 0.36604953812300478 0.31497278055865852 0 0.36630954626425261 0.31087512405144152 0 0.37499251130121058 0.31593455150060828 0 0.37014896644917339 0.316543878568457 0 0.37695808612291098 0.31120865645681561 0 0.37499251130121058 0.31593455150060828 0 0.37368960646642962 0.31911015363466272 0 0.37014896644917339 0.316543878568457 0 0.37014896644917339 0.316543878568457 0 0.36646072203027302 0.32009490443849897 0 0.3659238024377004 0.31770243144255911 0 0.37014896644917339 0.316543878568457 0 0.3659238024377004 0.31770243144255911 0 0.36604953812300478 0.31497278055865852 0 0.37245621682226088 0.32924087979990557 0 0.36985494237623989 0.33311962493185521 0 0.37368960646642962 0.31911015363466272 0 0.37245621682226088 0.32924087979990557 0 0.37368960646642962 0.31911015363466272 0 0.37506056064123422 0.32471797871916308 0 0.37245621682226088 0.32924087979990557 0 0.37577016905582622 0.32787937856968757 0 0.37506056064123422 0.32471797871916308 0 0.37014896644917339 0.316543878568457 0 0.36411885078159001 0.32644375487552563 0 0.36646072203027302 0.32009490443849897 0 0.36411885078159001 0.32644375487552563 0 0.35994194411877378 0.32646204206530971 0 0.36132202517978662 0.32303080634539388 0 0.36150631125237548 0.32912422255951068 0 0.36411885078159001 0.32644375487552563 0 0.35994194411877378 0.32646204206530971 0 0.36132202517978662 0.32303080634539388 0 0.36348301458407639 0.32047903077872458 0 0.35962675317161102 0.31893041505789499 0 0.36411885078159001 0.32644375487552563 0 0.36132202517978662 0.32303080634539388 0 0.36348301458407639 0.32047903077872458 0 0.36411885078159001 0.32644375487552563 0 0.36348301458407639 0.32047903077872458 0 0.36646072203027302 0.32009490443849897 0 0.36348301458407639 0.32047903077872458 0 0.36646072203027302 0.32009490443849897 0 0.3659238024377004 0.31770243144255911 0 0.3659238024377004 0.31770243144255911 0 0.36344593390349789 0.31667187251247519 0 0.36604953812300478 0.31497278055865852 0 0.36348301458407639 0.32047903077872458 0 0.3659238024377004 0.31770243144255911 0 0.36344593390349789 0.31667187251247519 0 0.36348301458407639 0.32047903077872458 0 0.36344593390349789 0.31667187251247519 0 0.35962675317161102 0.31893041505789499 0 0.36344593390349789 0.31667187251247519 0 0.35962675317161102 0.31893041505789499 0 0.35878641637012221 0.31305233625990619 0 0.36344593390349789 0.31667187251247519 0 0.36331333565659901 0.31283202127524651 0 0.35878641637012221 0.31305233625990619 0 0.36331333565659901 0.31283202127524651 0 0.36604953812300478 0.31497278055865852 0 0.36630954626425261 0.31087512405144152 0 0.36344593390349789 0.31667187251247519 0 0.36331333565659901 0.31283202127524651 0 0.36604953812300478 0.31497278055865852 0 0.35878641637012221 0.31305233625990619 0 0.35512602374864599 0.31718053618965047 0 0.35090510471213721 0.31152713165908658 0 0.35512602374864599 0.31718053618965047 0 0.34983435518440159 0.31943204998396652 0 0.35090510471213721 0.31152713165908658 0 0.35962675317161102 0.31893041505789499 0 0.35878641637012221 0.31305233625990619 0 0.35512602374864599 0.31718053618965047 0 0.35962675317161102 0.31893041505789499 0 0.35512602374864599 0.31718053618965047 0 0.35673455485560862 0.32229528426682241 0 0.35512602374864599 0.31718053618965047 0 0.35673455485560862 0.32229528426682241 0 0.34983435518440159 0.31943204998396652 0 0.35673455485560862 0.32229528426682241 0 0.35060422568955008 0.32587015674736058 0 0.34983435518440159 0.31943204998396652 0 0.35994194411877378 0.32646204206530971 0 0.36132202517978662 0.32303080634539388 0 0.35673455485560862 0.32229528426682241 0 0.36132202517978662 0.32303080634539388 0 0.35962675317161102 0.31893041505789499 0 0.35673455485560862 0.32229528426682241 0 0.35994194411877378 0.32646204206530971 0 0.35673455485560862 0.32229528426682241 0 0.35627338036128769 0.32705738058013539 0 0.35994194411877378 0.32646204206530971 0 0.35627338036128769 0.32705738058013539 0 0.35835984371964152 0.33045614064968309 0 0.35627338036128769 0.32705738058013539 0 0.35060422568955008 0.32587015674736058 0 0.35398721241228231 0.33095327650953749 0 0.35673455485560862 0.32229528426682241 0 0.35627338036128769 0.32705738058013539 0 0.35060422568955008 0.32587015674736058 0 0.35060422568955008 0.32587015674736058 0 0.34514221143703899 0.32919058107390442 0 0.34284551192874652 0.32364904383841531 0 0.35060422568955008 0.32587015674736058 0 0.34983435518440159 0.31943204998396652 0 0.34284551192874652 0.32364904383841531 0 0.34983435518440159 0.31943204998396652 0 0.34480088275632298 0.31606258733578418 0 0.35090510471213721 0.31152713165908658 0 0.34983435518440159 0.31943204998396652 0 0.34480088275632298 0.31606258733578418 0 0.34284551192874652 0.32364904383841531 0 0.35146565257524442 0.34420791440797271 0 0.36266452242448938 0.34229393694352239 0 0.35562031764263757 0.34031424282986023 0 0.35302683950207769 0.33602013814058929 0 0.35562031764263757 0.34031424282986023 0 0.35672120529774148 0.33684362974708199 0 0.35202203774268331 0.33965573310897551 0 0.35302683950207769 0.33602013814058929 0 0.35562031764263757 0.34031424282986023 0 0.35146565257524442 0.34420791440797271 0 0.35202203774268331 0.33965573310897551 0 0.35562031764263757 0.34031424282986023 0 0.36266452242448938 0.34229393694352239 0 0.35562031764263757 0.34031424282986023 0 0.3582225103283424 0.33883319475427592 0 0.35562031764263757 0.34031424282986023 0 0.3582225103283424 0.33883319475427592 0 0.35672120529774148 0.33684362974708199 0 0.36001134864139028 0.33778823672905661 0 0.3582225103283424 0.33883319475427592 0 0.35672120529774148 0.33684362974708199 0 0.36001134864139028 0.33778823672905661 0 0.35672120529774148 0.33684362974708199 0 0.35899626180536931 0.33430086833413269 0 0.35899626180536931 0.33430086833413269 0 0.35641212776078268 0.33381706902087938 0 0.35835984371964152 0.33045614064968309 0 0.35672120529774148 0.33684362974708199 0 0.35899626180536931 0.33430086833413269 0 0.35641212776078268 0.33381706902087938 0 0.35627338036128769 0.32705738058013539 0 0.35835984371964152 0.33045614064968309 0 0.35398721241228231 0.33095327650953749 0 0.35641212776078268 0.33381706902087938 0 0.35835984371964152 0.33045614064968309 0 0.35398721241228231 0.33095327650953749 0 0.35302683950207769 0.33602013814058929 0 0.35641212776078268 0.33381706902087938 0 0.35398721241228231 0.33095327650953749 0 0.35302683950207769 0.33602013814058929 0 0.35398721241228231 0.33095327650953749 0 0.34924685744035389 0.33249877391857741 0 0.35302683950207769 0.33602013814058929 0 0.35672120529774148 0.33684362974708199 0 0.35641212776078268 0.33381706902087938 0 0.35302683950207769 0.33602013814058929 0 0.34924685744035389 0.33249877391857741 0 0.34788509595764172 0.33882226599831611 0 0.35060422568955008 0.32587015674736058 0 0.34924685744035389 0.33249877391857741 0 0.34514221143703899 0.32919058107390442 0 0.35060422568955008 0.32587015674736058 0 0.35398721241228231 0.33095327650953749 0 0.34924685744035389 0.33249877391857741 0 0.34924685744035389 0.33249877391857741 0 0.34514221143703899 0.32919058107390442 0 0.34474234507332802 0.33433591834825649 0 0.34924685744035389 0.33249877391857741 0 0.34474234507332802 0.33433591834825649 0 0.34788509595764172 0.33882226599831611 0 0.34474234507332802 0.33433591834825649 0 0.34788509595764172 0.33882226599831611 0 0.34057592936449049 0.33809639891542392 0 0.35146565257524442 0.34420791440797271 0 0.34788509595764172 0.33882226599831611 0 0.34269927497721508 0.34493512072036142 0 0.35202203774268331 0.33965573310897551 0 0.35302683950207769 0.33602013814058929 0 0.34788509595764172 0.33882226599831611 0 0.35146565257524442 0.34420791440797271 0 0.35202203774268331 0.33965573310897551 0 0.34788509595764172 0.33882226599831611 0 0.34057592936449049 0.33809639891542392 0 0.33318390910610529 0.34358855052096038 0 0.34269927497721508 0.34493512072036142 0 0.34788509595764172 0.33882226599831611 0 0.34057592936449049 0.33809639891542392 0 0.34269927497721508 0.34493512072036142 0 0.34474234507332802 0.33433591834825649 0 0.34057592936449049 0.33809639891542392 0 0.33946855119551672 0.33096103471374028 0 0.34514221143703899 0.32919058107390442 0 0.34474234507332802 0.33433591834825649 0 0.33946855119551672 0.33096103471374028 0 0.34057592936449049 0.33809639891542392 0 0.33946855119551672 0.33096103471374028 0 0.33283637980140879 0.33469331179832718 0 0.33946855119551672 0.33096103471374028 0 0.33283637980140879 0.33469331179832718 0 0.33464693517381472 0.32630086361949601 0 0.33283637980140879 0.33469331179832718 0 0.33464693517381472 0.32630086361949601 0 0.3250964778074269 0.32978689602061512 0 0.34057592936449049 0.33809639891542392 0 0.33283637980140879 0.33469331179832718 0 0.33318390910610529 0.34358855052096038 0 0.33283637980140879 0.33469331179832718 0 0.33318390910610529 0.34358855052096038 0 0.32611481079287369 0.33974729713420021 0 0.34480088275632298 0.31606258733578418 0 0.33769186663180051 0.31814262317354819 0 0.34192449374142192 0.30753297203612773 0 0.34480088275632298 0.31606258733578418 0 0.33769186663180051 0.31814262317354819 0 0.34284551192874652 0.32364904383841531 0 0.33946855119551672 0.33096103471374028 0 0.34284551192874652 0.32364904383841531 0 0.33464693517381472 0.32630086361949601 0 0.33769186663180051 0.31814262317354819 0 0.34284551192874652 0.32364904383841531 0 0.33464693517381472 0.32630086361949601 0 0.34514221143703899 0.32919058107390442 0 0.33946855119551672 0.33096103471374028 0 0.34284551192874652 0.32364904383841531 0 0.33769186663180051 0.31814262317354819 0 0.33464693517381472 0.32630086361949601 0 0.32994282367798861 0.32057227217232959 0 0.33464693517381472 0.32630086361949601 0 0.32994282367798861 0.32057227217232959 0 0.3250964778074269 0.32978689602061512 0 0.33769186663180051 0.31814262317354819 0 0.32994282367798861 0.32057227217232959 0 0.32867162081685902 0.31028670060733149 0 0.32176892132522322 0.32006025561378759 0 0.31440941436971798 0.31242774502049953 0 0.32867162081685902 0.31028670060733149 0 0.32994282367798861 0.32057227217232959 0 0.32176892132522322 0.32006025561378759 0 0.32867162081685902 0.31028670060733149 0 0.32176892132522322 0.32006025561378759 0 0.31484893044661 0.32778579360563193 0 0.3250964778074269 0.32978689602061512 0 0.32994282367798861 0.32057227217232959 0 0.32176892132522322 0.32006025561378759 0 0.3250964778074269 0.32978689602061512 0 0.32176892132522322 0.32006025561378759 0 0.31484893044661 0.32778579360563193 0 0.31440941436971798 0.31242774502049953 0 0.32611481079287369 0.33974729713420021 0 0.3250964778074269 0.32978689602061512 0 0.31767498628904178 0.33862919533695518 0 0.32611481079287369 0.33974729713420021 0 0.31767498628904178 0.33862919533695518 0 0.32336406622478242 0.34852958887145069 0 0.33283637980140879 0.33469331179832718 0 0.32611481079287369 0.33974729713420021 0 0.3250964778074269 0.32978689602061512 0 0.31484893044661 0.32778579360563193 0 0.31767498628904178 0.33862919533695518 0 0.30654896287530792 0.34033791233229299 0 0.31484893044661 0.32778579360563193 0 0.3250964778074269 0.32978689602061512 0 0.31767498628904178 0.33862919533695518 0 0.31767498628904178 0.33862919533695518 0 0.31315570067328902 0.3464643712977632 0 0.32336406622478242 0.34852958887145069 0 0.31315570067328902 0.3464643712977632 0 0.31355388928080707 0.35546570062290778 0 0.32336406622478242 0.34852958887145069 0 0.32336406622478242 0.34852958887145069 0 0.33442175170730049 0.35218858713626039 0 0.32437013183195901 0.3602157298059272 0 0.31355388928080707 0.35546570062290778 0 0.32336406622478242 0.34852958887145069 0 0.32437013183195901 0.3602157298059272 0 0.33318390910610529 0.34358855052096038 0 0.32611481079287369 0.33974729713420021 0 0.32336406622478242 0.34852958887145069 0 0.35030182712711511 0.35130594720886232 0 0.33442175170730049 0.35218858713626039 0 0.33389487655237682 0.3658352592629312 0 0.33318390910610529 0.34358855052096038 0 0.32336406622478242 0.34852958887145069 0 0.33442175170730049 0.35218858713626039 0 0.35030182712711511 0.35130594720886232 0 0.33442175170730049 0.35218858713626039 0 0.34269927497721508 0.34493512072036142 0 0.33318390910610529 0.34358855052096038 0 0.33442175170730049 0.35218858713626039 0 0.34269927497721508 0.34493512072036142 0 0.34270248502322931 0.38427053755298168 0 0.35268350372385993 0.36328223724825232 0 0.33389487655237682 0.3658352592629312 0 0.33442175170730049 0.35218858713626039 0 0.33389487655237682 0.3658352592629312 0 0.32437013183195901 0.3602157298059272 0 0.31661607539452802 0.37905951313608538 0 0.33389487655237682 0.3658352592629312 0 0.32437013183195901 0.3602157298059272 0 0.31661607539452802 0.37905951313608538 0 0.31355388928080707 0.35546570062290778 0 0.32437013183195901 0.3602157298059272 0 0.31661607539452802 0.37905951313608538 0 0.31355388928080707 0.35546570062290778 0 0.31661607539452802 0.37905951313608538 0 0.31355388928080707 0.35546570062290778 0 0.30541822204374358 0.36584678197342768 0 0.2987730087010142 0.37934426936791982 0 0.31661607539452802 0.37905951313608538 0 0.30541822204374358 0.36584678197342768 0 0.30541822204374358 0.36584678197342768 0 0.30393955747459928 0.35096595789874813 0 0.29215410451095353 0.36543341035917859 0 0.2987730087010142 0.37934426936791982 0 0.30541822204374358 0.36584678197342768 0 0.29215410451095353 0.36543341035917859 0 0.31315570067328902 0.3464643712977632 0 0.30393955747459928 0.35096595789874813 0 0.30654896287530792 0.34033791233229299 0 0.31315570067328902 0.3464643712977632 0 0.31355388928080707 0.35546570062290778 0 0.30393955747459928 0.35096595789874813 0 0.31355388928080707 0.35546570062290778 0 0.30541822204374358 0.36584678197342768 0 0.30393955747459928 0.35096595789874813 0 0.30393955747459928 0.35096595789874813 0 0.29215410451095353 0.36543341035917859 0 0.30393955747459928 0.35096595789874813 0 0.29720735802849829 0.34424744790442102 0 0.29027641861796738 0.35164951467646482 0 0.30393955747459928 0.35096595789874813 0 0.29720735802849829 0.34424744790442102 0 0.30654896287530792 0.34033791233229299 0 0.29720735802849829 0.34424744790442102 0 0.29027641861796738 0.35164951467646482 0 0.28998304713239348 0.34105976447064218 0 0.30393955747459928 0.35096595789874813 0 0.29027641861796738 0.35164951467646482 0 0.29215410451095353 0.36543341035917859 0 0.29027641861796738 0.35164951467646482 0 0.29215410451095353 0.36543341035917859 0 0.27920137084664282 0.3573603676334649 0 0.29027641861796738 0.35164951467646482 0 0.27920137084664282 0.3573603676334649 0 0.28068773357058369 0.34198453751068081 0 0.29027641861796738 0.35164951467646482 0 0.28068773357058369 0.34198453751068081 0 0.28998304713239348 0.34105976447064218 0 0.28036865154730628 0.37990086281960789 0 0.29215410451095353 0.36543341035917859 0 0.27920137084664282 0.3573603676334649 0 0.28036865154730628 0.37990086281960789 0 0.2987730087010142 0.37934426936791982 0 0.29215410451095353 0.36543341035917859 0 0.28036865154730628 0.37990086281960789 0 0.29215410451095353 0.36543341035917859 0 0.28036865154730628 0.37990086281960789 0 0.27920137084664282 0.3573603676334649 0 0.26173146881309822 0.35734024057335978 0 0.28036865154730628 0.37990086281960789 0 0.26173146881309822 0.35734024057335978 0 0.28036865154730628 0.37990086281960789 0 0.26173146881309822 0.35734024057335978 0 0.2641967246118288 0.36596915937278562 0 0.27920137084664282 0.3573603676334649 0 0.27030047393074008 0.3474963096498429 0 0.26173146881309822 0.35734024057335978 0 0.27920137084664282 0.3573603676334649 0 0.27030047393074008 0.3474963096498429 0 0.28068773357058369 0.34198453751068081 0 0.2430942860788903 0.33477961832711151 0 0.26173146881309822 0.35734024057335978 0 0.27030047393074008 0.3474963096498429 0 0.26173146881309822 0.35734024057335978 0 0.26240083601839698 0.33727672217147331 0 0.23816107804029091 0.35120524212074949 0 0.26173146881309822 0.35734024057335978 0 0.2641967246118288 0.36596915937278562 0 0.23816107804029091 0.35120524212074949 0 0.2641967246118288 0.36596915937278562 0 0.2492643002430574 0.365916522193315 0 0.24311907173897271 0.36013203008567057 0 0.2641967246118288 0.36596915937278562 0 0.2492643002430574 0.365916522193315 0 0.25710864090743918 0.37145542319719338 0 0.2641967246118288 0.36596915937278562 0 0.2492643002430574 0.365916522193315 0 0.25383912625151372 0.37755129754335942 0 0.25710864090743918 0.37145542319719338 0 0.26350653962281989 0.38010735630523079 0 0.25710864090743918 0.37145542319719338 0 0.2641967246118288 0.36596915937278562 0 0.2484846271056145 0.31037308609574782 0 0.25508783524565293 0.32209220201309929 0 0.26836904206483531 0.31075971332937607 0 0.25508783524565293 0.32209220201309929 0 0.26240083601839698 0.33727672217147331 0 0.26677092012209491 0.32204036282613252 0 0.25508783524565293 0.32209220201309929 0 0.26677092012209491 0.32204036282613252 0 0.26836904206483531 0.31075971332937607 0 0.2430942860788903 0.33477961832711151 0 0.25508783524565293 0.32209220201309929 0 0.26240083601839698 0.33727672217147331 0 0.2430942860788903 0.33477961832711151 0 0.26173146881309822 0.35734024057335978 0 0.26240083601839698 0.33727672217147331 0 0.26240083601839698 0.33727672217147331 0 0.27184092000699639 0.33891315949469752 0 0.27388917516664008 0.32964775149744319 0 0.26240083601839698 0.33727672217147331 0 0.27388917516664008 0.32964775149744319 0 0.26677092012209491 0.32204036282613252 0 0.27030047393074008 0.3474963096498429 0 0.26240083601839698 0.33727672217147331 0 0.27184092000699639 0.33891315949469752 0 0.27030047393074008 0.3474963096498429 0 0.27184092000699639 0.33891315949469752 0 0.28068773357058369 0.34198453751068081 0 0.27184092000699639 0.33891315949469752 0 0.28068773357058369 0.34198453751068081 0 0.27388917516664008 0.32964775149744319 0 0.28068773357058369 0.34198453751068081 0 0.27388917516664008 0.32964775149744319 0 0.28570907475377572 0.33188311037056872 0 0.27388917516664008 0.32964775149744319 0 0.26677092012209491 0.32204036282613252 0 0.28178409254690689 0.31684790712797722 0 0.27388917516664008 0.32964775149744319 0 0.28178409254690689 0.31684790712797722 0 0.28570907475377572 0.33188311037056872 0 0.26677092012209491 0.32204036282613252 0 0.28178409254690689 0.31684790712797722 0 0.26836904206483531 0.31075971332937607 0 0.28178409254690689 0.31684790712797722 0 0.29262159606390598 0.32453461147271162 0 0.29660332646403359 0.30785121346786842 0 0.28178409254690689 0.31684790712797722 0 0.29262159606390598 0.32453461147271162 0 0.28570907475377572 0.33188311037056872 0 0.28068773357058369 0.34198453751068081 0 0.28570907475377572 0.33188311037056872 0 0.28998304713239348 0.34105976447064218 0 0.29262159606390598 0.32453461147271162 0 0.28570907475377572 0.33188311037056872 0 0.29603465069114282 0.33553421189107618 0 0.29720735802849829 0.34424744790442102 0 0.29603465069114282 0.33553421189107618 0 0.28998304713239348 0.34105976447064218 0 0.28570907475377572 0.33188311037056872 0 0.29603465069114282 0.33553421189107618 0 0.28998304713239348 0.34105976447064218 0 0.29720735802849829 0.34424744790442102 0 0.29603465069114282 0.33553421189107618 0 0.30654896287530792 0.34033791233229299 0 0.29603465069114282 0.33553421189107618 0 0.30654896287530792 0.34033791233229299 0 0.30445412428221041 0.32558903425911379 0 0.29262159606390598 0.32453461147271162 0 0.29603465069114282 0.33553421189107618 0 0.30445412428221041 0.32558903425911379 0 0.31484893044661 0.32778579360563193 0 0.30654896287530792 0.34033791233229299 0 0.30445412428221041 0.32558903425911379 0 0.31767498628904178 0.33862919533695518 0 0.31315570067328902 0.3464643712977632 0 0.30654896287530792 0.34033791233229299 0 0.30445412428221041 0.32558903425911379 0 0.29660332646403359 0.30785121346786842 0 0.31440941436971798 0.31242774502049953 0 0.29262159606390598 0.32453461147271162 0 0.30445412428221041 0.32558903425911379 0 0.29660332646403359 0.30785121346786842 0 0.31484893044661 0.32778579360563193 0 0.30445412428221041 0.32558903425911379 0 0.31440941436971798 0.31242774502049953 0 0.30822946874662033 0.29998271616579031 0 0.29660332646403359 0.30785121346786842 0 0.31440941436971798 0.31242774502049953 0 0.30822946874662033 0.29998271616579031 0 0.30055108247350393 0.28416894361273021 0 0.29660332646403359 0.30785121346786842 0 0.30822946874662033 0.29998271616579031 0 0.30055108247350393 0.28416894361273021 0 0.32109763140443309 0.29547610107375327 0 0.30055108247350393 0.28416894361273021 0 0.29660332646403359 0.30785121346786842 0 0.27430616976337108 0.29100628718303567 0 0.30055108247350393 0.28416894361273021 0 0.27430616976337108 0.29100628718303567 0 0.28443506245096839 0.27205148705280008 0 0.30055108247350393 0.28416894361273021 0 0.27430616976337108 0.29100628718303567 0 0.28178409254690689 0.31684790712797722 0 0.29660332646403359 0.30785121346786842 0 0.27430616976337108 0.29100628718303567 0 0.28178409254690689 0.31684790712797722 0 0.26836904206483531 0.31075971332937607 0 0.27430616976337108 0.29100628718303567 0 0.28178409254690689 0.31684790712797722 0 0.27430616976337108 0.29100628718303567 0 0.27430616976337108 0.29100628718303567 0 0.25121587924780342 0.29702178630611242 0 0.27430616976337108 0.29100628718303567 0 0.25953152444998728 0.28294166139542631 0 0.25121587924780342 0.29702178630611242 0 0.26836904206483531 0.31075971332937607 0 0.27430616976337108 0.29100628718303567 0 0.25121587924780342 0.29702178630611242 0 0.26836904206483531 0.31075971332937607 0 0.25121587924780342 0.29702178630611242 0 0.2484846271056145 0.31037308609574782 0 0.26836904206483531 0.31075971332937607 0 0.25121587924780342 0.29702178630611242 0 0.25102838231212438 0.26850893423506528 0 0.26790857605335527 0.26889798384773289 0 0.26221447651104962 0.2479993693513689 0 0.26790857605335527 0.26889798384773289 0 0.26221447651104962 0.2479993693513689 0 0.25953152444998728 0.28294166139542631 0 0.25102838231212438 0.26850893423506528 0 0.26790857605335527 0.26889798384773289 0 0.27430616976337108 0.29100628718303567 0 0.26790857605335527 0.26889798384773289 0 0.28443506245096839 0.27205148705280008 0 0.27430616976337108 0.29100628718303567 0 0.25953152444998728 0.28294166139542631 0 0.26790857605335527 0.26889798384773289 0 0.27430616976337108 0.29100628718303567 0 0.26790857605335527 0.26889798384773289 0 0.26790857605335527 0.26889798384773289 0 0.28119448123381058 0.25405304303149878 0 0.26221447651104962 0.2479993693513689 0 0.26790857605335527 0.26889798384773289 0 0.28119448123381058 0.25405304303149878 0 0.28443506245096839 0.27205148705280008 0 0.28119448123381058 0.25405304303149878 0 0.28443506245096839 0.27205148705280008 0 0.2982150027308012 0.26213117758900317 0 0.28119448123381058 0.25405304303149878 0 0.2982150027308012 0.26213117758900317 0 0.30328699804120918 0.24394477185791469 0 0.30055108247350393 0.28416894361273021 0 0.28443506245096839 0.27205148705280008 0 0.2982150027308012 0.26213117758900317 0 0.30055108247350393 0.28416894361273021 0 0.2982150027308012 0.26213117758900317 0 0.31879452400631653 0.25919465198291952 0 0.2982150027308012 0.26213117758900317 0 0.31879452400631653 0.25919465198291952 0 0.30328699804120918 0.24394477185791469 0 0.31879452400631653 0.25919465198291952 0 0.33092809789354199 0.24744869965648561 0 0.31845456220733243 0.24449663650262579 0 0.31879452400631653 0.25919465198291952 0 0.33565265393095528 0.25675142138279861 0 0.33982225619875311 0.26765994074234428 0 0.31879452400631653 0.25919465198291952 0 0.33982225619875311 0.26765994074234428 0 0.31879452400631653 0.25919465198291952 0 0.33565265393095528 0.25675142138279861 0 0.33092809789354199 0.24744869965648561 0 0.33565265393095528 0.25675142138279861 0 0.33982225619875311 0.26765994074234428 0 0.34536281311255052 0.25941060478944128 0 0.33565265393095528 0.25675142138279861 0 0.3433555784436142 0.25004320974280247 0 0.33092809789354199 0.24744869965648561 0 0.33565265393095528 0.25675142138279861 0 0.3433555784436142 0.25004320974280247 0 0.34536281311255052 0.25941060478944128 0 0.31879452400631653 0.25919465198291952 0 0.33982225619875311 0.26765994074234428 0 0.32679599518363661 0.27733160004242491 0 0.33982225619875311 0.26765994074234428 0 0.32679599518363661 0.27733160004242491 0 0.34056182851336592 0.28206143899133118 0 0.30055108247350393 0.28416894361273021 0 0.32679599518363661 0.27733160004242491 0 0.30055108247350393 0.28416894361273021 0 0.31879452400631653 0.25919465198291952 0 0.32679599518363661 0.27733160004242491 0 0.32679599518363661 0.27733160004242491 0 0.32109763140443309 0.29547610107375327 0 0.33248404658197278 0.28876668272462419 0 0.30055108247350393 0.28416894361273021 0 0.32679599518363661 0.27733160004242491 0 0.32109763140443309 0.29547610107375327 0 0.32109763140443309 0.29547610107375327 0 0.31440941436971798 0.31242774502049953 0 0.32867162081685902 0.31028670060733149 0 0.30822946874662033 0.29998271616579031 0 0.32109763140443309 0.29547610107375327 0 0.31440941436971798 0.31242774502049953 0 0.32867162081685902 0.31028670060733149 0 0.33472549883669622 0.29791121211074773 0 0.34192449374142192 0.30753297203612773 0 0.32109763140443309 0.29547610107375327 0 0.32867162081685902 0.31028670060733149 0 0.33472549883669622 0.29791121211074773 0 0.33472549883669622 0.29791121211074773 0 0.34281583705185747 0.29966479619329672 0 0.34192449374142192 0.30753297203612773 0 0.33769186663180051 0.31814262317354819 0 0.32867162081685902 0.31028670060733149 0 0.34192449374142192 0.30753297203612773 0 0.32679599518363661 0.27733160004242491 0 0.33248404658197278 0.28876668272462419 0 0.34056182851336592 0.28206143899133118 0 0.32109763140443309 0.29547610107375327 0 0.33472549883669622 0.29791121211074773 0 0.33248404658197278 0.28876668272462419 0 0.33472549883669622 0.29791121211074773 0 0.33248404658197278 0.28876668272462419 0 0.34417327957572558 0.29277050597204329 0 0.33472549883669622 0.29791121211074773 0 0.34281583705185747 0.29966479619329672 0 0.34417327957572558 0.29277050597204329 0 0.33248404658197278 0.28876668272462419 0 0.34056182851336592 0.28206143899133118 0 0.34417327957572558 0.29277050597204329 0 0.34056182851336592 0.28206143899133118 0 0.34979868535227071 0.28728326233729501 0 0.34417327957572558 0.29277050597204329 0 0.34056182851336592 0.28206143899133118 0 0.34979868535227071 0.28728326233729501 0 0.35183199075491411 0.27966461044832719 0 0.34417327957572558 0.29277050597204329 0 0.35334053836337709 0.29410458558147129 0 0.34972900846361488 0.30172704795696642 0 0.34979868535227071 0.28728326233729501 0 0.34417327957572558 0.29277050597204329 0 0.35334053836337709 0.29410458558147129 0 0.34979868535227071 0.28728326233729501 0 0.35334053836337709 0.29410458558147129 0 0.35722235408413222 0.28831366276426512 0 0.35334053836337709 0.29410458558147129 0 0.35826071325737319 0.3003277240158499 0 0.36091512844171192 0.29433704443458902 0 0.35334053836337709 0.29410458558147129 0 0.35722235408413222 0.28831366276426512 0 0.36091512844171192 0.29433704443458902 0 0.34979868535227071 0.28728326233729501 0 0.35722235408413222 0.28831366276426512 0 0.35183199075491411 0.27966461044832719 0 0.35722235408413222 0.28831366276426512 0 0.36152496379752869 0.28359539021876212 0 0.35183199075491411 0.27966461044832719 0 0.34480088275632298 0.31606258733578418 0 0.34192449374142192 0.30753297203612773 0 0.35090510471213721 0.31152713165908658 0 0.34192449374142192 0.30753297203612773 0 0.35090510471213721 0.31152713165908658 0 0.34972900846361488 0.30172704795696642 0 0.34281583705185747 0.29966479619329672 0 0.34417327957572558 0.29277050597204329 0 0.34972900846361488 0.30172704795696642 0 0.34281583705185747 0.29966479619329672 0 0.34192449374142192 0.30753297203612773 0 0.34972900846361488 0.30172704795696642 0 0.34972900846361488 0.30172704795696642 0 0.35826071325737319 0.3003277240158499 0 0.35721607615581658 0.30656573559573969 0 0.35334053836337709 0.29410458558147129 0 0.34972900846361488 0.30172704795696642 0 0.35826071325737319 0.3003277240158499 0 0.35090510471213721 0.31152713165908658 0 0.34972900846361488 0.30172704795696642 0 0.35721607615581658 0.30656573559573969 0 0.35878641637012221 0.31305233625990619 0 0.35090510471213721 0.31152713165908658 0 0.35721607615581658 0.30656573559573969 0 0.37014896644917339 0.316543878568457 0 0.37763341047385651 0.29079382019339128 0 0.37014896644917339 0.316543878568457 0 0.37108481648816682 0.30013899891886681 0 0.36845835323010317 0.30596496181531441 0 0.37014896644917339 0.316543878568457 0 0.37763341047385651 0.29079382019339128 0 0.37695808612291098 0.31120865645681561 0 0.37014896644917339 0.316543878568457 0 0.37108481648816682 0.30013899891886681 0 0.37763341047385651 0.29079382019339128 0 0.36630954626425261 0.31087512405144152 0 0.36228941999803421 0.30896529616435242 0 0.36543096483439103 0.3064802843427199 0 0.36331333565659901 0.31283202127524651 0 0.36630954626425261 0.31087512405144152 0 0.36228941999803421 0.30896529616435242 0 0.36331333565659901 0.31283202127524651 0 0.35878641637012221 0.31305233625990619 0 0.36228941999803421 0.30896529616435242 0 0.35878641637012221 0.31305233625990619 0 0.35721607615581658 0.30656573559573969 0 0.36228941999803421 0.30896529616435242 0 0.35721607615581658 0.30656573559573969 0 0.36228941999803421 0.30896529616435242 0 0.36268018070702418 0.30398627546106088 0 0.36630954626425261 0.31087512405144152 0 0.36543096483439103 0.3064802843427199 0 0.36845835323010317 0.30596496181531441 0 0.36228941999803421 0.30896529616435242 0 0.36543096483439103 0.3064802843427199 0 0.36268018070702418 0.30398627546106088 0 0.36543096483439103 0.3064802843427199 0 0.36607900901995372 0.30349396637540749 0 0.36845835323010317 0.30596496181531441 0 0.36607900901995372 0.30349396637540749 0 0.36268018070702418 0.30398627546106088 0 0.36558719123160882 0.29969948119116269 0 0.36607900901995372 0.30349396637540749 0 0.36558719123160882 0.29969948119116269 0 0.36823835509664099 0.30133882906677939 0 0.36543096483439103 0.3064802843427199 0 0.36607900901995372 0.30349396637540749 0 0.36268018070702418 0.30398627546106088 0 0.35826071325737319 0.3003277240158499 0 0.35721607615581658 0.30656573559573969 0 0.36268018070702418 0.30398627546106088 0 0.35826071325737319 0.3003277240158499 0 0.36268018070702418 0.30398627546106088 0 0.36558719123160882 0.29969948119116269 0 0.35826071325737319 0.3003277240158499 0 0.36558719123160882 0.29969948119116269 0 0.36091512844171192 0.29433704443458902 0 0.36871223371641282 0.29817542324200702 0 0.37108481648816682 0.30013899891886681 0 0.37014933742706652 0.29575476169949788 0 0.36558719123160882 0.29969948119116269 0 0.36871223371641282 0.29817542324200702 0 0.36734652779664789 0.29411680932906442 0 0.36558719123160882 0.29969948119116269 0 0.36871223371641282 0.29817542324200702 0 0.36823835509664099 0.30133882906677939 0 0.36871223371641282 0.29817542324200702 0 0.37108481648816682 0.30013899891886681 0 0.36823835509664099 0.30133882906677939 0 0.37108481648816682 0.30013899891886681 0 0.36823835509664099 0.30133882906677939 0 0.36845835323010317 0.30596496181531441 0 0.36607900901995372 0.30349396637540749 0 0.36823835509664099 0.30133882906677939 0 0.36845835323010317 0.30596496181531441 0 0.37014896644917339 0.316543878568457 0 0.36630954626425261 0.31087512405144152 0 0.36845835323010317 0.30596496181531441 0 0.36812955944888692 0.28419813691800921 0 0.36084998839118931 0.2761252295017701 0 0.37969218042614078 0.28371066929036243 0 0.36152496379752869 0.28359539021876212 0 0.36812955944888692 0.28419813691800921 0 0.36084998839118931 0.2761252295017701 0 0.36414496955441777 0.28941104037434479 0 0.36911771796651938 0.28986917351547109 0 0.36812955944888692 0.28419813691800921 0 0.36152496379752869 0.28359539021876212 0 0.36414496955441777 0.28941104037434479 0 0.36812955944888692 0.28419813691800921 0 0.35722235408413222 0.28831366276426512 0 0.36152496379752869 0.28359539021876212 0 0.36414496955441777 0.28941104037434479 0 0.35722235408413222 0.28831366276426512 0 0.36091512844171192 0.29433704443458902 0 0.36414496955441777 0.28941104037434479 0 0.36558719123160882 0.29969948119116269 0 0.36091512844171192 0.29433704443458902 0 0.36734652779664789 0.29411680932906442 0 0.36091512844171192 0.29433704443458902 0 0.36414496955441777 0.28941104037434479 0 0.36734652779664789 0.29411680932906442 0 0.36414496955441777 0.28941104037434479 0 0.36911771796651938 0.28986917351547109 0 0.36734652779664789 0.29411680932906442 0 0.36911771796651938 0.28986917351547109 0 0.37026464520563152 0.29279186409727531 0 0.36734652779664789 0.29411680932906442 0 0.37108481648816682 0.30013899891886681 0 0.37306860395079622 0.29341917559567809 0 0.37763341047385651 0.29079382019339128 0 0.36911771796651938 0.28986917351547109 0 0.37026464520563152 0.29279186409727531 0 0.37237913536365119 0.29056320862162688 0 0.36871223371641282 0.29817542324200702 0 0.36734652779664789 0.29411680932906442 0 0.37014933742706652 0.29575476169949788 0 0.37026464520563152 0.29279186409727531 0 0.36734652779664789 0.29411680932906442 0 0.37014933742706652 0.29575476169949788 0 0.37108481648816682 0.30013899891886681 0 0.37014933742706652 0.29575476169949788 0 0.37306860395079622 0.29341917559567809 0 0.37026464520563152 0.29279186409727531 0 0.37014933742706652 0.29575476169949788 0 0.37306860395079622 0.29341917559567809 0 0.36911771796651938 0.28986917351547109 0 0.37237913536365119 0.29056320862162688 0 0.37333201972158658 0.2878654242033048 0 0.37306860395079622 0.29341917559567809 0 0.37237913536365119 0.29056320862162688 0 0.37763341047385651 0.29079382019339128 0 0.37237913536365119 0.29056320862162688 0 0.37333201972158658 0.2878654242033048 0 0.37763341047385651 0.29079382019339128 0 0.37026464520563152 0.29279186409727531 0 0.37306860395079622 0.29341917559567809 0 0.37237913536365119 0.29056320862162688 0 0.37333201972158658 0.2878654242033048 0 0.36812955944888692 0.28419813691800921 0 0.37969218042614078 0.28371066929036243 0 0.36911771796651938 0.28986917351547109 0 0.37333201972158658 0.2878654242033048 0 0.36812955944888692 0.28419813691800921 0 0.36084998839118931 0.2761252295017701 0 0.37969218042614078 0.28371066929036243 0 0.36084998839118931 0.2761252295017701 0 0.37017340450925651 0.266060206293324 0 0.3539366042426153 0.26554047293381039 0 0.36084998839118931 0.2761252295017701 0 0.38460708535355081 0.26680105137204091 0 0.36084998839118931 0.2761252295017701 0 0.37017340450925651 0.266060206293324 0 0.38460708535355081 0.26680105137204091 0 0.3539366042426153 0.26554047293381039 0 0.38129994004966872 0.25577407136566988 0 0.37169426656027921 0.24972740256563611 0 0.37017340450925651 0.266060206293324 0 0.3539366042426153 0.26554047293381039 0 0.38129994004966872 0.25577407136566988 0 0.3539366042426153 0.26554047293381039 0 0.37169426656027921 0.24972740256563611 0 0.36205361842742478 0.24882498742118489 0 0.3539366042426153 0.26554047293381039 0 0.38129994004966872 0.25577407136566988 0 0.3539366042426153 0.26554047293381039 0 0.35175757775775729 0.2532797976346674 0 0.36205361842742478 0.24882498742118489 0 0.3433555784436142 0.25004320974280247 0 0.35175757775775729 0.2532797976346674 0 0.34536281311255052 0.25941060478944128 0 0.33982225619875311 0.26765994074234428 0 0.3539366042426153 0.26554047293381039 0 0.34536281311255052 0.25941060478944128 0 0.3539366042426153 0.26554047293381039 0 0.35175757775775729 0.2532797976346674 0 0.34536281311255052 0.25941060478944128 0 0.33982225619875311 0.26765994074234428 0 0.36084998839118931 0.2761252295017701 0 0.33982225619875311 0.26765994074234428 0 0.36084998839118931 0.2761252295017701 0 0.3539366042426153 0.26554047293381039 0 0.33982225619875311 0.26765994074234428 0 0.36084998839118931 0.2761252295017701 0 0.35183199075491411 0.27966461044832719 0 0.33982225619875311 0.26765994074234428 0 0.34056182851336592 0.28206143899133118 0 0.35183199075491411 0.27966461044832719 0 0.36152496379752869 0.28359539021876212 0 0.36084998839118931 0.2761252295017701 0 0.35183199075491411 0.27966461044832719 0 0.36084998839118931 0.2761252295017701 0 0.35183199075491411 0.27966461044832719 0 0.39945440726228237 0.27350419034528239 0 0.38460708535355081 0.26680105137204091 0 0.40768566828284042 0.25774317622192677 0 0.39945440726228237 0.27350419034528239 0 0.4092682188351508 0.26816031590002881 0 0.40768566828284042 0.25774317622192677 0 0.39945440726228237 0.27350419034528239 0 0.38460708535355081 0.26680105137204091 0 0.3904751567012596 0.27530993325585928 0 0.39945440726228237 0.27350419034528239 0 0.3904751567012596 0.27530993325585928 0 0.39488150240831521 0.28173053148540511 0 0.39945440726228237 0.27350419034528239 0 0.40366985246608472 0.28285995447659418 0 0.40929088926209078 0.279020096056181 0 0.39945440726228237 0.27350419034528239 0 0.4092682188351508 0.26816031590002881 0 0.40929088926209078 0.279020096056181 0 0.39945440726228237 0.27350419034528239 0 0.39488150240831521 0.28173053148540511 0 0.40366985246608472 0.28285995447659418 0 0.38783836144724232 0.2556839199238965 0 0.38129994004966872 0.25577407136566988 0 0.40866327585672191 0.24600766979752939 0 0.38460708535355081 0.26680105137204091 0 0.40768566828284042 0.25774317622192677 0 0.38783836144724232 0.2556839199238965 0 0.40768566828284042 0.25774317622192677 0 0.40866327585672191 0.24600766979752939 0 0.38783836144724232 0.2556839199238965 0 0.38460708535355081 0.26680105137204091 0 0.40768566828284042 0.25774317622192677 0 0.38129994004966872 0.25577407136566988 0 0.40866327585672191 0.24600766979752939 0 0.38783836144724232 0.2556839199238965 0 0.38129994004966872 0.25577407136566988 0 0.38460708535355081 0.26680105137204091 0 0.38783836144724232 0.2556839199238965 0 0.38460708535355081 0.26680105137204091 0 0.38129994004966872 0.25577407136566988 0 0.37169426656027921 0.24972740256563611 0 0.38106847269238292 0.24536179082341181 0 0.37017340450925651 0.266060206293324 0 0.38129994004966872 0.25577407136566988 0 0.38460708535355081 0.26680105137204091 0 0.36084998839118931 0.2761252295017701 0 0.38460708535355081 0.26680105137204091 0 0.37969218042614078 0.28371066929036243 0 0.38460708535355081 0.26680105137204091 0 0.3904751567012596 0.27530993325585928 0 0.37969218042614078 0.28371066929036243 0 0.38460708535355081 0.26680105137204091 0 0.37969218042614078 0.28371066929036243 0 0.3904751567012596 0.27530993325585928 0 0.37969218042614078 0.28371066929036243 0 0.39488150240831521 0.28173053148540511 0 0.37969218042614078 0.28371066929036243 0 0.37763341047385651 0.29079382019339128 0 0.40259214502479168 0.29292967641552992 0 0.37763341047385651 0.29079382019339128 0 0.4027243230010164 0.30147339632314252 0 0.37969218042614078 0.28371066929036243 0 0.37763341047385651 0.29079382019339128 0 0.37333201972158658 0.2878654242033048 0 0.37969218042614078 0.28371066929036243 0 0.37763341047385651 0.29079382019339128 0 0.37763341047385651 0.29079382019339128 0 0.37695808612291098 0.31120865645681561 0 0.38599374742651271 0.30414296713942529 0 0.37763341047385651 0.29079382019339128 0 0.38599374742651271 0.30414296713942529 0 0.4027243230010164 0.30147339632314252 0 0.37695808612291098 0.31120865645681561 0 0.38599374742651271 0.30414296713942529 0 0.38754735899376969 0.31282171123814728 0 0.38599374742651271 0.30414296713942529 0 0.4027243230010164 0.30147339632314252 0 0.38754735899376969 0.31282171123814728 0 0.4027243230010164 0.30147339632314252 0 0.3956366020903157 0.32248231082130752 0 0.38754735899376969 0.31282171123814728 0 0.37969218042614078 0.28371066929036243 0 0.40259214502479168 0.29292967641552992 0 0.37969218042614078 0.28371066929036243 0 0.39488150240831521 0.28173053148540511 0 0.40259214502479168 0.29292967641552992 0 0.37763341047385651 0.29079382019339128 0 0.4027243230010164 0.30147339632314252 0 0.40259214502479168 0.29292967641552992 0 0.4027243230010164 0.30147339632314252 0 0.40259214502479168 0.29292967641552992 0 0.41139710839419091 0.29189735433941028 0 0.40259214502479168 0.29292967641552992 0 0.40366985246608472 0.28285995447659418 0 0.41139710839419091 0.29189735433941028 0 0.39488150240831521 0.28173053148540511 0 0.40259214502479168 0.29292967641552992 0 0.40366985246608472 0.28285995447659418 0 0.40366985246608472 0.28285995447659418 0 0.41139710839419091 0.29189735433941028 0 0.40929088926209078 0.279020096056181 0 0.41139710839419091 0.29189735433941028 0 0.42781523552817591 0.31215297245289481 0 0.42226183937510081 0.28327127115801121 0 0.41139710839419091 0.29189735433941028 0 0.42226183937510081 0.28327127115801121 0 0.40929088926209078 0.279020096056181 0 0.4027243230010164 0.30147339632314252 0 0.41139710839419091 0.29189735433941028 0 0.42781523552817591 0.31215297245289481 0 0.4027243230010164 0.30147339632314252 0 0.42781523552817591 0.31215297245289481 0 0.41357021602424721 0.32279281759874212 0 0.4027243230010164 0.30147339632314252 0 0.42781523552817591 0.31215297245289481 0 0.42781523552817591 0.31215297245289481 0 0.42226183937510081 0.28327127115801121 0 0.42781523552817591 0.31215297245289481 0 0.42226183937510081 0.28327127115801121 0 0.44120727567718632 0.28746005308771089 0 0.42226183937510081 0.28327127115801121 0 0.43023391716603732 0.27040224467912161 0 0.44120727567718632 0.28746005308771089 0 0.42226183937510081 0.28327127115801121 0 0.43023391716603732 0.27040224467912161 0 0.41664462513020523 0.25422696758609492 0 0.43023391716603732 0.27040224467912161 0 0.43692075095235122 0.26433370861442979 0 0.44373838257505849 0.27050131303512348 0 0.42226183937510081 0.28327127115801121 0 0.4092682188351508 0.26816031590002881 0 0.41664462513020523 0.25422696758609492 0 0.42226183937510081 0.28327127115801121 0 0.41664462513020523 0.25422696758609492 0 0.42226183937510081 0.28327127115801121 0 0.4092682188351508 0.26816031590002881 0 0.40929088926209078 0.279020096056181 0 0.40768566828284042 0.25774317622192677 0 0.41664462513020523 0.25422696758609492 0 0.40866327585672191 0.24600766979752939 0 0.40768566828284042 0.25774317622192677 0 0.41664462513020523 0.25422696758609492 0 0.4092682188351508 0.26816031590002881 0 0.40768566828284042 0.25774317622192677 0 0.41664462513020523 0.25422696758609492 0 0.42749544465446981 0.25699566217507153 0 0.45166362976964691 0.25106894999712381 0 0.43076425121212841 0.2486853010718087 0 0.41664462513020523 0.25422696758609492 0 0.42749544465446981 0.25699566217507153 0 0.43076425121212841 0.2486853010718087 0 0.43023391716603732 0.27040224467912161 0 0.41664462513020523 0.25422696758609492 0 0.42749544465446981 0.25699566217507153 0 0.41664462513020523 0.25422696758609492 0 0.43076425121212841 0.2486853010718087 0 0.42749544465446981 0.25699566217507153 0 0.43692075095235122 0.26433370861442979 0 0.44456450099631911 0.26043047377218492 0 0.43023391716603732 0.27040224467912161 0 0.42749544465446981 0.25699566217507153 0 0.43692075095235122 0.26433370861442979 0 0.42749544465446981 0.25699566217507153 0 0.45166362976964691 0.25106894999712381 0 0.42749544465446981 0.25699566217507153 0 0.44456450099631911 0.26043047377218492 0 0.45166362976964691 0.25106894999712381 0 0.43692075095235122 0.26433370861442979 0 0.44456450099631911 0.26043047377218492 0 0.44373838257505849 0.27050131303512348 0 0.44456450099631911 0.26043047377218492 0 0.44373838257505849 0.27050131303512348 0 0.45508065662597141 0.26402805921732958 0 0.44456450099631911 0.26043047377218492 0 0.45166362976964691 0.25106894999712381 0 0.45508065662597141 0.26402805921732958 0 0.44373838257505849 0.27050131303512348 0 0.45472874274978531 0.27586911806656422 0 0.44120727567718632 0.28746005308771089 0 0.43023391716603732 0.27040224467912161 0 0.44373838257505849 0.27050131303512348 0 0.44120727567718632 0.28746005308771089 0 0.44373838257505849 0.27050131303512348 0 0.45472874274978531 0.27586911806656422 0 0.45508065662597141 0.26402805921732958 0 0.45472874274978531 0.27586911806656422 0 0.46665275363318931 0.27127710252775639 0 0.46192346945889701 0.28817835066990299 0 0.45472874274978531 0.27586911806656422 0 0.46665275363318931 0.27127710252775639 0 0.45508065662597141 0.26402805921732958 0 0.45166362976964691 0.25106894999712381 0 0.46652816171208539 0.25830808769848879 0 0.47583181488482379 0.2451422378191761 0 0.45166362976964691 0.25106894999712381 0 0.45508065662597141 0.26402805921732958 0 0.46652816171208539 0.25830808769848879 0 0.46665275363318931 0.27127710252775639 0 0.45508065662597141 0.26402805921732958 0 0.46652816171208539 0.25830808769848879 0 0.46665275363318931 0.27127710252775639 0 0.46652816171208539 0.25830808769848879 0 0.48341195364679568 0.26002408893105827 0 0.46652816171208539 0.25830808769848879 0 0.48341195364679568 0.26002408893105827 0 0.47583181488482379 0.2451422378191761 0 0.46665275363318931 0.27127710252775639 0 0.48341195364679568 0.26002408893105827 0 0.48138518434246891 0.28130646820503019 0 0.46665275363318931 0.27127710252775639 0 0.48138518434246891 0.28130646820503019 0 0.46192346945889701 0.28817835066990299 0 0.5 0.26671351767664991 0 0.5 0.29421150971207138 0 0.48138518434246891 0.28130646820503019 0 0.48341195364679568 0.26002408893105827 0 0.5 0.26671351767664991 0 0.48138518434246891 0.28130646820503019 0 0.48341195364679568 0.26002408893105827 0 0.5 0.26671351767664991 0 0.50000000000000067 0.2392155256412283 0 0.5 0.29421150971207138 0 0.47556093647901088 0.30733800586058863 0 0.5 0.32170950174749302 0 0.5 0.29421150971207138 0 0.48138518434246891 0.28130646820503019 0 0.47556093647901088 0.30733800586058863 0 0.48138518434246891 0.28130646820503019 0 0.47556093647901088 0.30733800586058863 0 0.46192346945889701 0.28817835066990299 0 0.47556093647901088 0.30733800586058863 0 0.45214514511688908 0.30370412902975941 0 0.45421880844117613 0.32339126307769928 0 0.47556093647901088 0.30733800586058863 0 0.46192346945889701 0.28817835066990299 0 0.45214514511688908 0.30370412902975941 0 0.46192346945889701 0.28817835066990299 0 0.44120727567718632 0.28746005308771089 0 0.45214514511688908 0.30370412902975941 0 0.45472874274978531 0.27586911806656422 0 0.46192346945889701 0.28817835066990299 0 0.44120727567718632 0.28746005308771089 0 0.42781523552817591 0.31215297245289481 0 0.44120727567718632 0.28746005308771089 0 0.45214514511688908 0.30370412902975941 0 0.42781523552817591 0.31215297245289481 0 0.45421880844117613 0.32339126307769928 0 0.43298436918619881 0.33903622913929549 0 0.42781523552817591 0.31215297245289481 0 0.45214514511688908 0.30370412902975941 0 0.45421880844117613 0.32339126307769928 0 0.42781523552817591 0.31215297245289481 0 0.45421880844117613 0.32339126307769928 0 0.45421880844117613 0.32339126307769928 0 0.45970761232660212 0.34692044601787542 0 0.43298436918619881 0.33903622913929549 0 0.45421880844117613 0.32339126307769928 0 0.48062238135417568 0.33462955370250519 0 0.45421880844117613 0.32339126307769928 0 0.48062238135417568 0.33462955370250519 0 0.45970761232660212 0.34692044601787542 0 0.47556093647901088 0.30733800586058863 0 0.45421880844117613 0.32339126307769928 0 0.48062238135417568 0.33462955370250519 0 0.48062238135417568 0.33462955370250519 0 0.5 0.32170950174749302 0 0.5 0.34920749378291471 0 0.47556093647901088 0.30733800586058863 0 0.48062238135417568 0.33462955370250519 0 0.5 0.32170950174749302 0 0.5 0.34920749378291471 0 0.48254603458521478 0.3522402998402685 0 0.5 0.37670548581833618 0 0.48062238135417568 0.33462955370250519 0 0.5 0.34920749378291471 0 0.48254603458521478 0.3522402998402685 0 0.48254603458521478 0.3522402998402685 0 0.46972057754862501 0.36630584452178799 0 0.45970761232660212 0.34692044601787542 0 0.48062238135417568 0.33462955370250519 0 0.48254603458521478 0.3522402998402685 0 0.45970761232660212 0.34692044601787542 0 0.48254603458521478 0.3522402998402685 0 0.46972057754862501 0.36630584452178799 0 0.5 0.37670548581833618 0 0.46972057754862501 0.36630584452178799 0 0.43815350284422228 0.36591948582569622 0 0.45848938469160699 0.38276388730883248 0 0.46972057754862501 0.36630584452178799 0 0.45970761232660212 0.34692044601787542 0 0.43815350284422228 0.36591948582569622 0 0.45970761232660212 0.34692044601787542 0 0.43815350284422228 0.36591948582569622 0 0.43298436918619881 0.33903622913929549 0 0.43815350284422228 0.36591948582569622 0 0.4167242930516859 0.35972934744593471 0 0.42344095457037051 0.38268701701273461 0 0.4167242930516859 0.35972934744593471 0 0.40101385701800268 0.38518895784325291 0 0.4167242930516859 0.35972934744593471 0 0.40181680918128981 0.35947395412181382 0 0.40101385701800268 0.38518895784325291 0 0.4167242930516859 0.35972934744593471 0 0.40869055031553031 0.33881917925707022 0 0.40181680918128981 0.35947395412181382 0 0.4167242930516859 0.35972934744593471 0 0.43298436918619881 0.33903622913929549 0 0.40869055031553031 0.33881917925707022 0 0.43815350284422228 0.36591948582569622 0 0.4167242930516859 0.35972934744593471 0 0.43298436918619881 0.33903622913929549 0 0.43815350284422228 0.36591948582569622 0 0.43298436918619881 0.33903622913929549 0 0.42781523552817591 0.31215297245289481 0 0.43298436918619881 0.33903622913929549 0 0.42781523552817591 0.31215297245289481 0 0.43298436918619881 0.33903622913929549 0 0.41357021602424721 0.32279281759874212 0 0.43298436918619881 0.33903622913929549 0 0.41357021602424721 0.32279281759874212 0 0.40869055031553031 0.33881917925707022 0 0.40869055031553031 0.33881917925707022 0 0.39369601167170543 0.33564153172070438 0 0.39209274976778918 0.34814598654190299 0 0.40869055031553031 0.33881917925707022 0 0.39369601167170543 0.33564153172070438 0 0.3956366020903157 0.32248231082130752 0 0.39369601167170543 0.33564153172070438 0 0.3956366020903157 0.32248231082130752 0 0.38362385659697051 0.32926172455430031 0 0.39369601167170543 0.33564153172070438 0 0.38635485741833753 0.33883185827426582 0 0.39209274976778918 0.34814598654190299 0 0.41357021602424721 0.32279281759874212 0 0.40869055031553031 0.33881917925707022 0 0.3956366020903157 0.32248231082130752 0 0.4027243230010164 0.30147339632314252 0 0.41357021602424721 0.32279281759874212 0 0.3956366020903157 0.32248231082130752 0 0.3956366020903157 0.32248231082130752 0 0.38754735899376969 0.31282171123814728 0 0.38479800915553353 0.32074741934569512 0 0.38754735899376969 0.31282171123814728 0 0.38479800915553353 0.32074741934569512 0 0.37917338616632867 0.3168755173424983 0 0.3956366020903157 0.32248231082130752 0 0.38479800915553353 0.32074741934569512 0 0.38362385659697051 0.32926172455430031 0 0.38479800915553353 0.32074741934569512 0 0.37832625022041982 0.32264150287239662 0 0.38362385659697051 0.32926172455430031 0 0.37577016905582622 0.32787937856968757 0 0.37832625022041982 0.32264150287239662 0 0.38362385659697051 0.32926172455430031 0 0.37577016905582622 0.32787937856968757 0 0.37506056064123422 0.32471797871916308 0 0.37832625022041982 0.32264150287239662 0 0.37368960646642962 0.31911015363466272 0 0.37506056064123422 0.32471797871916308 0 0.37832625022041982 0.32264150287239662 0 0.37695808612291098 0.31120865645681561 0 0.38754735899376969 0.31282171123814728 0 0.37917338616632867 0.3168755173424983 0 0.38479800915553353 0.32074741934569512 0 0.37832625022041982 0.32264150287239662 0 0.37917338616632867 0.3168755173424983 0 0.37368960646642962 0.31911015363466272 0 0.37832625022041982 0.32264150287239662 0 0.37917338616632867 0.3168755173424983 0 0.37499251130121058 0.31593455150060828 0 0.37368960646642962 0.31911015363466272 0 0.37917338616632867 0.3168755173424983 0 0.37499251130121058 0.31593455150060828 0 0.37695808612291098 0.31120865645681561 0 0.37917338616632867 0.3168755173424983 0 0.38635485741833753 0.33883185827426582 0 0.3795813787571668 0.3363772241379393 0 0.38278029029805521 0.34473282441648212 0 0.39369601167170543 0.33564153172070438 0 0.38635485741833753 0.33883185827426582 0 0.38362385659697051 0.32926172455430031 0 0.38635485741833753 0.33883185827426582 0 0.38362385659697051 0.32926172455430031 0 0.3795813787571668 0.3363772241379393 0 0.37577016905582622 0.32787937856968757 0 0.38362385659697051 0.32926172455430031 0 0.37868435463470768 0.3315773541462857 0 0.38362385659697051 0.32926172455430031 0 0.37868435463470768 0.3315773541462857 0 0.3795813787571668 0.3363772241379393 0 0.37577016905582622 0.32787937856968757 0 0.37868435463470768 0.3315773541462857 0 0.375263113682131 0.33313320718557798 0 0.37868435463470768 0.3315773541462857 0 0.375263113682131 0.33313320718557798 0 0.3795813787571668 0.3363772241379393 0 0.37369311900952262 0.33836265764115908 0 0.3795813787571668 0.3363772241379393 0 0.37670219357667811 0.34177383067972761 0 0.3795813787571668 0.3363772241379393 0 0.37670219357667811 0.34177383067972761 0 0.38278029029805521 0.34473282441648212 0 0.37369311900952262 0.33836265764115908 0 0.375263113682131 0.33313320718557798 0 0.3795813787571668 0.3363772241379393 0 0.3809821990389497 0.35490418517770578 0 0.39056259575344082 0.36548629952090861 0 0.39209274976778918 0.34814598654190299 0 0.37486749369974542 0.34694596905823039 0 0.37670219357667811 0.34177383067972761 0 0.38278029029805521 0.34473282441648212 0 0.37486749369974542 0.34694596905823039 0 0.38278029029805521 0.34473282441648212 0 0.3809821990389497 0.35490418517770578 0 0.38278029029805521 0.34473282441648212 0 0.3809821990389497 0.35490418517770578 0 0.39209274976778918 0.34814598654190299 0 0.38635485741833753 0.33883185827426582 0 0.38278029029805521 0.34473282441648212 0 0.39209274976778918 0.34814598654190299 0 0.37228166628853332 0.35471301169251829 0 0.37486749369974542 0.34694596905823039 0 0.3809821990389497 0.35490418517770578 0 0.37414389550204002 0.36898578533419818 0 0.3809821990389497 0.35490418517770578 0 0.39056259575344082 0.36548629952090861 0 0.37414389550204002 0.36898578533419818 0 0.39056259575344082 0.36548629952090861 0 0.40101385701800268 0.38518895784325291 0 0.37414389550204002 0.36898578533419818 0 0.37228166628853332 0.35471301169251829 0 0.3809821990389497 0.35490418517770578 0 0.39056259575344082 0.36548629952090861 0 0.40181680918128981 0.35947395412181382 0 0.40101385701800268 0.38518895784325291 0 0.39056259575344082 0.36548629952090861 0 0.40181680918128981 0.35947395412181382 0 0.39209274976778918 0.34814598654190299 0 0.40869055031553031 0.33881917925707022 0 0.40181680918128981 0.35947395412181382 0 0.39209274976778918 0.34814598654190299 0 0.40101385701800268 0.38518895784325291 0 0.38530342098431941 0.41064856824057122 0 0.40101385701800268 0.38518895784325291 0 0.38530342098431941 0.41064856824057122 0 0.41521715527738928 0.40390661881175682 0 0.3736470799201031 0.39378130610698531 0 0.37414389550204002 0.36898578533419818 0 0.40101385701800268 0.38518895784325291 0 0.3736470799201031 0.39378130610698531 0 0.40101385701800268 0.38518895784325291 0 0.38530342098431941 0.41064856824057122 0 0.36959298495063608 0.43610817863788948 0 0.38530342098431941 0.41064856824057122 0 0.36959298495063608 0.43610817863788948 0 0.38530342098431941 0.41064856824057122 0 0.3889231515195431 0.43141286456833011 0 0.3889231515195431 0.43141286456833011 0 0.40362265567455102 0.42304679086704539 0 0.39942544658573009 0.43872588670818857 0 0.40362265567455102 0.42304679086704539 0 0.41248490446316177 0.43293377153942381 0 0.39942544658573009 0.43872588670818857 0 0.38530342098431941 0.41064856824057122 0 0.3889231515195431 0.43141286456833011 0 0.40362265567455102 0.42304679086704539 0 0.38530342098431941 0.41064856824057122 0 0.40362265567455102 0.42304679086704539 0 0.41521715527738928 0.40390661881175682 0 0.40362265567455102 0.42304679086704539 0 0.42233359500988371 0.42307221464191669 0 0.41521715527738928 0.40390661881175682 0 0.40362265567455102 0.42304679086704539 0 0.41248490446316177 0.43293377153942381 0 0.42233359500988371 0.42307221464191669 0 0.41248490446316177 0.43293377153942381 0 0.42233359500988371 0.42307221464191669 0 0.42326813014219627 0.43909650749986368 0 0.42233359500988371 0.42307221464191669 0 0.43681876433844857 0.43497208046478802 0 0.42326813014219627 0.43909650749986368 0 0.42233359500988371 0.42307221464191669 0 0.43681876433844857 0.43497208046478802 0 0.43655617137350622 0.42038510460191503 0 0.42233359500988371 0.42307221464191669 0 0.42830887421762198 0.41018013153495869 0 0.41521715527738928 0.40390661881175682 0 0.42233359500988371 0.42307221464191669 0 0.42830887421762198 0.41018013153495869 0 0.43655617137350622 0.42038510460191503 0 0.42830887421762198 0.41018013153495869 0 0.43655617137350622 0.42038510460191503 0 0.439625884597032 0.40642404903869822 0 0.42978568865087441 0.39901034440009059 0 0.42344095457037051 0.38268701701273461 0 0.4433226365022459 0.39280274251209668 0 0.42978568865087441 0.39901034440009059 0 0.41521715527738928 0.40390661881175682 0 0.42344095457037051 0.38268701701273461 0 0.42830887421762198 0.41018013153495869 0 0.42978568865087441 0.39901034440009059 0 0.439625884597032 0.40642404903869822 0 0.42830887421762198 0.41018013153495869 0 0.42978568865087441 0.39901034440009059 0 0.41521715527738928 0.40390661881175682 0 0.4167242930516859 0.35972934744593471 0 0.40101385701800268 0.38518895784325291 0 0.42344095457037051 0.38268701701273461 0 0.40101385701800268 0.38518895784325291 0 0.41521715527738928 0.40390661881175682 0 0.42344095457037051 0.38268701701273461 0 0.43815350284422228 0.36591948582569622 0 0.42344095457037051 0.38268701701273461 0 0.4433226365022459 0.39280274251209668 0 0.43815350284422228 0.36591948582569622 0 0.4433226365022459 0.39280274251209668 0 0.43815350284422228 0.36591948582569622 0 0.4433226365022459 0.39280274251209668 0 0.45848938469160699 0.38276388730883248 0 0.4433226365022459 0.39280274251209668 0 0.4587292321942566 0.40377894109977869 0 0.44849177016026981 0.41968599919849731 0 0.4433226365022459 0.39280274251209668 0 0.44849177016026981 0.41968599919849731 0 0.42978568865087441 0.39901034440009059 0 0.4433226365022459 0.39280274251209668 0 0.439625884597032 0.40642404903869822 0 0.4433226365022459 0.39280274251209668 0 0.4587292321942566 0.40377894109977869 0 0.45848938469160699 0.38276388730883248 0 0.4587292321942566 0.40377894109977869 0 0.45848938469160699 0.38276388730883248 0 0.47720201034463561 0.39055994944820821 0 0.46972057754862501 0.36630584452178799 0 0.45848938469160699 0.38276388730883248 0 0.47720201034463561 0.39055994944820821 0 0.46972057754862501 0.36630584452178799 0 0.47720201034463561 0.39055994944820821 0 0.5 0.37670548581833618 0 0.47720201034463561 0.39055994944820821 0 0.5 0.40420347785375749 0 0.47329291580914951 0.41490179660840648 0 0.4587292321942566 0.40377894109977869 0 0.47720201034463561 0.39055994944820821 0 0.47329291580914951 0.41490179660840648 0 0.47720201034463561 0.39055994944820821 0 0.5 0.40420347785375749 0 0.5 0.37670548581833618 0 0.48546521128148462 0.42572005307568972 0 0.49999999999999828 0.43170146988917901 0 0.48502495584706629 0.44181750450007778 0 0.49999999999999828 0.43170146988917901 0 0.48502495584706629 0.44181750450007778 0 0.5 0.40420347785375749 0 0.48546521128148462 0.42572005307568972 0 0.47329291580914951 0.41490179660840648 0 0.5 0.40420347785375749 0 0.48546521128148462 0.42572005307568972 0 0.49999999999999828 0.43170146988917901 0 0.48546521128148462 0.42572005307568972 0 0.47462076711180717 0.43403653248997731 0 0.48502495584706629 0.44181750450007778 0 0.47329291580914951 0.41490179660840648 0 0.47462076711180717 0.43403653248997731 0 0.45927084092720188 0.43580976915473651 0 0.48546521128148462 0.42572005307568972 0 0.47329291580914951 0.41490179660840648 0 0.47462076711180717 0.43403653248997731 0 0.45927084092720188 0.43580976915473651 0 0.44849177016026981 0.41968599919849731 0 0.47329291580914951 0.41490179660840648 0 0.45927084092720188 0.43580976915473651 0 0.44849177016026981 0.41968599919849731 0 0.45927084092720188 0.43580976915473651 0 0.44849177016026981 0.41968599919849731 0 0.45165089640657707 0.43611575462809582 0 0.4587292321942566 0.40377894109977869 0 0.47329291580914951 0.41490179660840648 0 0.44849177016026981 0.41968599919849731 0 0.4433226365022459 0.39280274251209668 0 0.44849177016026981 0.41968599919849731 0 0.439625884597032 0.40642404903869822 0 0.43655617137350622 0.42038510460191503 0 0.44849177016026981 0.41968599919849731 0 0.439625884597032 0.40642404903869822 0 0.44849177016026981 0.41968599919849731 0 0.439625884597032 0.40642404903869822 0 0.44849177016026981 0.41968599919849731 0 0.45165089640657707 0.43611575462809582 0 0.44386952542921521 0.4295111469185629 0 0.44849177016026981 0.41968599919849731 0 0.45165089640657707 0.43611575462809582 0 0.45165089640657707 0.43611575462809582 0 0.44386952542921521 0.4295111469185629 0 0.44519082659473158 0.43782150968735878 0 0.43655617137350622 0.42038510460191503 0 0.44849177016026981 0.41968599919849731 0 0.44386952542921521 0.4295111469185629 0 0.43681876433844857 0.43497208046478802 0 0.43655617137350622 0.42038510460191503 0 0.44386952542921521 0.4295111469185629 0 0.43681876433844857 0.43497208046478802 0 0.44386952542921521 0.4295111469185629 0 0.44519082659473158 0.43782150968735878 0 0.43681876433844857 0.43497208046478802 0 0.44519082659473158 0.43782150968735878 0 0.44362096681603608 0.44566090358066651 0 0.43681876433844857 0.43497208046478802 0 0.44362096681603608 0.44566090358066651 0 0.43343701099378978 0.44857281610427868 0 0.44362096681603608 0.44566090358066651 0 0.44110505044236059 0.45564825146568327 0 0.43343701099378978 0.44857281610427868 0 0.44362096681603608 0.44566090358066651 0 0.45255374853073171 0.45216262504332899 0 0.45221828903371142 0.44335246171580328 0 0.44362096681603608 0.44566090358066651 0 0.45255374853073171 0.45216262504332899 0 0.44110505044236059 0.45564825146568327 0 0.44519082659473158 0.43782150968735878 0 0.44362096681603608 0.44566090358066651 0 0.45221828903371142 0.44335246171580328 0 0.45165089640657707 0.43611575462809582 0 0.44519082659473158 0.43782150968735878 0 0.45221828903371142 0.44335246171580328 0 0.45255374853073171 0.45216262504332899 0 0.44518446721829791 0.46873079822848901 0 0.44110505044236059 0.45564825146568327 0 0.44518446721829791 0.46873079822848901 0 0.44110505044236059 0.45564825146568327 0 0.43072905865294731 0.46311411437165317 0 0.47284597636140308 0.45611600571247141 0 0.46302896313844299 0.47272331085799019 0 0.45255374853073171 0.45216262504332899 0 0.44518446721829791 0.46873079822848901 0 0.47004991169413368 0.45193353911097589 0 0.47004991169413368 0.45193353911097589 0 0.47284597636140308 0.45611600571247141 0 0.46302896313844299 0.47272331085799019 0 0.44518446721829791 0.46873079822848901 0 0.47004991169413368 0.45193353911097589 0 0.46302896313844299 0.47272331085799019 0 0.44518446721829791 0.46873079822848901 0 0.47004991169413368 0.45193353911097589 0 0.45927084092720188 0.43580976915473651 0 0.47004991169413368 0.45193353911097589 0 0.45927084092720188 0.43580976915473651 0 0.45930684530103161 0.44617181272829648 0 0.47004991169413368 0.45193353911097589 0 0.47462076711180717 0.43403653248997731 0 0.45927084092720188 0.43580976915473651 0 0.47004991169413368 0.45193353911097589 0 0.45255374853073171 0.45216262504332899 0 0.45930684530103161 0.44617181272829648 0 0.47004991169413368 0.45193353911097589 0 0.45927084092720188 0.43580976915473651 0 0.45221828903371142 0.44335246171580328 0 0.45930684530103161 0.44617181272829648 0 0.45927084092720188 0.43580976915473651 0 0.45165089640657707 0.43611575462809582 0 0.45221828903371142 0.44335246171580328 0 0.45255374853073171 0.45216262504332899 0 0.45221828903371142 0.44335246171580328 0 0.45930684530103161 0.44617181272829648 0 0.47462076711180717 0.43403653248997731 0 0.47004991169413368 0.45193353911097589 0 0.48502495584706629 0.44181750450007778 0 0.48189680466807888 0.45106209462173341 0 0.47450081081676521 0.45331654521044668 0 0.48502495584706629 0.44181750450007778 0 0.47004991169413368 0.45193353911097589 0 0.48502495584706629 0.44181750450007778 0 0.47004991169413368 0.45193353911097589 0 0.47450081081676521 0.45331654521044668 0 0.48502495584706629 0.44181750450007778 0 0.47284597636140308 0.45611600571247141 0 0.48050552008400071 0.46757346096286262 0 0.46302896313844299 0.47272331085799019 0 0.47004991169413368 0.45193353911097589 0 0.47284597636140308 0.45611600571247141 0 0.47004991169413368 0.45193353911097589 0 0.47450081081676521 0.45331654521044668 0 0.47284597636140308 0.45611600571247141 0 0.47450081081676521 0.45331654521044668 0 0.47284597636140308 0.45611600571247141 0 0.47951191807974908 0.45654698881850991 0 0.47450081081676521 0.45331654521044668 0 0.47284597636140308 0.45611600571247141 0 0.47284597636140308 0.45611600571247141 0 0.48050552008400071 0.46757346096286262 0 0.47284597636140308 0.45611600571247141 0 0.48050552008400071 0.46757346096286262 0 0.47951191807974908 0.45654698881850991 0 0.48189680466807888 0.45106209462173341 0 0.47951191807974908 0.45654698881850991 0 0.4878104784684959 0.4546668375850359 0 0.48050552008400071 0.46757346096286262 0 0.47951191807974908 0.45654698881850991 0 0.4878104784684959 0.4546668375850359 0 0.48189680466807888 0.45106209462173341 0 0.47450081081676521 0.45331654521044668 0 0.47951191807974908 0.45654698881850991 0 0.48050552008400071 0.46757346096286262 0 0.4878104784684959 0.4546668375850359 0 0.49999999999999928 0.46182898591187349 0 0.48050552008400071 0.46757346096286262 0 0.49999999999999928 0.46182898591187349 0 0.49999999999999828 0.43170146988917901 0 0.4878104784684959 0.4546668375850359 0 0.49999999999999928 0.46182898591187349 0 0.49999999999999828 0.43170146988917901 0 0.4878104784684959 0.4546668375850359 0 0.48502495584706629 0.44181750450007778 0 0.48189680466807888 0.45106209462173341 0 0.4878104784684959 0.4546668375850359 0 0.48502495584706629 0.44181750450007778 0 0.49999999999999928 0.46182898591187349 0 0.5 0.5 0 0.49753071700976492 0.4930404390193398 0 0.5 0.5 0 0.47501141284236448 0.48698608464618232 0 0.44690499747156931 0.4999999999999995 0 0.5 0.5 0 0.49753071700976492 0.4930404390193398 0 0.47501141284236448 0.48698608464618232 0 0.49753071700976492 0.4930404390193398 0 0.48901811854688337 0.4803069499911008 0 0.47501141284236448 0.48698608464618232 0 0.49753071700976492 0.4930404390193398 0 0.48901811854688337 0.4803069499911008 0 0.48050552008400071 0.46757346096286262 0 0.49999999999999928 0.46182898591187349 0 0.48901811854688337 0.4803069499911008 0 0.49999999999999928 0.46182898591187349 0 0.49753071700976492 0.4930404390193398 0 0.48901811854688337 0.4803069499911008 0 0.48050552008400071 0.46757346096286262 0 0.48901811854688337 0.4803069499911008 0 0.48050552008400071 0.46757346096286262 0 0.46302896313844299 0.47272331085799019 0 0.48901811854688337 0.4803069499911008 0 0.47689100365292297 0.47689745161453417 0 0.47501141284236448 0.48698608464618232 0 0.48050552008400071 0.46757346096286262 0 0.47689100365292297 0.47689745161453417 0 0.46302896313844299 0.47272331085799019 0 0.48050552008400071 0.46757346096286262 0 0.48901811854688337 0.4803069499911008 0 0.47689100365292297 0.47689745161453417 0 0.47689100365292297 0.47689745161453417 0 0.47501141284236448 0.48698608464618232 0 0.46302896313844299 0.47272331085799019 0 0.47501141284236448 0.48698608464618232 0 0.45496698030500621 0.48636165542899479 0 0.44690499747156931 0.4999999999999995 0 0.47501141284236448 0.48698608464618232 0 0.45496698030500621 0.48636165542899479 0 0.46302896313844299 0.47272331085799019 0 0.45496698030500621 0.48636165542899479 0 0.46302896313844299 0.47272331085799019 0 0.46302896313844299 0.47272331085799019 0 0.43620850627812668 0.48062654530969717 0 0.44518446721829791 0.46873079822848901 0 0.46302896313844299 0.47272331085799019 0 0.43620850627812668 0.48062654530969717 0 0.45496698030500621 0.48636165542899479 0 0.46302896313844299 0.47272331085799019 0 0.43620850627812668 0.48062654530969717 0 0.45496698030500621 0.48636165542899479 0 0.44690499747156931 0.4999999999999995 0 0.43620850627812668 0.48062654530969717 0 0.45496698030500621 0.48636165542899479 0 0.44690499747156931 0.4999999999999995 0 0.42031902274246069 0.48552805734600057 0 0.41743852268843429 0.5 0 0.43620850627812668 0.48062654530969717 0 0.44690499747156931 0.4999999999999995 0 0.41743852268843429 0.5 0 0.43620850627812668 0.48062654530969717 0 0.42031902274246069 0.48552805734600057 0 0.41743852268843429 0.5 0 0.40134209412993838 0.48520307466421098 0 0.42031902274246069 0.48552805734600057 0 0.40973563488985532 0.47579104778557152 0 0.40134209412993838 0.48520307466421098 0 0.42031902274246069 0.48552805734600057 0 0.40973563488985532 0.47579104778557152 0 0.41789473538963601 0.46705380048502582 0 0.44518446721829791 0.46873079822848901 0 0.42031902274246069 0.48552805734600057 0 0.43072905865294731 0.46311411437165317 0 0.44518446721829791 0.46873079822848901 0 0.42031902274246069 0.48552805734600057 0 0.43620850627812668 0.48062654530969717 0 0.44518446721829791 0.46873079822848901 0 0.42031902274246069 0.48552805734600057 0 0.42031902274246069 0.48552805734600057 0 0.43072905865294731 0.46311411437165317 0 0.41789473538963601 0.46705380048502582 0 0.44110505044236059 0.45564825146568327 0 0.43072905865294731 0.46311411437165317 0 0.43343701099378978 0.44857281610427868 0 0.43072905865294731 0.46311411437165317 0 0.43343701099378978 0.44857281610427868 0 0.42053980660522761 0.45341513910658388 0 0.43072905865294731 0.46311411437165317 0 0.41789473538963601 0.46705380048502582 0 0.42053980660522761 0.45341513910658388 0 0.43681876433844857 0.43497208046478802 0 0.43343701099378978 0.44857281610427868 0 0.42326813014219627 0.43909650749986368 0 0.43343701099378978 0.44857281610427868 0 0.42326813014219627 0.43909650749986368 0 0.42053980660522761 0.45341513910658388 0 0.41248490446316177 0.43293377153942381 0 0.42326813014219627 0.43909650749986368 0 0.41215324011006321 0.44426916471351768 0 0.42326813014219627 0.43909650749986368 0 0.41215324011006321 0.44426916471351768 0 0.42053980660522761 0.45341513910658388 0 0.41215324011006321 0.44426916471351768 0 0.42053980660522761 0.45341513910658388 0 0.40575666434273311 0.45838443146516472 0 0.41248490446316177 0.43293377153942381 0 0.41215324011006321 0.44426916471351768 0 0.39942544658573009 0.43872588670818857 0 0.40973563488985532 0.47579104778557152 0 0.41789473538963601 0.46705380048502582 0 0.40575666434273311 0.45838443146516472 0 0.41789473538963601 0.46705380048502582 0 0.42053980660522761 0.45341513910658388 0 0.40575666434273311 0.45838443146516472 0 0.40973563488985532 0.47579104778557152 0 0.40575666434273311 0.45838443146516472 0 0.39457326129307041 0.46924519202038539 0 0.40575666434273311 0.45838443146516472 0 0.38748492612950952 0.44892285829301931 0 0.39457326129307041 0.46924519202038539 0 0.40575666434273311 0.45838443146516472 0 0.39942544658573009 0.43872588670818857 0 0.38748492612950952 0.44892285829301931 0 0.3889231515195431 0.43141286456833011 0 0.39942544658573009 0.43872588670818857 0 0.38748492612950952 0.44892285829301931 0 0.41215324011006321 0.44426916471351768 0 0.40575666434273311 0.45838443146516472 0 0.39942544658573009 0.43872588670818857 0 0.36980735363827261 0.46050290225189661 0 0.36959298495063608 0.43610817863788948 0 0.38748492612950952 0.44892285829301931 0 0.36959298495063608 0.43610817863788948 0 0.3889231515195431 0.43141286456833011 0 0.38748492612950952 0.44892285829301931 0 0.36980735363827261 0.46050290225189661 0 0.38748492612950952 0.44892285829301931 0 0.39457326129307041 0.46924519202038539 0 0.36980735363827261 0.46050290225189661 0 0.37801407526051067 0.48065415083330842 0 0.39457326129307041 0.46924519202038539 0 0.37801407526051067 0.48065415083330842 0 0.38797204790529932 0.5 0 0.40134209412993838 0.48520307466421098 0 0.41743852268843429 0.5 0 0.38797204790529932 0.5 0 0.40134209412993838 0.48520307466421098 0 0.40973563488985532 0.47579104778557152 0 0.40134209412993838 0.48520307466421098 0 0.39457326129307041 0.46924519202038539 0 0.37801407526051067 0.48065415083330842 0 0.40134209412993838 0.48520307466421098 0 0.39457326129307041 0.46924519202038539 0 0.33471388977496319 0.083869725553476451 0 0.32003772732572838 0.080925826065863432 0 0.34163206045391592 0.099703108374672819 0 0.32003772732572838 0.080925826065863432 0 0.34163206045391592 0.099703108374672819 0 0.33471388977496319 0.083869725553476451 0 0.34163206045391592 0.099703108374672819 0 0.35085433501378249 0.086695181415402722 0 0.33471388977496319 0.083869725553476451 0 0.34209731100959018 0.06531632876058778 0 0.3490795063897344 0.076610282135673974 0 0.33471388977496319 0.083869725553476451 0 0.34209731100959018 0.06531632876058778 0 0.32721969837032222 0.069259436753723466 0 0.33471388977496319 0.083869725553476451 0 0.32721969837032222 0.069259436753723466 0 0.32003772732572838 0.080925826065863432 0 0.31518448171420999 0.065085558788002928 0 0.32721969837032222 0.069259436753723466 0 0.32003772732572838 0.080925826065863432 0 0.32003772732572838 0.080925826065863432 0 0.31657863646219547 0.093324099257994786 0 0.34163206045391592 0.099703108374672819 0 0.32003772732572838 0.080925826065863432 0 0.31657863646219547 0.093324099257994786 0 0.30227411453462139 0.089652133027170247 0 0.33471388977496319 0.083869725553476451 0 0.32003772732572838 0.080925826065863432 0 0.31657863646219547 0.093324099257994786 0 0.32025759602694659 0.1047776340902011 0 0.34163206045391592 0.099703108374672819 0 0.31657863646219547 0.093324099257994786 0 0.32025759602694659 0.1047776340902011 0 0.30640852481201453 0.1024735992044304 0 0.32025759602694659 0.1047776340902011 0 0.31114536757858358 0.11742006929579971 0 0.30640852481201453 0.1024735992044304 0 0.32606950933900308 0.1158177097477945 0 0.31114536757858358 0.11742006929579971 0 0.3195478300457561 0.1332621056988223 0 0.32025759602694659 0.1047776340902011 0 0.32606950933900308 0.1158177097477945 0 0.31114536757858358 0.11742006929579971 0 0.33761965874988609 0.1186889285033586 0 0.34163206045391592 0.099703108374672819 0 0.34956654336434939 0.1234914401014125 0 0.32606950933900308 0.1158177097477945 0 0.33761965874988609 0.1186889285033586 0 0.34163206045391592 0.099703108374672819 0 0.32606950933900308 0.1158177097477945 0 0.33761965874988609 0.1186889285033586 0 0.33436770153514289 0.13112975471366969 0 0.33761965874988609 0.1186889285033586 0 0.34956654336434939 0.1234914401014125 0 0.33436770153514289 0.13112975471366969 0 0.32025759602694659 0.1047776340902011 0 0.32606950933900308 0.1158177097477945 0 0.34163206045391592 0.099703108374672819 0 0.34163206045391592 0.099703108374672819 0 0.35755874922647762 0.098360434014750309 0 0.36322639358210312 0.11848039068348271 0 0.34163206045391592 0.099703108374672819 0 0.36322639358210312 0.11848039068348271 0 0.34163206045391592 0.099703108374672819 0 0.35755874922647762 0.098360434014750309 0 0.35085433501378249 0.086695181415402722 0 0.34163206045391592 0.099703108374672819 0 0.34956654336434939 0.1234914401014125 0 0.36322639358210312 0.11848039068348271 0 0.36322639358210312 0.11848039068348271 0 0.37045299287494049 0.09679375479102828 0 0.38005682511468147 0.12140739343396729 0 0.35755874922647762 0.098360434014750309 0 0.36322639358210312 0.11848039068348271 0 0.37045299287494049 0.09679375479102828 0 0.35755874922647762 0.098360434014750309 0 0.37045299287494049 0.09679375479102828 0 0.35979627253246887 0.087956112087811941 0 0.37045299287494049 0.09679375479102828 0 0.36986657419494789 0.075759843690150083 0 0.37682589963749002 0.081332762740894418 0 0.37045299287494049 0.09679375479102828 0 0.35979627253246887 0.087956112087811941 0 0.36084916063519962 0.072180116148089279 0 0.37045299287494049 0.09679375479102828 0 0.36084916063519962 0.072180116148089279 0 0.36986657419494789 0.075759843690150083 0 0.37045299287494049 0.09679375479102828 0 0.36084916063519962 0.072180116148089279 0 0.35755874922647762 0.098360434014750309 0 0.35979627253246887 0.087956112087811941 0 0.35085433501378249 0.086695181415402722 0 0.35979627253246887 0.087956112087811941 0 0.35560274156159061 0.081403828627082772 0 0.36084916063519962 0.072180116148089279 0 0.33471388977496319 0.083869725553476451 0 0.35085433501378249 0.086695181415402722 0 0.3490795063897344 0.076610282135673974 0 0.35979627253246887 0.087956112087811941 0 0.35560274156159061 0.081403828627082772 0 0.35085433501378249 0.086695181415402722 0 0.35560274156159061 0.081403828627082772 0 0.35085433501378249 0.086695181415402722 0 0.3490795063897344 0.076610282135673974 0 0.34209731100959018 0.06531632876058778 0 0.3490795063897344 0.076610282135673974 0 0.36084916063519962 0.072180116148089279 0 0.36448270712015302 0.068442951443566186 0 0.36084916063519962 0.072180116148089279 0 0.35124532839545858 0.047566477505150237 0 0.35560274156159061 0.081403828627082772 0 0.3490795063897344 0.076610282135673974 0 0.36084916063519962 0.072180116148089279 0 0.36448270712015302 0.068442951443566186 0 0.36084916063519962 0.072180116148089279 0 0.36986657419494789 0.075759843690150083 0 0.36986657419494789 0.075759843690150083 0 0.37596532967213542 0.069868995675824025 0 0.37682589963749002 0.081332762740894418 0 0.36448270712015302 0.068442951443566186 0 0.36986657419494789 0.075759843690150083 0 0.37084641292541748 0.06878424193773866 0 0.36986657419494789 0.075759843690150083 0 0.37084641292541748 0.06878424193773866 0 0.37596532967213542 0.069868995675824025 0 0.36448270712015302 0.068442951443566186 0 0.37084641292541748 0.06878424193773866 0 0.37307104071443398 0.061065176941414383 0 0.37084641292541748 0.06878424193773866 0 0.37307104071443398 0.061065176941414383 0 0.37596532967213542 0.069868995675824025 0 0.36448270712015302 0.068442951443566186 0 0.37307104071443398 0.061065176941414383 0 0.37146335928247548 0.04052602251159599 0 0.36448270712015302 0.068442951443566186 0 0.37146335928247548 0.04052602251159599 0 0.35124532839545858 0.047566477505150237 0 0.36448270712015302 0.068442951443566186 0 0.37146335928247548 0.04052602251159599 0 0.37146335928247548 0.04052602251159599 0 0.35572529983931911 0.032753521421585163 0 0.36312657459820519 0.022962182453169309 0 0.37146335928247548 0.04052602251159599 0 0.35572529983931911 0.032753521421585163 0 0.35124532839545858 0.047566477505150237 0 0.35572529983931911 0.032753521421585163 0 0.35124532839545858 0.047566477505150237 0 0.3321968515854315 0.028027004478648001 0 0.36084916063519962 0.072180116148089279 0 0.35124532839545858 0.047566477505150237 0 0.34209731100959018 0.06531632876058778 0 0.36084916063519962 0.072180116148089279 0 0.35124532839545858 0.047566477505150237 0 0.36312657459820519 0.022962182453169309 0 0.35936362748920009 0.0091271431172253586 0 0.37844401144479839 0.012609093579625891 0 0.35936362748920009 0.0091271431172253586 0 0.37844401144479839 0.012609093579625891 0 0.36665723294200347 -0.001883505129568449 0 0.35936362748920009 0.0091271431172253586 0 0.36665723294200347 -0.001883505129568449 0 0.35531676971978082 -0.0033532784323768001 0 0.37146335928247548 0.04052602251159599 0 0.36312657459820519 0.022962182453169309 0 0.37844401144479839 0.012609093579625891 0 0.37146335928247548 0.04052602251159599 0 0.37844401144479839 0.012609093579625891 0 0.35572529983931911 0.032753521421585163 0 0.35063657493523293 0.0197951316358141 0 0.3321968515854315 0.028027004478648001 0 0.35572529983931911 0.032753521421585163 0 0.36312657459820519 0.022962182453169309 0 0.35063657493523293 0.0197951316358141 0 0.36312657459820519 0.022962182453169309 0 0.35063657493523293 0.0197951316358141 0 0.35936362748920009 0.0091271431172253586 0 0.35936362748920009 0.0091271431172253586 0 0.33689267375143878 0.0039255003288513873 0 0.35531676971978082 -0.0033532784323768001 0 0.35063657493523293 0.0197951316358141 0 0.35936362748920009 0.0091271431172253586 0 0.33689267375143878 0.0039255003288513873 0 0.33689267375143878 0.0039255003288513873 0 0.3321968515854315 0.028027004478648001 0 0.30352242257352219 0.0039185454548519476 0 0.35063657493523293 0.0197951316358141 0 0.33689267375143878 0.0039255003288513873 0 0.3321968515854315 0.028027004478648001 0 0.3321968515854315 0.028027004478648001 0 0.32406508202711942 0.05109974460068676 0 0.30086563814790429 0.035038583275740692 0 0.34209731100959018 0.06531632876058778 0 0.32721969837032222 0.069259436753723466 0 0.32406508202711942 0.05109974460068676 0 0.34209731100959018 0.06531632876058778 0 0.35124532839545858 0.047566477505150237 0 0.32406508202711942 0.05109974460068676 0 0.35124532839545858 0.047566477505150237 0 0.3321968515854315 0.028027004478648001 0 0.32406508202711942 0.05109974460068676 0 0.31518448171420999 0.065085558788002928 0 0.32721969837032222 0.069259436753723466 0 0.32406508202711942 0.05109974460068676 0 0.31518448171420999 0.065085558788002928 0 0.32406508202711942 0.05109974460068676 0 0.29882370077581188 0.062479238108283437 0 0.32406508202711942 0.05109974460068676 0 0.29882370077581188 0.062479238108283437 0 0.30086563814790429 0.035038583275740692 0 0.32406508202711942 0.05109974460068676 0 0.30086563814790429 0.035038583275740692 0 0.30086563814790429 0.035038583275740692 0 0.28350496565293731 0.043820562147367653 0 0.27766619426868899 0.018977421950794569 0 0.29882370077581188 0.062479238108283437 0 0.30086563814790429 0.035038583275740692 0 0.28350496565293731 0.043820562147367653 0 0.29882370077581188 0.062479238108283437 0 0.28350496565293731 0.043820562147367653 0 0.28339325744793759 0.061338593161917712 0 0.3321968515854315 0.028027004478648001 0 0.30086563814790429 0.035038583275740692 0 0.30352242257352219 0.0039185454548519476 0 0.30086563814790429 0.035038583275740692 0 0.27766619426868899 0.018977421950794569 0 0.30086563814790429 0.035038583275740692 0 0.30352242257352219 0.0039185454548519476 0 0.27766619426868899 0.018977421950794569 0 0.30352242257352219 0.0039185454548519476 0 0.27766619426868899 0.018977421950794569 0 0.27708695819087842 -0.0025378708656911609 0 0.27766619426868899 0.018977421950794569 0 0.25446675038947358 0.0029162606258486688 0 0.27766619426868899 0.018977421950794569 0 0.26047117107291767 -0.0019720443344692288 0 0.27708695819087842 -0.0025378708656911609 0 0.27766619426868899 0.018977421950794569 0 0.2600935707136679 0.019574361616358959 0 0.26464981823601458 0.038183209123269009 0 0.2600935707136679 0.019574361616358959 0 0.26464981823601458 0.038183209123269009 0 0.25044211127373811 0.032849993626191502 0 0.27766619426868899 0.018977421950794569 0 0.2600935707136679 0.019574361616358959 0 0.25446675038947358 0.0029162606258486688 0 0.27766619426868899 0.018977421950794569 0 0.25446675038947358 0.0029162606258486688 0 0.26047117107291767 -0.0019720443344692288 0 0.25446675038947358 0.0029162606258486688 0 0.26047117107291767 -0.0019720443344692288 0 0.28339325744793759 0.061338593161917712 0 0.2699795556074106 0.054659435659755229 0 0.26514968559830832 0.069915803624621298 0 0.28350496565293731 0.043820562147367653 0 0.28339325744793759 0.061338593161917712 0 0.2699795556074106 0.054659435659755229 0 0.28350496565293731 0.043820562147367653 0 0.27766619426868899 0.018977421950794569 0 0.26464981823601458 0.038183209123269009 0 0.28350496565293731 0.043820562147367653 0 0.2699795556074106 0.054659435659755229 0 0.26464981823601458 0.038183209123269009 0 0.26464981823601458 0.038183209123269009 0 0.25174039047255609 0.044464402284776217 0 0.2585751734657834 0.052327775232976027 0 0.26464981823601458 0.038183209123269009 0 0.25044211127373811 0.032849993626191502 0 0.25174039047255609 0.044464402284776217 0 0.25174039047255609 0.044464402284776217 0 0.25102243244437311 0.053297338652025752 0 0.2585751734657834 0.052327775232976027 0 0.2699795556074106 0.054659435659755229 0 0.26464981823601458 0.038183209123269009 0 0.2585751734657834 0.052327775232976027 0 0.2699795556074106 0.054659435659755229 0 0.2585751734657834 0.052327775232976027 0 0.26000268679747079 0.061003988239662958 0 0.2699795556074106 0.054659435659755229 0 0.26000268679747079 0.061003988239662958 0 0.26514968559830832 0.069915803624621298 0 0.2585751734657834 0.052327775232976027 0 0.26000268679747079 0.061003988239662958 0 0.2530174900015254 0.0600809219264858 0 0.25102243244437311 0.053297338652025752 0 0.2585751734657834 0.052327775232976027 0 0.2530174900015254 0.0600809219264858 0 0.24751669685985911 0.059618880130872708 0 0.25102243244437311 0.053297338652025752 0 0.2530174900015254 0.0600809219264858 0 0.24853219730195361 0.063845178725116872 0 0.2530174900015254 0.0600809219264858 0 0.25274476311700622 0.067427493409812952 0 0.2530174900015254 0.0600809219264858 0 0.25274476311700622 0.067427493409812952 0 0.26000268679747079 0.061003988239662958 0 0.2530174900015254 0.0600809219264858 0 0.25274476311700622 0.067427493409812952 0 0.25274476311700622 0.067427493409812952 0 0.25243039498113262 0.075895774732197205 0 0.24842415088314279 0.069033451464499671 0 0.25274476311700622 0.067427493409812952 0 0.25243039498113262 0.075895774732197205 0 0.25274476311700622 0.067427493409812952 0 0.25243039498113262 0.075895774732197205 0 0.26514968559830832 0.069915803624621298 0 0.25243039498113262 0.075895774732197205 0 0.26514968559830832 0.069915803624621298 0 0.26417250328098718 0.085299079350852347 0 0.25243039498113262 0.075895774732197205 0 0.26514968559830832 0.069915803624621298 0 0.26000268679747079 0.061003988239662958 0 0.25274476311700622 0.067427493409812952 0 0.26514968559830832 0.069915803624621298 0 0.25274476311700622 0.067427493409812952 0 0.26514968559830832 0.069915803624621298 0 0.25243039498113262 0.075895774732197205 0 0.26417250328098718 0.085299079350852347 0 0.25158482098595109 0.098673396421397969 0 0.25243039498113262 0.075895774732197205 0 0.25158482098595109 0.098673396421397969 0 0.26417250328098718 0.085299079350852347 0 0.27563544099652842 0.091217529053328833 0 0.26597619666038957 0.098681263799979324 0 0.26417250328098718 0.085299079350852347 0 0.27658940398852799 0.081360569412953818 0 0.27563544099652842 0.091217529053328833 0 0.26514968559830832 0.069915803624621298 0 0.26417250328098718 0.085299079350852347 0 0.27658940398852799 0.081360569412953818 0 0.27658940398852799 0.081360569412953818 0 0.27563544099652842 0.091217529053328833 0 0.28742128170162778 0.087331448045782731 0 0.28339325744793759 0.061338593161917712 0 0.26514968559830832 0.069915803624621298 0 0.29259370646201821 0.075420814845242989 0 0.26514968559830832 0.069915803624621298 0 0.27658940398852799 0.081360569412953818 0 0.29259370646201821 0.075420814845242989 0 0.28339325744793759 0.061338593161917712 0 0.26514968559830832 0.069915803624621298 0 0.26514968559830832 0.069915803624621298 0 0.29259370646201821 0.075420814845242989 0 0.29882370077581188 0.062479238108283437 0 0.28339325744793759 0.061338593161917712 0 0.29259370646201821 0.075420814845242989 0 0.27658940398852799 0.081360569412953818 0 0.29259370646201821 0.075420814845242989 0 0.28742128170162778 0.087331448045782731 0 0.27563544099652842 0.091217529053328833 0 0.28742128170162778 0.087331448045782731 0 0.29001374252644291 0.099006193890217781 0 0.28742128170162778 0.087331448045782731 0 0.30227411453462139 0.089652133027170247 0 0.29001374252644291 0.099006193890217781 0 0.29259370646201821 0.075420814845242989 0 0.28742128170162778 0.087331448045782731 0 0.30227411453462139 0.089652133027170247 0 0.32003772732572838 0.080925826065863432 0 0.29259370646201821 0.075420814845242989 0 0.30227411453462139 0.089652133027170247 0 0.32003772732572838 0.080925826065863432 0 0.29259370646201821 0.075420814845242989 0 0.32003772732572838 0.080925826065863432 0 0.29882370077581188 0.062479238108283437 0 0.29259370646201821 0.075420814845242989 0 0.32003772732572838 0.080925826065863432 0 0.29882370077581188 0.062479238108283437 0 0.31518448171420999 0.065085558788002928 0 0.32003772732572838 0.080925826065863432 0 0.29882370077581188 0.062479238108283437 0 0.29818169174329712 0.11066146566519899 0 0.31114536757858358 0.11742006929579971 0 0.294250496481684 0.12267566802032639 0 0.31114536757858358 0.11742006929579971 0 0.294250496481684 0.12267566802032639 0 0.30313841955192899 0.13260249050964579 0 0.29818169174329712 0.11066146566519899 0 0.31114536757858358 0.11742006929579971 0 0.30640852481201453 0.1024735992044304 0 0.30227411453462139 0.089652133027170247 0 0.30640852481201453 0.1024735992044304 0 0.29001374252644291 0.099006193890217781 0 0.29818169174329712 0.11066146566519899 0 0.30640852481201453 0.1024735992044304 0 0.29001374252644291 0.099006193890217781 0 0.31657863646219547 0.093324099257994786 0 0.30227411453462139 0.089652133027170247 0 0.30640852481201453 0.1024735992044304 0 0.29818169174329712 0.11066146566519899 0 0.29001374252644291 0.099006193890217781 0 0.28729541733308872 0.1128284558108848 0 0.29001374252644291 0.099006193890217781 0 0.28729541733308872 0.1128284558108848 0 0.27577858748266387 0.1072301355245756 0 0.29818169174329712 0.11066146566519899 0 0.28729541733308872 0.1128284558108848 0 0.294250496481684 0.12267566802032639 0 0.28729541733308872 0.1128284558108848 0 0.294250496481684 0.12267566802032639 0 0.28067449336876182 0.1220521091494646 0 0.28067449336876182 0.1220521091494646 0 0.26956705708048567 0.1198361090660386 0 0.27577858748266387 0.1072301355245756 0 0.28729541733308872 0.1128284558108848 0 0.28067449336876182 0.1220521091494646 0 0.27577858748266387 0.1072301355245756 0 0.26956705708048567 0.1198361090660386 0 0.27577858748266387 0.1072301355245756 0 0.26270963055581759 0.11098617864974181 0 0.27563544099652842 0.091217529053328833 0 0.27577858748266387 0.1072301355245756 0 0.26597619666038957 0.098681263799979324 0 0.27563544099652842 0.091217529053328833 0 0.29001374252644291 0.099006193890217781 0 0.27577858748266387 0.1072301355245756 0 0.27577858748266387 0.1072301355245756 0 0.26597619666038957 0.098681263799979324 0 0.26270963055581759 0.11098617864974181 0 0.25158482098595109 0.098673396421397969 0 0.25094552198087999 0.11589449234768209 0 0.25158482098595109 0.098673396421397969 0 0.26270963055581759 0.11098617864974181 0 0.25094552198087999 0.11589449234768209 0 0.26417250328098718 0.085299079350852347 0 0.26597619666038957 0.098681263799979324 0 0.25158482098595109 0.098673396421397969 0 0.26597619666038957 0.098681263799979324 0 0.25158482098595109 0.098673396421397969 0 0.26270963055581759 0.11098617864974181 0 0.25158482098595109 0.098673396421397969 0 0.26270963055581759 0.11098617864974181 0 0.25094552198087999 0.11589449234768209 0 0.25030622297580962 0.13311558827396619 0 0.26022612795132161 0.12333036834530881 0 0.25094552198087999 0.11589449234768209 0 0.25030622297580962 0.13311558827396619 0 0.26956705708048567 0.1198361090660386 0 0.26022612795132161 0.12333036834530881 0 0.26270963055581759 0.11098617864974181 0 0.26022612795132161 0.12333036834530881 0 0.26270963055581759 0.11098617864974181 0 0.25094552198087999 0.11589449234768209 0 0.26956705708048567 0.1198361090660386 0 0.26022612795132161 0.12333036834530881 0 0.26675796828336718 0.1380571931171293 0 0.26022612795132161 0.12333036834530881 0 0.25030622297580962 0.13311558827396619 0 0.26675796828336718 0.1380571931171293 0 0.25030622297580962 0.13311558827396619 0 0.26675796828336718 0.1380571931171293 0 0.25030622297580962 0.13311558827396619 0 0.26675796828336718 0.1380571931171293 0 0.25638724149227848 0.14295410589973731 0 0.25004344172447263 0.14019424959050239 0 0.25030622297580962 0.13311558827396619 0 0.25638724149227848 0.14295410589973731 0 0.25004344172447263 0.14019424959050239 0 0.25030622297580962 0.13311558827396619 0 0.26675796828336718 0.1380571931171293 0 0.28320971359092417 0.1429987979602943 0 0.26675796828336718 0.1380571931171293 0 0.28666270206708028 0.1324408374186071 0 0.28320971359092417 0.1429987979602943 0 0.28067449336876182 0.1220521091494646 0 0.26956705708048567 0.1198361090660386 0 0.26675796828336718 0.1380571931171293 0 0.28067449336876182 0.1220521091494646 0 0.26675796828336718 0.1380571931171293 0 0.28666270206708028 0.1324408374186071 0 0.26675796828336718 0.1380571931171293 0 0.27436529468354132 0.15433220537778311 0 0.26010861073109098 0.15248373785575309 0 0.26675796828336718 0.1380571931171293 0 0.27436529468354132 0.15433220537778311 0 0.28320971359092417 0.1429987979602943 0 0.26675796828336718 0.1380571931171293 0 0.26010861073109098 0.15248373785575309 0 0.25638724149227848 0.14295410589973731 0 0.2496536413094039 0.15044712256699261 0 0.25004344172447263 0.14019424959050239 0 0.25638724149227848 0.14295410589973731 0 0.24653130607993951 0.16237692388552691 0 0.2496536413094039 0.15044712256699261 0 0.26010861073109098 0.15248373785575309 0 0.2496536413094039 0.15044712256699261 0 0.26010861073109098 0.15248373785575309 0 0.25638724149227848 0.14295410589973731 0 0.24653130607993951 0.16237692388552691 0 0.25292738168467233 0.17649485219682931 0 0.26638423851283249 0.16867758561061549 0 0.24653130607993951 0.16237692388552691 0 0.26010861073109098 0.15248373785575309 0 0.26638423851283249 0.16867758561061549 0 0.24528107816237801 0.1907036486386274 0 0.25292738168467233 0.17649485219682931 0 0.26633433714882182 0.18577592949096661 0 0.25292738168467233 0.17649485219682931 0 0.26633433714882182 0.18577592949096661 0 0.26638423851283249 0.16867758561061549 0 0.27723266788850742 0.181048228772968 0 0.26638423851283249 0.16867758561061549 0 0.28391425324491287 0.17071999404263091 0 0.26633433714882182 0.18577592949096661 0 0.27723266788850742 0.181048228772968 0 0.26638423851283249 0.16867758561061549 0 0.27436529468354132 0.15433220537778311 0 0.26010861073109098 0.15248373785575309 0 0.26638423851283249 0.16867758561061549 0 0.27436529468354132 0.15433220537778311 0 0.26638423851283249 0.16867758561061549 0 0.28391425324491287 0.17071999404263091 0 0.27436529468354132 0.15433220537778311 0 0.28391425324491287 0.17071999404263091 0 0.29097703849613438 0.15773848939083679 0 0.28391425324491287 0.17071999404263091 0 0.2931647794093819 0.16879209887591959 0 0.29097703849613438 0.15773848939083679 0 0.2931647794093819 0.16879209887591959 0 0.29097703849613438 0.15773848939083679 0 0.30040947706207388 0.16512632217721829 0 0.28391425324491287 0.17071999404263091 0 0.28743664533084129 0.187357279865842 0 0.29743995151898561 0.17866098634217961 0 0.27723266788850742 0.181048228772968 0 0.28391425324491287 0.17071999404263091 0 0.28743664533084129 0.187357279865842 0 0.28391425324491287 0.17071999404263091 0 0.2931647794093819 0.16879209887591959 0 0.29743995151898561 0.17866098634217961 0 0.28743664533084129 0.187357279865842 0 0.29743995151898561 0.17866098634217961 0 0.29971043857951379 0.19298806906372529 0 0.29743995151898561 0.17866098634217961 0 0.30929675685570829 0.1858318568065235 0 0.29971043857951379 0.19298806906372529 0 0.29743995151898561 0.17866098634217961 0 0.3101655001798202 0.17563615506282959 0 0.30040947706207388 0.16512632217721829 0 0.29743995151898561 0.17866098634217961 0 0.3101655001798202 0.17563615506282959 0 0.30929675685570829 0.1858318568065235 0 0.30040947706207388 0.16512632217721829 0 0.30453528129870422 0.15487579661148021 0 0.32848741365188411 0.1727716232507491 0 0.29097703849613438 0.15773848939083679 0 0.30040947706207388 0.16512632217721829 0 0.30453528129870422 0.15487579661148021 0 0.2931647794093819 0.16879209887591959 0 0.29743995151898561 0.17866098634217961 0 0.30040947706207388 0.16512632217721829 0 0.29097703849613438 0.15773848939083679 0 0.30453528129870422 0.15487579661148021 0 0.29618567382365713 0.14404403195872001 0 0.30453528129870422 0.15487579661148021 0 0.30873747279203018 0.14281046260302349 0 0.29618567382365713 0.14404403195872001 0 0.30453528129870422 0.15487579661148021 0 0.30873747279203018 0.14281046260302349 0 0.32007589174333823 0.14676000458717811 0 0.30873747279203018 0.14281046260302349 0 0.30313841955192899 0.13260249050964579 0 0.3195478300457561 0.1332621056988223 0 0.31114536757858358 0.11742006929579971 0 0.30313841955192899 0.13260249050964579 0 0.3195478300457561 0.1332621056988223 0 0.30873747279203018 0.14281046260302349 0 0.30313841955192899 0.13260249050964579 0 0.29618567382365713 0.14404403195872001 0 0.294250496481684 0.12267566802032639 0 0.30313841955192899 0.13260249050964579 0 0.28666270206708028 0.1324408374186071 0 0.30313841955192899 0.13260249050964579 0 0.28666270206708028 0.1324408374186071 0 0.29618567382365713 0.14404403195872001 0 0.294250496481684 0.12267566802032639 0 0.28067449336876182 0.1220521091494646 0 0.28666270206708028 0.1324408374186071 0 0.28666270206708028 0.1324408374186071 0 0.28320971359092417 0.1429987979602943 0 0.29618567382365713 0.14404403195872001 0 0.27436529468354132 0.15433220537778311 0 0.29097703849613438 0.15773848939083679 0 0.28320971359092417 0.1429987979602943 0 0.29097703849613438 0.15773848939083679 0 0.28320971359092417 0.1429987979602943 0 0.29618567382365713 0.14404403195872001 0 0.28119448123381058 0.25405304303149878 0 0.26221447651104962 0.2479993693513689 0 0.28440499104296979 0.23439140090611099 0 0.26221447651104962 0.2479993693513689 0 0.26853130556434218 0.23400660741274959 0 0.28440499104296979 0.23439140090611099 0 0.26221447651104962 0.2479993693513689 0 0.28440499104296979 0.23439140090611099 0 0.2457442494512444 0.24022391879071339 0 0.26221447651104962 0.2479993693513689 0 0.25511338863332461 0.22468137717712711 0 0.26221447651104962 0.2479993693513689 0 0.25511338863332461 0.22468137717712711 0 0.26853130556434218 0.23400660741274959 0 0.26221447651104962 0.2479993693513689 0 0.25511338863332461 0.22468137717712711 0 0.25511338863332461 0.22468137717712711 0 0.25242827713160498 0.21540237912569379 0 0.25511338863332461 0.22468137717712711 0 0.2794126892910288 0.21617120911671081 0 0.25511338863332461 0.22468137717712711 0 0.26853130556434218 0.23400660741274959 0 0.2794126892910288 0.21617120911671081 0 0.26853130556434218 0.23400660741274959 0 0.2794126892910288 0.21617120911671081 0 0.28440499104296979 0.23439140090611099 0 0.25511338863332461 0.22468137717712711 0 0.2794126892910288 0.21617120911671081 0 0.26644318031571418 0.20408753099865831 0 0.2794126892910288 0.21617120911671081 0 0.26644318031571418 0.20408753099865831 0 0.27722953884408802 0.19656269719262509 0 0.24528107816237801 0.1907036486386274 0 0.26644318031571418 0.20408753099865831 0 0.25242827713160498 0.21540237912569379 0 0.25511338863332461 0.22468137717712711 0 0.26644318031571418 0.20408753099865831 0 0.25242827713160498 0.21540237912569379 0 0.26644318031571418 0.20408753099865831 0 0.25242827713160498 0.21540237912569379 0 0.24528107816237801 0.1907036486386274 0 0.26633433714882182 0.18577592949096661 0 0.26644318031571418 0.20408753099865831 0 0.26633433714882182 0.18577592949096661 0 0.26644318031571418 0.20408753099865831 0 0.27722953884408802 0.19656269719262509 0 0.27723266788850742 0.181048228772968 0 0.28743664533084129 0.187357279865842 0 0.27722953884408802 0.19656269719262509 0 0.26633433714882182 0.18577592949096661 0 0.27723266788850742 0.181048228772968 0 0.27722953884408802 0.19656269719262509 0 0.28743664533084129 0.187357279865842 0 0.27722953884408802 0.19656269719262509 0 0.28939512316467059 0.2005252056429343 0 0.28743664533084129 0.187357279865842 0 0.28939512316467059 0.2005252056429343 0 0.29971043857951379 0.19298806906372529 0 0.30929675685570829 0.1858318568065235 0 0.29971043857951379 0.19298806906372529 0 0.31162694501442678 0.19735313208654229 0 0.29971043857951379 0.19298806906372529 0 0.31162694501442678 0.19735313208654229 0 0.30371198994873311 0.20766104105629449 0 0.28939512316467059 0.2005252056429343 0 0.29971043857951379 0.19298806906372529 0 0.30371198994873311 0.20766104105629449 0 0.2794126892910288 0.21617120911671081 0 0.30371198994873311 0.20766104105629449 0 0.2794126892910288 0.21617120911671081 0 0.30371198994873311 0.20766104105629449 0 0.30659550557489001 0.220783432460853 0 0.2794126892910288 0.21617120911671081 0 0.27722953884408802 0.19656269719262509 0 0.28939512316467059 0.2005252056429343 0 0.2794126892910288 0.21617120911671081 0 0.28939512316467059 0.2005252056429343 0 0.30371198994873311 0.20766104105629449 0 0.30659550557489001 0.220783432460853 0 0.28440499104296979 0.23439140090611099 0 0.2794126892910288 0.21617120911671081 0 0.30659550557489001 0.220783432460853 0 0.28440499104296979 0.23439140090611099 0 0.30659550557489001 0.220783432460853 0 0.30328699804120918 0.24394477185791469 0 0.28440499104296979 0.23439140090611099 0 0.30659550557489001 0.220783432460853 0 0.30328699804120918 0.24394477185791469 0 0.31607427666693672 0.2331905299380852 0 0.28119448123381058 0.25405304303149878 0 0.30328699804120918 0.24394477185791469 0 0.28440499104296979 0.23439140090611099 0 0.3433555784436142 0.25004320974280247 0 0.34183468199228573 0.23727684870966961 0 0.33092809789354199 0.24744869965648561 0 0.34183468199228573 0.23727684870966961 0 0.3288410404878227 0.2348757256337824 0 0.33092809789354199 0.24744869965648561 0 0.3288410404878227 0.2348757256337824 0 0.33092809789354199 0.24744869965648561 0 0.31845456220733243 0.24449663650262579 0 0.31879452400631653 0.25919465198291952 0 0.30328699804120918 0.24394477185791469 0 0.31845456220733243 0.24449663650262579 0 0.30328699804120918 0.24394477185791469 0 0.31845456220733243 0.24449663650262579 0 0.31607427666693672 0.2331905299380852 0 0.3288410404878227 0.2348757256337824 0 0.31845456220733243 0.24449663650262579 0 0.31607427666693672 0.2331905299380852 0 0.3288410404878227 0.2348757256337824 0 0.31607427666693672 0.2331905299380852 0 0.32372534117020862 0.22390137225637691 0 0.30659550557489001 0.220783432460853 0 0.31607427666693672 0.2331905299380852 0 0.32372534117020862 0.22390137225637691 0 0.3288410404878227 0.2348757256337824 0 0.32372534117020862 0.22390137225637691 0 0.33832986301458301 0.22348170923356889 0 0.34183468199228573 0.23727684870966961 0 0.3288410404878227 0.2348757256337824 0 0.33832986301458301 0.22348170923356889 0 0.32372534117020862 0.22390137225637691 0 0.33832986301458301 0.22348170923356889 0 0.32878602010681029 0.20717546401559489 0 0.33832986301458301 0.22348170923356889 0 0.32878602010681029 0.20717546401559489 0 0.35089693608391498 0.21212819010674691 0 0.32878602010681029 0.20717546401559489 0 0.35097653463873058 0.19356749557033681 0 0.35089693608391498 0.21212819010674691 0 0.30659550557489001 0.220783432460853 0 0.32372534117020862 0.22390137225637691 0 0.32878602010681029 0.20717546401559489 0 0.31162694501442678 0.19735313208654229 0 0.30371198994873311 0.20766104105629449 0 0.32878602010681029 0.20717546401559489 0 0.30371198994873311 0.20766104105629449 0 0.30659550557489001 0.220783432460853 0 0.32878602010681029 0.20717546401559489 0 0.30659550557489001 0.220783432460853 0 0.32878602010681029 0.20717546401559489 0 0.32878602010681029 0.20717546401559489 0 0.31972446529152482 0.19052244909679969 0 0.3336272658304279 0.18895925974375941 0 0.31162694501442678 0.19735313208654229 0 0.32878602010681029 0.20717546401559489 0 0.31972446529152482 0.19052244909679969 0 0.30929675685570829 0.1858318568065235 0 0.31162694501442678 0.19735313208654229 0 0.31972446529152482 0.19052244909679969 0 0.32878602010681029 0.20717546401559489 0 0.3336272658304279 0.18895925974375941 0 0.35097653463873058 0.19356749557033681 0 0.32878602010681029 0.20717546401559489 0 0.35097653463873058 0.19356749557033681 0 0.3336272658304279 0.18895925974375941 0 0.35097653463873058 0.19356749557033681 0 0.35656535024169428 0.1804169243242798 0 0.35097653463873058 0.19356749557033681 0 0.35896651107905142 0.20360726904620211 0 0.35089693608391498 0.21212819010674691 0 0.35097653463873058 0.19356749557033681 0 0.36405518175537521 0.19484170215684679 0 0.35896651107905142 0.20360726904620211 0 0.35097653463873058 0.19356749557033681 0 0.36405518175537521 0.19484170215684679 0 0.35656535024169428 0.1804169243242798 0 0.36405518175537521 0.19484170215684679 0 0.35656535024169428 0.1804169243242798 0 0.38464328683150451 0.18806222539781059 0 0.36405518175537521 0.19484170215684679 0 0.36923798170140371 0.20928007436804161 0 0.38464328683150451 0.18806222539781059 0 0.36405518175537521 0.19484170215684679 0 0.36923798170140371 0.20928007436804161 0 0.35896651107905142 0.20360726904620211 0 0.36923798170140371 0.20928007436804161 0 0.36132702422268731 0.21787493872225441 0 0.35896651107905142 0.20360726904620211 0 0.36923798170140371 0.20928007436804161 0 0.36132702422268731 0.21787493872225441 0 0.37292139258550783 0.22672254500020811 0 0.36132702422268731 0.21787493872225441 0 0.35896651107905142 0.20360726904620211 0 0.35089693608391498 0.21212819010674691 0 0.34183468199228573 0.23727684870966961 0 0.33832986301458301 0.22348170923356889 0 0.35524969613090918 0.22837961108452459 0 0.36132702422268731 0.21787493872225441 0 0.35089693608391498 0.21212819010674691 0 0.35524969613090918 0.22837961108452459 0 0.33832986301458301 0.22348170923356889 0 0.35089693608391498 0.21212819010674691 0 0.35524969613090918 0.22837961108452459 0 0.36132702422268731 0.21787493872225441 0 0.35524969613090918 0.22837961108452459 0 0.37292139258550783 0.22672254500020811 0 0.35524969613090918 0.22837961108452459 0 0.37292139258550783 0.22672254500020811 0 0.36587213359177301 0.2378375665458646 0 0.37292139258550783 0.22672254500020811 0 0.36587213359177301 0.2378375665458646 0 0.3757768555661396 0.240133652284411 0 0.36587213359177301 0.2378375665458646 0 0.37169426656027921 0.24972740256563611 0 0.3757768555661396 0.240133652284411 0 0.36587213359177301 0.2378375665458646 0 0.37169426656027921 0.24972740256563611 0 0.36205361842742478 0.24882498742118489 0 0.36587213359177301 0.2378375665458646 0 0.36205361842742478 0.24882498742118489 0 0.35356337405553911 0.24205426642971811 0 0.35175757775775729 0.2532797976346674 0 0.36205361842742478 0.24882498742118489 0 0.35356337405553911 0.24205426642971811 0 0.35524969613090918 0.22837961108452459 0 0.36587213359177301 0.2378375665458646 0 0.35356337405553911 0.24205426642971811 0 0.34183468199228573 0.23727684870966961 0 0.35524969613090918 0.22837961108452459 0 0.35356337405553911 0.24205426642971811 0 0.3433555784436142 0.25004320974280247 0 0.34183468199228573 0.23727684870966961 0 0.35356337405553911 0.24205426642971811 0 0.3433555784436142 0.25004320974280247 0 0.35175757775775729 0.2532797976346674 0 0.35356337405553911 0.24205426642971811 0 0.33379856680907583 0.1437068241164389 0 0.32007589174333823 0.14676000458717811 0 0.33365817402274128 0.15789089208148979 0 0.33379856680907583 0.1437068241164389 0 0.33365817402274128 0.15789089208148979 0 0.34780073530519279 0.14835628742565241 0 0.33379856680907583 0.1437068241164389 0 0.34780073530519279 0.14835628742565241 0 0.34586764947947463 0.1362539899128139 0 0.33379856680907583 0.1437068241164389 0 0.33436770153514289 0.13112975471366969 0 0.34586764947947463 0.1362539899128139 0 0.34956654336434939 0.1234914401014125 0 0.33436770153514289 0.13112975471366969 0 0.34586764947947463 0.1362539899128139 0 0.33379856680907583 0.1437068241164389 0 0.33436770153514289 0.13112975471366969 0 0.3195478300457561 0.1332621056988223 0 0.32606950933900308 0.1158177097477945 0 0.33436770153514289 0.13112975471366969 0 0.3195478300457561 0.1332621056988223 0 0.30873747279203018 0.14281046260302349 0 0.3195478300457561 0.1332621056988223 0 0.32007589174333823 0.14676000458717811 0 0.30453528129870422 0.15487579661148021 0 0.32007589174333823 0.14676000458717811 0 0.33365817402274128 0.15789089208148979 0 0.33379856680907583 0.1437068241164389 0 0.3195478300457561 0.1332621056988223 0 0.32007589174333823 0.14676000458717811 0 0.30453528129870422 0.15487579661148021 0 0.33365817402274128 0.15789089208148979 0 0.30453528129870422 0.15487579661148021 0 0.32848741365188411 0.1727716232507491 0 0.33365817402274128 0.15789089208148979 0 0.30040947706207388 0.16512632217721829 0 0.32848741365188411 0.1727716232507491 0 0.3101655001798202 0.17563615506282959 0 0.30040947706207388 0.16512632217721829 0 0.32848741365188411 0.1727716232507491 0 0.3101655001798202 0.17563615506282959 0 0.31983557186529732 0.18171103000860481 0 0.32848741365188411 0.1727716232507491 0 0.3336272658304279 0.18895925974375941 0 0.31983557186529732 0.18171103000860481 0 0.32848741365188411 0.1727716232507491 0 0.3101655001798202 0.17563615506282959 0 0.30929675685570829 0.1858318568065235 0 0.31983557186529732 0.18171103000860481 0 0.30929675685570829 0.1858318568065235 0 0.31972446529152482 0.19052244909679969 0 0.31983557186529732 0.18171103000860481 0 0.31972446529152482 0.19052244909679969 0 0.3336272658304279 0.18895925974375941 0 0.31983557186529732 0.18171103000860481 0 0.32848741365188411 0.1727716232507491 0 0.34507730906385942 0.16855187839241309 0 0.35656535024169428 0.1804169243242798 0 0.3336272658304279 0.18895925974375941 0 0.32848741365188411 0.1727716232507491 0 0.35656535024169428 0.1804169243242798 0 0.32848741365188411 0.1727716232507491 0 0.35656535024169428 0.1804169243242798 0 0.32848741365188411 0.1727716232507491 0 0.33365817402274128 0.15789089208148979 0 0.34507730906385942 0.16855187839241309 0 0.33365817402274128 0.15789089208148979 0 0.34507730906385942 0.16855187839241309 0 0.36278106674677829 0.1609059875514994 0 0.34507730906385942 0.16855187839241309 0 0.35656535024169428 0.1804169243242798 0 0.36278106674677829 0.1609059875514994 0 0.33365817402274128 0.15789089208148979 0 0.36278106674677829 0.1609059875514994 0 0.35656535024169428 0.1804169243242798 0 0.37356219856206202 0.1741215612114578 0 0.38464328683150451 0.18806222539781059 0 0.35656535024169428 0.1804169243242798 0 0.38464328683150451 0.18806222539781059 0 0.35656535024169428 0.1804169243242798 0 0.37356219856206202 0.1741215612114578 0 0.36278106674677829 0.1609059875514994 0 0.36278106674677829 0.1609059875514994 0 0.36531512046589693 0.1378839500987098 0 0.37680076681991098 0.15092733218095339 0 0.36278106674677829 0.1609059875514994 0 0.34780073530519279 0.14835628742565241 0 0.36531512046589693 0.1378839500987098 0 0.34780073530519279 0.14835628742565241 0 0.34586764947947463 0.1362539899128139 0 0.36531512046589693 0.1378839500987098 0 0.33365817402274128 0.15789089208148979 0 0.36278106674677829 0.1609059875514994 0 0.34780073530519279 0.14835628742565241 0 0.34956654336434939 0.1234914401014125 0 0.34586764947947463 0.1362539899128139 0 0.36531512046589693 0.1378839500987098 0 0.34956654336434939 0.1234914401014125 0 0.36322639358210312 0.11848039068348271 0 0.36531512046589693 0.1378839500987098 0 0.36322639358210312 0.11848039068348271 0 0.36531512046589693 0.1378839500987098 0 0.38482072671029011 0.13725767299229241 0 0.36322639358210312 0.11848039068348271 0 0.38482072671029011 0.13725767299229241 0 0.36322639358210312 0.11848039068348271 0 0.38482072671029011 0.13725767299229241 0 0.38005682511468147 0.12140739343396729 0 0.38482072671029011 0.13725767299229241 0 0.39398634319161102 0.12556361147638159 0 0.38005682511468147 0.12140739343396729 0 0.38482072671029011 0.13725767299229241 0 0.39398634319161102 0.12556361147638159 0 0.40386822996399702 0.1370092008917044 0 0.39398634319161102 0.12556361147638159 0 0.40386822996399702 0.1370092008917044 0 0.40630256149234217 0.12337914253670321 0 0.38482072671029011 0.13725767299229241 0 0.40641505983847698 0.15603495530110209 0 0.38482072671029011 0.13725767299229241 0 0.40386822996399702 0.1370092008917044 0 0.40641505983847698 0.15603495530110209 0 0.38482072671029011 0.13725767299229241 0 0.39190395947081519 0.16392108302150901 0 0.40641505983847698 0.15603495530110209 0 0.36531512046589693 0.1378839500987098 0 0.38482072671029011 0.13725767299229241 0 0.37680076681991098 0.15092733218095339 0 0.38482072671029011 0.13725767299229241 0 0.37680076681991098 0.15092733218095339 0 0.39190395947081519 0.16392108302150901 0 0.36278106674677829 0.1609059875514994 0 0.39190395947081519 0.16392108302150901 0 0.36278106674677829 0.1609059875514994 0 0.37680076681991098 0.15092733218095339 0 0.39190395947081519 0.16392108302150901 0 0.37356219856206202 0.1741215612114578 0 0.36278106674677829 0.1609059875514994 0 0.39190395947081519 0.16392108302150901 0 0.37356219856206202 0.1741215612114578 0 0.39190395947081519 0.16392108302150901 0 0.38464328683150451 0.18806222539781059 0 0.4059128807594603 0.17981630131623391 0 0.39190395947081519 0.16392108302150901 0 0.38464328683150451 0.18806222539781059 0 0.39190395947081519 0.16392108302150901 0 0.42102685219485209 0.16693617849151851 0 0.40641505983847698 0.15603495530110209 0 0.4059128807594603 0.17981630131623391 0 0.39190395947081519 0.16392108302150901 0 0.42102685219485209 0.16693617849151851 0 0.42102685219485209 0.16693617849151851 0 0.40641505983847698 0.15603495530110209 0 0.41490094777653419 0.14712571815411829 0 0.39190395947081519 0.16392108302150901 0 0.42102685219485209 0.16693617849151851 0 0.4059128807594603 0.17981630131623391 0 0.42102685219485209 0.16693617849151851 0 0.42759287120751482 0.1799189573059411 0 0.4059128807594603 0.17981630131623391 0 0.42759287120751482 0.1799189573059411 0 0.42045703890892938 0.19185412915784311 0 0.42102685219485209 0.16693617849151851 0 0.42759287120751482 0.1799189573059411 0 0.45014974491888898 0.16995127396152809 0 0.42759287120751482 0.1799189573059411 0 0.42045703890892938 0.19185412915784311 0 0.43799329450951457 0.1898848624547933 0 0.42102685219485209 0.16693617849151851 0 0.45014974491888898 0.16995127396152809 0 0.42102685219485209 0.16693617849151851 0 0.43641214087317609 0.15776157540708571 0 0.42820809332857229 0.14540676379554701 0 0.42102685219485209 0.16693617849151851 0 0.43641214087317609 0.15776157540708571 0 0.45014974491888898 0.16995127396152809 0 0.43641214087317609 0.15776157540708571 0 0.42820809332857229 0.14540676379554701 0 0.44305345270963392 0.14224085277467549 0 0.42820809332857229 0.14540676379554701 0 0.43267139290449452 0.12562392175117529 0 0.41815906511665779 0.13368892679480551 0 0.42820809332857229 0.14540676379554701 0 0.43267139290449452 0.12562392175117529 0 0.44305345270963392 0.14224085277467549 0 0.43267139290449452 0.12562392175117529 0 0.41815906511665779 0.13368892679480551 0 0.41840244549433692 0.1204435227777134 0 0.41815906511665779 0.13368892679480551 0 0.41840244549433692 0.1204435227777134 0 0.40630256149234217 0.12337914253670321 0 0.40386822996399702 0.1370092008917044 0 0.41815906511665779 0.13368892679480551 0 0.40630256149234217 0.12337914253670321 0 0.40386822996399702 0.1370092008917044 0 0.41815906511665779 0.13368892679480551 0 0.41490094777653419 0.14712571815411829 0 0.42102685219485209 0.16693617849151851 0 0.42820809332857229 0.14540676379554701 0 0.41490094777653419 0.14712571815411829 0 0.40386822996399702 0.1370092008917044 0 0.40641505983847698 0.15603495530110209 0 0.41490094777653419 0.14712571815411829 0 0.42820809332857229 0.14540676379554701 0 0.41815906511665779 0.13368892679480551 0 0.41490094777653419 0.14712571815411829 0 0.39196586341458151 0.242441409442547 0 0.40329821407583749 0.23025496453590971 0 0.40866327585672191 0.24600766979752939 0 0.38129994004966872 0.25577407136566988 0 0.39196586341458151 0.242441409442547 0 0.40866327585672191 0.24600766979752939 0 0.38129994004966872 0.25577407136566988 0 0.39196586341458151 0.242441409442547 0 0.38106847269238292 0.24536179082341181 0 0.37169426656027921 0.24972740256563611 0 0.38106847269238292 0.24536179082341181 0 0.3757768555661396 0.240133652284411 0 0.37292139258550783 0.22672254500020811 0 0.3757768555661396 0.240133652284411 0 0.38460543787124563 0.238732418458795 0 0.38106847269238292 0.24536179082341181 0 0.3757768555661396 0.240133652284411 0 0.38460543787124563 0.238732418458795 0 0.39196586341458151 0.242441409442547 0 0.38106847269238292 0.24536179082341181 0 0.38460543787124563 0.238732418458795 0 0.39196586341458151 0.242441409442547 0 0.38460543787124563 0.238732418458795 0 0.38844350160088592 0.2284985707660753 0 0.37292139258550783 0.22672254500020811 0 0.38460543787124563 0.238732418458795 0 0.38844350160088592 0.2284985707660753 0 0.37292139258550783 0.22672254500020811 0 0.38844350160088592 0.2284985707660753 0 0.38369130631537601 0.21297307403445409 0 0.38844350160088592 0.2284985707660753 0 0.39679964264504158 0.21937630878092959 0 0.38369130631537601 0.21297307403445409 0 0.38844350160088592 0.2284985707660753 0 0.39679964264504158 0.21937630878092959 0 0.40329821407583749 0.23025496453590971 0 0.39196586341458151 0.242441409442547 0 0.38844350160088592 0.2284985707660753 0 0.40329821407583749 0.23025496453590971 0 0.39679964264504158 0.21937630878092959 0 0.40329821407583749 0.23025496453590971 0 0.41066806580544729 0.2160617609406458 0 0.39598296716959969 0.20626700748070109 0 0.40513352984814438 0.19492560706685999 0 0.41066806580544729 0.2160617609406458 0 0.39679964264504158 0.21937630878092959 0 0.39598296716959969 0.20626700748070109 0 0.41066806580544729 0.2160617609406458 0 0.39679964264504158 0.21937630878092959 0 0.39598296716959969 0.20626700748070109 0 0.38369130631537601 0.21297307403445409 0 0.36923798170140371 0.20928007436804161 0 0.37292139258550783 0.22672254500020811 0 0.38369130631537601 0.21297307403445409 0 0.36923798170140371 0.20928007436804161 0 0.38369130631537601 0.21297307403445409 0 0.38464328683150451 0.18806222539781059 0 0.39598296716959969 0.20626700748070109 0 0.38369130631537601 0.21297307403445409 0 0.38464328683150451 0.18806222539781059 0 0.39598296716959969 0.20626700748070109 0 0.38464328683150451 0.18806222539781059 0 0.40513352984814438 0.19492560706685999 0 0.4059128807594603 0.17981630131623391 0 0.38464328683150451 0.18806222539781059 0 0.40513352984814438 0.19492560706685999 0 0.40513352984814438 0.19492560706685999 0 0.42045703890892938 0.19185412915784311 0 0.42444067869502011 0.20693424997503959 0 0.4059128807594603 0.17981630131623391 0 0.40513352984814438 0.19492560706685999 0 0.42045703890892938 0.19185412915784311 0 0.42045703890892938 0.19185412915784311 0 0.42444067869502011 0.20693424997503959 0 0.43799329450951457 0.1898848624547933 0 0.42444067869502011 0.20693424997503959 0 0.44184419378540352 0.2076794424592901 0 0.43799329450951457 0.1898848624547933 0 0.42444067869502011 0.20693424997503959 0 0.4302098735549707 0.2206458244329694 0 0.44184419378540352 0.2076794424592901 0 0.42444067869502011 0.20693424997503959 0 0.41066806580544729 0.2160617609406458 0 0.4302098735549707 0.2206458244329694 0 0.40513352984814438 0.19492560706685999 0 0.42444067869502011 0.20693424997503959 0 0.41066806580544729 0.2160617609406458 0 0.41066806580544729 0.2160617609406458 0 0.41777320819135039 0.22984229758728861 0 0.4302098735549707 0.2206458244329694 0 0.40329821407583749 0.23025496453590971 0 0.41066806580544729 0.2160617609406458 0 0.41777320819135039 0.22984229758728861 0 0.4302098735549707 0.2206458244329694 0 0.43602661166377499 0.2362412682293889 0 0.44584438813649652 0.2203436080528294 0 0.41777320819135039 0.22984229758728861 0 0.4302098735549707 0.2206458244329694 0 0.43602661166377499 0.2362412682293889 0 0.43602661166377499 0.2362412682293889 0 0.43076425121212841 0.2486853010718087 0 0.40866327585672191 0.24600766979752939 0 0.43602661166377499 0.2362412682293889 0 0.40866327585672191 0.24600766979752939 0 0.41777320819135039 0.22984229758728861 0 0.43602661166377499 0.2362412682293889 0 0.40866327585672191 0.24600766979752939 0 0.41664462513020523 0.25422696758609492 0 0.43076425121212841 0.2486853010718087 0 0.40866327585672191 0.24600766979752939 0 0.40329821407583749 0.23025496453590971 0 0.41777320819135039 0.22984229758728861 0 0.40866327585672191 0.24600766979752939 0 0.45166362976964691 0.25106894999712381 0 0.45384283414141641 0.23962742592169059 0 0.47583181488482379 0.2451422378191761 0 0.45166362976964691 0.25106894999712381 0 0.47583181488482379 0.2451422378191761 0 0.45384283414141641 0.23962742592169059 0 0.47692141707070451 0.23056955077157251 0 0.45166362976964691 0.25106894999712381 0 0.43076425121212841 0.2486853010718087 0 0.45384283414141641 0.23962742592169059 0 0.43602661166377499 0.2362412682293889 0 0.43076425121212841 0.2486853010718087 0 0.45384283414141641 0.23962742592169059 0 0.43076425121212841 0.2486853010718087 0 0.45384283414141641 0.23962742592169059 0 0.43602661166377499 0.2362412682293889 0 0.46338994747082818 0.22647486666124839 0 0.43602661166377499 0.2362412682293889 0 0.44584438813649652 0.2203436080528294 0 0.46338994747082818 0.22647486666124839 0 0.43602661166377499 0.2362412682293889 0 0.45384283414141641 0.23962742592169059 0 0.46338994747082818 0.22647486666124839 0 0.44584438813649652 0.2203436080528294 0 0.46338994747082818 0.22647486666124839 0 0.4574246187180494 0.20998202225832771 0 0.45384283414141641 0.23962742592169059 0 0.46338994747082818 0.22647486666124839 0 0.47692141707070451 0.23056955077157251 0 0.46338994747082818 0.22647486666124839 0 0.4574246187180494 0.20998202225832771 0 0.47311107537994651 0.21060674662752529 0 0.4574246187180494 0.20998202225832771 0 0.46861366351278472 0.19789432193598561 0 0.47311107537994651 0.21060674662752529 0 0.44584438813649652 0.2203436080528294 0 0.4574246187180494 0.20998202225832771 0 0.44184419378540352 0.2076794424592901 0 0.4302098735549707 0.2206458244329694 0 0.44584438813649652 0.2203436080528294 0 0.44184419378540352 0.2076794424592901 0 0.4574246187180494 0.20998202225832771 0 0.44184419378540352 0.2076794424592901 0 0.45120510308892831 0.19507838461398491 0 0.44184419378540352 0.2076794424592901 0 0.43799329450951457 0.1898848624547933 0 0.45120510308892831 0.19507838461398491 0 0.4574246187180494 0.20998202225832771 0 0.45120510308892831 0.19507838461398491 0 0.46861366351278472 0.19789432193598561 0 0.45120510308892831 0.19507838461398491 0 0.46861366351278472 0.19789432193598561 0 0.45014974491888898 0.16995127396152809 0 0.46861366351278472 0.19789432193598561 0 0.48377650321145821 0.20030440734603891 0 0.47890777313388699 0.17818810929941131 0 0.46861366351278472 0.19789432193598561 0 0.48377650321145821 0.20030440734603891 0 0.47311107537994651 0.21060674662752529 0 0.48377650321145821 0.20030440734603891 0 0.5 0.19442179120654851 0 0.47890777313388699 0.17818810929941131 0 0.48377650321145821 0.20030440734603891 0 0.5 0.19442179120654851 0 0.49075328327788142 0.2167084650931079 0 0.5 0.19442179120654851 0 0.49075328327788142 0.2167084650931079 0 0.49999999999999339 0.2215116756214566 0 0.48377650321145821 0.20030440734603891 0 0.49075328327788142 0.2167084650931079 0 0.47311107537994651 0.21060674662752529 0 0.46338994747082818 0.22647486666124839 0 0.49075328327788142 0.2167084650931079 0 0.47311107537994651 0.21060674662752529 0 0.46338994747082818 0.22647486666124839 0 0.49075328327788142 0.2167084650931079 0 0.46338994747082818 0.22647486666124839 0 0.49075328327788142 0.2167084650931079 0 0.47692141707070451 0.23056955077157251 0 0.47692141707070451 0.23056955077157251 0 0.49999999999999339 0.2215116756214566 0 0.50000000000000067 0.2392155256412283 0 0.49075328327788142 0.2167084650931079 0 0.47692141707070451 0.23056955077157251 0 0.49999999999999339 0.2215116756214566 0 0.47692141707070451 0.23056955077157251 0 0.49999999999999339 0.2215116756214566 0 0.50000000000000067 0.2392155256412283 0 0.47583181488482379 0.2451422378191761 0 0.48341195364679568 0.26002408893105827 0 0.50000000000000067 0.2392155256412283 0 0.47583181488482379 0.2451422378191761 0 0.47692141707070451 0.23056955077157251 0 0.50000000000000067 0.2392155256412283 0 0.47583181488482379 0.2451422378191761 0 0.45384283414141641 0.23962742592169059 0 0.47692141707070451 0.23056955077157251 0 0.47583181488482379 0.2451422378191761 0 0.46053260521531592 0.14091734283165991 0 0.45014974491888898 0.16995127396152809 0 0.47759274938693741 0.15337993901402261 0 0.46053260521531592 0.14091734283165991 0 0.47596637305353268 0.1236489788231635 0 0.45094723062946279 0.12208098845927939 0 0.46053260521531592 0.14091734283165991 0 0.44305345270963392 0.14224085277467549 0 0.45094723062946279 0.12208098845927939 0 0.43267139290449452 0.12562392175117529 0 0.44305345270963392 0.14224085277467549 0 0.45094723062946279 0.12208098845927939 0 0.46053260521531592 0.14091734283165991 0 0.44305345270963392 0.14224085277467549 0 0.45014974491888898 0.16995127396152809 0 0.43641214087317609 0.15776157540708571 0 0.44305345270963392 0.14224085277467549 0 0.45014974491888898 0.16995127396152809 0 0.42759287120751482 0.1799189573059411 0 0.43799329450951457 0.1898848624547933 0 0.45014974491888898 0.16995127396152809 0 0.43799329450951457 0.1898848624547933 0 0.45120510308892831 0.19507838461398491 0 0.45014974491888898 0.16995127396152809 0 0.46861366351278472 0.19789432193598561 0 0.45014974491888898 0.16995127396152809 0 0.47890777313388699 0.17818810929941131 0 0.45014974491888898 0.16995127396152809 0 0.47890777313388699 0.17818810929941131 0 0.47759274938693741 0.15337993901402261 0 0.5 0.19442179120654851 0 0.47890777313388699 0.17818810929941131 0 0.5 0.16733190679164031 0 0.47890777313388699 0.17818810929941131 0 0.5 0.16733190679164031 0 0.47759274938693741 0.15337993901402261 0 0.5 0.16733190679164031 0 0.47759274938693741 0.15337993901402261 0 0.5 0.14024202237673219 0 0.46053260521531592 0.14091734283165991 0 0.47759274938693741 0.15337993901402261 0 0.47596637305353268 0.1236489788231635 0 0.5 0.14024202237673219 0 0.5 0.11315213796182411 0 0.47596637305353268 0.1236489788231635 0 0.47759274938693741 0.15337993901402261 0 0.5 0.14024202237673219 0 0.47596637305353268 0.1236489788231635 0 0.5 0.11315213796182411 0 0.48146508414057748 0.097867616362435003 0 0.47596637305353268 0.1236489788231635 0 0.5 0.11315213796182411 0 0.48146508414057748 0.097867616362435003 0 0.5 0.08606225354691599 0 0.48146508414057748 0.097867616362435003 0 0.46684480345772023 0.083704774648097419 0 0.46085076100455152 0.1051260388446932 0 0.48146508414057748 0.097867616362435003 0 0.47596637305353268 0.1236489788231635 0 0.46085076100455152 0.1051260388446932 0 0.5 0.08606225354691599 0 0.48297411160829701 0.071419164250366693 0 0.5 0.058972369132007867 0 0.48146508414057748 0.097867616362435003 0 0.5 0.08606225354691599 0 0.48297411160829701 0.071419164250366693 0 0.48146508414057748 0.097867616362435003 0 0.48297411160829701 0.071419164250366693 0 0.46684480345772023 0.083704774648097419 0 0.48297411160829701 0.071419164250366693 0 0.46368779630991369 0.062884433647911922 0 0.46684480345772023 0.083704774648097419 0 0.46368779630991369 0.062884433647911922 0 0.4455316944648699 0.078385408113317706 0 0.46368779630991369 0.062884433647911922 0 0.46684480345772023 0.083704774648097419 0 0.4455316944648699 0.078385408113317706 0 0.46684480345772023 0.083704774648097419 0 0.4455316944648699 0.078385408113317706 0 0.46085076100455152 0.1051260388446932 0 0.4455316944648699 0.078385408113317706 0 0.46085076100455152 0.1051260388446932 0 0.43655847815144871 0.087567909291679069 0 0.4455316944648699 0.078385408113317706 0 0.43655847815144871 0.087567909291679069 0 0.43300293116684879 0.070359854062556224 0 0.4455316944648699 0.078385408113317706 0 0.43300293116684879 0.070359854062556224 0 0.44432728466234178 0.059795406129610977 0 0.46368779630991369 0.062884433647911922 0 0.4455316944648699 0.078385408113317706 0 0.44432728466234178 0.059795406129610977 0 0.47596637305353268 0.1236489788231635 0 0.46085076100455152 0.1051260388446932 0 0.45094723062946279 0.12208098845927939 0 0.46085076100455152 0.1051260388446932 0 0.43655847815144871 0.087567909291679069 0 0.46085076100455152 0.1051260388446932 0 0.43845481143497073 0.110031162788742 0 0.43302597451412722 0.09911942802672713 0 0.46085076100455152 0.1051260388446932 0 0.43302597451412722 0.09911942802672713 0 0.43655847815144871 0.087567909291679069 0 0.43267139290449452 0.12562392175117529 0 0.45094723062946279 0.12208098845927939 0 0.43845481143497073 0.110031162788742 0 0.46085076100455152 0.1051260388446932 0 0.45094723062946279 0.12208098845927939 0 0.43845481143497073 0.110031162788742 0 0.43267139290449452 0.12562392175117529 0 0.43845481143497073 0.110031162788742 0 0.42512360996164289 0.1101942667169049 0 0.43267139290449452 0.12562392175117529 0 0.42512360996164289 0.1101942667169049 0 0.41840244549433692 0.1204435227777134 0 0.42512360996164289 0.1101942667169049 0 0.41840244549433692 0.1204435227777134 0 0.41145911669595331 0.1096997076075869 0 0.41840244549433692 0.1204435227777134 0 0.41145911669595331 0.1096997076075869 0 0.40630256149234217 0.12337914253670321 0 0.41145911669595331 0.1096997076075869 0 0.41782870111656589 0.098086010242617663 0 0.40188519574572068 0.098349840232826835 0 0.41782870111656589 0.098086010242617663 0 0.41132824907511162 0.087668761689670915 0 0.40188519574572068 0.098349840232826835 0 0.42512360996164289 0.1101942667169049 0 0.41145911669595331 0.1096997076075869 0 0.41782870111656589 0.098086010242617663 0 0.41782870111656589 0.098086010242617663 0 0.43302597451412722 0.09911942802672713 0 0.42198136315300161 0.08812274721924529 0 0.42512360996164289 0.1101942667169049 0 0.41782870111656589 0.098086010242617663 0 0.43302597451412722 0.09911942802672713 0 0.43845481143497073 0.110031162788742 0 0.42512360996164289 0.1101942667169049 0 0.43302597451412722 0.09911942802672713 0 0.43655847815144871 0.087567909291679069 0 0.42198136315300161 0.08812274721924529 0 0.41226619529834591 0.070009779738664735 0 0.43655847815144871 0.087567909291679069 0 0.41226619529834591 0.070009779738664735 0 0.43302597451412722 0.09911942802672713 0 0.43655847815144871 0.087567909291679069 0 0.42198136315300161 0.08812274721924529 0 0.43300293116684879 0.070359854062556224 0 0.41226619529834591 0.070009779738664735 0 0.42739758089851382 0.054541393999090262 0 0.43655847815144871 0.087567909291679069 0 0.43300293116684879 0.070359854062556224 0 0.41226619529834591 0.070009779738664735 0 0.42198136315300161 0.08812274721924529 0 0.41226619529834591 0.070009779738664735 0 0.41132824907511162 0.087668761689670915 0 0.41226619529834591 0.070009779738664735 0 0.41132824907511162 0.087668761689670915 0 0.39992923875424519 0.082621500021195282 0 0.41782870111656589 0.098086010242617663 0 0.42198136315300161 0.08812274721924529 0 0.41132824907511162 0.087668761689670915 0 0.41132824907511162 0.087668761689670915 0 0.39992923875424519 0.082621500021195282 0 0.40188519574572068 0.098349840232826835 0 0.39992923875424519 0.082621500021195282 0 0.38759228221014619 0.095233220303727467 0 0.40188519574572068 0.098349840232826835 0 0.39992923875424519 0.082621500021195282 0 0.38759228221014619 0.095233220303727467 0 0.41226619529834591 0.070009779738664735 0 0.39707386889515511 0.070908779594843374 0 0.39683376059791597 0.058855427163935138 0 0.41226619529834591 0.070009779738664735 0 0.39683376059791597 0.058855427163935138 0 0.41226619529834591 0.070009779738664735 0 0.39992923875424519 0.082621500021195282 0 0.41226619529834591 0.070009779738664735 0 0.39992923875424519 0.082621500021195282 0 0.39707386889515511 0.070908779594843374 0 0.39992923875424519 0.082621500021195282 0 0.39707386889515511 0.070908779594843374 0 0.38583977896057609 0.075316135258006081 0 0.39707386889515511 0.070908779594843374 0 0.38282045226763678 0.060547433734587333 0 0.39683376059791597 0.058855427163935138 0 0.39707386889515511 0.070908779594843374 0 0.38583977896057609 0.075316135258006081 0 0.38282045226763678 0.060547433734587333 0 0.38583977896057609 0.075316135258006081 0 0.37596532967213542 0.069868995675824025 0 0.37682589963749002 0.081332762740894418 0 0.37307104071443398 0.061065176941414383 0 0.37596532967213542 0.069868995675824025 0 0.38282045226763678 0.060547433734587333 0 0.38583977896057609 0.075316135258006081 0 0.37596532967213542 0.069868995675824025 0 0.38282045226763678 0.060547433734587333 0 0.39992923875424519 0.082621500021195282 0 0.38412803848747967 0.086259474622970303 0 0.38759228221014619 0.095233220303727467 0 0.39992923875424519 0.082621500021195282 0 0.38583977896057609 0.075316135258006081 0 0.38412803848747967 0.086259474622970303 0 0.37045299287494049 0.09679375479102828 0 0.38412803848747967 0.086259474622970303 0 0.38759228221014619 0.095233220303727467 0 0.38583977896057609 0.075316135258006081 0 0.38412803848747967 0.086259474622970303 0 0.37682589963749002 0.081332762740894418 0 0.37045299287494049 0.09679375479102828 0 0.38412803848747967 0.086259474622970303 0 0.37682589963749002 0.081332762740894418 0 0.37045299287494049 0.09679375479102828 0 0.38005682511468147 0.12140739343396729 0 0.37045299287494049 0.09679375479102828 0 0.38759228221014619 0.095233220303727467 0 0.38890959528695412 0.1083938038889192 0 0.37045299287494049 0.09679375479102828 0 0.38890959528695412 0.1083938038889192 0 0.38005682511468147 0.12140739343396729 0 0.39398634319161102 0.12556361147638159 0 0.38890959528695412 0.1083938038889192 0 0.38005682511468147 0.12140739343396729 0 0.39398634319161102 0.12556361147638159 0 0.38890959528695412 0.1083938038889192 0 0.39948393258462489 0.11301500309558379 0 0.39398634319161102 0.12556361147638159 0 0.40630256149234217 0.12337914253670321 0 0.39948393258462489 0.11301500309558379 0 0.41145911669595331 0.1096997076075869 0 0.40630256149234217 0.12337914253670321 0 0.39948393258462489 0.11301500309558379 0 0.41145911669595331 0.1096997076075869 0 0.39948393258462489 0.11301500309558379 0 0.40188519574572068 0.098349840232826835 0 0.38759228221014619 0.095233220303727467 0 0.38890959528695412 0.1083938038889192 0 0.40188519574572068 0.098349840232826835 0 0.38890959528695412 0.1083938038889192 0 0.39948393258462489 0.11301500309558379 0 0.40188519574572068 0.098349840232826835 0 0.3912475249538237 0.025882868266216091 0 0.40325323122183843 0.024352223252143548 0 0.39536881189699241 0.01378873843063998 0 0.3912475249538237 0.025882868266216091 0 0.40325323122183843 0.024352223252143548 0 0.39805180056669343 0.032772735105760037 0 0.40325323122183843 0.024352223252143548 0 0.39805180056669343 0.032772735105760037 0 0.40655765028286611 0.035582104639029083 0 0.40325323122183843 0.024352223252143548 0 0.39536881189699241 0.01378873843063998 0 0.40720094273855439 0.01372602960598159 0 0.40060323373222451 0.0042547197705496897 0 0.39536881189699241 0.01378873843063998 0 0.40720094273855439 0.01372602960598159 0 0.40060323373222451 0.0042547197705496897 0 0.41081432206005303 0.0037114498956348132 0 0.4046584776842293 -0.0050702490882302163 0 0.40060323373222451 0.0042547197705496897 0 0.41081432206005303 0.0037114498956348132 0 0.40720094273855439 0.01372602960598159 0 0.40060323373222451 0.0042547197705496897 0 0.39025836247721268 0.0036292771787240202 0 0.39531848553630572 -0.0042569273994520467 0 0.40060323373222451 0.0042547197705496897 0 0.39536881189699241 0.01378873843063998 0 0.39025836247721268 0.0036292771787240202 0 0.37844401144479839 0.012609093579625891 0 0.38356146703633898 -0.0078565650350033434 0 0.37844401144479839 0.012609093579625891 0 0.39025836247721268 0.0036292771787240202 0 0.38356146703633898 -0.0078565650350033434 0 0.39536881189699241 0.01378873843063998 0 0.37844401144479839 0.012609093579625891 0 0.39025836247721268 0.0036292771787240202 0 0.3912475249538237 0.025882868266216091 0 0.37844401144479839 0.012609093579625891 0 0.38063223185621792 0.036578263657106522 0 0.37844401144479839 0.012609093579625891 0 0.38063223185621792 0.036578263657106522 0 0.37146335928247548 0.04052602251159599 0 0.37844401144479839 0.012609093579625891 0 0.38063223185621792 0.036578263657106522 0 0.3912475249538237 0.025882868266216091 0 0.39536881189699241 0.01378873843063998 0 0.37844401144479839 0.012609093579625891 0 0.37146335928247548 0.04052602251159599 0 0.38063223185621792 0.036578263657106522 0 0.38282045226763678 0.060547433734587333 0 0.3912475249538237 0.025882868266216091 0 0.38063223185621792 0.036578263657106522 0 0.3908528121234538 0.035995570554822158 0 0.38063223185621792 0.036578263657106522 0 0.38791705742610771 0.044539104287684539 0 0.3908528121234538 0.035995570554822158 0 0.38791705742610771 0.044539104287684539 0 0.38282045226763678 0.060547433734587333 0 0.39079668350586277 0.051215399393808793 0 0.37307104071443398 0.061065176941414383 0 0.37146335928247548 0.04052602251159599 0 0.38282045226763678 0.060547433734587333 0 0.38063223185621792 0.036578263657106522 0 0.38791705742610771 0.044539104287684539 0 0.38282045226763678 0.060547433734587333 0 0.38063223185621792 0.036578263657106522 0 0.38282045226763678 0.060547433734587333 0 0.38282045226763678 0.060547433734587333 0 0.39683376059791597 0.058855427163935138 0 0.39079668350586277 0.051215399393808793 0 0.41226619529834591 0.070009779738664735 0 0.39683376059791597 0.058855427163935138 0 0.40948896714378957 0.05055434744181983 0 0.39683376059791597 0.058855427163935138 0 0.39079668350586277 0.051215399393808793 0 0.39674782008621368 0.04348041067995833 0 0.39683376059791597 0.058855427163935138 0 0.39674782008621368 0.04348041067995833 0 0.40948896714378957 0.05055434744181983 0 0.3908528121234538 0.035995570554822158 0 0.39805180056669343 0.032772735105760037 0 0.39674782008621368 0.04348041067995833 0 0.3912475249538237 0.025882868266216091 0 0.3908528121234538 0.035995570554822158 0 0.39805180056669343 0.032772735105760037 0 0.38791705742610771 0.044539104287684539 0 0.3908528121234538 0.035995570554822158 0 0.39674782008621368 0.04348041067995833 0 0.38791705742610771 0.044539104287684539 0 0.39079668350586277 0.051215399393808793 0 0.39674782008621368 0.04348041067995833 0 0.39674782008621368 0.04348041067995833 0 0.40655765028286611 0.035582104639029083 0 0.40948896714378957 0.05055434744181983 0 0.39805180056669343 0.032772735105760037 0 0.39674782008621368 0.04348041067995833 0 0.40655765028286611 0.035582104639029083 0 0.40655765028286611 0.035582104639029083 0 0.41713079569888262 0.040856968430241461 0 0.41557099838193923 0.024039796491718179 0 0.41713079569888262 0.040856968430241461 0 0.42755741698364552 0.032815777208855347 0 0.41557099838193923 0.024039796491718179 0 0.40655765028286611 0.035582104639029083 0 0.41713079569888262 0.040856968430241461 0 0.40948896714378957 0.05055434744181983 0 0.41226619529834591 0.070009779738664735 0 0.40948896714378957 0.05055434744181983 0 0.42739758089851382 0.054541393999090262 0 0.41713079569888262 0.040856968430241461 0 0.40948896714378957 0.05055434744181983 0 0.42739758089851382 0.054541393999090262 0 0.41226619529834591 0.070009779738664735 0 0.42739758089851382 0.054541393999090262 0 0.43300293116684879 0.070359854062556224 0 0.42739758089851382 0.054541393999090262 0 0.44432728466234178 0.059795406129610977 0 0.41713079569888262 0.040856968430241461 0 0.42739758089851382 0.054541393999090262 0 0.42755741698364552 0.032815777208855347 0 0.42739758089851382 0.054541393999090262 0 0.42755741698364552 0.032815777208855347 0 0.44252896649868317 0.039073008259517338 0 0.42739758089851382 0.054541393999090262 0 0.44252896649868317 0.039073008259517338 0 0.42755741698364552 0.032815777208855347 0 0.4358194844604939 0.024219735287320941 0 0.44252896649868317 0.039073008259517338 0 0.42755741698364552 0.032815777208855347 0 0.41557099838193923 0.024039796491718179 0 0.4265644217351573 0.014684511896395219 0 0.4358194844604939 0.024219735287320941 0 0.4265644217351573 0.014684511896395219 0 0.44548351627008242 0.01642882659412407 0 0.42755741698364552 0.032815777208855347 0 0.4358194844604939 0.024219735287320941 0 0.4265644217351573 0.014684511896395219 0 0.41557099838193923 0.024039796491718179 0 0.4165272652869268 0.01155925859927168 0 0.4265644217351573 0.014684511896395219 0 0.41557099838193923 0.024039796491718179 0 0.40720094273855439 0.01372602960598159 0 0.4165272652869268 0.01155925859927168 0 0.40325323122183843 0.024352223252143548 0 0.41557099838193923 0.024039796491718179 0 0.40720094273855439 0.01372602960598159 0 0.40325323122183843 0.024352223252143548 0 0.40655765028286611 0.035582104639029083 0 0.41557099838193923 0.024039796491718179 0 0.41081432206005303 0.0037114498956348132 0 0.40720094273855439 0.01372602960598159 0 0.4165272652869268 0.01155925859927168 0 0.4165272652869268 0.01155925859927168 0 0.42248564151892998 0.0016345051066286029 0 0.4265644217351573 0.014684511896395219 0 0.41081432206005303 0.0037114498956348132 0 0.4165272652869268 0.01155925859927168 0 0.42248564151892998 0.0016345051066286029 0 0.42248564151892998 0.0016345051066286029 0 0.4265644217351573 0.014684511896395219 0 0.4382820622288856 -0.0014159552958160841 0 0.4265644217351573 0.014684511896395219 0 0.44548351627008242 0.01642882659412407 0 0.4382820622288856 -0.0014159552958160841 0 0.45100246047295739 0.0046664116742636159 0 0.44548351627008242 0.01642882659412407 0 0.4382820622288856 -0.0014159552958160841 0 0.45100246047295739 0.0046664116742636159 0 0.44548351627008242 0.01642882659412407 0 0.4580470330794123 0.0188547641718908 0 0.4358194844604939 0.024219735287320941 0 0.4514029071021442 0.02821869916314456 0 0.44548351627008242 0.01642882659412407 0 0.4358194844604939 0.024219735287320941 0 0.4514029071021442 0.02821869916314456 0 0.44252896649868317 0.039073008259517338 0 0.4514029071021442 0.02821869916314456 0 0.44548351627008242 0.01642882659412407 0 0.4580470330794123 0.0188547641718908 0 0.4514029071021442 0.02821869916314456 0 0.4580470330794123 0.0188547641718908 0 0.46553563141862692 0.027383902935855992 0 0.4580470330794123 0.0188547641718908 0 0.46553563141862692 0.027383902935855992 0 0.471035018561343 0.01684384088441979 0 0.4580470330794123 0.0188547641718908 0 0.4620271672997433 0.0081957990277541914 0 0.471035018561343 0.01684384088441979 0 0.4620271672997433 0.0081957990277541914 0 0.47207727543944228 0.0077163925679632076 0 0.45540766643685782 -0.0078732224449345398 0 0.4620271672997433 0.0081957990277541914 0 0.47207727543944228 0.0077163925679632076 0 0.471035018561343 0.01684384088441979 0 0.45100246047295739 0.0046664116742636159 0 0.4620271672997433 0.0081957990277541914 0 0.45540766643685782 -0.0078732224449345398 0 0.45100246047295739 0.0046664116742636159 0 0.4580470330794123 0.0188547641718908 0 0.4620271672997433 0.0081957990277541914 0 0.42739758089851382 0.054541393999090262 0 0.44432728466234178 0.059795406129610977 0 0.44252896649868317 0.039073008259517338 0 0.44432728466234178 0.059795406129610977 0 0.44252896649868317 0.039073008259517338 0 0.46100281088556699 0.043351957730158222 0 0.4514029071021442 0.02821869916314456 0 0.44252896649868317 0.039073008259517338 0 0.46100281088556699 0.043351957730158222 0 0.4514029071021442 0.02821869916314456 0 0.46553563141862692 0.027383902935855992 0 0.46100281088556699 0.043351957730158222 0 0.46553563141862692 0.027383902935855992 0 0.46100281088556699 0.043351957730158222 0 0.4764725540003833 0.035303178421407518 0 0.46368779630991369 0.062884433647911922 0 0.44432728466234178 0.059795406129610977 0 0.46100281088556699 0.043351957730158222 0 0.48297411160829701 0.071419164250366693 0 0.46368779630991369 0.062884433647911922 0 0.48184389815495748 0.047383459182506117 0 0.46368779630991369 0.062884433647911922 0 0.46100281088556699 0.043351957730158222 0 0.48184389815495748 0.047383459182506117 0 0.46368779630991369 0.062884433647911922 0 0.48184389815495748 0.047383459182506117 0 0.46100281088556699 0.043351957730158222 0 0.48184389815495748 0.047383459182506117 0 0.4764725540003833 0.035303178421407518 0 0.48184389815495748 0.047383459182506117 0 0.50000000000000089 0.031882484717099757 0 0.48184389815495748 0.047383459182506117 0 0.50000000000000089 0.031882484717099757 0 0.5 0.058972369132007867 0 0.48184389815495748 0.047383459182506117 0 0.4764725540003833 0.035303178421407518 0 0.50000000000000089 0.031882484717099757 0 0.48297411160829701 0.071419164250366693 0 0.48184389815495748 0.047383459182506117 0 0.5 0.058972369132007867 0 0.48173822001607031 0.002441982684480838 0 0.47207727543944228 0.0077163925679632076 0 0.45540766643685782 -0.0078732224449345398 0 0.48073089036299149 0.01447516008145705 0 0.48088876464914698 0.0066420825236524483 0 0.47207727543944228 0.0077163925679632076 0 0.48088876464914698 0.0066420825236524483 0 0.48173822001607031 0.002441982684480838 0 0.48944624590280772 0.014576472087587141 0 0.48073089036299149 0.01447516008145705 0 0.48088876464914698 0.0066420825236524483 0 0.48944624590280772 0.014576472087587141 0 0.48088876464914698 0.0066420825236524483 0 0.48173822001607031 0.002441982684480838 0 0.47207727543944228 0.0077163925679632076 0 0.48088876464914698 0.0066420825236524483 0 0.48173822001607031 0.002441982684480838 0 0.48073089036299149 0.01447516008145705 0 0.47207727543944228 0.0077163925679632076 0 0.471035018561343 0.01684384088441979 0 0.46553563141862692 0.027383902935855992 0 0.471035018561343 0.01684384088441979 0 0.48098968552297122 0.023479159592672289 0 0.46553563141862692 0.027383902935855992 0 0.4764725540003833 0.035303178421407518 0 0.48098968552297122 0.023479159592672289 0 0.48073089036299149 0.01447516008145705 0 0.471035018561343 0.01684384088441979 0 0.48098968552297122 0.023479159592672289 0 0.48073089036299149 0.01447516008145705 0 0.48098968552297122 0.023479159592672289 0 0.48944624590280772 0.014576472087587141 0 0.50000000000000089 0.031882484717099757 0 0.50000000000000044 0.0095961811708810997 0 0.48944624590280772 0.014576472087587141 0 0.4764725540003833 0.035303178421407518 0 0.50000000000000089 0.031882484717099757 0 0.48098968552297122 0.023479159592672289 0 0.50000000000000089 0.031882484717099757 0 0.48098968552297122 0.023479159592672289 0 0.48944624590280772 0.014576472087587141 0 0.48173822001607031 0.002441982684480838 0 0.50000000000000044 0.0095961811708810997 0 0.48944624590280772 0.014576472087587141 0 0.48173822001607031 0.002441982684480838 0 0.50000000000000044 0.0095961811708810997 0 0.48173822001607031 0.002441982684480838 0 0.50000000000000044 0.0095961811708810997 0 0.5 -0.01553848795347695 0 0.48173822001607031 0.002441982684480838 0 0.5 -0.01553848795347695 0 0.48723509010938909 -0.024737082977995831 0 0.48173822001607031 0.002441982684480838 0 0.48723509010938909 -0.024737082977995831 0 0.48173822001607031 0.002441982684480838 0 0.46944239540012012 -0.021901386132034111 0 0.45540766643685782 -0.0078732224449345398 0 0.48173822001607031 0.002441982684480838 0 0.46944239540012012 -0.021901386132034111 0 0.48723509010938909 -0.024737082977995831 0 0.46944239540012012 -0.021901386132034111 0 0.48723509010938909 -0.024737082977995831 0 0.47311684284700922 -0.039980301183512167 0 0.5 -0.01553848795347695 0 0.48723509010938909 -0.024737082977995831 0 0.5 -0.040673157077835087 0 0.48723509010938909 -0.024737082977995831 0 0.49273196020270971 -0.051916148640471983 0 0.48034048547664182 -0.050194577481915269 0 0.48723509010938909 -0.024737082977995831 0 0.49273196020270971 -0.051916148640471983 0 0.48723509010938909 -0.024737082977995831 0 0.5 -0.040673157077835087 0 0.49273196020270971 -0.051916148640471983 0 0.5 -0.040673157077835087 0 0.49273196020270971 -0.051916148640471983 0 0.5 -0.065807826202193331 0 0.49273196020270971 -0.051916148640471983 0 0.48384360039889979 -0.062204599920787272 0 0.48034048547664182 -0.050194577481915269 0 0.48034048547664182 -0.050194577481915269 0 0.47035120232490191 -0.060528185902064997 0 0.47311684284700922 -0.039980301183512167 0 0.47035120232490191 -0.060528185902064997 0 0.47311684284700922 -0.039980301183512167 0 0.48384360039889979 -0.062204599920787272 0 0.48034048547664182 -0.050194577481915269 0 0.47035120232490191 -0.060528185902064997 0 0.48723509010938909 -0.024737082977995831 0 0.48034048547664182 -0.050194577481915269 0 0.47311684284700922 -0.039980301183512167 0 0.46944239540012012 -0.021901386132034111 0 0.47311684284700922 -0.039980301183512167 0 0.44971415759127392 -0.039358306738208573 0 0.47035120232490191 -0.060528185902064997 0 0.47311684284700922 -0.039980301183512167 0 0.44971415759127392 -0.039358306738208573 0 0.47035120232490191 -0.060528185902064997 0 0.44971415759127392 -0.039358306738208573 0 0.47035120232490191 -0.060528185902064997 0 0.43963483674523918 -0.055334607978488382 0 0.44971415759127392 -0.039358306738208573 0 0.43963483674523918 -0.055334607978488382 0 0.44971415759127392 -0.039358306738208573 0 0.42419530264354072 -0.042652000491910397 0 0.46944239540012012 -0.021901386132034111 0 0.44971415759127392 -0.039358306738208573 0 0.45540766643685782 -0.0078732224449345398 0 0.44971415759127392 -0.039358306738208573 0 0.42907711285764621 -0.01818842757435184 0 0.44971415759127392 -0.039358306738208573 0 0.45540766643685782 -0.0078732224449345398 0 0.42907711285764621 -0.01818842757435184 0 0.45540766643685782 -0.0078732224449345398 0 0.42907711285764621 -0.01818842757435184 0 0.45100246047295739 0.0046664116742636159 0 0.4382820622288856 -0.0014159552958160841 0 0.45540766643685782 -0.0078732224449345398 0 0.4382820622288856 -0.0014159552958160841 0 0.45540766643685782 -0.0078732224449345398 0 0.42907711285764621 -0.01818842757435184 0 0.48173822001607031 0.002441982684480838 0 0.45540766643685782 -0.0078732224449345398 0 0.47129126618897188 -0.1223351355815797 0 0.47148248434309947 -0.114916285604633 0 0.48087269318342413 -0.1216818802472065 0 0.47148248434309947 -0.114916285604633 0 0.48087269318342413 -0.1216818802472065 0 0.47838814501791832 -0.1066654575105275 0 0.48087269318342413 -0.1216818802472065 0 0.48924328608656842 -0.1141618265083332 0 0.47838814501791832 -0.1066654575105275 0 0.5 -0.1122204549214597 0 0.48924328608656842 -0.1141618265083332 0 0.5 -0.13349841451636779 0 0.48087269318342413 -0.1216818802472065 0 0.48924328608656842 -0.1141618265083332 0 0.5 -0.13349841451636779 0 0.5 -0.1122204549214597 0 0.48924328608656842 -0.1141618265083332 0 0.48827073793524339 -0.097774102912636218 0 0.48924328608656842 -0.1141618265083332 0 0.48827073793524339 -0.097774102912636218 0 0.47838814501791832 -0.1066654575105275 0 0.5 -0.1122204549214597 0 0.48827073793524339 -0.097774102912636218 0 0.50000000000000266 -0.090942495326551576 0 0.47652975213937199 -0.091635549067057065 0 0.46683976751390588 -0.086617099886465918 0 0.46456669494636288 -0.10350535152343909 0 0.48827073793524339 -0.097774102912636218 0 0.47838814501791832 -0.1066654575105275 0 0.47652975213937199 -0.091635549067057065 0 0.47148248434309947 -0.114916285604633 0 0.47838814501791832 -0.1066654575105275 0 0.46456669494636288 -0.10350535152343909 0 0.47838814501791832 -0.1066654575105275 0 0.47652975213937199 -0.091635549067057065 0 0.46456669494636288 -0.10350535152343909 0 0.48827073793524339 -0.097774102912636218 0 0.47652975213937199 -0.091635549067057065 0 0.48517560116245317 -0.075735340614307423 0 0.47652975213937199 -0.091635549067057065 0 0.48517560116245317 -0.075735340614307423 0 0.46683976751390588 -0.086617099886465918 0 0.47652975213937199 -0.091635549067057065 0 0.46683976751390588 -0.086617099886465918 0 0.50000000000000266 -0.090942495326551576 0 0.49822883029603021 -0.079095214302948247 0 0.5 -0.065807826202193331 0 0.48827073793524339 -0.097774102912636218 0 0.50000000000000266 -0.090942495326551576 0 0.48517560116245317 -0.075735340614307423 0 0.50000000000000266 -0.090942495326551576 0 0.48517560116245317 -0.075735340614307423 0 0.50000000000000266 -0.090942495326551576 0 0.49822883029603021 -0.079095214302948247 0 0.48517560116245317 -0.075735340614307423 0 0.49273196020270971 -0.051916148640471983 0 0.49822883029603021 -0.079095214302948247 0 0.48384360039889979 -0.062204599920787272 0 0.49822883029603021 -0.079095214302948247 0 0.48517560116245317 -0.075735340614307423 0 0.49273196020270971 -0.051916148640471983 0 0.48384360039889979 -0.062204599920787272 0 0.49822883029603021 -0.079095214302948247 0 0.49273196020270971 -0.051916148640471983 0 0.49822883029603021 -0.079095214302948247 0 0.5 -0.065807826202193331 0 0.47035120232490191 -0.060528185902064997 0 0.48517560116245317 -0.075735340614307423 0 0.47035120232490191 -0.060528185902064997 0 0.48517560116245317 -0.075735340614307423 0 0.46683976751390588 -0.086617099886465918 0 0.48384360039889979 -0.062204599920787272 0 0.47035120232490191 -0.060528185902064997 0 0.48517560116245317 -0.075735340614307423 0 0.47035120232490191 -0.060528185902064997 0 0.46683976751390588 -0.086617099886465918 0 0.47035120232490191 -0.060528185902064997 0 0.44249197108241189 -0.074007360679063244 0 0.46683976751390588 -0.086617099886465918 0 0.47035120232490191 -0.060528185902064997 0 0.43963483674523918 -0.055334607978488382 0 0.44249197108241189 -0.074007360679063244 0 0.44249197108241189 -0.074007360679063244 0 0.46683976751390588 -0.086617099886465918 0 0.4490662803509099 -0.094083529251462475 0 0.44249197108241189 -0.074007360679063244 0 0.4490662803509099 -0.094083529251462475 0 0.42834270349958448 -0.099226311759436261 0 0.44249197108241189 -0.074007360679063244 0 0.46683976751390588 -0.086617099886465918 0 0.46683976751390588 -0.086617099886465918 0 0.46456669494636288 -0.10350535152343909 0 0.4490662803509099 -0.094083529251462475 0 0.46683976751390588 -0.086617099886465918 0 0.46456669494636288 -0.10350535152343909 0 0.46456669494636288 -0.10350535152343909 0 0.4490662803509099 -0.094083529251462475 0 0.44386094964032902 -0.11054798122052439 0 0.4490662803509099 -0.094083529251462475 0 0.44386094964032902 -0.11054798122052439 0 0.42834270349958448 -0.099226311759436261 0 0.44386094964032902 -0.11054798122052439 0 0.46257396642688631 -0.12529077885077469 0 0.45239247298790419 -0.125419693033265 0 0.44386094964032902 -0.11054798122052439 0 0.42916935431308728 -0.1205456085246996 0 0.4435038969132965 -0.12540022695152131 0 0.44386094964032902 -0.11054798122052439 0 0.45239247298790419 -0.125419693033265 0 0.4435038969132965 -0.12540022695152131 0 0.44386094964032902 -0.11054798122052439 0 0.46229362237882032 -0.1203936031604123 0 0.46257396642688631 -0.12529077885077469 0 0.46456669494636288 -0.10350535152343909 0 0.46229362237882032 -0.1203936031604123 0 0.46456669494636288 -0.10350535152343909 0 0.44386094964032902 -0.11054798122052439 0 0.46229362237882032 -0.1203936031604123 0 0.44386094964032902 -0.11054798122052439 0 0.46257396642688631 -0.12529077885077469 0 0.47148248434309947 -0.114916285604633 0 0.46456669494636288 -0.10350535152343909 0 0.46229362237882032 -0.1203936031604123 0 0.47129126618897188 -0.1223351355815797 0 0.46229362237882032 -0.1203936031604123 0 0.46257396642688631 -0.12529077885077469 0 0.47129126618897188 -0.1223351355815797 0 0.47148248434309947 -0.114916285604633 0 0.46229362237882032 -0.1203936031604123 0 0.44386094964032902 -0.11054798122052439 0 0.42916935431308728 -0.1205456085246996 0 0.42834270349958448 -0.099226311759436261 0 0.41143930547928681 -0.11934523636421419 0 0.42916935431308728 -0.1205456085246996 0 0.42834270349958448 -0.099226311759436261 0 0.41143930547928681 -0.11934523636421419 0 0.40555832972599831 -0.095826118330896617 0 0.41143930547928681 -0.11934523636421419 0 0.42834270349958448 -0.099226311759436261 0 0.40555832972599831 -0.095826118330896617 0 0.42834270349958448 -0.099226311759436261 0 0.41884290658632428 -0.080552882507727325 0 0.40555832972599831 -0.095826118330896617 0 0.41884290658632428 -0.080552882507727325 0 0.39967735397270959 -0.072307000297579083 0 0.40555832972599831 -0.095826118330896617 0 0.44249197108241189 -0.074007360679063244 0 0.42834270349958448 -0.099226311759436261 0 0.41884290658632428 -0.080552882507727325 0 0.44249197108241189 -0.074007360679063244 0 0.41814417465091752 -0.061397621471661459 0 0.43963483674523918 -0.055334607978488382 0 0.44249197108241189 -0.074007360679063244 0 0.41814417465091752 -0.061397621471661459 0 0.44249197108241189 -0.074007360679063244 0 0.41884290658632428 -0.080552882507727325 0 0.41814417465091752 -0.061397621471661459 0 0.41884290658632428 -0.080552882507727325 0 0.39967735397270959 -0.072307000297579083 0 0.41814417465091752 -0.061397621471661459 0 0.39967735397270959 -0.072307000297579083 0 0.38669795957132042 -0.057310603286660967 0 0.37240766699872252 -0.068318548019290964 0 0.39967735397270959 -0.072307000297579083 0 0.37781097748786241 -0.089314889372882261 0 0.37240766699872252 -0.068318548019290964 0 0.39967735397270959 -0.072307000297579083 0 0.37781097748786241 -0.089314889372882261 0 0.40555832972599831 -0.095826118330896617 0 0.39967735397270959 -0.072307000297579083 0 0.40555832972599831 -0.095826118330896617 0 0.40555832972599831 -0.095826118330896617 0 0.38953803654933628 -0.10754997095337659 0 0.39823574772599779 -0.11763079726210079 0 0.37781097748786241 -0.089314889372882261 0 0.40555832972599831 -0.095826118330896617 0 0.38953803654933628 -0.10754997095337659 0 0.37781097748786241 -0.089314889372882261 0 0.38953803654933628 -0.10754997095337659 0 0.37644505785585192 -0.1058120404938334 0 0.38953803654933628 -0.10754997095337659 0 0.37644505785585192 -0.1058120404938334 0 0.37720890243704291 -0.12310924361699779 0 0.38953803654933628 -0.10754997095337659 0 0.37720890243704291 -0.12310924361699779 0 0.38918813321375051 -0.12739880168557821 0 0.38953803654933628 -0.10754997095337659 0 0.39823574772599779 -0.11763079726210079 0 0.38918813321375051 -0.12739880168557821 0 0.41143930547928681 -0.11934523636421419 0 0.39823574772599779 -0.11763079726210079 0 0.40257569972698831 -0.13396225485532559 0 0.41143930547928681 -0.11934523636421419 0 0.40555832972599831 -0.095826118330896617 0 0.39823574772599779 -0.11763079726210079 0 0.42011428296152808 -0.02169968792975261 0 0.41401194260749391 -0.028450411104576211 0 0.41343304557213612 -0.018371446868227208 0 0.42011428296152808 -0.02169968792975261 0 0.41343304557213612 -0.018371446868227208 0 0.41928481904255338 -0.01548900553927589 0 0.42011428296152808 -0.02169968792975261 0 0.41928481904255338 -0.01548900553927589 0 0.42542521438275183 -0.0144422395697206 0 0.42011428296152808 -0.02169968792975261 0 0.41401194260749391 -0.028450411104576211 0 0.42742255973229643 -0.030069766767760062 0 0.41401194260749391 -0.028450411104576211 0 0.40522076275047969 -0.019933987949522329 0 0.40044964155059998 -0.029094842751199331 0 0.41401194260749391 -0.028450411104576211 0 0.41343304557213612 -0.018371446868227208 0 0.40522076275047969 -0.019933987949522329 0 0.41343304557213612 -0.018371446868227208 0 0.40806592415966281 -0.01253819616599721 0 0.40522076275047969 -0.019933987949522329 0 0.40806592415966281 -0.01253819616599721 0 0.4135204533098043 -0.0054466611181140526 0 0.41498054603746559 -0.011947546426581419 0 0.41343304557213612 -0.018371446868227208 0 0.40806592415966281 -0.01253819616599721 0 0.41498054603746559 -0.011947546426581419 0 0.41081432206005303 0.0037114498956348132 0 0.4135204533098043 -0.0054466611181140526 0 0.4046584776842293 -0.0050702490882302163 0 0.40806592415966281 -0.01253819616599721 0 0.4135204533098043 -0.0054466611181140526 0 0.4046584776842293 -0.0050702490882302163 0 0.41081432206005303 0.0037114498956348132 0 0.42248564151892998 0.0016345051066286029 0 0.4135204533098043 -0.0054466611181140526 0 0.42248564151892998 0.0016345051066286029 0 0.4135204533098043 -0.0054466611181140526 0 0.42119781252485211 -0.0083000839364812864 0 0.41343304557213612 -0.018371446868227208 0 0.41498054603746559 -0.011947546426581419 0 0.41928481904255338 -0.01548900553927589 0 0.4135204533098043 -0.0054466611181140526 0 0.41498054603746559 -0.011947546426581419 0 0.42119781252485211 -0.0083000839364812864 0 0.41498054603746559 -0.011947546426581419 0 0.42119781252485211 -0.0083000839364812864 0 0.41928481904255338 -0.01548900553927589 0 0.42542521438275183 -0.0144422395697206 0 0.42820760236351979 -0.0076976995852137747 0 0.42907711285764621 -0.01818842757435184 0 0.4382820622288856 -0.0014159552958160841 0 0.42820760236351979 -0.0076976995852137747 0 0.42907711285764621 -0.01818842757435184 0 0.42119781252485211 -0.0083000839364812864 0 0.41928481904255338 -0.01548900553927589 0 0.42542521438275183 -0.0144422395697206 0 0.42248564151892998 0.0016345051066286029 0 0.4382820622288856 -0.0014159552958160841 0 0.42820760236351979 -0.0076976995852137747 0 0.42119781252485211 -0.0083000839364812864 0 0.42542521438275183 -0.0144422395697206 0 0.42820760236351979 -0.0076976995852137747 0 0.42248564151892998 0.0016345051066286029 0 0.42119781252485211 -0.0083000839364812864 0 0.42820760236351979 -0.0076976995852137747 0 0.44971415759127392 -0.039358306738208573 0 0.42907711285764621 -0.01818842757435184 0 0.42742255973229643 -0.030069766767760062 0 0.42011428296152808 -0.02169968792975261 0 0.42907711285764621 -0.01818842757435184 0 0.42742255973229643 -0.030069766767760062 0 0.42011428296152808 -0.02169968792975261 0 0.42542521438275183 -0.0144422395697206 0 0.42907711285764621 -0.01818842757435184 0 0.42011428296152808 -0.02169968792975261 0 0.42907711285764621 -0.01818842757435184 0 0.42542521438275183 -0.0144422395697206 0 0.42907711285764621 -0.01818842757435184 0 0.44971415759127392 -0.039358306738208573 0 0.42742255973229643 -0.030069766767760062 0 0.42419530264354072 -0.042652000491910397 0 0.41401194260749391 -0.028450411104576211 0 0.42742255973229643 -0.030069766767760062 0 0.42419530264354072 -0.042652000491910397 0 0.43963483674523918 -0.055334607978488382 0 0.42419530264354072 -0.042652000491910397 0 0.41814417465091752 -0.061397621471661459 0 0.41814417465091752 -0.061397621471661459 0 0.41107184061272262 -0.047596707948501772 0 0.39379637821942232 -0.04878788226426127 0 0.42419530264354072 -0.042652000491910397 0 0.41814417465091752 -0.061397621471661459 0 0.41107184061272262 -0.047596707948501772 0 0.41401194260749391 -0.028450411104576211 0 0.42419530264354072 -0.042652000491910397 0 0.40815150693701141 -0.037549327566173699 0 0.42419530264354072 -0.042652000491910397 0 0.41107184061272262 -0.047596707948501772 0 0.40815150693701141 -0.037549327566173699 0 0.41401194260749391 -0.028450411104576211 0 0.40815150693701141 -0.037549327566173699 0 0.40044964155059998 -0.029094842751199331 0 0.41107184061272262 -0.047596707948501772 0 0.40815150693701141 -0.037549327566173699 0 0.39379637821942232 -0.04878788226426127 0 0.40815150693701141 -0.037549327566173699 0 0.39379637821942232 -0.04878788226426127 0 0.40044964155059998 -0.029094842751199331 0 0.39379637821942232 -0.04878788226426127 0 0.38867892262788012 -0.028322223649632432 0 0.39379637821942232 -0.04878788226426127 0 0.38867892262788012 -0.028322223649632432 0 0.40044964155059998 -0.029094842751199331 0 0.39967735397270959 -0.072307000297579083 0 0.39379637821942232 -0.04878788226426127 0 0.38669795957132042 -0.057310603286660967 0 0.41814417465091752 -0.061397621471661459 0 0.39379637821942232 -0.04878788226426127 0 0.39967735397270959 -0.072307000297579083 0 0.39379637821942232 -0.04878788226426127 0 0.39967735397270959 -0.072307000297579083 0 0.41814417465091752 -0.061397621471661459 0 0.39379637821942232 -0.04878788226426127 0 0.39379637821942232 -0.04878788226426127 0 0.38896036142985008 -0.046283306103098283 0 0.38669795957132042 -0.057310603286660967 0 0.37839056082150663 -0.050608978831784571 0 0.37240766699872252 -0.068318548019290964 0 0.38669795957132042 -0.057310603286660967 0 0.37839056082150663 -0.050608978831784571 0 0.38896036142985008 -0.046283306103098283 0 0.39379637821942232 -0.04878788226426127 0 0.38669795957132042 -0.057310603286660967 0 0.38896036142985008 -0.046283306103098283 0 0.39379637821942232 -0.04878788226426127 0 0.38896036142985008 -0.046283306103098283 0 0.38867892262788012 -0.028322223649632432 0 0.3834615598562825 -0.037386722635115492 0 0.38896036142985008 -0.046283306103098283 0 0.38867892262788012 -0.028322223649632432 0 0.37839056082150663 -0.050608978831784571 0 0.3834615598562825 -0.037386722635115492 0 0.38896036142985008 -0.046283306103098283 0 0.37839056082150663 -0.050608978831784571 0 0.3834615598562825 -0.037386722635115492 0 0.37356965880113402 -0.040783236975350308 0 0.38867892262788012 -0.028322223649632432 0 0.38356146703633898 -0.0078565650350033434 0 0.3834615598562825 -0.037386722635115492 0 0.37600683512296651 -0.014087071697862221 0 0.37356965880113402 -0.040783236975350308 0 0.3834615598562825 -0.037386722635115492 0 0.38867892262788012 -0.028322223649632432 0 0.37600683512296651 -0.014087071697862221 0 0.38867892262788012 -0.028322223649632432 0 0.37600683512296651 -0.014087071697862221 0 0.38356146703633898 -0.0078565650350033434 0 0.38867892262788012 -0.028322223649632432 0 0.39658225960386179 -0.014459285545308009 0 0.38356146703633898 -0.0078565650350033434 0 0.38867892262788012 -0.028322223649632432 0 0.40044964155059998 -0.029094842751199331 0 0.39658225960386179 -0.014459285545308009 0 0.40522076275047969 -0.019933987949522329 0 0.40044964155059998 -0.029094842751199331 0 0.39658225960386179 -0.014459285545308009 0 0.40806592415966281 -0.01253819616599721 0 0.40522076275047969 -0.019933987949522329 0 0.39658225960386179 -0.014459285545308009 0 0.40060323373222451 0.0042547197705496897 0 0.4046584776842293 -0.0050702490882302163 0 0.39531848553630572 -0.0042569273994520467 0 0.40806592415966281 -0.01253819616599721 0 0.4046584776842293 -0.0050702490882302163 0 0.39658225960386179 -0.014459285545308009 0 0.4046584776842293 -0.0050702490882302163 0 0.39658225960386179 -0.014459285545308009 0 0.39531848553630572 -0.0042569273994520467 0 0.39658225960386179 -0.014459285545308009 0 0.39531848553630572 -0.0042569273994520467 0 0.38356146703633898 -0.0078565650350033434 0 0.39025836247721268 0.0036292771787240202 0 0.39531848553630572 -0.0042569273994520467 0 0.38356146703633898 -0.0078565650350033434 0 0.37844401144479839 0.012609093579625891 0 0.37600683512296651 -0.014087071697862221 0 0.37844401144479839 0.012609093579625891 0 0.37600683512296651 -0.014087071697862221 0 0.38356146703633898 -0.0078565650350033434 0 0.37600683512296651 -0.014087071697862221 0 0.36665723294200347 -0.001883505129568449 0 0.35850646790810559 -0.01395473468271459 0 0.37844401144479839 0.012609093579625891 0 0.37600683512296651 -0.014087071697862221 0 0.36665723294200347 -0.001883505129568449 0 0.36665723294200347 -0.001883505129568449 0 0.35531676971978082 -0.0033532784323768001 0 0.35850646790810559 -0.01395473468271459 0 0.37600683512296651 -0.014087071697862221 0 0.37356965880113402 -0.040783236975350308 0 0.37600683512296651 -0.014087071697862221 0 0.36404947753274258 -0.026706798856440471 0 0.35850646790810559 -0.01395473468271459 0 0.37600683512296651 -0.014087071697862221 0 0.36404947753274258 -0.026706798856440471 0 0.37356965880113402 -0.040783236975350308 0 0.34748556133762742 -0.02738266599094942 0 0.35850646790810559 -0.01395473468271459 0 0.34370628527030811 -0.0115647124322744 0 0.36404947753274258 -0.026706798856440471 0 0.34748556133762742 -0.02738266599094942 0 0.35850646790810559 -0.01395473468271459 0 0.36404947753274258 -0.026706798856440471 0 0.34748556133762742 -0.02738266599094942 0 0.36012817770438982 -0.039413746555128387 0 0.33689267375143878 0.0039255003288513873 0 0.35531676971978082 -0.0033532784323768001 0 0.34370628527030811 -0.0115647124322744 0 0.35531676971978082 -0.0033532784323768001 0 0.35850646790810559 -0.01395473468271459 0 0.34370628527030811 -0.0115647124322744 0 0.33689267375143878 0.0039255003288513873 0 0.34370628527030811 -0.0115647124322744 0 0.32469666258817742 -0.019557632270551 0 0.33689267375143878 0.0039255003288513873 0 0.30352242257352219 0.0039185454548519476 0 0.32469666258817742 -0.019557632270551 0 0.34748556133762742 -0.02738266599094942 0 0.34370628527030811 -0.0115647124322744 0 0.32469666258817742 -0.019557632270551 0 0.34748556133762742 -0.02738266599094942 0 0.32469666258817742 -0.019557632270551 0 0.33457477032001748 -0.043965109755099818 0 0.31326255248553708 -0.043768501277314603 0 0.32924913997341337 -0.063603686862235317 0 0.31014365419524398 -0.06072536978512106 0 0.31326255248553708 -0.043768501277314603 0 0.32924913997341337 -0.063603686862235317 0 0.31326255248553708 -0.043768501277314603 0 0.33457477032001748 -0.043965109755099818 0 0.32924913997341337 -0.063603686862235317 0 0.32469666258817742 -0.019557632270551 0 0.31326255248553708 -0.043768501277314603 0 0.33457477032001748 -0.043965109755099818 0 0.33457477032001748 -0.043965109755099818 0 0.34313363496153881 -0.061193084728204693 0 0.35029003257871461 -0.048624574981710279 0 0.33457477032001748 -0.043965109755099818 0 0.34313363496153881 -0.061193084728204693 0 0.32924913997341337 -0.063603686862235317 0 0.35029003257871461 -0.048624574981710279 0 0.36524615827173029 -0.053571455971191423 0 0.35631850447425872 -0.066333179594821989 0 0.34313363496153881 -0.061193084728204693 0 0.35029003257871461 -0.048624574981710279 0 0.35631850447425872 -0.066333179594821989 0 0.35029003257871461 -0.048624574981710279 0 0.36012817770438982 -0.039413746555128387 0 0.36524615827173029 -0.053571455971191423 0 0.34748556133762742 -0.02738266599094942 0 0.33457477032001748 -0.043965109755099818 0 0.35029003257871461 -0.048624574981710279 0 0.34748556133762742 -0.02738266599094942 0 0.35029003257871461 -0.048624574981710279 0 0.36012817770438982 -0.039413746555128387 0 0.36404947753274258 -0.026706798856440471 0 0.36012817770438982 -0.039413746555128387 0 0.37356965880113402 -0.040783236975350308 0 0.36012817770438982 -0.039413746555128387 0 0.37356965880113402 -0.040783236975350308 0 0.36524615827173029 -0.053571455971191423 0 0.37839056082150663 -0.050608978831784571 0 0.36524615827173029 -0.053571455971191423 0 0.37240766699872252 -0.068318548019290964 0 0.37839056082150663 -0.050608978831784571 0 0.37356965880113402 -0.040783236975350308 0 0.36524615827173029 -0.053571455971191423 0 0.36524615827173029 -0.053571455971191423 0 0.37240766699872252 -0.068318548019290964 0 0.35631850447425872 -0.066333179594821989 0 0.37240766699872252 -0.068318548019290964 0 0.36259903827425999 -0.08213590949324566 0 0.35631850447425872 -0.066333179594821989 0 0.37781097748786241 -0.089314889372882261 0 0.37240766699872252 -0.068318548019290964 0 0.36259903827425999 -0.08213590949324566 0 0.37781097748786241 -0.089314889372882261 0 0.36259903827425999 -0.08213590949324566 0 0.3612223149491664 -0.1032740580320769 0 0.34523572746128989 -0.083438872447156087 0 0.3612223149491664 -0.1032740580320769 0 0.36259903827425999 -0.08213590949324566 0 0.34523572746128989 -0.083438872447156087 0 0.3612223149491664 -0.1032740580320769 0 0.34313363496153881 -0.061193084728204693 0 0.34523572746128989 -0.083438872447156087 0 0.35631850447425872 -0.066333179594821989 0 0.36259903827425999 -0.08213590949324566 0 0.34523572746128989 -0.083438872447156087 0 0.35631850447425872 -0.066333179594821989 0 0.37720890243704291 -0.12310924361699779 0 0.36253108037134668 -0.1248744885805331 0 0.3612223149491664 -0.1032740580320769 0 0.37644505785585192 -0.1058120404938334 0 0.37720890243704291 -0.12310924361699779 0 0.3612223149491664 -0.1032740580320769 0 0.37720890243704291 -0.12310924361699779 0 0.3612223149491664 -0.1032740580320769 0 0.37781097748786241 -0.089314889372882261 0 0.37644505785585192 -0.1058120404938334 0 0.3612223149491664 -0.1032740580320769 0 0.34523572746128989 -0.083438872447156087 0 0.3612223149491664 -0.1032740580320769 0 0.33932087337301742 -0.1007066993955318 0 0.3612223149491664 -0.1032740580320769 0 0.34941185211170689 -0.1127717253903176 0 0.33932087337301742 -0.1007066993955318 0 0.36253108037134668 -0.1248744885805331 0 0.33587402752894302 -0.122350175475488 0 0.36253108037134668 -0.1248744885805331 0 0.34941185211170689 -0.1127717253903176 0 0.33587402752894302 -0.122350175475488 0 0.36253108037134668 -0.1248744885805331 0 0.3612223149491664 -0.1032740580320769 0 0.34941185211170689 -0.1127717253903176 0 0.34941185211170689 -0.1127717253903176 0 0.33587402752894302 -0.122350175475488 0 0.33932087337301742 -0.1007066993955318 0 0.33587402752894302 -0.122350175475488 0 0.33932087337301742 -0.1007066993955318 0 0.31943204723016899 -0.10139701157958859 0 0.33932087337301742 -0.1007066993955318 0 0.31943204723016899 -0.10139701157958859 0 0.32474927095682959 -0.081008353448563344 0 0.33587402752894302 -0.122350175475488 0 0.31943204723016899 -0.10139701157958859 0 0.3092169746865393 -0.1198258623704429 0 0.33587402752894302 -0.122350175475488 0 0.3092169746865393 -0.1198258623704429 0 0.34523572746128989 -0.083438872447156087 0 0.32924913997341337 -0.063603686862235317 0 0.32474927095682959 -0.081008353448563344 0 0.34523572746128989 -0.083438872447156087 0 0.32924913997341337 -0.063603686862235317 0 0.34313363496153881 -0.061193084728204693 0 0.34523572746128989 -0.083438872447156087 0 0.32924913997341337 -0.063603686862235317 0 0.34523572746128989 -0.083438872447156087 0 0.33932087337301742 -0.1007066993955318 0 0.32474927095682959 -0.081008353448563344 0 0.31943204723016899 -0.10139701157958859 0 0.32474927095682959 -0.081008353448563344 0 0.31117343018006932 -0.08835554327446378 0 0.32474927095682959 -0.081008353448563344 0 0.30201438303726968 -0.075929904193525521 0 0.32474927095682959 -0.081008353448563344 0 0.30201438303726968 -0.075929904193525521 0 0.31117343018006932 -0.08835554327446378 0 0.32924913997341337 -0.063603686862235317 0 0.32474927095682959 -0.081008353448563344 0 0.31014365419524398 -0.06072536978512106 0 0.32474927095682959 -0.081008353448563344 0 0.30201438303726968 -0.075929904193525521 0 0.31014365419524398 -0.06072536978512106 0 0.30201438303726968 -0.075929904193525521 0 0.31014365419524398 -0.06072536978512106 0 0.29222542489931519 -0.060978945333093171 0 0.31117343018006932 -0.08835554327446378 0 0.29442961060618023 -0.089764156713605506 0 0.30306705175182019 -0.101009202806625 0 0.30201438303726968 -0.075929904193525521 0 0.31117343018006932 -0.08835554327446378 0 0.29442961060618023 -0.089764156713605506 0 0.29442961060618023 -0.089764156713605506 0 0.28691460331806928 -0.079185378374353493 0 0.27734124638624891 -0.089737863242296378 0 0.30201438303726968 -0.075929904193525521 0 0.29442961060618023 -0.089764156713605506 0 0.28691460331806928 -0.079185378374353493 0 0.30201438303726968 -0.075929904193525521 0 0.27927949511770961 -0.070851454938488739 0 0.29222542489931519 -0.060978945333093171 0 0.30201438303726968 -0.075929904193525521 0 0.27927949511770961 -0.070851454938488739 0 0.30201438303726968 -0.075929904193525521 0 0.28691460331806928 -0.079185378374353493 0 0.27927949511770961 -0.070851454938488739 0 0.28691460331806928 -0.079185378374353493 0 0.27927949511770961 -0.070851454938488739 0 0.27809334201771629 -0.079209584513290715 0 0.28691460331806928 -0.079185378374353493 0 0.27927949511770961 -0.070851454938488739 0 0.27927949511770961 -0.070851454938488739 0 0.27868582307562201 -0.055886184139343542 0 0.29222542489931519 -0.060978945333093171 0 0.31943204723016899 -0.10139701157958859 0 0.3092169746865393 -0.1198258623704429 0 0.30306705175182019 -0.101009202806625 0 0.3092169746865393 -0.1198258623704429 0 0.30306705175182019 -0.101009202806625 0 0.28879183359809052 -0.10393054527906551 0 0.31943204723016899 -0.10139701157958859 0 0.31117343018006932 -0.08835554327446378 0 0.30306705175182019 -0.101009202806625 0 0.28879183359809052 -0.10393054527906551 0 0.28255992184413548 -0.11730154926539781 0 0.27267591943638608 -0.1048970298088977 0 0.29442961060618023 -0.089764156713605506 0 0.28879183359809052 -0.10393054527906551 0 0.27734124638624891 -0.089737863242296378 0 0.29442961060618023 -0.089764156713605506 0 0.30306705175182019 -0.101009202806625 0 0.28879183359809052 -0.10393054527906551 0 0.3092169746865393 -0.1198258623704429 0 0.28255992184413548 -0.11730154926539781 0 0.3092169746865393 -0.1198258623704429 0 0.28879183359809052 -0.10393054527906551 0 0.28255992184413548 -0.11730154926539781 0 0.3092169746865393 -0.1198258623704429 0 0.28255992184413548 -0.11730154926539781 0 0.28721398294742878 -0.13035474923543569 0 0.28255992184413548 -0.11730154926539781 0 0.26776517015272971 -0.1222840496799191 0 0.28721398294742878 -0.13035474923543569 0 0.28255992184413548 -0.11730154926539781 0 0.26776517015272971 -0.1222840496799191 0 0.27267591943638608 -0.1048970298088977 0 0.26776517015272971 -0.1222840496799191 0 0.27267591943638608 -0.1048970298088977 0 0.26047800574605201 -0.11084537767631369 0 0.28879183359809052 -0.10393054527906551 0 0.27267591943638608 -0.1048970298088977 0 0.27734124638624891 -0.089737863242296378 0 0.27267591943638608 -0.1048970298088977 0 0.27734124638624891 -0.089737863242296378 0 0.26256105175446781 -0.092679464148907056 0 0.25771864553297669 -0.099620140202181948 0 0.26047800574605201 -0.11084537767631369 0 0.24375228786211539 -0.116580291014256 0 0.27267591943638608 -0.1048970298088977 0 0.25771864553297669 -0.099620140202181948 0 0.26256105175446781 -0.092679464148907056 0 0.25771864553297669 -0.099620140202181948 0 0.25304747237378489 -0.090741332181114118 0 0.24292322406264641 -0.096552741650977186 0 0.25771864553297669 -0.099620140202181948 0 0.26256105175446781 -0.092679464148907056 0 0.25304747237378489 -0.090741332181114118 0 0.27267591943638608 -0.1048970298088977 0 0.25771864553297669 -0.099620140202181948 0 0.26047800574605201 -0.11084537767631369 0 0.26776517015272971 -0.1222840496799191 0 0.26153006621115998 -0.13421007507225571 0 0.24375228786211539 -0.116580291014256 0 0.26776517015272971 -0.1222840496799191 0 0.24375228786211539 -0.116580291014256 0 0.26776517015272971 -0.1222840496799191 0 0.26047800574605201 -0.11084537767631369 0 0.24375228786211539 -0.116580291014256 0 0.27927949511770961 -0.070851454938488739 0 0.25811154610651499 -0.066123023671663908 0 0.26329678137076351 -0.053405898285071182 0 0.27927949511770961 -0.070851454938488739 0 0.25811154610651499 -0.066123023671663908 0 0.26883802324883782 -0.077063641498024305 0 0.27927949511770961 -0.070851454938488739 0 0.25811154610651499 -0.066123023671663908 0 0.26883802324883782 -0.077063641498024305 0 0.27927949511770961 -0.070851454938488739 0 0.27809334201771629 -0.079209584513290715 0 0.26883802324883782 -0.077063641498024305 0 0.27809334201771629 -0.079209584513290715 0 0.27734124638624891 -0.089737863242296378 0 0.26883802324883782 -0.077063641498024305 0 0.27734124638624891 -0.089737863242296378 0 0.25202197504294188 -0.078400955310045109 0 0.28691460331806928 -0.079185378374353493 0 0.27809334201771629 -0.079209584513290715 0 0.27734124638624891 -0.089737863242296378 0 0.27734124638624891 -0.089737863242296378 0 0.26256105175446781 -0.092679464148907056 0 0.25202197504294188 -0.078400955310045109 0 0.27734124638624891 -0.089737863242296378 0 0.25202197504294188 -0.078400955310045109 0 0.26256105175446781 -0.092679464148907056 0 0.25304747237378489 -0.090741332181114118 0 0.25202197504294188 -0.078400955310045109 0 0.25304747237378489 -0.090741332181114118 0 0.25202197504294188 -0.078400955310045109 0 0.24624903761231479 -0.086847438891893419 0 0.26883802324883782 -0.077063641498024305 0 0.25202197504294188 -0.078400955310045109 0 0.25811154610651499 -0.066123023671663908 0 0.25811154610651499 -0.066123023671663908 0 0.26329678137076351 -0.053405898285071182 0 0.24870160087168189 -0.052882304334001928 0 0.26329678137076351 -0.053405898285071182 0 0.24870160087168189 -0.052882304334001928 0 0.24731406762381819 -0.035960341631652723 0 0.27927949511770961 -0.070851454938488739 0 0.26329678137076351 -0.053405898285071182 0 0.27868582307562201 -0.055886184139343542 0 0.27927949511770961 -0.070851454938488739 0 0.26329678137076351 -0.053405898285071182 0 0.26329678137076351 -0.053405898285071182 0 0.27868582307562201 -0.055886184139343542 0 0.27337213238318842 -0.044040078526876879 0 0.27868582307562201 -0.055886184139343542 0 0.27337213238318842 -0.044040078526876879 0 0.28525528160713332 -0.050154543613187753 0 0.26329678137076351 -0.053405898285071182 0 0.27337213238318842 -0.044040078526876879 0 0.26311483972878968 -0.036713614733010089 0 0.27337213238318842 -0.044040078526876879 0 0.27217486102646721 -0.027861542379398439 0 0.28494473946257981 -0.034556038004921102 0 0.27337213238318842 -0.044040078526876879 0 0.26311483972878968 -0.036713614733010089 0 0.27217486102646721 -0.027861542379398439 0 0.27337213238318842 -0.044040078526876879 0 0.28525528160713332 -0.050154543613187753 0 0.28494473946257981 -0.034556038004921102 0 0.26311483972878968 -0.036713614733010089 0 0.25941635623971138 -0.02230021284205122 0 0.24731406762381819 -0.035960341631652723 0 0.26329678137076351 -0.053405898285071182 0 0.24731406762381819 -0.035960341631652723 0 0.26329678137076351 -0.053405898285071182 0 0.26311483972878968 -0.036713614733010089 0 0.24731406762381819 -0.035960341631652723 0 0.25941635623971138 -0.02230021284205122 0 0.24731406762381819 -0.035960341631652723 0 0.2482857443068576 -0.021714794414400052 0 0.25941635623971138 -0.02230021284205122 0 0.25508119948702751 -0.010083838205662381 0 0.2482857443068576 -0.021714794414400052 0 0.26311483972878968 -0.036713614733010089 0 0.25941635623971138 -0.02230021284205122 0 0.27217486102646721 -0.027861542379398439 0 0.2541426920980116 -0.0036136263454906951 0 0.25508119948702751 -0.010083838205662381 0 0.24138147174972829 -0.0061427828714447699 0 0.2541426920980116 -0.0036136263454906951 0 0.25508119948702751 -0.010083838205662381 0 0.26047117107291767 -0.0019720443344692288 0 0.25446675038947358 0.0029162606258486688 0 0.2541426920980116 -0.0036136263454906951 0 0.26047117107291767 -0.0019720443344692288 0 0.25941635623971138 -0.02230021284205122 0 0.25508119948702751 -0.010083838205662381 0 0.26474460583379889 -0.01023883548432745 0 0.25941635623971138 -0.02230021284205122 0 0.26474460583379889 -0.01023883548432745 0 0.27166734417845928 -0.01430021117376327 0 0.25508119948702751 -0.010083838205662381 0 0.26474460583379889 -0.01023883548432745 0 0.26047117107291767 -0.0019720443344692288 0 0.26474460583379889 -0.01023883548432745 0 0.26047117107291767 -0.0019720443344692288 0 0.27708695819087842 -0.0025378708656911609 0 0.26474460583379889 -0.01023883548432745 0 0.27166734417845928 -0.01430021117376327 0 0.27708695819087842 -0.0025378708656911609 0 0.27166734417845928 -0.01430021117376327 0 0.27708695819087842 -0.0025378708656911609 0 0.28469269166600031 -0.01545933141113482 0 0.27217486102646721 -0.027861542379398439 0 0.28469269166600031 -0.01545933141113482 0 0.28494473946257981 -0.034556038004921102 0 0.25941635623971138 -0.02230021284205122 0 0.27166734417845928 -0.01430021117376327 0 0.27217486102646721 -0.027861542379398439 0 0.27166734417845928 -0.01430021117376327 0 0.27217486102646721 -0.027861542379398439 0 0.28469269166600031 -0.01545933141113482 0 0.28469269166600031 -0.01545933141113482 0 0.29727596499766062 -0.023933315692393788 0 0.28494473946257981 -0.034556038004921102 0 0.30352242257352219 0.0039185454548519476 0 0.28469269166600031 -0.01545933141113482 0 0.29727596499766062 -0.023933315692393788 0 0.30352242257352219 0.0039185454548519476 0 0.27708695819087842 -0.0025378708656911609 0 0.28469269166600031 -0.01545933141113482 0 0.30352242257352219 0.0039185454548519476 0 0.32469666258817742 -0.019557632270551 0 0.29727596499766062 -0.023933315692393788 0 0.32469666258817742 -0.019557632270551 0 0.31326255248553708 -0.043768501277314603 0 0.29727596499766062 -0.023933315692393788 0 0.31326255248553708 -0.043768501277314603 0 0.29727596499766062 -0.023933315692393788 0 0.2968975050950291 -0.045887416406534938 0 0.31326255248553708 -0.043768501277314603 0 0.29727596499766062 -0.023933315692393788 0 0.31326255248553708 -0.043768501277314603 0 0.2968975050950291 -0.045887416406534938 0 0.31014365419524398 -0.06072536978512106 0 0.2968975050950291 -0.045887416406534938 0 0.31014365419524398 -0.06072536978512106 0 0.29222542489931519 -0.060978945333093171 0 0.2968975050950291 -0.045887416406534938 0 0.29222542489931519 -0.060978945333093171 0 0.28525528160713332 -0.050154543613187753 0 0.27868582307562201 -0.055886184139343542 0 0.29222542489931519 -0.060978945333093171 0 0.28525528160713332 -0.050154543613187753 0 0.2968975050950291 -0.045887416406534938 0 0.28525528160713332 -0.050154543613187753 0 0.28494473946257981 -0.034556038004921102 0 0.29727596499766062 -0.023933315692393788 0 0.2968975050950291 -0.045887416406534938 0 0.28494473946257981 -0.034556038004921102 0 0.29579617193404978 -0.19432558104056491 0 0.30588539897632072 -0.22256652654210629 0 0.2776594049058328 -0.2175861504380624 0 0.29579617193404978 -0.19432558104056491 0 0.2776594049058328 -0.2175861504380624 0 0.2764107852420567 -0.19644220614923899 0 0.29579617193404978 -0.19432558104056491 0 0.2764107852420567 -0.19644220614923899 0 0.2792899687438003 -0.18116405860585089 0 0.29579617193404978 -0.19432558104056491 0 0.31045946319455608 -0.20263901644370941 0 0.31057073564158039 -0.17760626025882659 0 0.29579617193404978 -0.19432558104056491 0 0.30588539897632072 -0.22256652654210629 0 0.31045946319455608 -0.20263901644370941 0 0.30588539897632072 -0.22256652654210629 0 0.32020032842118662 -0.2136972324735969 0 0.29579617193404978 -0.19432558104056491 0 0.31045946319455608 -0.20263901644370941 0 0.30588539897632072 -0.22256652654210629 0 0.29681701546221179 -0.23419681124085551 0 0.31597462601859122 -0.25080747204364812 0 0.30111904597271899 -0.2536098058489899 0 0.30588539897632072 -0.22256652654210629 0 0.29681701546221179 -0.23419681124085551 0 0.31597462601859122 -0.25080747204364812 0 0.30588539897632072 -0.22256652654210629 0 0.31597462601859122 -0.25080747204364812 0 0.29681701546221179 -0.23419681124085551 0 0.31597462601859122 -0.25080747204364812 0 0.29681701546221179 -0.23419681124085551 0 0.30111904597271899 -0.2536098058489899 0 0.28456511698073272 -0.25518130134833977 0 0.29681701546221179 -0.23419681124085551 0 0.27830026498091959 -0.23745462562099759 0 0.28456511698073272 -0.25518130134833977 0 0.30588539897632072 -0.22256652654210629 0 0.29681701546221179 -0.23419681124085551 0 0.2776594049058328 -0.2175861504380624 0 0.29681701546221179 -0.23419681124085551 0 0.27830026498091959 -0.23745462562099759 0 0.2776594049058328 -0.2175861504380624 0 0.29681701546221179 -0.23419681124085551 0 0.2776594049058328 -0.2175861504380624 0 0.26584409390649738 -0.23415831621220631 0 0.27830026498091959 -0.23745462562099759 0 0.2776594049058328 -0.2175861504380624 0 0.26584409390649738 -0.23415831621220631 0 0.25658827463044448 -0.2222138965281123 0 0.2776594049058328 -0.2175861504380624 0 0.27830026498091959 -0.23745462562099759 0 0.28456511698073272 -0.25518130134833977 0 0.26629969424128969 -0.25192769388052821 0 0.26584409390649738 -0.23415831621220631 0 0.27830026498091959 -0.23745462562099759 0 0.26629969424128969 -0.25192769388052821 0 0.26584409390649738 -0.23415831621220631 0 0.25037283077400019 -0.2416092145933311 0 0.26629969424128969 -0.25192769388052821 0 0.25037283077400019 -0.2416092145933311 0 0.25658827463044448 -0.2222138965281123 0 0.2446094219978813 -0.2276121794933563 0 0.26584409390649738 -0.23415831621220631 0 0.25037283077400019 -0.2416092145933311 0 0.25658827463044448 -0.2222138965281123 0 0.25658827463044448 -0.2222138965281123 0 0.2776594049058328 -0.2175861504380624 0 0.25850179434945381 -0.20097548963526929 0 0.25658827463044448 -0.2222138965281123 0 0.25850179434945381 -0.20097548963526929 0 0.23907695871134879 -0.21289681242661959 0 0.2776594049058328 -0.2175861504380624 0 0.25850179434945381 -0.20097548963526929 0 0.2776594049058328 -0.2175861504380624 0 0.2764107852420567 -0.19644220614923899 0 0.25850179434945381 -0.20097548963526929 0 0.2764107852420567 -0.19644220614923899 0 0.25850179434945381 -0.20097548963526929 0 0.26539786460737957 -0.18100391429238191 0 0.25850179434945381 -0.20097548963526929 0 0.26539786460737957 -0.18100391429238191 0 0.23934418379307471 -0.18436482883247621 0 0.26539786460737957 -0.18100391429238191 0 0.25449645062408999 -0.16331052089379791 0 0.23934418379307471 -0.18436482883247621 0 0.26539786460737957 -0.18100391429238191 0 0.25449645062408999 -0.16331052089379791 0 0.27043371620885309 -0.16438603764101259 0 0.25449645062408999 -0.16331052089379791 0 0.27043371620885309 -0.16438603764101259 0 0.2633734196266177 -0.15149826902969399 0 0.27043371620885309 -0.16438603764101259 0 0.2792899687438003 -0.18116405860585089 0 0.28570694489177878 -0.1660846355390232 0 0.27043371620885309 -0.16438603764101259 0 0.27930784456020519 -0.15183985913025491 0 0.28570694489177878 -0.1660846355390232 0 0.26539786460737957 -0.18100391429238191 0 0.27043371620885309 -0.16438603764101259 0 0.2792899687438003 -0.18116405860585089 0 0.2764107852420567 -0.19644220614923899 0 0.26539786460737957 -0.18100391429238191 0 0.2792899687438003 -0.18116405860585089 0 0.26153006621115998 -0.13421007507225571 0 0.24375228786211539 -0.116580291014256 0 0.24955680073527009 -0.143898101237383 0 0.26153006621115998 -0.13421007507225571 0 0.24375228786211539 -0.116580291014256 0 0.25449645062408999 -0.16331052089379791 0 0.2633734196266177 -0.15149826902969399 0 0.24955680073527009 -0.143898101237383 0 0.26153006621115998 -0.13421007507225571 0 0.2633734196266177 -0.15149826902969399 0 0.24955680073527009 -0.143898101237383 0 0.27043371620885309 -0.16438603764101259 0 0.2633734196266177 -0.15149826902969399 0 0.27930784456020519 -0.15183985913025491 0 0.27561771784950778 -0.13784369003748159 0 0.28570694489177878 -0.1660846355390232 0 0.26153006621115998 -0.13421007507225571 0 0.27930784456020519 -0.15183985913025491 0 0.27561771784950778 -0.13784369003748159 0 0.27930784456020519 -0.15183985913025491 0 0.27561771784950778 -0.13784369003748159 0 0.28570694489177878 -0.1660846355390232 0 0.26153006621115998 -0.13421007507225571 0 0.2633734196266177 -0.15149826902969399 0 0.27930784456020519 -0.15183985913025491 0 0.26153006621115998 -0.13421007507225571 0 0.27930784456020519 -0.15183985913025491 0 0.26776517015272971 -0.1222840496799191 0 0.27561771784950778 -0.13784369003748159 0 0.28721398294742878 -0.13035474923543569 0 0.26776517015272971 -0.1222840496799191 0 0.26153006621115998 -0.13421007507225571 0 0.27561771784950778 -0.13784369003748159 0 0.27561771784950778 -0.13784369003748159 0 0.28721398294742878 -0.13035474923543569 0 0.28891568690104508 -0.14625428249578579 0 0.28721398294742878 -0.13035474923543569 0 0.28891568690104508 -0.14625428249578579 0 0.29920842625061578 -0.1386190615635868 0 0.28891568690104508 -0.14625428249578579 0 0.29920842625061578 -0.1386190615635868 0 0.29789574789403661 -0.15876522012859751 0 0.27561771784950778 -0.13784369003748159 0 0.28891568690104508 -0.14625428249578579 0 0.28570694489177878 -0.1660846355390232 0 0.30985117626407932 -0.1486491484402036 0 0.29920842625061578 -0.1386190615635868 0 0.29789574789403661 -0.15876522012859751 0 0.30985117626407932 -0.1486491484402036 0 0.29789574789403661 -0.15876522012859751 0 0.3134799250960158 -0.16133035304856411 0 0.30985117626407932 -0.1486491484402036 0 0.29920842625061578 -0.1386190615635868 0 0.31980994510895661 -0.13408045692276491 0 0.3092169746865393 -0.1198258623704429 0 0.28721398294742878 -0.13035474923543569 0 0.29920842625061578 -0.1386190615635868 0 0.3092169746865393 -0.1198258623704429 0 0.29920842625061578 -0.1386190615635868 0 0.31980994510895661 -0.13408045692276491 0 0.29579617193404978 -0.19432558104056491 0 0.2792899687438003 -0.18116405860585089 0 0.28570694489177878 -0.1660846355390232 0 0.29579617193404978 -0.19432558104056491 0 0.28570694489177878 -0.1660846355390232 0 0.29579617193404978 -0.19432558104056491 0 0.28570694489177878 -0.1660846355390232 0 0.29784246694311001 -0.17248502473641619 0 0.28891568690104508 -0.14625428249578579 0 0.28570694489177878 -0.1660846355390232 0 0.29789574789403661 -0.15876522012859751 0 0.28570694489177878 -0.1660846355390232 0 0.29789574789403661 -0.15876522012859751 0 0.29784246694311001 -0.17248502473641619 0 0.29789574789403661 -0.15876522012859751 0 0.31057073564158039 -0.17760626025882659 0 0.3134799250960158 -0.16133035304856411 0 0.29789574789403661 -0.15876522012859751 0 0.31057073564158039 -0.17760626025882659 0 0.29784246694311001 -0.17248502473641619 0 0.29789574789403661 -0.15876522012859751 0 0.31057073564158039 -0.17760626025882659 0 0.29579617193404978 -0.19432558104056491 0 0.31057073564158039 -0.17760626025882659 0 0.29784246694311001 -0.17248502473641619 0 0.31057073564158039 -0.17760626025882659 0 0.33117051957001492 -0.16690810347740409 0 0.33960500058918919 -0.18923554211963439 0 0.31057073564158039 -0.17760626025882659 0 0.32324572338912438 -0.19644730038905581 0 0.3134799250960158 -0.16133035304856411 0 0.33117051957001492 -0.16690810347740409 0 0.32297156368297691 -0.15191279281852399 0 0.31057073564158039 -0.17760626025882659 0 0.3134799250960158 -0.16133035304856411 0 0.33117051957001492 -0.16690810347740409 0 0.33117051957001492 -0.16690810347740409 0 0.34312821131240068 -0.1490342399984359 0 0.35150112372442083 -0.17432517416681301 0 0.33117051957001492 -0.16690810347740409 0 0.35150112372442083 -0.17432517416681301 0 0.33960500058918919 -0.18923554211963439 0 0.33587402752894302 -0.122350175475488 0 0.3092169746865393 -0.1198258623704429 0 0.31980994510895661 -0.13408045692276491 0 0.30985117626407932 -0.1486491484402036 0 0.31980994510895661 -0.13408045692276491 0 0.32297156368297691 -0.15191279281852399 0 0.30985117626407932 -0.1486491484402036 0 0.3134799250960158 -0.16133035304856411 0 0.32297156368297691 -0.15191279281852399 0 0.33117051957001492 -0.16690810347740409 0 0.32297156368297691 -0.15191279281852399 0 0.34312821131240068 -0.1490342399984359 0 0.31980994510895661 -0.13408045692276491 0 0.32297156368297691 -0.15191279281852399 0 0.34312821131240068 -0.1490342399984359 0 0.33587402752894302 -0.122350175475488 0 0.31980994510895661 -0.13408045692276491 0 0.34312821131240068 -0.1490342399984359 0 0.36253108037134668 -0.1248744885805331 0 0.33587402752894302 -0.122350175475488 0 0.3555623608711499 -0.1359942506039106 0 0.33587402752894302 -0.122350175475488 0 0.34312821131240068 -0.1490342399984359 0 0.3555623608711499 -0.1359942506039106 0 0.34312821131240068 -0.1490342399984359 0 0.3555623608711499 -0.1359942506039106 0 0.36858459771950869 -0.15733985743645959 0 0.3555623608711499 -0.1359942506039106 0 0.36652086356581781 -0.12946943863695781 0 0.36858459771950869 -0.15733985743645959 0 0.36652086356581781 -0.12946943863695781 0 0.36858459771950869 -0.15733985743645959 0 0.36652086356581781 -0.12946943863695781 0 0.36858459771950869 -0.15733985743645959 0 0.3787995421462832 -0.1425544525875144 0 0.36652086356581781 -0.12946943863695781 0 0.37808333446084269 -0.1309391893982525 0 0.3787995421462832 -0.1425544525875144 0 0.36253108037134668 -0.1248744885805331 0 0.36652086356581781 -0.12946943863695781 0 0.37808333446084269 -0.1309391893982525 0 0.36253108037134668 -0.1248744885805331 0 0.3555623608711499 -0.1359942506039106 0 0.36652086356581781 -0.12946943863695781 0 0.35150112372442083 -0.17432517416681301 0 0.37064833187319962 -0.1852102762359614 0 0.35587008128221181 -0.19822302573298239 0 0.35150112372442083 -0.17432517416681301 0 0.35587008128221181 -0.19822302573298239 0 0.33960500058918919 -0.18923554211963439 0 0.34312821131240068 -0.1490342399984359 0 0.35150112372442083 -0.17432517416681301 0 0.36858459771950869 -0.15733985743645959 0 0.36858459771950869 -0.15733985743645959 0 0.37064833187319962 -0.1852102762359614 0 0.35150112372442083 -0.17432517416681301 0 0.36858459771950869 -0.15733985743645959 0 0.37064833187319962 -0.1852102762359614 0 0.36858459771950869 -0.15733985743645959 0 0.37064833187319962 -0.1852102762359614 0 0.3834788620725188 -0.17954848884060079 0 0.37064833187319962 -0.1852102762359614 0 0.37271206602689039 -0.21308069503546309 0 0.38139900114097952 -0.20469292352659629 0 0.37064833187319962 -0.1852102762359614 0 0.37271206602689039 -0.21308069503546309 0 0.37064833187319962 -0.1852102762359614 0 0.37271206602689039 -0.21308069503546309 0 0.35587008128221181 -0.19822302573298239 0 0.37271206602689039 -0.21308069503546309 0 0.35603419272415182 -0.2169366224123114 0 0.35587008128221181 -0.19822302573298239 0 0.35603419272415182 -0.2169366224123114 0 0.35587008128221181 -0.19822302573298239 0 0.33592071113666833 -0.21528834051928489 0 0.35587008128221181 -0.19822302573298239 0 0.33960500058918919 -0.18923554211963439 0 0.33592071113666833 -0.21528834051928489 0 0.33960500058918919 -0.18923554211963439 0 0.33592071113666833 -0.21528834051928489 0 0.32324572338912438 -0.19644730038905581 0 0.33592071113666833 -0.21528834051928489 0 0.32324572338912438 -0.19644730038905581 0 0.33592071113666833 -0.21528834051928489 0 0.32020032842118662 -0.2136972324735969 0 0.32324572338912438 -0.19644730038905581 0 0.31045946319455608 -0.20263901644370941 0 0.32020032842118662 -0.2136972324735969 0 0.32324572338912438 -0.19644730038905581 0 0.31057073564158039 -0.17760626025882659 0 0.33960500058918919 -0.18923554211963439 0 0.32324572338912438 -0.19644730038905581 0 0.31045946319455608 -0.20263901644370941 0 0.31057073564158039 -0.17760626025882659 0 0.32324572338912438 -0.19644730038905581 0 0.32549034540926353 -0.23154497847382799 0 0.33517615116993849 -0.24743488902137309 0 0.31597462601859122 -0.25080747204364812 0 0.30588539897632072 -0.22256652654210629 0 0.32549034540926353 -0.23154497847382799 0 0.31597462601859122 -0.25080747204364812 0 0.30588539897632072 -0.22256652654210629 0 0.32020032842118662 -0.2136972324735969 0 0.32549034540926353 -0.23154497847382799 0 0.33592071113666833 -0.21528834051928489 0 0.32020032842118662 -0.2136972324735969 0 0.32549034540926353 -0.23154497847382799 0 0.33592071113666833 -0.21528834051928489 0 0.32549034540926353 -0.23154497847382799 0 0.34859569888421221 -0.23412938064951411 0 0.33592071113666833 -0.21528834051928489 0 0.34859569888421221 -0.23412938064951411 0 0.32549034540926353 -0.23154497847382799 0 0.33517615116993849 -0.24743488902137309 0 0.34859569888421221 -0.23412938064951411 0 0.33517615116993849 -0.24743488902137309 0 0.34859569888421221 -0.23412938064951411 0 0.35185333732921159 -0.25428502110151557 0 0.34859569888421221 -0.23412938064951411 0 0.36075586336603621 -0.2426037127049111 0 0.35185333732921159 -0.25428502110151557 0 0.34859569888421221 -0.23412938064951411 0 0.36291464790978972 -0.22902601310760301 0 0.36075586336603621 -0.2426037127049111 0 0.35603419272415182 -0.2169366224123114 0 0.34859569888421221 -0.23412938064951411 0 0.36291464790978972 -0.22902601310760301 0 0.35603419272415182 -0.2169366224123114 0 0.33592071113666833 -0.21528834051928489 0 0.34859569888421221 -0.23412938064951411 0 0.37271206602689039 -0.21308069503546309 0 0.35603419272415182 -0.2169366224123114 0 0.36291464790978972 -0.22902601310760301 0 0.37271206602689039 -0.21308069503546309 0 0.37477580018058132 -0.24095111383496479 0 0.37555308153547928 -0.22286467051027881 0 0.37271206602689039 -0.21308069503546309 0 0.37477580018058132 -0.24095111383496479 0 0.37271206602689039 -0.21308069503546309 0 0.36291464790978972 -0.22902601310760301 0 0.37477580018058132 -0.24095111383496479 0 0.36075586336603621 -0.2426037127049111 0 0.37477580018058132 -0.24095111383496479 0 0.36563983252638571 -0.25462703483095822 0 0.36291464790978972 -0.22902601310760301 0 0.36075586336603621 -0.2426037127049111 0 0.37477580018058132 -0.24095111383496479 0 0.37477580018058132 -0.24095111383496479 0 0.39321551516580561 -0.23618023300957031 0 0.38725375881062551 -0.25185160038302579 0 0.39321551516580561 -0.23618023300957031 0 0.41087794879613182 -0.2494957955088617 0 0.40741230325918792 -0.23450562481703699 0 0.39321551516580561 -0.23618023300957031 0 0.41087794879613182 -0.2494957955088617 0 0.39321551516580561 -0.23618023300957031 0 0.38725375881062551 -0.25185160038302579 0 0.39640803358832022 -0.25154779433757402 0 0.39321551516580561 -0.23618023300957031 0 0.41087794879613182 -0.2494957955088617 0 0.39640803358832022 -0.25154779433757402 0 0.4055308246994358 -0.22407667781788709 0 0.39424069285124719 -0.22310079746779379 0 0.40434357831770951 -0.21487406561090469 0 0.4055308246994358 -0.22407667781788709 0 0.39424069285124719 -0.22310079746779379 0 0.40741230325918792 -0.23450562481703699 0 0.39321551516580561 -0.23618023300957031 0 0.39424069285124719 -0.22310079746779379 0 0.40741230325918792 -0.23450562481703699 0 0.37477580018058132 -0.24095111383496479 0 0.39321551516580561 -0.23618023300957031 0 0.37555308153547928 -0.22286467051027881 0 0.39424069285124719 -0.22310079746779379 0 0.37555308153547928 -0.22286467051027881 0 0.38300691860546521 -0.21527996176244341 0 0.39321551516580561 -0.23618023300957031 0 0.37555308153547928 -0.22286467051027881 0 0.39321551516580561 -0.23618023300957031 0 0.39424069285124719 -0.22310079746779379 0 0.37555308153547928 -0.22286467051027881 0 0.37271206602689039 -0.21308069503546309 0 0.37555308153547928 -0.22286467051027881 0 0.38300691860546521 -0.21527996176244341 0 0.37271206602689039 -0.21308069503546309 0 0.38139900114097952 -0.20469292352659629 0 0.38300691860546521 -0.21527996176244341 0 0.38139900114097952 -0.20469292352659629 0 0.39078770323730427 -0.19674260859680251 0 0.39112975147272949 -0.2126607222720846 0 0.38139900114097952 -0.20469292352659629 0 0.38300691860546521 -0.21527996176244341 0 0.39112975147272949 -0.2126607222720846 0 0.39424069285124719 -0.22310079746779379 0 0.38300691860546521 -0.21527996176244341 0 0.39112975147272949 -0.2126607222720846 0 0.37064833187319962 -0.1852102762359614 0 0.38139900114097952 -0.20469292352659629 0 0.39078770323730427 -0.19674260859680251 0 0.39078770323730427 -0.19674260859680251 0 0.40475141021500721 -0.1910589369573561 0 0.39510197637232292 -0.1839605883432579 0 0.39078770323730427 -0.19674260859680251 0 0.40426546228868082 -0.20108352786525729 0 0.397631623829106 -0.20634023108626229 0 0.39078770323730427 -0.19674260859680251 0 0.40426546228868082 -0.20108352786525729 0 0.40475141021500721 -0.1910589369573561 0 0.39078770323730427 -0.19674260859680251 0 0.39112975147272949 -0.2126607222720846 0 0.397631623829106 -0.20634023108626229 0 0.39112975147272949 -0.2126607222720846 0 0.397631623829106 -0.20634023108626229 0 0.40434357831770951 -0.21487406561090469 0 0.39424069285124719 -0.22310079746779379 0 0.39112975147272949 -0.2126607222720846 0 0.40434357831770951 -0.21487406561090469 0 0.40426546228868082 -0.20108352786525729 0 0.397631623829106 -0.20634023108626229 0 0.40434357831770951 -0.21487406561090469 0 0.40434357831770951 -0.21487406561090469 0 0.41713092845542321 -0.20900944133272009 0 0.41612672436959858 -0.22382622337581301 0 0.40426546228868082 -0.20108352786525729 0 0.40434357831770951 -0.21487406561090469 0 0.41713092845542321 -0.20900944133272009 0 0.41713092845542321 -0.20900944133272009 0 0.42330136258736267 -0.2174116668913772 0 0.41612672436959858 -0.22382622337581301 0 0.40475141021500721 -0.1910589369573561 0 0.41487892771890261 -0.19826025474908979 0 0.4146572714410397 -0.186958864794112 0 0.40426546228868082 -0.20108352786525729 0 0.41713092845542321 -0.20900944133272009 0 0.41487892771890261 -0.19826025474908979 0 0.40426546228868082 -0.20108352786525729 0 0.40475141021500721 -0.1910589369573561 0 0.41487892771890261 -0.19826025474908979 0 0.41713092845542321 -0.20900944133272009 0 0.41487892771890261 -0.19826025474908979 0 0.42701217502226602 -0.19751647228806199 0 0.41487892771890261 -0.19826025474908979 0 0.42053294087941678 -0.1923617771039739 0 0.42701217502226602 -0.19751647228806199 0 0.42053294087941678 -0.1923617771039739 0 0.4146572714410397 -0.186958864794112 0 0.42558338933545942 -0.1867115165846317 0 0.41487892771890261 -0.19826025474908979 0 0.42053294087941678 -0.1923617771039739 0 0.4146572714410397 -0.186958864794112 0 0.42701217502226602 -0.19751647228806199 0 0.43844209377108118 -0.18689286854296691 0 0.44355474576021348 -0.2050869029196882 0 0.42053294087941678 -0.1923617771039739 0 0.42701217502226602 -0.19751647228806199 0 0.42558338933545942 -0.1867115165846317 0 0.42701217502226602 -0.19751647228806199 0 0.42558338933545942 -0.1867115165846317 0 0.43844209377108118 -0.18689286854296691 0 0.42701217502226602 -0.19751647228806199 0 0.43006687167525981 -0.21185300334864521 0 0.44355474576021348 -0.2050869029196882 0 0.41713092845542321 -0.20900944133272009 0 0.42330136258736267 -0.2174116668913772 0 0.43006687167525981 -0.21185300334864521 0 0.42330136258736267 -0.2174116668913772 0 0.43006687167525981 -0.21185300334864521 0 0.42988092584916948 -0.2249579995083304 0 0.41713092845542321 -0.20900944133272009 0 0.42701217502226602 -0.19751647228806199 0 0.43006687167525981 -0.21185300334864521 0 0.43006687167525981 -0.21185300334864521 0 0.42988092584916948 -0.2249579995083304 0 0.44009267276725389 -0.2176624614444449 0 0.42330136258736267 -0.2174116668913772 0 0.42988092584916948 -0.2249579995083304 0 0.41612672436959858 -0.22382622337581301 0 0.42988092584916948 -0.2249579995083304 0 0.43458399188612801 -0.2397076170126072 0 0.42159465327244361 -0.23640953485310751 0 0.42988092584916948 -0.2249579995083304 0 0.42159465327244361 -0.23640953485310751 0 0.41612672436959858 -0.22382622337581301 0 0.42988092584916948 -0.2249579995083304 0 0.43458399188612801 -0.2397076170126072 0 0.44416109061426973 -0.22983272991065171 0 0.43458399188612801 -0.2397076170126072 0 0.42656562700980838 -0.24831468624349931 0 0.4372088962240912 -0.25169219704383999 0 0.43458399188612801 -0.2397076170126072 0 0.42656562700980838 -0.24831468624349931 0 0.42159465327244361 -0.23640953485310751 0 0.42656562700980838 -0.24831468624349931 0 0.42159465327244361 -0.23640953485310751 0 0.41087794879613182 -0.2494957955088617 0 0.42159465327244361 -0.23640953485310751 0 0.41087794879613182 -0.2494957955088617 0 0.40741230325918792 -0.23450562481703699 0 0.4055308246994358 -0.22407667781788709 0 0.40741230325918792 -0.23450562481703699 0 0.41612672436959858 -0.22382622337581301 0 0.4055308246994358 -0.22407667781788709 0 0.40434357831770951 -0.21487406561090469 0 0.41612672436959858 -0.22382622337581301 0 0.42159465327244361 -0.23640953485310751 0 0.40741230325918792 -0.23450562481703699 0 0.41612672436959858 -0.22382622337581301 0 0.39823574772599779 -0.11763079726210079 0 0.40257569972698831 -0.13396225485532559 0 0.38918813321375051 -0.12739880168557821 0 0.40257569972698831 -0.13396225485532559 0 0.38918813321375051 -0.12739880168557821 0 0.39017348084279901 -0.13955387731924049 0 0.38918813321375051 -0.12739880168557821 0 0.37808333446084269 -0.1309391893982525 0 0.39017348084279901 -0.13955387731924049 0 0.37720890243704291 -0.12310924361699779 0 0.36253108037134668 -0.1248744885805331 0 0.38918813321375051 -0.12739880168557821 0 0.36253108037134668 -0.1248744885805331 0 0.38918813321375051 -0.12739880168557821 0 0.37808333446084269 -0.1309391893982525 0 0.36253108037134668 -0.1248744885805331 0 0.38918813321375051 -0.12739880168557821 0 0.37808333446084269 -0.1309391893982525 0 0.39017348084279901 -0.13955387731924049 0 0.3787995421462832 -0.1425544525875144 0 0.36858459771950869 -0.15733985743645959 0 0.3787995421462832 -0.1425544525875144 0 0.38535727780346091 -0.1527557998392445 0 0.39017348084279901 -0.13955387731924049 0 0.3787995421462832 -0.1425544525875144 0 0.38535727780346091 -0.1527557998392445 0 0.40257569972698831 -0.13396225485532559 0 0.39822107621443897 -0.1501202070538992 0 0.41732028123257531 -0.14286435439753159 0 0.40257569972698831 -0.13396225485532559 0 0.39017348084279901 -0.13955387731924049 0 0.39822107621443897 -0.1501202070538992 0 0.39017348084279901 -0.13955387731924049 0 0.38535727780346091 -0.1527557998392445 0 0.39822107621443897 -0.1501202070538992 0 0.39822107621443897 -0.1501202070538992 0 0.39107178753907162 -0.16851380255406381 0 0.40713652226246821 -0.16744863749245631 0 0.39107178753907162 -0.16851380255406381 0 0.40713652226246821 -0.16744863749245631 0 0.38535727780346091 -0.1527557998392445 0 0.39822107621443897 -0.1501202070538992 0 0.39107178753907162 -0.16851380255406381 0 0.39107178753907162 -0.16851380255406381 0 0.40460499843718001 -0.17902112385493851 0 0.40713652226246821 -0.16744863749245631 0 0.36858459771950869 -0.15733985743645959 0 0.38535727780346091 -0.1527557998392445 0 0.39107178753907162 -0.16851380255406381 0 0.36858459771950869 -0.15733985743645959 0 0.39107178753907162 -0.16851380255406381 0 0.3834788620725188 -0.17954848884060079 0 0.39107178753907162 -0.16851380255406381 0 0.3834788620725188 -0.17954848884060079 0 0.39510197637232292 -0.1839605883432579 0 0.39078770323730427 -0.19674260859680251 0 0.3834788620725188 -0.17954848884060079 0 0.39510197637232292 -0.1839605883432579 0 0.37064833187319962 -0.1852102762359614 0 0.39078770323730427 -0.19674260859680251 0 0.3834788620725188 -0.17954848884060079 0 0.39107178753907162 -0.16851380255406381 0 0.39510197637232292 -0.1839605883432579 0 0.40460499843718001 -0.17902112385493851 0 0.40475141021500721 -0.1910589369573561 0 0.39510197637232292 -0.1839605883432579 0 0.40460499843718001 -0.17902112385493851 0 0.40475141021500721 -0.1910589369573561 0 0.40460499843718001 -0.17902112385493851 0 0.4146572714410397 -0.186958864794112 0 0.40460499843718001 -0.17902112385493851 0 0.41491102279317088 -0.17618591298838529 0 0.4146572714410397 -0.186958864794112 0 0.40460499843718001 -0.17902112385493851 0 0.41491102279317088 -0.17618591298838529 0 0.40713652226246821 -0.16744863749245631 0 0.41491102279317088 -0.17618591298838529 0 0.42527009306055918 -0.1746571334479238 0 0.4232012569858648 -0.16638347243084889 0 0.41491102279317088 -0.17618591298838529 0 0.42095079563492938 -0.18072636251124541 0 0.42527009306055918 -0.1746571334479238 0 0.41491102279317088 -0.17618591298838529 0 0.42095079563492938 -0.18072636251124541 0 0.4146572714410397 -0.186958864794112 0 0.42095079563492938 -0.18072636251124541 0 0.4146572714410397 -0.186958864794112 0 0.42558338933545942 -0.1867115165846317 0 0.43180268423531071 -0.1802632517690351 0 0.42527009306055918 -0.1746571334479238 0 0.44880083799057491 -0.164686103644653 0 0.42095079563492938 -0.18072636251124541 0 0.42558338933545942 -0.1867115165846317 0 0.43180268423531071 -0.1802632517690351 0 0.42558338933545942 -0.1867115165846317 0 0.43180268423531071 -0.1802632517690351 0 0.43844209377108118 -0.18689286854296691 0 0.42095079563492938 -0.18072636251124541 0 0.43180268423531071 -0.1802632517690351 0 0.42527009306055918 -0.1746571334479238 0 0.42527009306055918 -0.1746571334479238 0 0.4232012569858648 -0.16638347243084889 0 0.44880083799057491 -0.164686103644653 0 0.4232012569858648 -0.16638347243084889 0 0.43334283997313311 -0.15135273030925811 0 0.44880083799057491 -0.164686103644653 0 0.4232012569858648 -0.16638347243084889 0 0.44880083799057491 -0.164686103644653 0 0.42527009306055918 -0.1746571334479238 0 0.4232012569858648 -0.16638347243084889 0 0.4232012569858648 -0.16638347243084889 0 0.40713652226246821 -0.16744863749245631 0 0.41732028123257531 -0.14286435439753159 0 0.41491102279317088 -0.17618591298838529 0 0.4232012569858648 -0.16638347243084889 0 0.40713652226246821 -0.16744863749245631 0 0.4232012569858648 -0.16638347243084889 0 0.40713652226246821 -0.16744863749245631 0 0.4232012569858648 -0.16638347243084889 0 0.41732028123257531 -0.14286435439753159 0 0.39822107621443897 -0.1501202070538992 0 0.40713652226246821 -0.16744863749245631 0 0.41732028123257531 -0.14286435439753159 0 0.41732028123257531 -0.14286435439753159 0 0.43334283997313311 -0.15135273030925811 0 0.43763345530417341 -0.13584027725706749 0 0.4232012569858648 -0.16638347243084889 0 0.41732028123257531 -0.14286435439753159 0 0.43334283997313311 -0.15135273030925811 0 0.42916935431308728 -0.1205456085246996 0 0.41732028123257531 -0.14286435439753159 0 0.43763345530417341 -0.13584027725706749 0 0.42916935431308728 -0.1205456085246996 0 0.4435038969132965 -0.12540022695152131 0 0.43763345530417341 -0.13584027725706749 0 0.41143930547928681 -0.11934523636421419 0 0.42916935431308728 -0.1205456085246996 0 0.41732028123257531 -0.14286435439753159 0 0.41143930547928681 -0.11934523636421419 0 0.40257569972698831 -0.13396225485532559 0 0.41732028123257531 -0.14286435439753159 0 0.41143930547928681 -0.11934523636421419 0 0.41732028123257531 -0.14286435439753159 0 0.46257396642688631 -0.12529077885077469 0 0.46381730130484328 -0.1363472541609663 0 0.4585659370706795 -0.1308283620105129 0 0.46381730130484328 -0.1363472541609663 0 0.4585659370706795 -0.1308283620105129 0 0.45274550479158487 -0.1345999168850856 0 0.46381730130484328 -0.1363472541609663 0 0.45274550479158487 -0.1345999168850856 0 0.46138481906560302 -0.14686228775601681 0 0.46257396642688631 -0.12529077885077469 0 0.4585659370706795 -0.1308283620105129 0 0.45239247298790419 -0.125419693033265 0 0.4585659370706795 -0.1308283620105129 0 0.45239247298790419 -0.125419693033265 0 0.45274550479158487 -0.1345999168850856 0 0.45239247298790419 -0.125419693033265 0 0.4435038969132965 -0.12540022695152131 0 0.45274550479158487 -0.1345999168850856 0 0.4435038969132965 -0.12540022695152131 0 0.43763345530417341 -0.13584027725706749 0 0.45274550479158487 -0.1345999168850856 0 0.43763345530417341 -0.13584027725706749 0 0.45274550479158487 -0.1345999168850856 0 0.44678149142501389 -0.1466682631704162 0 0.43334283997313311 -0.15135273030925811 0 0.44678149142501389 -0.1466682631704162 0 0.44880083799057491 -0.164686103644653 0 0.44678149142501389 -0.1466682631704162 0 0.46138481906560302 -0.14686228775601681 0 0.44880083799057491 -0.164686103644653 0 0.43334283997313311 -0.15135273030925811 0 0.43763345530417341 -0.13584027725706749 0 0.44678149142501389 -0.1466682631704162 0 0.45274550479158487 -0.1345999168850856 0 0.44678149142501389 -0.1466682631704162 0 0.46138481906560302 -0.14686228775601681 0 0.46138481906560302 -0.14686228775601681 0 0.44880083799057491 -0.164686103644653 0 0.47440041899528501 -0.16298873485845719 0 0.44880083799057491 -0.164686103644653 0 0.46834799031954211 -0.17915452781490099 0 0.47440041899528501 -0.16298873485845719 0 0.44880083799057491 -0.164686103644653 0 0.47440041899528501 -0.16298873485845719 0 0.43180268423531071 -0.1802632517690351 0 0.44880083799057491 -0.164686103644653 0 0.43844209377108118 -0.18689286854296691 0 0.44880083799057491 -0.164686103644653 0 0.43844209377108118 -0.18689286854296691 0 0.45508032593701309 -0.1914137801830845 0 0.44880083799057491 -0.164686103644653 0 0.46834799031954211 -0.17915452781490099 0 0.45508032593701309 -0.1914137801830845 0 0.46834799031954211 -0.17915452781490099 0 0.48419704391512092 -0.17843144908975531 0 0.47440041899528501 -0.16298873485845719 0 0.46834799031954211 -0.17915452781490099 0 0.48419704391512092 -0.17843144908975531 0 0.47823681026078202 -0.19812675643970101 0 0.48419704391512092 -0.17843144908975531 0 0.49999999999999523 -0.16129136607226169 0 0.5 -0.1905958602634561 0 0.49999999999999523 -0.16129136607226169 0 0.47440041899528501 -0.16298873485845719 0 0.50000000000000067 -0.1547763741112759 0 0.48419704391512092 -0.17843144908975531 0 0.49999999999999523 -0.16129136607226169 0 0.47440041899528501 -0.16298873485845719 0 0.49999999999999523 -0.16129136607226169 0 0.47440041899528501 -0.16298873485845719 0 0.46138481906560302 -0.14686228775601681 0 0.47440041899528501 -0.16298873485845719 0 0.48128698321344371 -0.14003357648102521 0 0.46381730130484328 -0.1363472541609663 0 0.46138481906560302 -0.14686228775601681 0 0.48128698321344371 -0.14003357648102521 0 0.50000000000000067 -0.1547763741112759 0 0.48128698321344371 -0.14003357648102521 0 0.50000000000000067 -0.1547763741112759 0 0.5 -0.13349841451636779 0 0.48128698321344371 -0.14003357648102521 0 0.47440041899528501 -0.16298873485845719 0 0.50000000000000067 -0.1547763741112759 0 0.48128698321344371 -0.14003357648102521 0 0.48087269318342413 -0.1216818802472065 0 0.5 -0.13349841451636779 0 0.48128698321344371 -0.14003357648102521 0 0.46257396642688631 -0.12529077885077469 0 0.48128698321344371 -0.14003357648102521 0 0.46257396642688631 -0.12529077885077469 0 0.46381730130484328 -0.1363472541609663 0 0.48128698321344371 -0.14003357648102521 0 0.47129126618897188 -0.1223351355815797 0 0.48087269318342413 -0.1216818802472065 0 0.48128698321344371 -0.14003357648102521 0 0.47129126618897188 -0.1223351355815797 0 0.46257396642688631 -0.12529077885077469 0 0.48128698321344371 -0.14003357648102521 0 0.46029750420545162 -0.23134667767863379 0 0.45079963313025367 -0.219495204315066 0 0.46126535540865482 -0.21094244298034759 0 0.46029750420545162 -0.23134667767863379 0 0.46126535540865482 -0.21094244298034759 0 0.47937109712497578 -0.22608105856418539 0 0.46029750420545162 -0.23134667767863379 0 0.44856132313442931 -0.24393079079591279 0 0.47387431588802909 -0.25499376211151131 0 0.46029750420545162 -0.23134667767863379 0 0.44856132313442931 -0.24393079079591279 0 0.44416109061426973 -0.22983272991065171 0 0.43458399188612801 -0.2397076170126072 0 0.44856132313442931 -0.24393079079591279 0 0.4372088962240912 -0.25169219704383999 0 0.43458399188612801 -0.2397076170126072 0 0.44856132313442931 -0.24393079079591279 0 0.44416109061426973 -0.22983272991065171 0 0.46029750420545162 -0.23134667767863379 0 0.44416109061426973 -0.22983272991065171 0 0.45079963313025367 -0.219495204315066 0 0.44416109061426973 -0.22983272991065171 0 0.45079963313025367 -0.219495204315066 0 0.44009267276725389 -0.2176624614444449 0 0.42988092584916948 -0.2249579995083304 0 0.44416109061426973 -0.22983272991065171 0 0.44009267276725389 -0.2176624614444449 0 0.45079963313025367 -0.219495204315066 0 0.44355474576021348 -0.2050869029196882 0 0.46126535540865482 -0.21094244298034759 0 0.43006687167525981 -0.21185300334864521 0 0.44009267276725389 -0.2176624614444449 0 0.44355474576021348 -0.2050869029196882 0 0.45079963313025367 -0.219495204315066 0 0.44009267276725389 -0.2176624614444449 0 0.44355474576021348 -0.2050869029196882 0 0.43844209377108118 -0.18689286854296691 0 0.44355474576021348 -0.2050869029196882 0 0.45508032593701309 -0.1914137801830845 0 0.46834799031954211 -0.17915452781490099 0 0.45508032593701309 -0.1914137801830845 0 0.47823681026078202 -0.19812675643970101 0 0.44355474576021348 -0.2050869029196882 0 0.45508032593701309 -0.1914137801830845 0 0.46126535540865482 -0.21094244298034759 0 0.45508032593701309 -0.1914137801830845 0 0.46126535540865482 -0.21094244298034759 0 0.47823681026078202 -0.19812675643970101 0 0.46126535540865482 -0.21094244298034759 0 0.47823681026078202 -0.19812675643970101 0 0.47937109712497578 -0.22608105856418539 0 0.48419704391512092 -0.17843144908975531 0 0.47823681026078202 -0.19812675643970101 0 0.5 -0.1905958602634561 0 0.47823681026078202 -0.19812675643970101 0 0.5 -0.1905958602634561 0 0.5 -0.21990035445465039 0 0.47823681026078202 -0.19812675643970101 0 0.5 -0.21990035445465039 0 0.47937109712497578 -0.22608105856418539 0 0.5 -0.21990035445465039 0 0.47937109712497578 -0.22608105856418539 0 0.50000000000000444 -0.24920484864584491 0 0.46029750420545162 -0.23134667767863379 0 0.47937109712497578 -0.22608105856418539 0 0.47387431588802909 -0.25499376211151131 0 0.47937109712497578 -0.22608105856418539 0 0.50000000000000444 -0.24920484864584491 0 0.47387431588802909 -0.25499376211151131 0 0.50000000000000444 -0.24920484864584491 0 0.4915669900217115 -0.25615479242606781 0 0.5 -0.27170772691138367 0 0.50000000000000444 -0.24920484864584491 0 0.4915669900217115 -0.25615479242606781 0 0.47387431588802909 -0.25499376211151131 0 0.50000000000000444 -0.24920484864584491 0 0.47387431588802909 -0.25499376211151131 0 0.4915669900217115 -0.25615479242606781 0 0.48280749151585822 -0.27129304150170008 0 0.47954864786353962 -0.26301133191085868 0 0.4915669900217115 -0.25615479242606781 0 0.5 -0.27170772691138367 0 0.48280749151585822 -0.27129304150170008 0 0.5 -0.27170772691138367 0 0.48280749151585822 -0.27129304150170008 0 0.48951500520952212 -0.28458010338455908 0 0.48280749151585822 -0.27129304150170008 0 0.47474596181800061 -0.28621450290334632 0 0.48951500520952212 -0.28458010338455908 0 0.48280749151585822 -0.27129304150170008 0 0.47416229901770612 -0.26612875971404459 0 0.47954864786353962 -0.26301133191085868 0 0.48280749151585822 -0.27129304150170008 0 0.47416229901770612 -0.26612875971404459 0 0.47052118473631321 -0.27447720361836658 0 0.47416229901770612 -0.26612875971404459 0 0.47052118473631321 -0.27447720361836658 0 0.46319689217890331 -0.26835660325056299 0 0.48280749151585822 -0.27129304150170008 0 0.47052118473631321 -0.27447720361836658 0 0.47474596181800061 -0.28621450290334632 0 0.4915669900217115 -0.25615479242606781 0 0.46965781089888248 -0.25846873400162218 0 0.4915669900217115 -0.25615479242606781 0 0.47387431588802909 -0.25499376211151131 0 0.46965781089888248 -0.25846873400162218 0 0.4915669900217115 -0.25615479242606781 0 0.47954864786353962 -0.26301133191085868 0 0.46965781089888248 -0.25846873400162218 0 0.47416229901770612 -0.26612875971404459 0 0.47954864786353962 -0.26301133191085868 0 0.46965781089888248 -0.25846873400162218 0 0.47416229901770612 -0.26612875971404459 0 0.46965781089888248 -0.25846873400162218 0 0.46319689217890331 -0.26835660325056299 0 0.46965781089888248 -0.25846873400162218 0 0.46319689217890331 -0.26835660325056299 0 0.4477486317760534 -0.26078267557717671 0 0.44856132313442931 -0.24393079079591279 0 0.47387431588802909 -0.25499376211151131 0 0.4477486317760534 -0.26078267557717671 0 0.47387431588802909 -0.25499376211151131 0 0.4477486317760534 -0.26078267557717671 0 0.46965781089888248 -0.25846873400162218 0 0.4477486317760534 -0.26078267557717671 0 0.47387431588802909 -0.25499376211151131 0 0.46965781089888248 -0.25846873400162218 0 0.4477486317760534 -0.26078267557717671 0 0.47052118473631321 -0.27447720361836658 0 0.45389453446556111 -0.28192564334160541 0 0.47474596181800061 -0.28621450290334632 0 0.47052118473631321 -0.27447720361836658 0 0.46319689217890331 -0.26835660325056299 0 0.45389453446556111 -0.28192564334160541 0 0.46319689217890331 -0.26835660325056299 0 0.4477486317760534 -0.26078267557717671 0 0.45389453446556111 -0.28192564334160541 0 0.45389453446556111 -0.28192564334160541 0 0.430823863629894 -0.26453285558412298 0 0.45389453446556111 -0.28192564334160541 0 0.430823863629894 -0.26453285558412298 0 0.43570592202634773 -0.28205449164250063 0 0.4477486317760534 -0.26078267557717671 0 0.45389453446556111 -0.28192564334160541 0 0.430823863629894 -0.26453285558412298 0 0.4477486317760534 -0.26078267557717671 0 0.42854038242645709 -0.26281135800815408 0 0.44856132313442931 -0.24393079079591279 0 0.4477486317760534 -0.26078267557717671 0 0.4372088962240912 -0.25169219704383999 0 0.4477486317760534 -0.26078267557717671 0 0.42854038242645709 -0.26281135800815408 0 0.4372088962240912 -0.25169219704383999 0 0.4477486317760534 -0.26078267557717671 0 0.430823863629894 -0.26453285558412298 0 0.44815314542162782 -0.30273998798419938 0 0.44271266904340639 -0.31513600928105973 0 0.43092107089682352 -0.30573631325696571 0 0.44815314542162782 -0.30273998798419938 0 0.43874415768382158 -0.29310671547163403 0 0.43092107089682352 -0.30573631325696571 0 0.43874415768382158 -0.29310671547163403 0 0.45389453446556111 -0.28192564334160541 0 0.43570592202634773 -0.28205449164250063 0 0.44815314542162782 -0.30273998798419938 0 0.43874415768382158 -0.29310671547163403 0 0.45389453446556111 -0.28192564334160541 0 0.45389453446556111 -0.28192564334160541 0 0.46668010371271101 -0.29937682325086112 0 0.47474596181800061 -0.28621450290334632 0 0.44815314542162782 -0.30273998798419938 0 0.45389453446556111 -0.28192564334160541 0 0.46668010371271101 -0.29937682325086112 0 0.46668010371271101 -0.29937682325086112 0 0.45907432653114449 -0.32014896664993769 0 0.44815314542162782 -0.30273998798419938 0 0.46668010371271101 -0.29937682325086112 0 0.45907432653114449 -0.32014896664993769 0 0.46668010371271101 -0.29937682325086112 0 0.48375110351916628 -0.30725513966339157 0 0.45907432653114449 -0.32014896664993769 0 0.46668010371271101 -0.29937682325086112 0 0.48375110351916628 -0.30725513966339157 0 0.47474596181800061 -0.28621450290334632 0 0.48375110351916628 -0.30725513966339157 0 0.47474596181800061 -0.28621450290334632 0 0.48951500520952212 -0.28458010338455908 0 0.48375110351916628 -0.30725513966339157 0 0.5 -0.29421060517692271 0 0.48951500520952212 -0.28458010338455908 0 0.5 -0.27170772691138367 0 0.5 -0.29421060517692271 0 0.48951500520952212 -0.28458010338455908 0 0.48375110351916628 -0.30725513966339157 0 0.5 -0.29421060517692271 0 0.49999999999999972 -0.31671348344246159 0 0.48375110351916628 -0.30725513966339157 0 0.49999999999999972 -0.31671348344246159 0 0.48658745812515303 -0.32591538654610069 0 0.49999999999999972 -0.31671348344246159 0 0.49107839048707969 -0.33844651150006611 0 0.49999999999999972 -0.31671348344246159 0 0.48658745812515303 -0.32591538654610069 0 0.49107839048707969 -0.33844651150006611 0 0.49999999999999972 -0.31671348344246159 0 0.5 -0.34354646621870782 0 0.49107839048707969 -0.33844651150006611 0 0.48658745812515303 -0.32591538654610069 0 0.49107839048707969 -0.33844651150006611 0 0.48013111160135669 -0.33592777501669763 0 0.48658745812515303 -0.32591538654610069 0 0.48013111160135669 -0.33592777501669763 0 0.47588582758327369 -0.32632043512378739 0 0.48013111160135669 -0.33592777501669763 0 0.46883970942210401 -0.33989811375075968 0 0.47588582758327369 -0.32632043512378739 0 0.48375110351916628 -0.30725513966339157 0 0.48658745812515303 -0.32591538654610069 0 0.47588582758327369 -0.32632043512378739 0 0.48375110351916628 -0.30725513966339157 0 0.47588582758327369 -0.32632043512378739 0 0.45907432653114449 -0.32014896664993769 0 0.5 -0.37037944899495368 0 0.48466784746851571 -0.3739080713738358 0 0.48215678097416009 -0.36017953955767068 0 0.5 -0.34354646621870782 0 0.49107839048707969 -0.33844651150006611 0 0.48215678097416009 -0.36017953955767068 0 0.49107839048707969 -0.33844651150006611 0 0.48013111160135669 -0.33592777501669763 0 0.48215678097416009 -0.36017953955767068 0 0.5 -0.34354646621870782 0 0.5 -0.37037944899495368 0 0.48215678097416009 -0.36017953955767068 0 0.49107839048707969 -0.33844651150006611 0 0.48215678097416009 -0.36017953955767068 0 0.48013111160135669 -0.33592777501669763 0 0.46883970942210401 -0.33989811375075968 0 0.48215678097416009 -0.36017953955767068 0 0.46883970942210401 -0.33989811375075968 0 0.48215678097416009 -0.36017953955767068 0 0.46166172922915721 -0.35810144835948332 0 0.48215678097416009 -0.36017953955767068 0 0.47323517146124039 -0.38191256761527542 0 0.48215678097416009 -0.36017953955767068 0 0.4671179630262795 -0.37324494563770522 0 0.47323517146124039 -0.38191256761527542 0 0.48466784746851571 -0.3739080713738358 0 0.48215678097416009 -0.36017953955767068 0 0.47323517146124039 -0.38191256761527542 0 0.48215678097416009 -0.36017953955767068 0 0.4671179630262795 -0.37324494563770522 0 0.46166172922915721 -0.35810144835948332 0 0.45652460043480969 -0.37267172771365881 0 0.46166172922915721 -0.35810144835948332 0 0.44386277216801179 -0.36169325344809122 0 0.45652460043480969 -0.37267172771365881 0 0.4671179630262795 -0.37324494563770522 0 0.46166172922915721 -0.35810144835948332 0 0.46883970942210401 -0.33989811375075968 0 0.46166172922915721 -0.35810144835948332 0 0.45146854934957792 -0.34092111004901438 0 0.43963091224731599 -0.34751792105314822 0 0.44386277216801179 -0.36169325344809122 0 0.45146854934957792 -0.34092111004901438 0 0.44386277216801179 -0.36169325344809122 0 0.45146854934957792 -0.34092111004901438 0 0.46166172922915721 -0.35810144835948332 0 0.44386277216801179 -0.36169325344809122 0 0.45146854934957792 -0.34092111004901438 0 0.44386277216801179 -0.36169325344809122 0 0.43376943787959182 -0.36708850497004442 0 0.43808065797110041 -0.37748478958974491 0 0.45652460043480969 -0.37267172771365881 0 0.44386277216801179 -0.36169325344809122 0 0.44783900322824399 -0.38008781189722518 0 0.44386277216801179 -0.36169325344809122 0 0.43808065797110041 -0.37748478958974491 0 0.44386277216801179 -0.36169325344809122 0 0.43808065797110041 -0.37748478958974491 0 0.44783900322824399 -0.38008781189722518 0 0.45652460043480969 -0.37267172771365881 0 0.44386277216801179 -0.36169325344809122 0 0.46883970942210401 -0.33989811375075968 0 0.45907432653114449 -0.32014896664993769 0 0.45146854934957792 -0.34092111004901438 0 0.45907432653114449 -0.32014896664993769 0 0.45146854934957792 -0.34092111004901438 0 0.46883970942210401 -0.33989811375075968 0 0.47588582758327369 -0.32632043512378739 0 0.45907432653114449 -0.32014896664993769 0 0.43963091224731599 -0.34751792105314822 0 0.45146854934957792 -0.34092111004901438 0 0.43565299676263758 -0.3352386806192425 0 0.45146854934957792 -0.34092111004901438 0 0.44493724809618768 -0.32603283426431229 0 0.43565299676263758 -0.3352386806192425 0 0.45907432653114449 -0.32014896664993769 0 0.45146854934957792 -0.34092111004901438 0 0.44493724809618768 -0.32603283426431229 0 0.45907432653114449 -0.32014896664993769 0 0.44493724809618768 -0.32603283426431229 0 0.44271266904340639 -0.31513600928105973 0 0.44493724809618768 -0.32603283426431229 0 0.44271266904340639 -0.31513600928105973 0 0.43047755427124879 -0.32102194424988317 0 0.44815314542162782 -0.30273998798419938 0 0.45907432653114449 -0.32014896664993769 0 0.44271266904340639 -0.31513600928105973 0 0.44271266904340639 -0.31513600928105973 0 0.43047755427124879 -0.32102194424988317 0 0.43092107089682352 -0.30573631325696571 0 0.43047755427124879 -0.32102194424988317 0 0.41919911313656122 -0.31385112706466711 0 0.41739686236043672 -0.32199345155319897 0 0.43047755427124879 -0.32102194424988317 0 0.41919911313656122 -0.31385112706466711 0 0.43092107089682352 -0.30573631325696571 0 0.43047755427124879 -0.32102194424988317 0 0.42053718701310799 -0.32957674384091618 0 0.41739686236043672 -0.32199345155319897 0 0.44493724809618768 -0.32603283426431229 0 0.43047755427124879 -0.32102194424988317 0 0.43565299676263758 -0.3352386806192425 0 0.43565299676263758 -0.3352386806192425 0 0.42053718701310799 -0.32957674384091618 0 0.4250793590774925 -0.34540704162396091 0 0.43963091224731599 -0.34751792105314822 0 0.43565299676263758 -0.3352386806192425 0 0.4250793590774925 -0.34540704162396091 0 0.43047755427124879 -0.32102194424988317 0 0.43565299676263758 -0.3352386806192425 0 0.42053718701310799 -0.32957674384091618 0 0.4062959459869725 -0.32912082979983148 0 0.4250793590774925 -0.34540704162396091 0 0.41055923831377589 -0.34398547157316572 0 0.42053718701310799 -0.32957674384091618 0 0.4062959459869725 -0.32912082979983148 0 0.4250793590774925 -0.34540704162396091 0 0.4062959459869725 -0.32912082979983148 0 0.4250793590774925 -0.34540704162396091 0 0.42053718701310799 -0.32957674384091618 0 0.4062959459869725 -0.32912082979983148 0 0.40802480504278882 -0.32457497099322458 0 0.4062959459869725 -0.32912082979983148 0 0.40802480504278882 -0.32457497099322458 0 0.4062959459869725 -0.32912082979983148 0 0.40802480504278882 -0.32457497099322458 0 0.40572459905769331 -0.31910551143285631 0 0.40802480504278882 -0.32457497099322458 0 0.4119015194344513 -0.31818912214386269 0 0.41739686236043672 -0.32199345155319897 0 0.40802480504278882 -0.32457497099322458 0 0.4119015194344513 -0.31818912214386269 0 0.40572459905769331 -0.31910551143285631 0 0.4119015194344513 -0.31818912214386269 0 0.41919911313656122 -0.31385112706466711 0 0.40916221757477672 -0.31142054967536659 0 0.4119015194344513 -0.31818912214386269 0 0.40572459905769331 -0.31910551143285631 0 0.40916221757477672 -0.31142054967536659 0 0.4119015194344513 -0.31818912214386269 0 0.41919911313656122 -0.31385112706466711 0 0.41739686236043672 -0.32199345155319897 0 0.42053718701310799 -0.32957674384091618 0 0.40802480504278882 -0.32457497099322458 0 0.41739686236043672 -0.32199345155319897 0 0.44386277216801179 -0.36169325344809122 0 0.43376943787959182 -0.36708850497004442 0 0.42728564025893462 -0.35958684797927032 0 0.42489657602010461 -0.37065940299189432 0 0.43376943787959182 -0.36708850497004442 0 0.43808065797110041 -0.37748478958974491 0 0.42489657602010461 -0.37065940299189432 0 0.43376943787959182 -0.36708850497004442 0 0.42728564025893462 -0.35958684797927032 0 0.44386277216801179 -0.36169325344809122 0 0.4250793590774925 -0.34540704162396091 0 0.43963091224731599 -0.34751792105314822 0 0.44386277216801179 -0.36169325344809122 0 0.4250793590774925 -0.34540704162396091 0 0.44386277216801179 -0.36169325344809122 0 0.42728564025893462 -0.35958684797927032 0 0.4250793590774925 -0.34540704162396091 0 0.42728564025893462 -0.35958684797927032 0 0.4250793590774925 -0.34540704162396091 0 0.41069622259092692 -0.35617360609135817 0 0.4250793590774925 -0.34540704162396091 0 0.41055923831377589 -0.34398547157316572 0 0.41069622259092692 -0.35617360609135817 0 0.41055923831377589 -0.34398547157316572 0 0.41069622259092692 -0.35617360609135817 0 0.40016542559971202 -0.34524040877751239 0 0.42489657602010461 -0.37065940299189432 0 0.42728564025893462 -0.35958684797927032 0 0.41069622259092692 -0.35617360609135817 0 0.42489657602010461 -0.37065940299189432 0 0.41069622259092692 -0.35617360609135817 0 0.4070765621089808 -0.37107032214525337 0 0.42489657602010461 -0.37065940299189432 0 0.41069622259092692 -0.35617360609135817 0 0.39585190457779329 -0.37201308858561799 0 0.3940349052124521 -0.36135998775519362 0 0.38601585554704992 -0.38244526212700758 0 0.41069622259092692 -0.35617360609135817 0 0.4070765621089808 -0.37107032214525337 0 0.3940349052124521 -0.36135998775519362 0 0.4070765621089808 -0.37107032214525337 0 0.39585190457779329 -0.37201308858561799 0 0.3940349052124521 -0.36135998775519362 0 0.39585190457779329 -0.37201308858561799 0 0.3940349052124521 -0.36135998775519362 0 0.3940349052124521 -0.36135998775519362 0 0.40016542559971202 -0.34524040877751239 0 0.38974443050024338 -0.33620485529262373 0 0.3940349052124521 -0.36135998775519362 0 0.38974443050024338 -0.33620485529262373 0 0.3940349052124521 -0.36135998775519362 0 0.40016542559971202 -0.34524040877751239 0 0.41069622259092692 -0.35617360609135817 0 0.3940349052124521 -0.36135998775519362 0 0.40016542559971202 -0.34524040877751239 0 0.3940349052124521 -0.36135998775519362 0 0.38974443050024338 -0.33620485529262373 0 0.37368731816096312 -0.34897020548070451 0 0.3940349052124521 -0.36135998775519362 0 0.38601585554704992 -0.38244526212700758 0 0.3940349052124521 -0.36135998775519362 0 0.38601585554704992 -0.38244526212700758 0 0.3689120952668708 -0.37284951495870189 0 0.3940349052124521 -0.36135998775519362 0 0.3689120952668708 -0.37284951495870189 0 0.37368731816096312 -0.34897020548070451 0 0.4062959459869725 -0.32912082979983148 0 0.40572459905769331 -0.31910551143285631 0 0.39816778062817881 -0.31191488097197773 0 0.4062959459869725 -0.32912082979983148 0 0.38974443050024338 -0.33620485529262373 0 0.38545395578803499 -0.31104972283005378 0 0.4062959459869725 -0.32912082979983148 0 0.38545395578803499 -0.31104972283005378 0 0.4062959459869725 -0.32912082979983148 0 0.38545395578803499 -0.31104972283005378 0 0.39816778062817881 -0.31191488097197773 0 0.40572459905769331 -0.31910551143285631 0 0.39816778062817881 -0.31191488097197773 0 0.40916221757477672 -0.31142054967536659 0 0.4062959459869725 -0.32912082979983148 0 0.40016542559971202 -0.34524040877751239 0 0.38974443050024338 -0.33620485529262373 0 0.4062959459869725 -0.32912082979983148 0 0.40016542559971202 -0.34524040877751239 0 0.4062959459869725 -0.32912082979983148 0 0.41055923831377589 -0.34398547157316572 0 0.40016542559971202 -0.34524040877751239 0 0.38974443050024338 -0.33620485529262373 0 0.36945761595668469 -0.32738841673247931 0 0.37368731816096312 -0.34897020548070451 0 0.38974443050024338 -0.33620485529262373 0 0.38545395578803499 -0.31104972283005378 0 0.36945761595668469 -0.32738841673247931 0 0.38974443050024338 -0.33620485529262373 0 0.38545395578803499 -0.31104972283005378 0 0.38545395578803499 -0.31104972283005378 0 0.38245755150739558 -0.29348174920317632 0 0.37101427446782781 -0.29852975601036341 0 0.38545395578803499 -0.31104972283005378 0 0.38245755150739558 -0.29348174920317632 0 0.38545395578803499 -0.31104972283005378 0 0.37101427446782781 -0.29852975601036341 0 0.38545395578803499 -0.31104972283005378 0 0.39567659353887108 -0.29306988619604551 0 0.38245755150739558 -0.29348174920317632 0 0.39816778062817881 -0.31191488097197773 0 0.40563314249086863 -0.30155395497769039 0 0.39567659353887108 -0.29306988619604551 0 0.38545395578803499 -0.31104972283005378 0 0.39816778062817881 -0.31191488097197773 0 0.39567659353887108 -0.29306988619604551 0 0.39816778062817881 -0.31191488097197773 0 0.40563314249086863 -0.30155395497769039 0 0.40916221757477672 -0.31142054967536659 0 0.39567659353887108 -0.29306988619604551 0 0.40514250542832608 -0.27022331558021301 0 0.41160024963212011 -0.28933460066763711 0 0.40563314249086863 -0.30155395497769039 0 0.39567659353887108 -0.29306988619604551 0 0.41160024963212011 -0.28933460066763711 0 0.38245755150739558 -0.29348174920317632 0 0.37946114722675722 -0.27591377557629859 0 0.39567659353887108 -0.29306988619604551 0 0.38245755150739558 -0.29348174920317632 0 0.37946114722675722 -0.27591377557629859 0 0.38245755150739558 -0.29348174920317632 0 0.37795999762798671 -0.28395322059410122 0 0.37946114722675722 -0.27591377557629859 0 0.37519981906117678 -0.29055939022370142 0 0.38245755150739558 -0.29348174920317632 0 0.37101427446782781 -0.29852975601036341 0 0.37519981906117678 -0.29055939022370142 0 0.38245755150739558 -0.29348174920317632 0 0.37795999762798671 -0.28395322059410122 0 0.37795999762798671 -0.28395322059410122 0 0.37946114722675722 -0.27591377557629859 0 0.37739853904771847 -0.27637080706343392 0 0.37739853904771847 -0.27637080706343392 0 0.37683953433427181 -0.26882153263446662 0 0.37273728942595791 -0.27740364396778311 0 0.37795999762798671 -0.28395322059410122 0 0.37739853904771847 -0.27637080706343392 0 0.37273728942595791 -0.27740364396778311 0 0.37946114722675722 -0.27591377557629859 0 0.38774772661347989 -0.26664574742688191 0 0.3964002279028962 -0.26984905957103239 0 0.37946114722675722 -0.27591377557629859 0 0.3964002279028962 -0.26984905957103239 0 0.37795999762798671 -0.28395322059410122 0 0.37739853904771847 -0.27637080706343392 0 0.37739853904771847 -0.27637080706343392 0 0.37273728942595791 -0.27740364396778311 0 0.37946114722675722 -0.27591377557629859 0 0.37739853904771847 -0.27637080706343392 0 0.37683953433427181 -0.26882153263446662 0 0.37946114722675722 -0.27591377557629859 0 0.37739853904771847 -0.27637080706343392 0 0.37946114722675722 -0.27591377557629859 0 0.37843581040967561 -0.26746760801825881 0 0.38284686623937531 -0.26497045393317709 0 0.37946114722675722 -0.27591377557629859 0 0.37683953433427181 -0.26882153263446662 0 0.37843581040967561 -0.26746760801825881 0 0.37739853904771847 -0.27637080706343392 0 0.37683953433427181 -0.26882153263446662 0 0.37683953433427181 -0.26882153263446662 0 0.37843581040967561 -0.26746760801825881 0 0.37946114722675722 -0.27591377557629859 0 0.38774772661347989 -0.26664574742688191 0 0.38284686623937531 -0.26497045393317709 0 0.37477580018058132 -0.24095111383496479 0 0.37683953433427181 -0.26882153263446662 0 0.38107906364546162 -0.25934379353391329 0 0.37477580018058132 -0.24095111383496479 0 0.37683953433427181 -0.26882153263446662 0 0.37477580018058132 -0.24095111383496479 0 0.38107906364546162 -0.25934379353391329 0 0.38725375881062551 -0.25185160038302579 0 0.37843581040967561 -0.26746760801825881 0 0.38107906364546162 -0.25934379353391329 0 0.38284686623937531 -0.26497045393317709 0 0.37683953433427181 -0.26882153263446662 0 0.37843581040967561 -0.26746760801825881 0 0.38107906364546162 -0.25934379353391329 0 0.38107906364546162 -0.25934379353391329 0 0.38632261189823958 -0.26200045239958702 0 0.38284686623937531 -0.26497045393317709 0 0.38774772661347989 -0.26664574742688191 0 0.38632261189823958 -0.26200045239958702 0 0.38284686623937531 -0.26497045393317709 0 0.38774772661347989 -0.26664574742688191 0 0.38955528694719099 -0.2630172622662057 0 0.39295554709344072 -0.26445586107842978 0 0.38774772661347989 -0.26664574742688191 0 0.38632261189823958 -0.26200045239958702 0 0.38955528694719099 -0.2630172622662057 0 0.38632261189823958 -0.26200045239958702 0 0.38955528694719099 -0.2630172622662057 0 0.39119526218360401 -0.25896698815992442 0 0.38632261189823958 -0.26200045239958702 0 0.38725375881062551 -0.25185160038302579 0 0.39119526218360401 -0.25896698815992442 0 0.38107906364546162 -0.25934379353391329 0 0.38632261189823958 -0.26200045239958702 0 0.38725375881062551 -0.25185160038302579 0 0.40314688718896508 -0.2619981766022052 0 0.39707581272688741 -0.26613449373937459 0 0.41345304600685079 -0.26440480953867462 0 0.39707581272688741 -0.26613449373937459 0 0.41345304600685079 -0.26440480953867462 0 0.38725375881062551 -0.25185160038302579 0 0.39640803358832022 -0.25154779433757402 0 0.39119526218360401 -0.25896698815992442 0 0.39640803358832022 -0.25154779433757402 0 0.39702034872720737 -0.26014738253762237 0 0.39119526218360401 -0.25896698815992442 0 0.39702034872720737 -0.26014738253762237 0 0.39119526218360401 -0.25896698815992442 0 0.39295554709344072 -0.26445586107842978 0 0.38955528694719099 -0.2630172622662057 0 0.39119526218360401 -0.25896698815992442 0 0.39295554709344072 -0.26445586107842978 0 0.39702034872720737 -0.26014738253762237 0 0.39295554709344072 -0.26445586107842978 0 0.39707581272688741 -0.26613449373937459 0 0.39702034872720737 -0.26014738253762237 0 0.40314688718896508 -0.2619981766022052 0 0.39707581272688741 -0.26613449373937459 0 0.40314688718896508 -0.2619981766022052 0 0.40257909468765629 -0.25704117102420471 0 0.40998094690083942 -0.2590606397541646 0 0.39702034872720737 -0.26014738253762237 0 0.40314688718896508 -0.2619981766022052 0 0.40257909468765629 -0.25704117102420471 0 0.39640803358832022 -0.25154779433757402 0 0.39702034872720737 -0.26014738253762237 0 0.40257909468765629 -0.25704117102420471 0 0.41087794879613182 -0.2494957955088617 0 0.39640803358832022 -0.25154779433757402 0 0.40257909468765629 -0.25704117102420471 0 0.40514250542832608 -0.27022331558021301 0 0.3964002279028962 -0.26984905957103239 0 0.41345304600685079 -0.26440480953867462 0 0.37946114722675722 -0.27591377557629859 0 0.40514250542832608 -0.27022331558021301 0 0.3964002279028962 -0.26984905957103239 0 0.39707581272688741 -0.26613449373937459 0 0.3964002279028962 -0.26984905957103239 0 0.41345304600685079 -0.26440480953867462 0 0.37946114722675722 -0.27591377557629859 0 0.40514250542832608 -0.27022331558021301 0 0.3964002279028962 -0.26984905957103239 0 0.41345304600685079 -0.26440480953867462 0 0.39567659353887108 -0.29306988619604551 0 0.37946114722675722 -0.27591377557629859 0 0.40514250542832608 -0.27022331558021301 0 0.38774772661347989 -0.26664574742688191 0 0.39295554709344072 -0.26445586107842978 0 0.3964002279028962 -0.26984905957103239 0 0.39295554709344072 -0.26445586107842978 0 0.39707581272688741 -0.26613449373937459 0 0.3964002279028962 -0.26984905957103239 0 0.40514250542832608 -0.27022331558021301 0 0.41345304600685079 -0.26440480953867462 0 0.430823863629894 -0.26453285558412298 0 0.40514250542832608 -0.27022331558021301 0 0.430823863629894 -0.26453285558412298 0 0.40514250542832608 -0.27022331558021301 0 0.42166373126508722 -0.27984448092147479 0 0.41160024963212011 -0.28933460066763711 0 0.40514250542832608 -0.27022331558021301 0 0.42166373126508722 -0.27984448092147479 0 0.430823863629894 -0.26453285558412298 0 0.41087794879613182 -0.2494957955088617 0 0.41984775782459283 -0.2623632460968765 0 0.42854038242645709 -0.26281135800815408 0 0.41087794879613182 -0.2494957955088617 0 0.42854038242645709 -0.26281135800815408 0 0.41087794879613182 -0.2494957955088617 0 0.40257909468765629 -0.25704117102420471 0 0.40998094690083942 -0.2590606397541646 0 0.41087794879613182 -0.2494957955088617 0 0.40998094690083942 -0.2590606397541646 0 0.41984775782459283 -0.2623632460968765 0 0.40314688718896508 -0.2619981766022052 0 0.40998094690083942 -0.2590606397541646 0 0.41345304600685079 -0.26440480953867462 0 0.41345304600685079 -0.26440480953867462 0 0.41984775782459283 -0.2623632460968765 0 0.42854038242645709 -0.26281135800815408 0 0.40998094690083942 -0.2590606397541646 0 0.41345304600685079 -0.26440480953867462 0 0.41984775782459283 -0.2623632460968765 0 0.41345304600685079 -0.26440480953867462 0 0.42854038242645709 -0.26281135800815408 0 0.41345304600685079 -0.26440480953867462 0 0.41984775782459283 -0.2623632460968765 0 0.42656562700980838 -0.24831468624349931 0 0.41087794879613182 -0.2494957955088617 0 0.42854038242645709 -0.26281135800815408 0 0.4477486317760534 -0.26078267557717671 0 0.42854038242645709 -0.26281135800815408 0 0.430823863629894 -0.26453285558412298 0 0.41345304600685079 -0.26440480953867462 0 0.42854038242645709 -0.26281135800815408 0 0.430823863629894 -0.26453285558412298 0 0.42854038242645709 -0.26281135800815408 0 0.430823863629894 -0.26453285558412298 0 0.42656562700980838 -0.24831468624349931 0 0.42854038242645709 -0.26281135800815408 0 0.4372088962240912 -0.25169219704383999 0 0.42166373126508722 -0.27984448092147479 0 0.430823863629894 -0.26453285558412298 0 0.43570592202634773 -0.28205449164250063 0 0.42166373126508722 -0.27984448092147479 0 0.43570592202634773 -0.28205449164250063 0 0.42504611560874761 -0.29307714113289868 0 0.43874415768382158 -0.29310671547163403 0 0.43570592202634773 -0.28205449164250063 0 0.42504611560874761 -0.29307714113289868 0 0.43874415768382158 -0.29310671547163403 0 0.42504611560874761 -0.29307714113289868 0 0.43092107089682352 -0.30573631325696571 0 0.41919911313656122 -0.31385112706466711 0 0.43092107089682352 -0.30573631325696571 0 0.41692698488998292 -0.30249561446253759 0 0.42504611560874761 -0.29307714113289868 0 0.43092107089682352 -0.30573631325696571 0 0.41692698488998292 -0.30249561446253759 0 0.41919911313656122 -0.31385112706466711 0 0.41692698488998292 -0.30249561446253759 0 0.40916221757477672 -0.31142054967536659 0 0.40563314249086863 -0.30155395497769039 0 0.41692698488998292 -0.30249561446253759 0 0.40916221757477672 -0.31142054967536659 0 0.40563314249086863 -0.30155395497769039 0 0.41692698488998292 -0.30249561446253759 0 0.41160024963212011 -0.28933460066763711 0 0.42166373126508722 -0.27984448092147479 0 0.42504611560874761 -0.29307714113289868 0 0.41160024963212011 -0.28933460066763711 0 0.42504611560874761 -0.29307714113289868 0 0.41692698488998292 -0.30249561446253759 0 0.41160024963212011 -0.28933460066763711 0 0.5 -0.5 0 0.47532784176218862 -0.47257481327436679 0 0.43264288253940292 -0.48275234633568048 0 0.5 -0.5 0 0.41749257905485199 -0.50000000000000033 0 0.43264288253940292 -0.48275234633568048 0 0.47532784176218862 -0.47257481327436679 0 0.44779318602395363 -0.46550469267136052 0 0.43264288253940292 -0.48275234633568048 0 0.44779318602395363 -0.46550469267136052 0 0.43264288253940292 -0.48275234633568048 0 0.5 -0.5 0 0.47532784176218862 -0.47257481327436679 0 0.49999999999999828 -0.44642064777577001 0 0.47532784176218862 -0.47257481327436679 0 0.47918453573141367 -0.4495963838019249 0 0.46294348950850428 -0.44825703900704061 0 0.47532784176218862 -0.47257481327436679 0 0.49999999999999828 -0.44642064777577001 0 0.47918453573141367 -0.4495963838019249 0 0.49999999999999828 -0.44642064777577001 0 0.47846681165496419 -0.4311330351505217 0 0.49999999999999828 -0.44642064777577001 0 0.47918453573141367 -0.4495963838019249 0 0.47846681165496419 -0.4311330351505217 0 0.47918453573141367 -0.4495963838019249 0 0.46294348950850428 -0.44825703900704061 0 0.47846681165496419 -0.4311330351505217 0 0.46294348950850428 -0.44825703900704061 0 0.44442683605218691 -0.44583817528272968 0 0.45721208074107311 -0.43281318479414382 0 0.46294348950850428 -0.44825703900704061 0 0.44779318602395363 -0.46550469267136052 0 0.47532784176218862 -0.47257481327436679 0 0.46294348950850428 -0.44825703900704061 0 0.44779318602395363 -0.46550469267136052 0 0.44779318602395363 -0.46550469267136052 0 0.44442683605218691 -0.44583817528272968 0 0.43057418754349119 -0.46211781715143319 0 0.46294348950850428 -0.44825703900704061 0 0.44779318602395363 -0.46550469267136052 0 0.44442683605218691 -0.44583817528272968 0 0.44442683605218691 -0.44583817528272968 0 0.44324354583686831 -0.42153379012121539 0 0.45721208074107311 -0.43281318479414382 0 0.44442683605218691 -0.44583817528272968 0 0.44324354583686831 -0.42153379012121539 0 0.42653452723640378 -0.44279137365393179 0 0.44324354583686831 -0.42153379012121539 0 0.45693362330993059 -0.41584542252527262 0 0.45721208074107311 -0.43281318479414382 0 0.45693362330993059 -0.41584542252527262 0 0.4354004349648965 -0.40055780990002432 0 0.44324354583686831 -0.42153379012121539 0 0.45693362330993059 -0.41584542252527262 0 0.4354004349648965 -0.40055780990002432 0 0.45693362330993059 -0.41584542252527262 0 0.46461049463358839 -0.41117161714406408 0 0.47846681165496419 -0.4311330351505217 0 0.45693362330993059 -0.41584542252527262 0 0.46461049463358839 -0.41117161714406408 0 0.45329728287846061 -0.39963099679296588 0 0.46294348950850428 -0.44825703900704061 0 0.45721208074107311 -0.43281318479414382 0 0.47846681165496419 -0.4311330351505217 0 0.45693362330993059 -0.41584542252527262 0 0.45721208074107311 -0.43281318479414382 0 0.47846681165496419 -0.4311330351505217 0 0.45693362330993059 -0.41584542252527262 0 0.47846681165496419 -0.4311330351505217 0 0.49999999999999828 -0.44642064777577001 0 0.47846681165496419 -0.4311330351505217 0 0.5 -0.42181653977348488 0 0.5 -0.42181653977348488 0 0.48394518954555588 -0.41195106762427058 0 0.49999999999999789 -0.3972124317711998 0 0.47846681165496419 -0.4311330351505217 0 0.5 -0.42181653977348488 0 0.48394518954555588 -0.41195106762427058 0 0.46461049463358839 -0.41117161714406408 0 0.47846681165496419 -0.4311330351505217 0 0.48394518954555588 -0.41195106762427058 0 0.46461049463358839 -0.41117161714406408 0 0.48394518954555588 -0.41195106762427058 0 0.47664864143922919 -0.39842171428208217 0 0.47664864143922919 -0.39842171428208217 0 0.47975395238035062 -0.3854291032725421 0 0.46812846895096999 -0.38912968091376021 0 0.47664864143922919 -0.39842171428208217 0 0.49999999999999789 -0.3972124317711998 0 0.48779058149940679 -0.38751051868815611 0 0.48394518954555588 -0.41195106762427058 0 0.47664864143922919 -0.39842171428208217 0 0.49999999999999789 -0.3972124317711998 0 0.47664864143922919 -0.39842171428208217 0 0.49999999999999789 -0.3972124317711998 0 0.5 -0.37037944899495368 0 0.49999999999999789 -0.3972124317711998 0 0.48779058149940679 -0.38751051868815611 0 0.5 -0.37037944899495368 0 0.48466784746851571 -0.3739080713738358 0 0.48779058149940679 -0.38751051868815611 0 0.48466784746851571 -0.3739080713738358 0 0.47975395238035062 -0.3854291032725421 0 0.47323517146124039 -0.38191256761527542 0 0.48466784746851571 -0.3739080713738358 0 0.48779058149940679 -0.38751051868815611 0 0.47975395238035062 -0.3854291032725421 0 0.47664864143922919 -0.39842171428208217 0 0.48779058149940679 -0.38751051868815611 0 0.47975395238035062 -0.3854291032725421 0 0.47975395238035062 -0.3854291032725421 0 0.47323517146124039 -0.38191256761527542 0 0.46812846895096999 -0.38912968091376021 0 0.46918642870160698 -0.38365020197922722 0 0.47323517146124039 -0.38191256761527542 0 0.46812846895096999 -0.38912968091376021 0 0.4671179630262795 -0.37324494563770522 0 0.46918642870160698 -0.38365020197922722 0 0.47323517146124039 -0.38191256761527542 0 0.45652460043480969 -0.37267172771365881 0 0.4671179630262795 -0.37324494563770522 0 0.46918642870160698 -0.38365020197922722 0 0.45652460043480969 -0.37267172771365881 0 0.46918642870160698 -0.38365020197922722 0 0.45652460043480969 -0.37267172771365881 0 0.45606522570456098 -0.38599652494351028 0 0.44783900322824399 -0.38008781189722518 0 0.45652460043480969 -0.37267172771365881 0 0.46918642870160698 -0.38365020197922722 0 0.45606522570456098 -0.38599652494351028 0 0.46918642870160698 -0.38365020197922722 0 0.45606522570456098 -0.38599652494351028 0 0.46812846895096999 -0.38912968091376021 0 0.46461049463358839 -0.41117161714406408 0 0.47664864143922919 -0.39842171428208217 0 0.45329728287846061 -0.39963099679296588 0 0.47664864143922919 -0.39842171428208217 0 0.45329728287846061 -0.39963099679296588 0 0.47664864143922919 -0.39842171428208217 0 0.46812846895096999 -0.38912968091376021 0 0.45329728287846061 -0.39963099679296588 0 0.46461049463358839 -0.41117161714406408 0 0.45329728287846061 -0.39963099679296588 0 0.45606522570456098 -0.38599652494351028 0 0.46812846895096999 -0.38912968091376021 0 0.45329728287846061 -0.39963099679296588 0 0.45693362330993059 -0.41584542252527262 0 0.45329728287846061 -0.39963099679296588 0 0.4354004349648965 -0.40055780990002432 0 0.45329728287846061 -0.39963099679296588 0 0.4354004349648965 -0.40055780990002432 0 0.45329728287846061 -0.39963099679296588 0 0.4390969294492823 -0.3851451998924304 0 0.4354004349648965 -0.40055780990002432 0 0.45329728287846061 -0.39963099679296588 0 0.4390969294492823 -0.3851451998924304 0 0.45606522570456098 -0.38599652494351028 0 0.4390969294492823 -0.3851451998924304 0 0.44783900322824399 -0.38008781189722518 0 0.45606522570456098 -0.38599652494351028 0 0.45329728287846061 -0.39963099679296588 0 0.4390969294492823 -0.3851451998924304 0 0.4390969294492823 -0.3851451998924304 0 0.43808065797110041 -0.37748478958974491 0 0.44783900322824399 -0.38008781189722518 0 0.42782015831496062 -0.38505662608606978 0 0.4354004349648965 -0.40055780990002432 0 0.41188669282555868 -0.38386409155992901 0 0.42489657602010461 -0.37065940299189432 0 0.4390969294492823 -0.3851451998924304 0 0.42782015831496062 -0.38505662608606978 0 0.42489657602010461 -0.37065940299189432 0 0.4390969294492823 -0.3851451998924304 0 0.43808065797110041 -0.37748478958974491 0 0.42489657602010461 -0.37065940299189432 0 0.4390969294492823 -0.3851451998924304 0 0.4390969294492823 -0.3851451998924304 0 0.42782015831496062 -0.38505662608606978 0 0.4354004349648965 -0.40055780990002432 0 0.4354004349648965 -0.40055780990002432 0 0.41188669282555868 -0.38386409155992901 0 0.4354004349648965 -0.40055780990002432 0 0.40669862042327182 -0.40204417319942209 0 0.4354004349648965 -0.40055780990002432 0 0.40669862042327182 -0.40204417319942209 0 0.41188669282555868 -0.38386409155992901 0 0.42489657602010461 -0.37065940299189432 0 0.42782015831496062 -0.38505662608606978 0 0.41188669282555868 -0.38386409155992901 0 0.42489657602010461 -0.37065940299189432 0 0.4070765621089808 -0.37107032214525337 0 0.41188669282555868 -0.38386409155992901 0 0.4070765621089808 -0.37107032214525337 0 0.39585190457779329 -0.37201308858561799 0 0.39886607975096749 -0.38470810625682389 0 0.40669862042327182 -0.40204417319942209 0 0.41188669282555868 -0.38386409155992901 0 0.39886607975096749 -0.38470810625682389 0 0.4070765621089808 -0.37107032214525337 0 0.41188669282555868 -0.38386409155992901 0 0.39886607975096749 -0.38470810625682389 0 0.39585190457779329 -0.37201308858561799 0 0.39886607975096749 -0.38470810625682389 0 0.38601585554704992 -0.38244526212700758 0 0.39886607975096749 -0.38470810625682389 0 0.38601585554704992 -0.38244526212700758 0 0.37799680588164719 -0.40353053649882148 0 0.38601585554704992 -0.38244526212700758 0 0.37799680588164719 -0.40353053649882148 0 0.38601585554704992 -0.38244526212700758 0 0.37799680588164719 -0.40353053649882148 0 0.36816388811638329 -0.39545065246060412 0 0.37799680588164719 -0.40353053649882148 0 0.37635446215448021 -0.40784891206015261 0 0.37799680588164719 -0.40353053649882148 0 0.37505152225636262 -0.40368306209891941 0 0.37635446215448021 -0.40784891206015261 0 0.37799680588164719 -0.40353053649882148 0 0.37505152225636262 -0.40368306209891941 0 0.40669862042327182 -0.40204417319942209 0 0.39886607975096749 -0.38470810625682389 0 0.37799680588164719 -0.40353053649882148 0 0.40669862042327182 -0.40204417319942209 0 0.37799680588164719 -0.40353053649882148 0 0.40669862042327182 -0.40204417319942209 0 0.38553791301154328 -0.41840677215457472 0 0.40567792500840172 -0.4277251834563135 0 0.40669862042327182 -0.40204417319942209 0 0.37799680588164719 -0.40353053649882148 0 0.38553791301154328 -0.41840677215457472 0 0.38553791301154328 -0.41840677215457472 0 0.36905142820508552 -0.42917232846767789 0 0.37241381966677689 -0.417360225696081 0 0.38553791301154328 -0.41840677215457472 0 0.37635446215448021 -0.40784891206015261 0 0.37241381966677689 -0.417360225696081 0 0.37799680588164719 -0.40353053649882148 0 0.38553791301154328 -0.41840677215457472 0 0.37635446215448021 -0.40784891206015261 0 0.38553791301154328 -0.41840677215457472 0 0.38807715457860831 -0.4388905332329941 0 0.36905142820508552 -0.42917232846767789 0 0.38553791301154328 -0.41840677215457472 0 0.40567792500840172 -0.4277251834563135 0 0.38807715457860831 -0.4388905332329941 0 0.40567792500840172 -0.4277251834563135 0 0.42351101069396863 -0.41893046606618117 0 0.42653452723640378 -0.44279137365393179 0 0.4354004349648965 -0.40055780990002432 0 0.40669862042327182 -0.40204417319942209 0 0.42351101069396863 -0.41893046606618117 0 0.40669862042327182 -0.40204417319942209 0 0.40567792500840172 -0.4277251834563135 0 0.42351101069396863 -0.41893046606618117 0 0.44324354583686831 -0.42153379012121539 0 0.4354004349648965 -0.40055780990002432 0 0.42351101069396863 -0.41893046606618117 0 0.44324354583686831 -0.42153379012121539 0 0.42653452723640378 -0.44279137365393179 0 0.44324354583686831 -0.42153379012121539 0 0.42351101069396863 -0.41893046606618117 0 0.42653452723640378 -0.44279137365393179 0 0.44442683605218691 -0.44583817528272968 0 0.42653452723640378 -0.44279137365393179 0 0.43057418754349119 -0.46211781715143319 0 0.42653452723640378 -0.44279137365393179 0 0.43057418754349119 -0.46211781715143319 0 0.40982550863593931 -0.46404895718664829 0 0.42653452723640378 -0.44279137365393179 0 0.40982550863593931 -0.46404895718664829 0 0.42653452723640378 -0.44279137365393179 0 0.40982550863593931 -0.46404895718664829 0 0.4036378289262339 -0.44671034290208689 0 0.40567792500840172 -0.4277251834563135 0 0.42653452723640378 -0.44279137365393179 0 0.4036378289262339 -0.44671034290208689 0 0.40567792500840172 -0.4277251834563135 0 0.4036378289262339 -0.44671034290208689 0 0.38807715457860831 -0.4388905332329941 0 0.4036378289262339 -0.44671034290208689 0 0.38807715457860831 -0.4388905332329941 0 0.38807402917181633 -0.46009566698054732 0 0.38807715457860831 -0.4388905332329941 0 0.3733961412993268 -0.45022493016754961 0 0.36905142820508552 -0.42917232846767789 0 0.38807715457860831 -0.4388905332329941 0 0.38807402917181633 -0.46009566698054732 0 0.3733961412993268 -0.45022493016754961 0 0.38807402917181633 -0.46009566698054732 0 0.36593927904035028 -0.47432204071884282 0 0.3733961412993268 -0.45022493016754961 0 0.40982550863593931 -0.46404895718664829 0 0.4036378289262339 -0.44671034290208689 0 0.38807402917181633 -0.46009566698054732 0 0.40982550863593931 -0.46404895718664829 0 0.39311649003547477 -0.48530654071936469 0 0.40982550863593931 -0.46404895718664829 0 0.38807402917181633 -0.46009566698054732 0 0.39311649003547477 -0.48530654071936469 0 0.38807402917181633 -0.46009566698054732 0 0.39311649003547477 -0.48530654071936469 0 0.36593927904035028 -0.47432204071884282 0 0.37603974257992701 -0.49999999999999978 0 0.39311649003547477 -0.48530654071936469 0 0.36593927904035028 -0.47432204071884282 0 0.37603974257992701 -0.49999999999999978 0 0.39676616081738958 -0.5 0 0.39311649003547477 -0.48530654071936469 0 0.39676616081738958 -0.5 0 0.39311649003547477 -0.48530654071936469 0 0.41749257905485199 -0.50000000000000033 0 0.40982550863593931 -0.46404895718664829 0 0.41749257905485199 -0.50000000000000033 0 0.43264288253940292 -0.48275234633568048 0 0.40982550863593931 -0.46404895718664829 0 0.39311649003547477 -0.48530654071936469 0 0.41749257905485199 -0.50000000000000033 0 0.43057418754349119 -0.46211781715143319 0 0.40982550863593931 -0.46404895718664829 0 0.43264288253940292 -0.48275234633568048 0 0.44779318602395363 -0.46550469267136052 0 0.43057418754349119 -0.46211781715143319 0 0.43264288253940292 -0.48275234633568048 0 0.41749257905485199 -0.50000000000000033 0 0.43264288253940292 -0.48275234633568048 0 0.32215468257820618 -0.5 0 0.33760568703239408 -0.47417818032706111 0 0.31005432530219129 -0.48106067464861729 0 0.33760568703239408 -0.47417818032706111 0 0.3189449745883719 -0.46117016543644002 0 0.31005432530219129 -0.48106067464861729 0 0.32215468257820618 -0.5 0 0.33760568703239408 -0.47417818032706111 0 0.34909721257906662 -0.5 0 0.37603974257992701 -0.49999999999999978 0 0.34909721257906662 -0.5 0 0.36593927904035028 -0.47432204071884282 0 0.37603974257992701 -0.49999999999999978 0 0.36593927904035028 -0.47432204071884282 0 0.33760568703239408 -0.47417818032706111 0 0.34909721257906662 -0.5 0 0.36593927904035028 -0.47432204071884282 0 0.33760568703239408 -0.47417818032706111 0 0.36593927904035028 -0.47432204071884282 0 0.35583881550077368 -0.44864408143768569 0 0.36593927904035028 -0.47432204071884282 0 0.35583881550077368 -0.44864408143768569 0 0.36593927904035028 -0.47432204071884282 0 0.3733961412993268 -0.45022493016754961 0 0.35583881550077368 -0.44864408143768569 0 0.3733961412993268 -0.45022493016754961 0 0.35583881550077368 -0.44864408143768569 0 0.36905142820508552 -0.42917232846767789 0 0.35583881550077368 -0.44864408143768569 0 0.33540415989768779 -0.44905252560006492 0 0.34573835196119679 -0.42296612215652868 0 0.33760568703239408 -0.47417818032706111 0 0.35583881550077368 -0.44864408143768569 0 0.33540415989768779 -0.44905252560006492 0 0.33760568703239408 -0.47417818032706111 0 0.33540415989768779 -0.44905252560006492 0 0.3189449745883719 -0.46117016543644002 0 0.33540415989768779 -0.44905252560006492 0 0.3189449745883719 -0.46117016543644002 0 0.32126124445813709 -0.43429719032362252 0 0.3189449745883719 -0.46117016543644002 0 0.32126124445813709 -0.43429719032362252 0 0.30480654487456732 -0.44641521679941309 0 0.32126124445813709 -0.43429719032362252 0 0.3193156137706864 -0.40941365839269389 0 0.29937418247959258 -0.41817563384508599 0 0.3193156137706864 -0.40941365839269389 0 0.34573835196119679 -0.42296612215652868 0 0.33563788842162012 -0.39728816287537172 0 0.34573835196119679 -0.42296612215652868 0 0.33563788842162012 -0.39728816287537172 0 0.33540415989768779 -0.44905252560006492 0 0.32126124445813709 -0.43429719032362252 0 0.34573835196119679 -0.42296612215652868 0 0.32126124445813709 -0.43429719032362252 0 0.3193156137706864 -0.40941365839269389 0 0.34573835196119679 -0.42296612215652868 0 0.35583881550077368 -0.44864408143768569 0 0.34573835196119679 -0.42296612215652868 0 0.36905142820508552 -0.42917232846767789 0 0.35583881550077368 -0.44864408143768569 0 0.34573835196119679 -0.42296612215652868 0 0.36905142820508552 -0.42917232846767789 0 0.37241381966677689 -0.417360225696081 0 0.36195200988480669 -0.41065981681110758 0 0.36990343230398692 -0.40830781576793279 0 0.37241381966677689 -0.417360225696081 0 0.36195200988480669 -0.41065981681110758 0 0.37635446215448021 -0.40784891206015261 0 0.36990343230398692 -0.40830781576793279 0 0.37241381966677689 -0.417360225696081 0 0.37505152225636262 -0.40368306209891941 0 0.37635446215448021 -0.40784891206015261 0 0.36990343230398692 -0.40830781576793279 0 0.36990343230398692 -0.40830781576793279 0 0.36195200988480669 -0.41065981681110758 0 0.36876771314038492 -0.40452533678464098 0 0.34573835196119679 -0.42296612215652868 0 0.36195200988480669 -0.41065981681110758 0 0.35211107663302149 -0.40015425695529971 0 0.34573835196119679 -0.42296612215652868 0 0.36905142820508552 -0.42917232846767789 0 0.36195200988480669 -0.41065981681110758 0 0.34573835196119679 -0.42296612215652868 0 0.35211107663302149 -0.40015425695529971 0 0.33563788842162012 -0.39728816287537172 0 0.35211107663302149 -0.40015425695529971 0 0.35352794608594401 -0.38791341326287138 0 0.33563788842162012 -0.39728816287537172 0 0.35211107663302149 -0.40015425695529971 0 0.36816388811638329 -0.39545065246060412 0 0.35352794608594401 -0.38791341326287138 0 0.36195200988480669 -0.41065981681110758 0 0.36816388811638329 -0.39545065246060412 0 0.36876771314038492 -0.40452533678464098 0 0.36195200988480669 -0.41065981681110758 0 0.35211107663302149 -0.40015425695529971 0 0.36816388811638329 -0.39545065246060412 0 0.37505152225636262 -0.40368306209891941 0 0.36816388811638329 -0.39545065246060412 0 0.36876771314038492 -0.40452533678464098 0 0.37799680588164719 -0.40353053649882148 0 0.37505152225636262 -0.40368306209891941 0 0.36816388811638329 -0.39545065246060412 0 0.37505152225636262 -0.40368306209891941 0 0.36990343230398692 -0.40830781576793279 0 0.36876771314038492 -0.40452533678464098 0 0.38601585554704992 -0.38244526212700758 0 0.36816388811638329 -0.39545065246060412 0 0.3689120952668708 -0.37284951495870189 0 0.36816388811638329 -0.39545065246060412 0 0.35352794608594401 -0.38791341326287138 0 0.3689120952668708 -0.37284951495870189 0 0.35352794608594401 -0.38791341326287138 0 0.33563788842162012 -0.39728816287537172 0 0.34467783115022588 -0.37252705130409253 0 0.35352794608594401 -0.38791341326287138 0 0.3689120952668708 -0.37284951495870189 0 0.34467783115022588 -0.37252705130409253 0 0.33563788842162012 -0.39728816287537172 0 0.3255374248820434 -0.37161020359421471 0 0.33563788842162012 -0.39728816287537172 0 0.34467783115022588 -0.37252705130409253 0 0.3255374248820434 -0.37161020359421471 0 0.3193156137706864 -0.40941365839269389 0 0.33563788842162012 -0.39728816287537172 0 0.30534853388527528 -0.38930881101125692 0 0.33563788842162012 -0.39728816287537172 0 0.30534853388527528 -0.38930881101125692 0 0.3255374248820434 -0.37161020359421471 0 0.30534853388527528 -0.38930881101125692 0 0.3255374248820434 -0.37161020359421471 0 0.30525369772634148 -0.37164386163485291 0 0.30534853388527528 -0.38930881101125692 0 0.28783989868818821 -0.37644057584389279 0 0.30525369772634148 -0.37164386163485291 0 0.3193156137706864 -0.40941365839269389 0 0.30534853388527528 -0.38930881101125692 0 0.29937418247959258 -0.41817563384508599 0 0.30534853388527528 -0.38930881101125692 0 0.28922044672054198 -0.39637746652331562 0 0.29937418247959258 -0.41817563384508599 0 0.28922044672054198 -0.39637746652331562 0 0.27510086349567708 -0.39798721671617321 0 0.28320928432356041 -0.41012407252970262 0 0.28922044672054198 -0.39637746652331562 0 0.28783989868818821 -0.37644057584389279 0 0.27924907625512951 -0.38731579260330862 0 0.30534853388527528 -0.38930881101125692 0 0.28922044672054198 -0.39637746652331562 0 0.28783989868818821 -0.37644057584389279 0 0.30534853388527528 -0.38930881101125692 0 0.28783989868818821 -0.37644057584389279 0 0.28783989868818821 -0.37644057584389279 0 0.27447250226623809 -0.37821124143188289 0 0.27924907625512951 -0.38731579260330862 0 0.27447250226623809 -0.37821124143188289 0 0.27924907625512951 -0.38731579260330862 0 0.26961167010500181 -0.38756246250127813 0 0.27447250226623809 -0.37821124143188289 0 0.26961167010500181 -0.38756246250127813 0 0.26423397132697279 -0.37890457124200982 0 0.26961167010500181 -0.38756246250127813 0 0.26423397132697279 -0.37890457124200982 0 0.25687819372407023 -0.38903915957053298 0 0.26423397132697279 -0.37890457124200982 0 0.25687819372407023 -0.38903915957053298 0 0.24987622704845311 -0.37613765202982719 0 0.25108303853213881 -0.40002667887407228 0 0.26390234922262928 -0.39930308446362528 0 0.256136481120742 -0.41447562176841068 0 0.25687819372407023 -0.38903915957053298 0 0.25108303853213881 -0.40002667887407228 0 0.24309899287842279 -0.39271330151873202 0 0.25687819372407023 -0.38903915957053298 0 0.25108303853213881 -0.40002667887407228 0 0.26390234922262928 -0.39930308446362528 0 0.26961167010500181 -0.38756246250127813 0 0.25687819372407023 -0.38903915957053298 0 0.26390234922262928 -0.39930308446362528 0 0.26390234922262928 -0.39930308446362528 0 0.27510086349567708 -0.39798721671617321 0 0.2708804648698091 -0.41009655218672442 0 0.26961167010500181 -0.38756246250127813 0 0.26390234922262928 -0.39930308446362528 0 0.27510086349567708 -0.39798721671617321 0 0.28922044672054198 -0.39637746652331562 0 0.27924907625512951 -0.38731579260330862 0 0.27510086349567708 -0.39798721671617321 0 0.27924907625512951 -0.38731579260330862 0 0.26961167010500181 -0.38756246250127813 0 0.27510086349567708 -0.39798721671617321 0 0.27510086349567708 -0.39798721671617321 0 0.2708804648698091 -0.41009655218672442 0 0.28320928432356041 -0.41012407252970262 0 0.2708804648698091 -0.41009655218672442 0 0.256136481120742 -0.41447562176841068 0 0.27433621812851161 -0.42550461519375637 0 0.2708804648698091 -0.41009655218672442 0 0.27433621812851161 -0.42550461519375637 0 0.28320928432356041 -0.41012407252970262 0 0.26390234922262928 -0.39930308446362528 0 0.2708804648698091 -0.41009655218672442 0 0.256136481120742 -0.41447562176841068 0 0.25108303853213881 -0.40002667887407228 0 0.256136481120742 -0.41447562176841068 0 0.24629253832767661 -0.41022035877505542 0 0.256136481120742 -0.41447562176841068 0 0.25513396950241118 -0.43290986753561628 0 0.2453827316299185 -0.42192330194190181 0 0.256136481120742 -0.41447562176841068 0 0.25513396950241118 -0.43290986753561628 0 0.27433621812851161 -0.42550461519375637 0 0.25513396950241118 -0.43290986753561628 0 0.27433621812851161 -0.42550461519375637 0 0.26752346795397081 -0.44788636482661331 0 0.27433621812851161 -0.42550461519375637 0 0.29937418247959258 -0.41817563384508599 0 0.28546596250580908 -0.44246723239800262 0 0.29937418247959258 -0.41817563384508599 0 0.30480654487456732 -0.44641521679941309 0 0.28546596250580908 -0.44246723239800262 0 0.28922044672054198 -0.39637746652331562 0 0.28320928432356041 -0.41012407252970262 0 0.29937418247959258 -0.41817563384508599 0 0.27433621812851161 -0.42550461519375637 0 0.28320928432356041 -0.41012407252970262 0 0.29937418247959258 -0.41817563384508599 0 0.32126124445813709 -0.43429719032362252 0 0.29937418247959258 -0.41817563384508599 0 0.30480654487456732 -0.44641521679941309 0 0.3189449745883719 -0.46117016543644002 0 0.30480654487456732 -0.44641521679941309 0 0.28880919487484108 -0.4658549053918814 0 0.30480654487456732 -0.44641521679941309 0 0.28880919487484108 -0.4658549053918814 0 0.28546596250580908 -0.44246723239800262 0 0.27433621812851161 -0.42550461519375637 0 0.28546596250580908 -0.44246723239800262 0 0.26752346795397081 -0.44788636482661331 0 0.28880919487484108 -0.4658549053918814 0 0.28546596250580908 -0.44246723239800262 0 0.26752346795397081 -0.44788636482661331 0 0.25513396950241118 -0.43290986753561628 0 0.26752346795397081 -0.44788636482661331 0 0.24480843210435321 -0.45079661158300749 0 0.26752346795397081 -0.44788636482661331 0 0.2588368117714554 -0.46700690363883102 0 0.24480843210435321 -0.45079661158300749 0 0.28880919487484108 -0.4658549053918814 0 0.26752346795397081 -0.44788636482661331 0 0.2588368117714554 -0.46700690363883102 0 0.28880919487484108 -0.4658549053918814 0 0.2588368117714554 -0.46700690363883102 0 0.27227655507569209 -0.48076744006000099 0 0.2588368117714554 -0.46700690363883102 0 0.27227655507569209 -0.48076744006000099 0 0.25270961841775552 -0.48460016746525392 0 0.2588368117714554 -0.46700690363883102 0 0.25270961841775552 -0.48460016746525392 0 0.23949561189523169 -0.47426551941090739 0 0.25270961841775552 -0.48460016746525392 0 0.26826962257648529 -0.5 0 0.2413270925756249 -0.5 0 0.27227655507569209 -0.48076744006000099 0 0.25270961841775552 -0.48460016746525392 0 0.26826962257648529 -0.5 0 0.27227655507569209 -0.48076744006000099 0 0.26826962257648529 -0.5 0 0.29521215257734579 -0.5 0 0.28880919487484108 -0.4658549053918814 0 0.27227655507569209 -0.48076744006000099 0 0.29521215257734579 -0.5 0 0.28880919487484108 -0.4658549053918814 0 0.29521215257734579 -0.5 0 0.31005432530219129 -0.48106067464861729 0 0.3189449745883719 -0.46117016543644002 0 0.28880919487484108 -0.4658549053918814 0 0.31005432530219129 -0.48106067464861729 0 0.32215468257820618 -0.5 0 0.29521215257734579 -0.5 0 0.31005432530219129 -0.48106067464861729 0 0.33463237856908817 -0.28956894479377399 0 0.33485830675890288 -0.30442904333306592 0 0.35657459314761941 -0.2860097891906741 0 0.33463237856908817 -0.28956894479377399 0 0.32894302133540282 -0.28710755170783531 0 0.35195887039823659 -0.28200771363307098 0 0.32894302133540282 -0.28710755170783531 0 0.35195887039823659 -0.28200771363307098 0 0.32894302133540282 -0.28710755170783531 0 0.33255663915089151 -0.29722249741805129 0 0.33463237856908817 -0.28956894479377399 0 0.32894302133540282 -0.28710755170783531 0 0.33255663915089151 -0.29722249741805129 0 0.32894302133540282 -0.28710755170783531 0 0.33255663915089151 -0.29722249741805129 0 0.32301709761150521 -0.2972128627914089 0 0.33485830675890288 -0.30442904333306592 0 0.34824447571033601 -0.30253517369681238 0 0.34533870308018377 -0.31598934501886372 0 0.33485830675890288 -0.30442904333306592 0 0.33255663915089151 -0.29722249741805129 0 0.32434770264142349 -0.30499280498860082 0 0.33463237856908817 -0.28956894479377399 0 0.33485830675890288 -0.30442904333306592 0 0.33255663915089151 -0.29722249741805129 0 0.32301709761150521 -0.2972128627914089 0 0.32434770264142349 -0.30499280498860082 0 0.3171485971304504 -0.30589952111326829 0 0.32434770264142349 -0.30499280498860082 0 0.3171485971304504 -0.30589952111326829 0 0.31314202037018413 -0.32284829747545468 0 0.33485830675890288 -0.30442904333306592 0 0.32434770264142349 -0.30499280498860082 0 0.31314202037018413 -0.32284829747545468 0 0.33255663915089151 -0.29722249741805129 0 0.32301709761150521 -0.2972128627914089 0 0.32434770264142349 -0.30499280498860082 0 0.3171485971304504 -0.30589952111326829 0 0.31208952779935789 -0.2908419387292881 0 0.30833746379913463 -0.30503745501229762 0 0.32301709761150521 -0.2972128627914089 0 0.3171485971304504 -0.30589952111326829 0 0.31208952779935789 -0.2908419387292881 0 0.32894302133540282 -0.28710755170783531 0 0.31611371382327402 -0.28007222207304999 0 0.31208952779935789 -0.2908419387292881 0 0.32894302133540282 -0.28710755170783531 0 0.32301709761150521 -0.2972128627914089 0 0.31208952779935789 -0.2908419387292881 0 0.32894302133540282 -0.28710755170783531 0 0.31208952779935789 -0.2908419387292881 0 0.32894302133540282 -0.28710755170783531 0 0.32245882367699719 -0.26895751187574157 0 0.32894302133540282 -0.28710755170783531 0 0.31611371382327402 -0.28007222207304999 0 0.32245882367699719 -0.26895751187574157 0 0.31611371382327402 -0.28007222207304999 0 0.32245882367699719 -0.26895751187574157 0 0.30706455279928557 -0.27339796693147528 0 0.32245882367699719 -0.26895751187574157 0 0.30981211567343969 -0.26250129009931661 0 0.30706455279928557 -0.27339796693147528 0 0.32245882367699719 -0.26895751187574157 0 0.31597462601859122 -0.25080747204364812 0 0.32245882367699719 -0.26895751187574157 0 0.31597462601859122 -0.25080747204364812 0 0.30981211567343969 -0.26250129009931661 0 0.32245882367699719 -0.26895751187574157 0 0.31597462601859122 -0.25080747204364812 0 0.33396674820841349 -0.26640759283836002 0 0.31597462601859122 -0.25080747204364812 0 0.33396674820841349 -0.26640759283836002 0 0.33517615116993849 -0.24743488902137309 0 0.33396674820841349 -0.26640759283836002 0 0.35185333732921159 -0.25428502110151557 0 0.33517615116993849 -0.24743488902137309 0 0.31597462601859122 -0.25080747204364812 0 0.33396674820841349 -0.26640759283836002 0 0.32894302133540282 -0.28710755170783531 0 0.32245882367699719 -0.26895751187574157 0 0.33396674820841349 -0.26640759283836002 0 0.33396674820841349 -0.26640759283836002 0 0.35195887039823659 -0.28200771363307098 0 0.32894302133540282 -0.28710755170783531 0 0.33396674820841349 -0.26640759283836002 0 0.35195887039823659 -0.28200771363307098 0 0.33396674820841349 -0.26640759283836002 0 0.35159414215374007 -0.26901089914998932 0 0.35195887039823659 -0.28200771363307098 0 0.35159414215374007 -0.26901089914998932 0 0.36459381448795669 -0.2792080702757721 0 0.35195887039823659 -0.28200771363307098 0 0.36459381448795669 -0.2792080702757721 0 0.35195887039823659 -0.28200771363307098 0 0.33396674820841349 -0.26640759283836002 0 0.35159414215374007 -0.26901089914998932 0 0.35185333732921159 -0.25428502110151557 0 0.35159414215374007 -0.26901089914998932 0 0.35185333732921159 -0.25428502110151557 0 0.36435388824524378 -0.26651308148643732 0 0.37477580018058132 -0.24095111383496479 0 0.37683953433427181 -0.26882153263446662 0 0.36563983252638571 -0.25462703483095822 0 0.36075586336603621 -0.2426037127049111 0 0.35185333732921159 -0.25428502110151557 0 0.36563983252638571 -0.25462703483095822 0 0.35185333732921159 -0.25428502110151557 0 0.36563983252638571 -0.25462703483095822 0 0.36435388824524378 -0.26651308148643732 0 0.37683953433427181 -0.26882153263446662 0 0.36563983252638571 -0.25462703483095822 0 0.36435388824524378 -0.26651308148643732 0 0.36459381448795669 -0.2792080702757721 0 0.36308990924476459 -0.28048364807874221 0 0.35195887039823659 -0.28200771363307098 0 0.36459381448795669 -0.2792080702757721 0 0.36308990924476459 -0.28048364807874221 0 0.37273728942595791 -0.27740364396778311 0 0.36459381448795669 -0.2792080702757721 0 0.36308990924476459 -0.28048364807874221 0 0.35159414215374007 -0.26901089914998932 0 0.36459381448795669 -0.2792080702757721 0 0.36435388824524378 -0.26651308148643732 0 0.37683953433427181 -0.26882153263446662 0 0.36459381448795669 -0.2792080702757721 0 0.36435388824524378 -0.26651308148643732 0 0.36459381448795669 -0.2792080702757721 0 0.37273728942595791 -0.27740364396778311 0 0.37683953433427181 -0.26882153263446662 0 0.36459381448795669 -0.2792080702757721 0 0.37273728942595791 -0.27740364396778311 0 0.37683953433427181 -0.26882153263446662 0 0.36459381448795669 -0.2792080702757721 0 0.36308990924476459 -0.28048364807874221 0 0.37273728942595791 -0.27740364396778311 0 0.37795999762798671 -0.28395322059410122 0 0.37273728942595791 -0.27740364396778311 0 0.36936745264149701 -0.28627283508716472 0 0.35657459314761941 -0.2860097891906741 0 0.35620629985463748 -0.30371251724464648 0 0.37101427446782781 -0.29852975601036341 0 0.36308990924476459 -0.28048364807874221 0 0.37273728942595791 -0.27740364396778311 0 0.36936745264149701 -0.28627283508716472 0 0.37519981906117678 -0.29055939022370142 0 0.37795999762798671 -0.28395322059410122 0 0.36936745264149701 -0.28627283508716472 0 0.37519981906117678 -0.29055939022370142 0 0.36936745264149701 -0.28627283508716472 0 0.37101427446782781 -0.29852975601036341 0 0.36936745264149701 -0.28627283508716472 0 0.35657459314761941 -0.2860097891906741 0 0.37101427446782781 -0.29852975601036341 0 0.35657459314761941 -0.2860097891906741 0 0.37101427446782781 -0.29852975601036341 0 0.36308990924476459 -0.28048364807874221 0 0.36936745264149701 -0.28627283508716472 0 0.35657459314761941 -0.2860097891906741 0 0.36308990924476459 -0.28048364807874221 0 0.35657459314761941 -0.2860097891906741 0 0.36308990924476459 -0.28048364807874221 0 0.35366972758071469 -0.28349111722646431 0 0.33463237856908817 -0.28956894479377399 0 0.35366972758071469 -0.28349111722646431 0 0.33463237856908817 -0.28956894479377399 0 0.35366972758071469 -0.28349111722646431 0 0.35195887039823659 -0.28200771363307098 0 0.36308990924476459 -0.28048364807874221 0 0.35366972758071469 -0.28349111722646431 0 0.35195887039823659 -0.28200771363307098 0 0.33485830675890288 -0.30442904333306592 0 0.35657459314761941 -0.2860097891906741 0 0.36308990924476459 -0.28048364807874221 0 0.35366972758071469 -0.28349111722646431 0 0.35657459314761941 -0.2860097891906741 0 0.33463237856908817 -0.28956894479377399 0 0.35366972758071469 -0.28349111722646431 0 0.35657459314761941 -0.2860097891906741 0 0.35366972758071469 -0.28349111722646431 0 0.35657459314761941 -0.2860097891906741 0 0.35366972758071469 -0.28349111722646431 0 0.35195887039823659 -0.28200771363307098 0 0.35620629985463748 -0.30371251724464648 0 0.36380134767337091 -0.31365371592763602 0 0.34533870308018377 -0.31598934501886372 0 0.35657459314761941 -0.2860097891906741 0 0.34824447571033601 -0.30253517369681238 0 0.35620629985463748 -0.30371251724464648 0 0.33485830675890288 -0.30442904333306592 0 0.35657459314761941 -0.2860097891906741 0 0.34824447571033601 -0.30253517369681238 0 0.34824447571033601 -0.30253517369681238 0 0.35620629985463748 -0.30371251724464648 0 0.34533870308018377 -0.31598934501886372 0 0.38545395578803499 -0.31104972283005378 0 0.37101427446782781 -0.29852975601036341 0 0.36380134767337091 -0.31365371592763602 0 0.35620629985463748 -0.30371251724464648 0 0.37101427446782781 -0.29852975601036341 0 0.36380134767337091 -0.31365371592763602 0 0.38545395578803499 -0.31104972283005378 0 0.36380134767337091 -0.31365371592763602 0 0.36945761595668469 -0.32738841673247931 0 0.36380134767337091 -0.31365371592763602 0 0.36945761595668469 -0.32738841673247931 0 0.35533723689285712 -0.32525253772940937 0 0.36945761595668469 -0.32738841673247931 0 0.35618710249729552 -0.34088690244721892 0 0.35533723689285712 -0.32525253772940937 0 0.36945761595668469 -0.32738841673247931 0 0.35618710249729552 -0.34088690244721892 0 0.37368731816096312 -0.34897020548070451 0 0.35618710249729552 -0.34088690244721892 0 0.33810128782584858 -0.35072533414536311 0 0.34064131712366241 -0.33181983138849169 0 0.35618710249729552 -0.34088690244721892 0 0.35533723689285712 -0.32525253772940937 0 0.34064131712366241 -0.33181983138849169 0 0.34533870308018377 -0.31598934501886372 0 0.35533723689285712 -0.32525253772940937 0 0.34064131712366241 -0.33181983138849169 0 0.36380134767337091 -0.31365371592763602 0 0.34533870308018377 -0.31598934501886372 0 0.35533723689285712 -0.32525253772940937 0 0.3689120952668708 -0.37284951495870189 0 0.37368731816096312 -0.34897020548070451 0 0.35738528973841999 -0.35772904562383351 0 0.35618710249729552 -0.34088690244721892 0 0.37368731816096312 -0.34897020548070451 0 0.35738528973841999 -0.35772904562383351 0 0.35618710249729552 -0.34088690244721892 0 0.35738528973841999 -0.35772904562383351 0 0.33810128782584858 -0.35072533414536311 0 0.35738528973841999 -0.35772904562383351 0 0.34467783115022588 -0.37252705130409253 0 0.33810128782584858 -0.35072533414536311 0 0.3689120952668708 -0.37284951495870189 0 0.35738528973841999 -0.35772904562383351 0 0.34467783115022588 -0.37252705130409253 0 0.34467783115022588 -0.37252705130409253 0 0.33810128782584858 -0.35072533414536311 0 0.3255374248820434 -0.37161020359421471 0 0.31543696134246668 -0.34593224431305769 0 0.3255374248820434 -0.37161020359421471 0 0.30900602422585888 -0.35865430802761772 0 0.31543696134246668 -0.34593224431305769 0 0.3255374248820434 -0.37161020359421471 0 0.33810128782584858 -0.35072533414536311 0 0.31543696134246668 -0.34593224431305769 0 0.3255374248820434 -0.37161020359421471 0 0.3255374248820434 -0.37161020359421471 0 0.30525369772634148 -0.37164386163485291 0 0.30900602422585888 -0.35865430802761772 0 0.34533870308018377 -0.31598934501886372 0 0.33130220335757699 -0.32186248444176119 0 0.34064131712366241 -0.33181983138849169 0 0.33485830675890288 -0.30442904333306592 0 0.34533870308018377 -0.31598934501886372 0 0.33130220335757699 -0.32186248444176119 0 0.33810128782584858 -0.35072533414536311 0 0.34064131712366241 -0.33181983138849169 0 0.3268430880468266 -0.33457206034663262 0 0.33130220335757699 -0.32186248444176119 0 0.34064131712366241 -0.33181983138849169 0 0.3268430880468266 -0.33457206034663262 0 0.31543696134246668 -0.34593224431305769 0 0.3268430880468266 -0.33457206034663262 0 0.31314202037018413 -0.32284829747545468 0 0.33810128782584858 -0.35072533414536311 0 0.31543696134246668 -0.34593224431305769 0 0.3268430880468266 -0.33457206034663262 0 0.33130220335757699 -0.32186248444176119 0 0.3268430880468266 -0.33457206034663262 0 0.31314202037018413 -0.32284829747545468 0 0.33485830675890288 -0.30442904333306592 0 0.31314202037018413 -0.32284829747545468 0 0.3171485971304504 -0.30589952111326829 0 0.31314202037018413 -0.32284829747545468 0 0.3109911447756647 -0.31350988965823029 0 0.33485830675890288 -0.30442904333306592 0 0.33130220335757699 -0.32186248444176119 0 0.31314202037018413 -0.32284829747545468 0 0.31314202037018413 -0.32284829747545468 0 0.30533649780288991 -0.32025428503190068 0 0.3109911447756647 -0.31350988965823029 0 0.30533649780288991 -0.32025428503190068 0 0.3109911447756647 -0.31350988965823029 0 0.30833746379913463 -0.30503745501229762 0 0.31543696134246668 -0.34593224431305769 0 0.30533649780288991 -0.32025428503190068 0 0.30314188851555429 -0.3464145030398364 0 0.30533649780288991 -0.32025428503190068 0 0.29792146783109758 -0.32077626486014349 0 0.30314188851555429 -0.3464145030398364 0 0.31543696134246668 -0.34593224431305769 0 0.31314202037018413 -0.32284829747545468 0 0.30533649780288991 -0.32025428503190068 0 0.29792146783109758 -0.32077626486014349 0 0.30314188851555429 -0.3464145030398364 0 0.31543696134246668 -0.34593224431305769 0 0.30533649780288991 -0.32025428503190068 0 0.29792146783109758 -0.32077626486014349 0 0.29422135484035322 -0.33366994296298719 0 0.30314188851555429 -0.3464145030398364 0 0.29422135484035322 -0.33366994296298719 0 0.29546103181119637 -0.34185893253319311 0 0.30314188851555429 -0.3464145030398364 0 0.29422135484035322 -0.33366994296298719 0 0.29546103181119637 -0.34185893253319311 0 0.28827175492889229 -0.34275780055790278 0 0.29546103181119637 -0.34185893253319311 0 0.28827175492889229 -0.34275780055790278 0 0.29811044553331972 -0.34650788457159087 0 0.29422135484035322 -0.33366994296298719 0 0.28827175492889229 -0.34275780055790278 0 0.27955848846152698 -0.33666113426449551 0 0.29422135484035322 -0.33366994296298719 0 0.28744860979629389 -0.32474860906702402 0 0.27955848846152698 -0.33666113426449551 0 0.28744860979629389 -0.32474860906702402 0 0.29019889155513462 -0.31620785207956748 0 0.28097437988070417 -0.31138482246715898 0 0.29792146783109758 -0.32077626486014349 0 0.29019889155513462 -0.31620785207956748 0 0.29244758100571983 -0.32385066724243061 0 0.29422135484035322 -0.33366994296298719 0 0.28744860979629389 -0.32474860906702402 0 0.29244758100571983 -0.32385066724243061 0 0.29792146783109758 -0.32077626486014349 0 0.29422135484035322 -0.33366994296298719 0 0.29244758100571983 -0.32385066724243061 0 0.28744860979629389 -0.32474860906702402 0 0.29019889155513462 -0.31620785207956748 0 0.29244758100571983 -0.32385066724243061 0 0.30525369772634148 -0.37164386163485291 0 0.30031449930387721 -0.36082981960256849 0 0.30900602422585888 -0.35865430802761772 0 0.30525369772634148 -0.37164386163485291 0 0.30031449930387721 -0.36082981960256849 0 0.29483415024835152 -0.36747827247447862 0 0.30080593951138668 -0.35381036279877531 0 0.30900602422585888 -0.35865430802761772 0 0.30314188851555429 -0.3464145030398364 0 0.30080593951138668 -0.35381036279877531 0 0.29811044553331972 -0.34650788457159087 0 0.29345683997832372 -0.35664529875226292 0 0.30031449930387721 -0.36082981960256849 0 0.30080593951138668 -0.35381036279877531 0 0.30900602422585888 -0.35865430802761772 0 0.30031449930387721 -0.36082981960256849 0 0.30080593951138668 -0.35381036279877531 0 0.29345683997832372 -0.35664529875226292 0 0.31543696134246668 -0.34593224431305769 0 0.30900602422585888 -0.35865430802761772 0 0.30314188851555429 -0.3464145030398364 0 0.30080593951138668 -0.35381036279877531 0 0.30314188851555429 -0.3464145030398364 0 0.29811044553331972 -0.34650788457159087 0 0.29546103181119637 -0.34185893253319311 0 0.30314188851555429 -0.3464145030398364 0 0.29811044553331972 -0.34650788457159087 0 0.29811044553331972 -0.34650788457159087 0 0.29345683997832372 -0.35664529875226292 0 0.28122462644821988 -0.35688066365974619 0 0.28827175492889229 -0.34275780055790278 0 0.29811044553331972 -0.34650788457159087 0 0.28122462644821988 -0.35688066365974619 0 0.28827175492889229 -0.34275780055790278 0 0.28122462644821988 -0.35688066365974619 0 0.27955848846152698 -0.33666113426449551 0 0.29811044553331972 -0.34650788457159087 0 0.28122462644821988 -0.35688066365974619 0 0.29345683997832372 -0.35664529875226292 0 0.28676543400443838 -0.36101512068260139 0 0.28122462644821988 -0.35688066365974619 0 0.28676543400443838 -0.36101512068260139 0 0.28122462644821988 -0.35688066365974619 0 0.28783989868818821 -0.37644057584389279 0 0.30525369772634148 -0.37164386163485291 0 0.29483415024835152 -0.36747827247447862 0 0.28783989868818821 -0.37644057584389279 0 0.28676543400443838 -0.36101512068260139 0 0.27033126349110148 -0.36357234067652822 0 0.29357505063040601 -0.36145191270551408 0 0.28676543400443838 -0.36101512068260139 0 0.29483415024835152 -0.36747827247447862 0 0.30031449930387721 -0.36082981960256849 0 0.29357505063040601 -0.36145191270551408 0 0.29483415024835152 -0.36747827247447862 0 0.30031449930387721 -0.36082981960256849 0 0.29345683997832372 -0.35664529875226292 0 0.29357505063040601 -0.36145191270551408 0 0.29345683997832372 -0.35664529875226292 0 0.29357505063040601 -0.36145191270551408 0 0.28676543400443838 -0.36101512068260139 0 0.28783989868818821 -0.37644057584389279 0 0.28676543400443838 -0.36101512068260139 0 0.29483415024835152 -0.36747827247447862 0 0.28783989868818821 -0.37644057584389279 0 0.27033126349110148 -0.36357234067652822 0 0.28783989868818821 -0.37644057584389279 0 0.27447250226623809 -0.37821124143188289 0 0.27033126349110148 -0.36357234067652822 0 0.28676543400443838 -0.36101512068260139 0 0.27033126349110148 -0.36357234067652822 0 0.28122462644821988 -0.35688066365974619 0 0.27447250226623809 -0.37821124143188289 0 0.26423397132697279 -0.37890457124200982 0 0.27033126349110148 -0.36357234067652822 0 0.27033126349110148 -0.36357234067652822 0 0.28122462644821988 -0.35688066365974619 0 0.28122462644821988 -0.35688066365974619 0 0.26082083375001269 -0.34165569813656432 0 0.27033126349110148 -0.36357234067652822 0 0.28122462644821988 -0.35688066365974619 0 0.26082083375001269 -0.34165569813656432 0 0.28122462644821988 -0.35688066365974619 0 0.27955848846152698 -0.33666113426449551 0 0.26082083375001269 -0.34165569813656432 0 0.27033126349110148 -0.36357234067652822 0 0.25099839141978419 -0.34936335514031408 0 0.27033126349110148 -0.36357234067652822 0 0.25099839141978419 -0.34936335514031408 0 0.26082083375001269 -0.34165569813656432 0 0.27033126349110148 -0.36357234067652822 0 0.25099839141978419 -0.34936335514031408 0 0.24534349961555019 -0.36253701182870851 0 0.26423397132697279 -0.37890457124200982 0 0.27033126349110148 -0.36357234067652822 0 0.24987622704845311 -0.37613765202982719 0 0.27033126349110148 -0.36357234067652822 0 0.24534349961555019 -0.36253701182870851 0 0.24987622704845311 -0.37613765202982719 0 0.27033126349110148 -0.36357234067652822 0 0.24987622704845311 -0.37613765202982719 0 0.28744860979629389 -0.32474860906702402 0 0.26598899428458778 -0.32103793389256657 0 0.27955848846152698 -0.33666113426449551 0 0.28744860979629389 -0.32474860906702402 0 0.26598899428458778 -0.32103793389256657 0 0.28097437988070417 -0.31138482246715898 0 0.26598899428458778 -0.32103793389256657 0 0.27955848846152698 -0.33666113426449551 0 0.26082083375001269 -0.34165569813656432 0 0.26082083375001269 -0.34165569813656432 0 0.2404170410518052 -0.32643073261338312 0 0.26598899428458778 -0.32103793389256657 0 0.26082083375001269 -0.34165569813656432 0 0.2404170410518052 -0.32643073261338312 0 0.25099839141978419 -0.34936335514031408 0 0.26082083375001269 -0.34165569813656432 0 0.2404170410518052 -0.32643073261338312 0 0.26598899428458778 -0.32103793389256657 0 0.24423538898563429 -0.30587701823941071 0 0.2404170410518052 -0.32643073261338312 0 0.26846821806613752 -0.30050752245993012 0 0.24423538898563429 -0.30587701823941071 0 0.25301376652256202 -0.2892367573709661 0 0.26846821806613752 -0.30050752245993012 0 0.24423538898563429 -0.30587701823941071 0 0.26598899428458778 -0.32103793389256657 0 0.26846821806613752 -0.30050752245993012 0 0.24423538898563429 -0.30587701823941071 0 0.25301376652256202 -0.2892367573709661 0 0.26500420865911251 -0.28331687632378699 0 0.26846821806613752 -0.30050752245993012 0 0.25301376652256202 -0.2892367573709661 0 0.26500420865911251 -0.28331687632378699 0 0.2507153324002197 -0.27704953531328702 0 0.26500420865911251 -0.28331687632378699 0 0.27805302037335089 -0.28584974436810762 0 0.26846821806613752 -0.30050752245993012 0 0.27805302037335089 -0.28584974436810762 0 0.26846821806613752 -0.30050752245993012 0 0.29270104714664102 -0.29513802668045069 0 0.26500420865911251 -0.28331687632378699 0 0.27805302037335089 -0.28584974436810762 0 0.27342558025451552 -0.27498979272208851 0 0.26598899428458778 -0.32103793389256657 0 0.26846821806613752 -0.30050752245993012 0 0.28097437988070417 -0.31138482246715898 0 0.26846821806613752 -0.30050752245993012 0 0.28097437988070417 -0.31138482246715898 0 0.29270104714664102 -0.29513802668045069 0 0.26846821806613752 -0.30050752245993012 0 0.29270104714664102 -0.29513802668045069 0 0.29792146783109758 -0.32077626486014349 0 0.29270104714664102 -0.29513802668045069 0 0.29019889155513462 -0.31620785207956748 0 0.28097437988070417 -0.31138482246715898 0 0.29270104714664102 -0.29513802668045069 0 0.29792146783109758 -0.32077626486014349 0 0.29019889155513462 -0.31620785207956748 0 0.29270104714664102 -0.29513802668045069 0 0.29792146783109758 -0.32077626486014349 0 0.29270104714664102 -0.29513802668045069 0 0.29523603426331357 -0.29457632575074338 0 0.27805302037335089 -0.28584974436810762 0 0.29026987947112831 -0.28319821192468808 0 0.29270104714664102 -0.29513802668045069 0 0.27805302037335089 -0.28584974436810762 0 0.29026987947112831 -0.28319821192468808 0 0.28863308206368682 -0.27515966401439529 0 0.29026987947112831 -0.28319821192468808 0 0.29523603426331357 -0.29457632575074338 0 0.29026987947112831 -0.28319821192468808 0 0.29523603426331357 -0.29457632575074338 0 0.30320790951940702 -0.28313078900162059 0 0.29026987947112831 -0.28319821192468808 0 0.29270104714664102 -0.29513802668045069 0 0.29523603426331357 -0.29457632575074338 0 0.29026987947112831 -0.28319821192468808 0 0.29270104714664102 -0.29513802668045069 0 0.29270104714664102 -0.29513802668045069 0 0.29523603426331357 -0.29457632575074338 0 0.29523603426331357 -0.29457632575074338 0 0.31208952779935789 -0.2908419387292881 0 0.29523603426331357 -0.29457632575074338 0 0.30320790951940702 -0.28313078900162059 0 0.31208952779935789 -0.2908419387292881 0 0.29523603426331357 -0.29457632575074338 0 0.31208952779935789 -0.2908419387292881 0 0.30833746379913463 -0.30503745501229762 0 0.31611371382327402 -0.28007222207304999 0 0.30320790951940702 -0.28313078900162059 0 0.31208952779935789 -0.2908419387292881 0 0.30533649780288991 -0.32025428503190068 0 0.29523603426331357 -0.29457632575074338 0 0.30833746379913463 -0.30503745501229762 0 0.30533649780288991 -0.32025428503190068 0 0.29792146783109758 -0.32077626486014349 0 0.29523603426331357 -0.29457632575074338 0 0.30533649780288991 -0.32025428503190068 0 0.29523603426331357 -0.29457632575074338 0 0.3171485971304504 -0.30589952111326829 0 0.3109911447756647 -0.31350988965823029 0 0.30833746379913463 -0.30503745501229762 0 0.29812220868357159 -0.26533402464574418 0 0.30111904597271899 -0.2536098058489899 0 0.30981211567343969 -0.26250129009931661 0 0.31597462601859122 -0.25080747204364812 0 0.30111904597271899 -0.2536098058489899 0 0.30981211567343969 -0.26250129009931661 0 0.29812220868357159 -0.26533402464574418 0 0.30981211567343969 -0.26250129009931661 0 0.30706455279928557 -0.27339796693147528 0 0.31611371382327402 -0.28007222207304999 0 0.30320790951940702 -0.28313078900162059 0 0.30706455279928557 -0.27339796693147528 0 0.29026987947112831 -0.28319821192468808 0 0.30320790951940702 -0.28313078900162059 0 0.29755036247591721 -0.27602563541609298 0 0.30320790951940702 -0.28313078900162059 0 0.30706455279928557 -0.27339796693147528 0 0.29755036247591721 -0.27602563541609298 0 0.29812220868357159 -0.26533402464574418 0 0.30706455279928557 -0.27339796693147528 0 0.29755036247591721 -0.27602563541609298 0 0.29812220868357159 -0.26533402464574418 0 0.29755036247591721 -0.27602563541609298 0 0.28863308206368682 -0.27515966401439529 0 0.29026987947112831 -0.28319821192468808 0 0.28863308206368682 -0.27515966401439529 0 0.29026987947112831 -0.28319821192468808 0 0.29755036247591721 -0.27602563541609298 0 0.28863308206368682 -0.27515966401439529 0 0.28863308206368682 -0.27515966401439529 0 0.28456511698073272 -0.25518130134833977 0 0.29812220868357159 -0.26533402464574418 0 0.28863308206368682 -0.27515966401439529 0 0.28456511698073272 -0.25518130134833977 0 0.29812220868357159 -0.26533402464574418 0 0.30111904597271899 -0.2536098058489899 0 0.28456511698073272 -0.25518130134833977 0 0.28863308206368682 -0.27515966401439529 0 0.28456511698073272 -0.25518130134833977 0 0.27223885194073971 -0.26265851400849172 0 0.28456511698073272 -0.25518130134833977 0 0.27223885194073971 -0.26265851400849172 0 0.26629969424128969 -0.25192769388052821 0 0.27223885194073971 -0.26265851400849172 0 0.26629969424128969 -0.25192769388052821 0 0.2629172406837702 -0.26740365320709081 0 0.26500420865911251 -0.28331687632378699 0 0.27342558025451552 -0.27498979272208851 0 0.2629172406837702 -0.26740365320709081 0 0.28863308206368682 -0.27515966401439529 0 0.27223885194073971 -0.26265851400849172 0 0.27342558025451552 -0.27498979272208851 0 0.27805302037335089 -0.28584974436810762 0 0.28863308206368682 -0.27515966401439529 0 0.27342558025451552 -0.27498979272208851 0 0.27223885194073971 -0.26265851400849172 0 0.27342558025451552 -0.27498979272208851 0 0.2629172406837702 -0.26740365320709081 0 0.26500420865911251 -0.28331687632378699 0 0.2629172406837702 -0.26740365320709081 0 0.2507153324002197 -0.27704953531328702 0 0.2629172406837702 -0.26740365320709081 0 0.2507153324002197 -0.27704953531328702 0 0.2466218950091964 -0.26012473444713258 0 0.25037283077400019 -0.2416092145933311 0 0.26629969424128969 -0.25192769388052821 0 0.2466218950091964 -0.26012473444713258 0 0.26629969424128969 -0.25192769388052821 0 0.2629172406837702 -0.26740365320709081 0 0.2466218950091964 -0.26012473444713258 0 0.25037283077400019 -0.2416092145933311 0 0.2466218950091964 -0.26012473444713258 0 0.2339549802858914 -0.24933471903745599 0 0.2466218950091964 -0.26012473444713258 0 0.22717476572977791 -0.26325637954660608 0 0.2339549802858914 -0.24933471903745599 0 0.2466218950091964 -0.26012473444713258 0 0.23628574795648369 -0.27498419313581679 0 0.22717476572977791 -0.26325637954660608 0 0.2507153324002197 -0.27704953531328702 0 0.2466218950091964 -0.26012473444713258 0 0.23628574795648369 -0.27498419313581679 0 0.2507153324002197 -0.27704953531328702 0 0.23628574795648369 -0.27498419313581679 0 0.24044913557019401 -0.28723099739492908 0 0.2247339410531527 -0.27667652802353632 0 0.21554844428562811 -0.26491471108287651 0 0.21653111649902579 -0.28712771180040292 0 0.23628574795648369 -0.27498419313581679 0 0.2247339410531527 -0.27667652802353632 0 0.22717476572977791 -0.26325637954660608 0 0.2247339410531527 -0.27667652802353632 0 0.22717476572977791 -0.26325637954660608 0 0.21554844428562811 -0.26491471108287651 0 0.22717476572977791 -0.26325637954660608 0 0.22331750647786899 -0.25281133177650322 0 0.2339549802858914 -0.24933471903745599 0 0.22717476572977791 -0.26325637954660608 0 0.22331750647786899 -0.25281133177650322 0 0.21554844428562811 -0.26491471108287651 0 0.2084475354763706 -0.25511513831035743 0 0.21554844428562811 -0.26491471108287651 0 0.1982966667633215 -0.26354120971092698 0 0.21554844428562811 -0.26491471108287651 0 0.21456577207223029 -0.24270171036535029 0 0.22331750647786899 -0.25281133177650322 0 0.21554844428562811 -0.26491471108287651 0 0.21456577207223029 -0.24270171036535029 0 0.2084475354763706 -0.25511513831035743 0 0.21554844428562811 -0.26491471108287651 0 0.21336353465090491 -0.24693864317134839 0 0.21554844428562811 -0.26491471108287651 0 0.21336353465090491 -0.24693864317134839 0 0.21456577207223029 -0.24270171036535029 0 0.2084475354763706 -0.25511513831035743 0 0.1982966667633215 -0.26354120971092698 0 0.2080714594183444 -0.2424179483002232 0 0.1982966667633215 -0.26354120971092698 0 0.2080714594183444 -0.2424179483002232 0 0.21554844428562811 -0.26491471108287651 0 0.21653111649902579 -0.28712771180040292 0 0.21554844428562811 -0.26491471108287651 0 0.20859607852913339 -0.28093905456482821 0 0.21653111649902579 -0.28712771180040292 0 0.21554844428562811 -0.26491471108287651 0 0.20859607852913339 -0.28093905456482821 0 0.2011380539128553 -0.27767933622792518 0 0.21554844428562811 -0.26491471108287651 0 0.2011380539128553 -0.27767933622792518 0 0.1982966667633215 -0.26354120971092698 0 0.1982966667633215 -0.26354120971092698 0 0.18852187410829821 -0.28466447112163068 0 0.1982966667633215 -0.26354120971092698 0 0.18852187410829821 -0.28466447112163068 0 0.1845366839674035 -0.26640487959885623 0 0.2011380539128553 -0.27767933622792518 0 0.1982966667633215 -0.26354120971092698 0 0.18852187410829821 -0.28466447112163068 0 0.1982966667633215 -0.26354120971092698 0 0.2080714594183444 -0.2424179483002232 0 0.19254414318066221 -0.24961624770678509 0 0.1982966667633215 -0.26354120971092698 0 0.18706352147094041 -0.25756661524031438 0 0.1845366839674035 -0.26640487959885623 0 0.1982966667633215 -0.26354120971092698 0 0.18706352147094041 -0.25756661524031438 0 0.19254414318066221 -0.24961624770678509 0 0.18706352147094041 -0.25756661524031438 0 0.19254414318066221 -0.24961624770678509 0 0.18399505531774341 -0.24981832115951039 0 0.20249447748908611 -0.29813355613580778 0 0.1976485991634879 -0.30796138879627621 0 0.19462594870140809 -0.30164723750547567 0 0.20249447748908611 -0.29813355613580778 0 0.19462594870140809 -0.30164723750547567 0 0.19392418081794471 -0.29575522021664652 0 0.20249447748908611 -0.29813355613580778 0 0.1976485991634879 -0.30796138879627621 0 0.20782414549410869 -0.30817847155873718 0 0.1976485991634879 -0.30796138879627621 0 0.20782414549410869 -0.30817847155873718 0 0.20282381327660201 -0.31505297042611552 0 0.1976485991634879 -0.30796138879627621 0 0.19009702279388629 -0.3064242775921906 0 0.18802618722583669 -0.31833181955932999 0 0.1976485991634879 -0.30796138879627621 0 0.19009702279388629 -0.3064242775921906 0 0.19462594870140809 -0.30164723750547567 0 0.19009702279388629 -0.3064242775921906 0 0.19462594870140809 -0.30164723750547567 0 0.1880606218677118 -0.30022154946313712 0 0.19462594870140809 -0.30164723750547567 0 0.19110113081553529 -0.29631368747161629 0 0.19392418081794471 -0.29575522021664652 0 0.1880606218677118 -0.30022154946313712 0 0.19110113081553529 -0.29631368747161629 0 0.18734834214976739 -0.29514628785519947 0 0.19462594870140809 -0.30164723750547567 0 0.1880606218677118 -0.30022154946313712 0 0.19110113081553529 -0.29631368747161629 0 0.20249447748908611 -0.29813355613580778 0 0.18747516626574931 -0.28692639975368628 0 0.20249447748908611 -0.29813355613580778 0 0.19392418081794471 -0.29575522021664652 0 0.18747516626574931 -0.28692639975368628 0 0.19110113081553529 -0.29631368747161629 0 0.19392418081794471 -0.29575522021664652 0 0.18747516626574931 -0.28692639975368628 0 0.19110113081553529 -0.29631368747161629 0 0.18747516626574931 -0.28692639975368628 0 0.18734834214976739 -0.29514628785519947 0 0.18852187410829821 -0.28466447112163068 0 0.19787122383615691 -0.29172525818392958 0 0.18852187410829821 -0.28466447112163068 0 0.19731262536099689 -0.28481999283041842 0 0.19787122383615691 -0.29172525818392958 0 0.18852187410829821 -0.28466447112163068 0 0.19787122383615691 -0.29172525818392958 0 0.18747516626574931 -0.28692639975368628 0 0.18852187410829821 -0.28466447112163068 0 0.18747516626574931 -0.28692639975368628 0 0.2011380539128553 -0.27767933622792518 0 0.18852187410829821 -0.28466447112163068 0 0.19731262536099689 -0.28481999283041842 0 0.201719349586677 -0.2852109057881882 0 0.19787122383615691 -0.29172525818392958 0 0.206049533411369 -0.28982701925762389 0 0.19731262536099689 -0.28481999283041842 0 0.201719349586677 -0.2852109057881882 0 0.19787122383615691 -0.29172525818392958 0 0.2011380539128553 -0.27767933622792518 0 0.19731262536099689 -0.28481999283041842 0 0.201719349586677 -0.2852109057881882 0 0.20249447748908611 -0.29813355613580778 0 0.19787122383615691 -0.29172525818392958 0 0.18747516626574931 -0.28692639975368628 0 0.20249447748908611 -0.29813355613580778 0 0.19787122383615691 -0.29172525818392958 0 0.206049533411369 -0.28982701925762389 0 0.20249447748908611 -0.29813355613580778 0 0.206049533411369 -0.28982701925762389 0 0.20903552332543929 -0.29406903275804652 0 0.206049533411369 -0.28982701925762389 0 0.20903552332543929 -0.29406903275804652 0 0.21653111649902579 -0.28712771180040292 0 0.20249447748908611 -0.29813355613580778 0 0.20903552332543929 -0.29406903275804652 0 0.2123558614978226 -0.29827812898856709 0 0.20859607852913339 -0.28093905456482821 0 0.206049533411369 -0.28982701925762389 0 0.21653111649902579 -0.28712771180040292 0 0.20859607852913339 -0.28093905456482821 0 0.201719349586677 -0.2852109057881882 0 0.206049533411369 -0.28982701925762389 0 0.20859607852913339 -0.28093905456482821 0 0.2011380539128553 -0.27767933622792518 0 0.201719349586677 -0.2852109057881882 0 0.20903552332543929 -0.29406903275804652 0 0.21653111649902579 -0.28712771180040292 0 0.2123558614978226 -0.29827812898856709 0 0.21653111649902579 -0.28712771180040292 0 0.2175137887124228 -0.30934071251792922 0 0.21653111649902579 -0.28712771180040292 0 0.2123558614978226 -0.29827812898856709 0 0.2175137887124228 -0.30934071251792922 0 0.20249447748908611 -0.29813355613580778 0 0.2123558614978226 -0.29827812898856709 0 0.2175137887124228 -0.30934071251792922 0 0.20249447748908611 -0.29813355613580778 0 0.2175137887124228 -0.30934071251792922 0 0.20782414549410869 -0.30817847155873718 0 0.2176214393273678 -0.31177412129290383 0 0.20282381327660201 -0.31505297042611552 0 0.20249447748908611 -0.29813355613580778 0 0.20782414549410869 -0.30817847155873718 0 0.2175137887124228 -0.30934071251792922 0 0.20782414549410869 -0.30817847155873718 0 0.2175137887124228 -0.30934071251792922 0 0.2176214393273678 -0.31177412129290383 0 0.2175137887124228 -0.30934071251792922 0 0.2176214393273678 -0.31177412129290383 0 0.2175137887124228 -0.30934071251792922 0 0.2176214393273678 -0.31177412129290383 0 0.21999804566891551 -0.31122614102315033 0 0.21999804566891551 -0.31122614102315033 0 0.24423538898563429 -0.30587701823941071 0 0.2175137887124228 -0.30934071251792922 0 0.21999804566891551 -0.31122614102315033 0 0.22812963079484819 -0.29309964455197901 0 0.21999804566891551 -0.31122614102315033 0 0.22812963079484819 -0.29309964455197901 0 0.21999804566891551 -0.31122614102315033 0 0.22812963079484819 -0.29309964455197901 0 0.24423538898563429 -0.30587701823941071 0 0.2176214393273678 -0.31177412129290383 0 0.21999804566891551 -0.31122614102315033 0 0.2175137887124228 -0.30934071251792922 0 0.21999804566891551 -0.31122614102315033 0 0.23628574795648369 -0.27498419313581679 0 0.22812963079484819 -0.29309964455197901 0 0.2247339410531527 -0.27667652802353632 0 0.21653111649902579 -0.28712771180040292 0 0.22812963079484819 -0.29309964455197901 0 0.23628574795648369 -0.27498419313581679 0 0.2247339410531527 -0.27667652802353632 0 0.22812963079484819 -0.29309964455197901 0 0.21653111649902579 -0.28712771180040292 0 0.2175137887124228 -0.30934071251792922 0 0.22812963079484819 -0.29309964455197901 0 0.23628574795648369 -0.27498419313581679 0 0.22812963079484819 -0.29309964455197901 0 0.24044913557019401 -0.28723099739492908 0 0.25301376652256202 -0.2892367573709661 0 0.24044913557019401 -0.28723099739492908 0 0.24423538898563429 -0.30587701823941071 0 0.22812963079484819 -0.29309964455197901 0 0.24044913557019401 -0.28723099739492908 0 0.24423538898563429 -0.30587701823941071 0 0.25301376652256202 -0.2892367573709661 0 0.2507153324002197 -0.27704953531328702 0 0.24044913557019401 -0.28723099739492908 0 0.21999804566891551 -0.31122614102315033 0 0.24423538898563429 -0.30587701823941071 0 0.2404170410518052 -0.32643073261338312 0 0.25099839141978419 -0.34936335514031408 0 0.2316655193484673 -0.33515436960409939 0 0.25099839141978419 -0.34936335514031408 0 0.2404170410518052 -0.32643073261338312 0 0.2316655193484673 -0.33515436960409939 0 0.2404170410518052 -0.32643073261338312 0 0.2316655193484673 -0.33515436960409939 0 0.2247705650129608 -0.32491873692320528 0 0.2316655193484673 -0.33515436960409939 0 0.22208049410379579 -0.34309390150507102 0 0.22867514261462599 -0.34782526071452929 0 0.2316655193484673 -0.33515436960409939 0 0.22208049410379579 -0.34309390150507102 0 0.220555537226792 -0.33578323097752499 0 0.22208049410379579 -0.34309390150507102 0 0.220555537226792 -0.33578323097752499 0 0.21451162402718699 -0.34512658597487872 0 0.220555537226792 -0.33578323097752499 0 0.2247705650129608 -0.32491873692320528 0 0.21820242441149371 -0.32490710899175251 0 0.2316655193484673 -0.33515436960409939 0 0.220555537226792 -0.33578323097752499 0 0.2247705650129608 -0.32491873692320528 0 0.21999804566891551 -0.31122614102315033 0 0.2404170410518052 -0.32643073261338312 0 0.2247705650129608 -0.32491873692320528 0 0.21999804566891551 -0.31122614102315033 0 0.2404170410518052 -0.32643073261338312 0 0.2247705650129608 -0.32491873692320528 0 0.21780935440599439 -0.31602188338433101 0 0.21820242441149371 -0.32490710899175251 0 0.21999804566891551 -0.31122614102315033 0 0.2247705650129608 -0.32491873692320528 0 0.21780935440599439 -0.31602188338433101 0 0.21999804566891551 -0.31122614102315033 0 0.21780935440599439 -0.31602188338433101 0 0.23679608458568241 -0.3713456781615978 0 0.24534349961555019 -0.36253701182870851 0 0.24987622704845311 -0.37613765202982719 0 0.23679608458568241 -0.3713456781615978 0 0.24534349961555019 -0.36253701182870851 0 0.23133102347449649 -0.35950822589080189 0 0.25099839141978419 -0.34936335514031408 0 0.2316655193484673 -0.33515436960409939 0 0.23760271529458479 -0.35087764463569071 0 0.24534349961555019 -0.36253701182870851 0 0.23760271529458479 -0.35087764463569071 0 0.23133102347449649 -0.35950822589080189 0 0.25099839141978419 -0.34936335514031408 0 0.24534349961555019 -0.36253701182870851 0 0.23760271529458479 -0.35087764463569071 0 0.2316655193484673 -0.33515436960409939 0 0.23760271529458479 -0.35087764463569071 0 0.22867514261462599 -0.34782526071452929 0 0.22208049410379579 -0.34309390150507102 0 0.22076837523631451 -0.35267920974236072 0 0.21451162402718699 -0.34512658597487872 0 0.22208049410379579 -0.34309390150507102 0 0.22867514261462599 -0.34782526071452929 0 0.22076837523631451 -0.35267920974236072 0 0.22076837523631451 -0.35267920974236072 0 0.22341137818785181 -0.36337688942730773 0 0.21609027172906259 -0.36087537471117581 0 0.22076837523631451 -0.35267920974236072 0 0.23133102347449649 -0.35950822589080189 0 0.22341137818785181 -0.36337688942730773 0 0.22867514261462599 -0.34782526071452929 0 0.22076837523631451 -0.35267920974236072 0 0.23133102347449649 -0.35950822589080189 0 0.23760271529458479 -0.35087764463569071 0 0.22867514261462599 -0.34782526071452929 0 0.23133102347449649 -0.35950822589080189 0 0.23133102347449649 -0.35950822589080189 0 0.22341137818785181 -0.36337688942730773 0 0.22699371624108439 -0.37103399677892651 0 0.22341137818785181 -0.36337688942730773 0 0.22699371624108439 -0.37103399677892651 0 0.21663927632257499 -0.37152038636996992 0 0.22699371624108439 -0.37103399677892651 0 0.21663927632257499 -0.37152038636996992 0 0.22189277223980711 -0.38054577212349588 0 0.23679608458568241 -0.3713456781615978 0 0.22699371624108439 -0.37103399677892651 0 0.23010576568282681 -0.37607478874810818 0 0.23679608458568241 -0.3713456781615978 0 0.23133102347449649 -0.35950822589080189 0 0.22699371624108439 -0.37103399677892651 0 0.21663927632257499 -0.37152038636996992 0 0.20683644217058031 -0.36558797855932218 0 0.20576161095015591 -0.37595213443190167 0 0.22341137818785181 -0.36337688942730773 0 0.21663927632257499 -0.37152038636996992 0 0.21609027172906259 -0.36087537471117581 0 0.21609027172906259 -0.36087537471117581 0 0.20683644217058031 -0.36558797855932218 0 0.21089823393406021 -0.35324530101306001 0 0.21663927632257499 -0.37152038636996992 0 0.21609027172906259 -0.36087537471117581 0 0.20683644217058031 -0.36558797855932218 0 0.19940837682496099 -0.35689206815154528 0 0.20777431361625601 -0.33831058893907762 0 0.21089823393406021 -0.35324530101306001 0 0.19940837682496099 -0.35689206815154528 0 0.20777431361625601 -0.33831058893907762 0 0.20683644217058031 -0.36558797855932218 0 0.21089823393406021 -0.35324530101306001 0 0.19940837682496099 -0.35689206815154528 0 0.22076837523631451 -0.35267920974236072 0 0.21609027172906259 -0.36087537471117581 0 0.21089823393406021 -0.35324530101306001 0 0.21089823393406021 -0.35324530101306001 0 0.21451162402718699 -0.34512658597487872 0 0.20777431361625601 -0.33831058893907762 0 0.22076837523631451 -0.35267920974236072 0 0.21089823393406021 -0.35324530101306001 0 0.21451162402718699 -0.34512658597487872 0 0.1971616983813648 -0.34495631128618592 0 0.19940837682496099 -0.35689206815154528 0 0.20777431361625601 -0.33831058893907762 0 0.1971616983813648 -0.34495631128618592 0 0.18787137947787569 -0.35180034780069419 0 0.18864170350563411 -0.33720407153827198 0 0.1971616983813648 -0.34495631128618592 0 0.18787137947787569 -0.35180034780069419 0 0.19940837682496099 -0.35689206815154528 0 0.20683644217058031 -0.36558797855932218 0 0.20576161095015591 -0.37595213443190167 0 0.1910424400336663 -0.37547354736401328 0 0.18787137947787569 -0.35180034780069419 0 0.19940837682496099 -0.35689206815154528 0 0.1910424400336663 -0.37547354736401328 0 0.19940837682496099 -0.35689206815154528 0 0.1910424400336663 -0.37547354736401328 0 0.20683644217058031 -0.36558797855932218 0 0.19940837682496099 -0.35689206815154528 0 0.1910424400336663 -0.37547354736401328 0 0.21780935440599439 -0.31602188338433101 0 0.20777431361625601 -0.33831058893907762 0 0.21780935440599439 -0.31602188338433101 0 0.20777431361625601 -0.33831058893907762 0 0.20282381327660201 -0.31505297042611552 0 0.21780935440599439 -0.31602188338433101 0 0.21820242441149371 -0.32490710899175251 0 0.20777431361625601 -0.33831058893907762 0 0.2176214393273678 -0.31177412129290383 0 0.20282381327660201 -0.31505297042611552 0 0.2176214393273678 -0.31177412129290383 0 0.21780935440599439 -0.31602188338433101 0 0.20282381327660201 -0.31505297042611552 0 0.2176214393273678 -0.31177412129290383 0 0.21780935440599439 -0.31602188338433101 0 0.2176214393273678 -0.31177412129290383 0 0.21999804566891551 -0.31122614102315033 0 0.21780935440599439 -0.31602188338433101 0 0.21780935440599439 -0.31602188338433101 0 0.21820242441149371 -0.32490710899175251 0 0.220555537226792 -0.33578323097752499 0 0.21820242441149371 -0.32490710899175251 0 0.20777431361625601 -0.33831058893907762 0 0.220555537226792 -0.33578323097752499 0 0.21451162402718699 -0.34512658597487872 0 0.20777431361625601 -0.33831058893907762 0 0.21451162402718699 -0.34512658597487872 0 0.20777431361625601 -0.33831058893907762 0 0.1971616983813648 -0.34495631128618592 0 0.20777431361625601 -0.33831058893907762 0 0.18864170350563411 -0.33720407153827198 0 0.20777431361625601 -0.33831058893907762 0 0.18802618722583669 -0.31833181955932999 0 0.20777431361625601 -0.33831058893907762 0 0.18864170350563411 -0.33720407153827198 0 0.18802618722583669 -0.31833181955932999 0 0.20777431361625601 -0.33831058893907762 0 0.20282381327660201 -0.31505297042611552 0 0.18802618722583669 -0.31833181955932999 0 0.20282381327660201 -0.31505297042611552 0 0.18802618722583669 -0.31833181955932999 0 0.1976485991634879 -0.30796138879627621 0 0.20282381327660201 -0.31505297042611552 0 0.18802618722583669 -0.31833181955932999 0 0.18802618722583669 -0.31833181955932999 0 0.1791507244663583 -0.32983729973660558 0 0.16791254130802971 -0.3227885891963716 0 0.18802618722583669 -0.31833181955932999 0 0.17151825735526699 -0.31325416760549368 0 0.16791254130802971 -0.3227885891963716 0 0.18802618722583669 -0.31833181955932999 0 0.16791254130802971 -0.3227885891963716 0 0.18864170350563411 -0.33720407153827198 0 0.18802618722583669 -0.31833181955932999 0 0.1791507244663583 -0.32983729973660558 0 0.17202246582593331 -0.34102471865244838 0 0.1791507244663583 -0.32983729973660558 0 0.16791254130802971 -0.3227885891963716 0 0.18787137947787569 -0.35180034780069419 0 0.18864170350563411 -0.33720407153827198 0 0.17202246582593331 -0.34102471865244838 0 0.18864170350563411 -0.33720407153827198 0 0.17202246582593331 -0.34102471865244838 0 0.1791507244663583 -0.32983729973660558 0 0.17202246582593331 -0.34102471865244838 0 0.1546435437787094 -0.34381338892778002 0 0.1557586906108582 -0.32786840018592928 0 0.17202246582593331 -0.34102471865244838 0 0.16791254130802971 -0.3227885891963716 0 0.1557586906108582 -0.32786840018592928 0 0.16791254130802971 -0.3227885891963716 0 0.1557586906108582 -0.32786840018592928 0 0.1602411687519314 -0.31190927739118429 0 0.17151825735526699 -0.31325416760549368 0 0.16791254130802971 -0.3227885891963716 0 0.1602411687519314 -0.31190927739118429 0 0.18787137947787569 -0.35180034780069419 0 0.17662324672053431 -0.35795823269279659 0 0.1910424400336663 -0.37547354736401328 0 0.17662324672053431 -0.35795823269279659 0 0.17035242753357599 -0.36877211446365682 0 0.1910424400336663 -0.37547354736401328 0 0.17035242753357599 -0.36877211446365682 0 0.1910424400336663 -0.37547354736401328 0 0.1737051017910701 -0.38004230502140057 0 0.18787137947787569 -0.35180034780069419 0 0.17202246582593331 -0.34102471865244838 0 0.17662324672053431 -0.35795823269279659 0 0.17202246582593331 -0.34102471865244838 0 0.17662324672053431 -0.35795823269279659 0 0.16265844046108829 -0.35526087104265458 0 0.17202246582593331 -0.34102471865244838 0 0.16265844046108829 -0.35526087104265458 0 0.1546435437787094 -0.34381338892778002 0 0.17662324672053431 -0.35795823269279659 0 0.16265844046108829 -0.35526087104265458 0 0.17035242753357599 -0.36877211446365682 0 0.16265844046108829 -0.35526087104265458 0 0.1569593121701936 -0.36832063090657668 0 0.17035242753357599 -0.36877211446365682 0 0.1569593121701936 -0.36832063090657668 0 0.17035242753357599 -0.36877211446365682 0 0.16307541855137739 -0.37743582412871929 0 0.14536400873927011 -0.3681220756701501 0 0.1426630499740982 -0.35652090160864008 0 0.13524945632583441 -0.37311377610700652 0 0.16265844046108829 -0.35526087104265458 0 0.1569593121701936 -0.36832063090657668 0 0.1426630499740982 -0.35652090160864008 0 0.14536400873927011 -0.3681220756701501 0 0.13524945632583441 -0.37311377610700652 0 0.14973869037300869 -0.38096853745143089 0 0.1569593121701936 -0.36832063090657668 0 0.14536400873927011 -0.3681220756701501 0 0.14973869037300869 -0.38096853745143089 0 0.1569593121701936 -0.36832063090657668 0 0.14536400873927011 -0.3681220756701501 0 0.1426630499740982 -0.35652090160864008 0 0.1546435437787094 -0.34381338892778002 0 0.1426630499740982 -0.35652090160864008 0 0.1424354920479888 -0.33775294740649747 0 0.16265844046108829 -0.35526087104265458 0 0.1546435437787094 -0.34381338892778002 0 0.1426630499740982 -0.35652090160864008 0 0.13449730155472761 -0.34743155680512378 0 0.12784456261830821 -0.36308533366748658 0 0.123981461538115 -0.35128285539313481 0 0.1426630499740982 -0.35652090160864008 0 0.13449730155472761 -0.34743155680512378 0 0.1424354920479888 -0.33775294740649747 0 0.1426630499740982 -0.35652090160864008 0 0.13449730155472761 -0.34743155680512378 0 0.12784456261830821 -0.36308533366748658 0 0.13449730155472761 -0.34743155680512378 0 0.13051916655351839 -0.33696304048325831 0 0.123981461538115 -0.35128285539313481 0 0.1426630499740982 -0.35652090160864008 0 0.12784456261830821 -0.36308533366748658 0 0.13524945632583441 -0.37311377610700652 0 0.12784456261830821 -0.36308533366748658 0 0.13524945632583441 -0.37311377610700652 0 0.12609635470998201 -0.38402791619100712 0 0.14855409589738661 -0.31441038212804873 0 0.1557586906108582 -0.32786840018592928 0 0.1602411687519314 -0.31190927739118429 0 0.1445015266660287 -0.32337949759917511 0 0.14855409589738661 -0.31441038212804873 0 0.13871327718005111 -0.31332369293528212 0 0.1445015266660287 -0.32337949759917511 0 0.14855409589738661 -0.31441038212804873 0 0.1557586906108582 -0.32786840018592928 0 0.1546435437787094 -0.34381338892778002 0 0.1557586906108582 -0.32786840018592928 0 0.1424354920479888 -0.33775294740649747 0 0.1445015266660287 -0.32337949759917511 0 0.1557586906108582 -0.32786840018592928 0 0.1424354920479888 -0.33775294740649747 0 0.1445015266660287 -0.32337949759917511 0 0.1424354920479888 -0.33775294740649747 0 0.13219802669416811 -0.32498852212276208 0 0.1424354920479888 -0.33775294740649747 0 0.13051916655351839 -0.33696304048325831 0 0.13219802669416811 -0.32498852212276208 0 0.13449730155472761 -0.34743155680512378 0 0.1424354920479888 -0.33775294740649747 0 0.13051916655351839 -0.33696304048325831 0 0.13051916655351839 -0.33696304048325831 0 0.13219802669416811 -0.32498852212276208 0 0.12260601330919629 -0.33072698382653798 0 0.1445015266660287 -0.32337949759917511 0 0.13219802669416811 -0.32498852212276208 0 0.13871327718005111 -0.31332369293528212 0 0.13219802669416811 -0.32498852212276208 0 0.1265219532001009 -0.3124330460259736 0 0.1192961391526948 -0.32261879728377291 0 0.13219802669416811 -0.32498852212276208 0 0.13871327718005111 -0.31332369293528212 0 0.1265219532001009 -0.3124330460259736 0 0.1265219532001009 -0.3124330460259736 0 0.1332586495603032 -0.30031372317270688 0 0.1198701537204314 -0.30089140532399938 0 0.1332586495603032 -0.30031372317270688 0 0.1242383748246253 -0.29131174999725179 0 0.1198701537204314 -0.30089140532399938 0 0.13871327718005111 -0.31332369293528212 0 0.1265219532001009 -0.3124330460259736 0 0.1332586495603032 -0.30031372317270688 0 0.13871327718005111 -0.31332369293528212 0 0.1332586495603032 -0.30031372317270688 0 0.147245411062319 -0.30441698656302629 0 0.14855409589738661 -0.31441038212804873 0 0.13871327718005111 -0.31332369293528212 0 0.147245411062319 -0.30441698656302629 0 0.147245411062319 -0.30441698656302629 0 0.15432967412725099 -0.29846298066074151 0 0.14327492933615671 -0.29425024746867751 0 0.1332586495603032 -0.30031372317270688 0 0.147245411062319 -0.30441698656302629 0 0.14327492933615671 -0.29425024746867751 0 0.147245411062319 -0.30441698656302629 0 0.15432967412725099 -0.29846298066074151 0 0.1602411687519314 -0.31190927739118429 0 0.14855409589738661 -0.31441038212804873 0 0.147245411062319 -0.30441698656302629 0 0.1602411687519314 -0.31190927739118429 0 0.15432967412725099 -0.29846298066074151 0 0.1517600770447052 -0.28164214899084639 0 0.14327492933615671 -0.29425024746867751 0 0.1517600770447052 -0.28164214899084639 0 0.14327492933615671 -0.29425024746867751 0 0.13646338677899769 -0.28546266283427663 0 0.1332586495603032 -0.30031372317270688 0 0.14327492933615671 -0.29425024746867751 0 0.13646338677899769 -0.28546266283427663 0 0.1332586495603032 -0.30031372317270688 0 0.13646338677899769 -0.28546266283427663 0 0.1242383748246253 -0.29131174999725179 0 0.13646338677899769 -0.28546266283427663 0 0.1233023238440631 -0.28097148456094378 0 0.1242383748246253 -0.29131174999725179 0 0.1517600770447052 -0.28164214899084639 0 0.13646338677899769 -0.28546266283427663 0 0.1311170075682456 -0.27142576198599933 0 0.1517600770447052 -0.28164214899084639 0 0.1311170075682456 -0.27142576198599933 0 0.1364827709165429 -0.26618641562940759 0 0.13646338677899769 -0.28546266283427663 0 0.1311170075682456 -0.27142576198599933 0 0.1233023238440631 -0.28097148456094378 0 0.1311170075682456 -0.27142576198599933 0 0.1364827709165429 -0.26618641562940759 0 0.1212054647883809 -0.25073068226796852 0 0.1364827709165429 -0.26618641562940759 0 0.13217397618885759 -0.25462043987800831 0 0.1212054647883809 -0.25073068226796852 0 0.1364827709165429 -0.26618641562940759 0 0.1212054647883809 -0.25073068226796852 0 0.1364827709165429 -0.26618641562940759 0 0.13217397618885759 -0.25462043987800831 0 0.14275904560399111 -0.25945725309375861 0 0.13217397618885759 -0.25462043987800831 0 0.1429630926125974 -0.2502577086919005 0 0.14275904560399111 -0.25945725309375861 0 0.1429630926125974 -0.2502577086919005 0 0.16574248336044761 -0.26746108990676593 0 0.1429630926125974 -0.2502577086919005 0 0.15128247879849499 -0.26292486595599002 0 0.16574248336044761 -0.26746108990676593 0 0.1429630926125974 -0.2502577086919005 0 0.16574248336044761 -0.26746108990676593 0 0.16001236861667459 -0.2513654190734112 0 0.1429630926125974 -0.2502577086919005 0 0.14275904560399111 -0.25945725309375861 0 0.15128247879849499 -0.26292486595599002 0 0.1364827709165429 -0.26618641562940759 0 0.14275904560399111 -0.25945725309375861 0 0.15128247879849499 -0.26292486595599002 0 0.1517600770447052 -0.28164214899084639 0 0.1364827709165429 -0.26618641562940759 0 0.15128247879849499 -0.26292486595599002 0 0.1517600770447052 -0.28164214899084639 0 0.15128247879849499 -0.26292486595599002 0 0.15776774232478771 -0.26956647822523339 0 0.1517600770447052 -0.28164214899084639 0 0.1311170075682456 -0.27142576198599933 0 0.1517600770447052 -0.28164214899084639 0 0.1364827709165429 -0.26618641562940759 0 0.1517600770447052 -0.28164214899084639 0 0.16209364730358741 -0.27452888323759039 0 0.16594555478614451 -0.28284233368471318 0 0.1517600770447052 -0.28164214899084639 0 0.16209364730358741 -0.27452888323759039 0 0.15776774232478771 -0.26956647822523339 0 0.16209364730358741 -0.27452888323759039 0 0.15776774232478771 -0.26956647822523339 0 0.16574248336044761 -0.26746108990676593 0 0.15128247879849499 -0.26292486595599002 0 0.15776774232478771 -0.26956647822523339 0 0.16574248336044761 -0.26746108990676593 0 0.16209364730358741 -0.27452888323759039 0 0.16574248336044761 -0.26746108990676593 0 0.16920230535812411 -0.27329149954452342 0 0.16209364730358741 -0.27452888323759039 0 0.16920230535812411 -0.27329149954452342 0 0.16594555478614451 -0.28284233368471318 0 0.16920230535812411 -0.27329149954452342 0 0.1710222018321049 -0.28124575318360368 0 0.16594555478614451 -0.28284233368471318 0 0.16574248336044761 -0.26746108990676593 0 0.16001236861667459 -0.2513654190734112 0 0.16988601458932601 -0.2589500224365659 0 0.16574248336044761 -0.26746108990676593 0 0.16988601458932601 -0.2589500224365659 0 0.17628584543496439 -0.26683535894776161 0 0.16001236861667459 -0.2513654190734112 0 0.16988601458932601 -0.2589500224365659 0 0.16978669848249819 -0.25098739912941831 0 0.1767458594742066 -0.25730285456071711 0 0.17619278994504239 -0.24587918172992959 0 0.18399505531774341 -0.24981832115951039 0 0.16978669848249819 -0.25098739912941831 0 0.1767458594742066 -0.25730285456071711 0 0.17619278994504239 -0.24587918172992959 0 0.16988601458932601 -0.2589500224365659 0 0.16978669848249819 -0.25098739912941831 0 0.1767458594742066 -0.25730285456071711 0 0.16988601458932601 -0.2589500224365659 0 0.1767458594742066 -0.25730285456071711 0 0.17628584543496439 -0.26683535894776161 0 0.1767458594742066 -0.25730285456071711 0 0.17628584543496439 -0.26683535894776161 0 0.1845366839674035 -0.26640487959885623 0 0.1767458594742066 -0.25730285456071711 0 0.18706352147094041 -0.25756661524031438 0 0.1845366839674035 -0.26640487959885623 0 0.1767458594742066 -0.25730285456071711 0 0.18706352147094041 -0.25756661524031438 0 0.18399505531774341 -0.24981832115951039 0 0.18852187410829821 -0.28466447112163068 0 0.17628584543496439 -0.26683535894776161 0 0.1845366839674035 -0.26640487959885623 0 0.18852187410829821 -0.28466447112163068 0 0.16574248336044761 -0.26746108990676593 0 0.18852187410829821 -0.28466447112163068 0 0.16574248336044761 -0.26746108990676593 0 0.17628584543496439 -0.26683535894776161 0 0.16920230535812411 -0.27329149954452342 0 0.18747516626574931 -0.28692639975368628 0 0.17602993407772211 -0.2832030986568283 0 0.18852187410829821 -0.28466447112163068 0 0.16574248336044761 -0.26746108990676593 0 0.16920230535812411 -0.27329149954452342 0 0.16920230535812411 -0.27329149954452342 0 0.18747516626574931 -0.28692639975368628 0 0.16920230535812411 -0.27329149954452342 0 0.1710222018321049 -0.28124575318360368 0 0.17602993407772211 -0.2832030986568283 0 0.18747516626574931 -0.28692639975368628 0 0.1806905449634813 -0.28832929748571318 0 0.17602993407772211 -0.2832030986568283 0 0.18852187410829821 -0.28466447112163068 0 0.16920230535812411 -0.27329149954452342 0 0.18747516626574931 -0.28692639975368628 0 0.18747516626574931 -0.28692639975368628 0 0.1806905449634813 -0.28832929748571318 0 0.18301660310609241 -0.29114958545392738 0 0.17291101310642881 -0.28564608084835003 0 0.17864991096044419 -0.29495009963706692 0 0.16594555478614451 -0.28284233368471318 0 0.1806905449634813 -0.28832929748571318 0 0.17602993407772211 -0.2832030986568283 0 0.17673138357400531 -0.28840876668861409 0 0.17602993407772211 -0.2832030986568283 0 0.17673138357400531 -0.28840876668861409 0 0.17291101310642881 -0.28564608084835003 0 0.1710222018321049 -0.28124575318360368 0 0.17602993407772211 -0.2832030986568283 0 0.17291101310642881 -0.28564608084835003 0 0.17673138357400531 -0.28840876668861409 0 0.17291101310642881 -0.28564608084835003 0 0.17864991096044419 -0.29495009963706692 0 0.17673138357400531 -0.28840876668861409 0 0.17909088347012619 -0.29088019083727579 0 0.17864991096044419 -0.29495009963706692 0 0.1806905449634813 -0.28832929748571318 0 0.17673138357400531 -0.28840876668861409 0 0.17909088347012619 -0.29088019083727579 0 0.17909088347012619 -0.29088019083727579 0 0.17864991096044419 -0.29495009963706692 0 0.18114425154506539 -0.29221912984395187 0 0.18747516626574931 -0.28692639975368628 0 0.18734834214976739 -0.29514628785519947 0 0.1827564496500734 -0.29712351473235832 0 0.18747516626574931 -0.28692639975368628 0 0.18301660310609241 -0.29114958545392738 0 0.1827564496500734 -0.29712351473235832 0 0.18114425154506539 -0.29221912984395187 0 0.18301660310609241 -0.29114958545392738 0 0.1827564496500734 -0.29712351473235832 0 0.17864991096044419 -0.29495009963706692 0 0.18114425154506539 -0.29221912984395187 0 0.1827564496500734 -0.29712351473235832 0 0.18747516626574931 -0.28692639975368628 0 0.1827564496500734 -0.29712351473235832 0 0.1806905449634813 -0.28832929748571318 0 0.18114425154506539 -0.29221912984395187 0 0.18301660310609241 -0.29114958545392738 0 0.1806905449634813 -0.28832929748571318 0 0.17909088347012619 -0.29088019083727579 0 0.18114425154506539 -0.29221912984395187 0 0.18802618722583669 -0.31833181955932999 0 0.18221347423979239 -0.30458962683289892 0 0.1698931321352706 -0.29998698427508858 0 0.1880606218677118 -0.30022154946313712 0 0.18734834214976739 -0.29514628785519947 0 0.1827564496500734 -0.29712351473235832 0 0.19009702279388629 -0.3064242775921906 0 0.1880606218677118 -0.30022154946313712 0 0.18221347423979239 -0.30458962683289892 0 0.18802618722583669 -0.31833181955932999 0 0.17151825735526699 -0.31325416760549368 0 0.1698931321352706 -0.29998698427508858 0 0.1880606218677118 -0.30022154946313712 0 0.18221347423979239 -0.30458962683289892 0 0.1827564496500734 -0.29712351473235832 0 0.18802618722583669 -0.31833181955932999 0 0.1698931321352706 -0.29998698427508858 0 0.17864991096044419 -0.29495009963706692 0 0.1827564496500734 -0.29712351473235832 0 0.17837824174639511 -0.29916255636935318 0 0.18221347423979239 -0.30458962683289892 0 0.1827564496500734 -0.29712351473235832 0 0.17837824174639511 -0.29916255636935318 0 0.19009702279388629 -0.3064242775921906 0 0.18802618722583669 -0.31833181955932999 0 0.18221347423979239 -0.30458962683289892 0 0.18221347423979239 -0.30458962683289892 0 0.17837824174639511 -0.29916255636935318 0 0.1698931321352706 -0.29998698427508858 0 0.17864991096044419 -0.29495009963706692 0 0.17837824174639511 -0.29916255636935318 0 0.1698931321352706 -0.29998698427508858 0 0.17151825735526699 -0.31325416760549368 0 0.1698931321352706 -0.29998698427508858 0 0.1602411687519314 -0.31190927739118429 0 0.15432967412725099 -0.29846298066074151 0 0.1698931321352706 -0.29998698427508858 0 0.1602411687519314 -0.31190927739118429 0 0.1517600770447052 -0.28164214899084639 0 0.17864991096044419 -0.29495009963706692 0 0.1698931321352706 -0.29998698427508858 0 0.1517600770447052 -0.28164214899084639 0 0.1698931321352706 -0.29998698427508858 0 0.15432967412725099 -0.29846298066074151 0 0.1517600770447052 -0.28164214899084639 0 0.1698931321352706 -0.29998698427508858 0 0.1517600770447052 -0.28164214899084639 0 0.17864991096044419 -0.29495009963706692 0 0.1517600770447052 -0.28164214899084639 0 0.17864991096044419 -0.29495009963706692 0 0.16594555478614451 -0.28284233368471318 0 0.1710222018321049 -0.28124575318360368 0 0.17291101310642881 -0.28564608084835003 0 0.16594555478614451 -0.28284233368471318 0 0.21438456257476449 -0.5 0 0.2048745361024723 -0.48472171768082351 0 0.18744203257390391 -0.5 0 0.19122796324104871 -0.48466606029959602 0 0.2048745361024723 -0.48472171768082351 0 0.18744203257390391 -0.5 0 0.19122796324104871 -0.48466606029959602 0 0.20365346230900849 -0.47086657296764728 0 0.1938641377332887 -0.4633108835168005 0 0.19122796324104871 -0.48466606029959602 0 0.20365346230900849 -0.47086657296764728 0 0.2048745361024723 -0.48472171768082351 0 0.21766866328091511 -0.47157360957620892 0 0.2048745361024723 -0.48472171768082351 0 0.22288060450936709 -0.48400008360299168 0 0.20365346230900849 -0.47086657296764728 0 0.21766866328091511 -0.47157360957620892 0 0.2048745361024723 -0.48472171768082351 0 0.21438456257476449 -0.5 0 0.2048745361024723 -0.48472171768082351 0 0.22288060450936709 -0.48400008360299168 0 0.21438456257476449 -0.5 0 0.23633351028628971 -0.48712361601618398 0 0.2413270925756249 -0.5 0 0.21438456257476449 -0.5 0 0.23633351028628971 -0.48712361601618398 0 0.22288060450936709 -0.48400008360299168 0 0.25270961841775552 -0.48460016746525392 0 0.23633351028628971 -0.48712361601618398 0 0.2413270925756249 -0.5 0 0.25270961841775552 -0.48460016746525392 0 0.23633351028628971 -0.48712361601618398 0 0.23949561189523169 -0.47426551941090739 0 0.23949561189523169 -0.47426551941090739 0 0.22288060450936709 -0.48400008360299168 0 0.22545312399173489 -0.46028769725088831 0 0.21766866328091511 -0.47157360957620892 0 0.22288060450936709 -0.48400008360299168 0 0.22545312399173489 -0.46028769725088831 0 0.23633351028628971 -0.48712361601618398 0 0.23949561189523169 -0.47426551941090739 0 0.22288060450936709 -0.48400008360299168 0 0.22288060450936709 -0.48400008360299168 0 0.22545312399173489 -0.46028769725088831 0 0.21766866328091511 -0.47157360957620892 0 0.22545312399173489 -0.46028769725088831 0 0.2186728293425339 -0.44755637628226819 0 0.2588368117714554 -0.46700690363883102 0 0.23949561189523169 -0.47426551941090739 0 0.2409729068143365 -0.46262444708906358 0 0.22545312399173489 -0.46028769725088831 0 0.2409729068143365 -0.46262444708906358 0 0.24480843210435321 -0.45079661158300749 0 0.2588368117714554 -0.46700690363883102 0 0.2409729068143365 -0.46262444708906358 0 0.24480843210435321 -0.45079661158300749 0 0.23949561189523169 -0.47426551941090739 0 0.22545312399173489 -0.46028769725088831 0 0.2409729068143365 -0.46262444708906358 0 0.24480843210435321 -0.45079661158300749 0 0.22802564347410281 -0.43657531089878487 0 0.2418992233321238 -0.43333026798624508 0 0.25513396950241118 -0.43290986753561628 0 0.24480843210435321 -0.45079661158300749 0 0.2418992233321238 -0.43333026798624508 0 0.22545312399173489 -0.46028769725088831 0 0.22802564347410281 -0.43657531089878487 0 0.2186728293425339 -0.44755637628226819 0 0.21246462128442831 -0.43168381348743168 0 0.22802564347410281 -0.43657531089878487 0 0.22545312399173489 -0.46028769725088831 0 0.2186728293425339 -0.44755637628226819 0 0.22802564347410281 -0.43657531089878487 0 0.22545312399173489 -0.46028769725088831 0 0.24480843210435321 -0.45079661158300749 0 0.22802564347410281 -0.43657531089878487 0 0.20442019459899149 -0.44533796874460208 0 0.2186728293425339 -0.44755637628226819 0 0.21246462128442831 -0.43168381348743168 0 0.21766866328091511 -0.47157360957620892 0 0.20442019459899149 -0.44533796874460208 0 0.21766866328091511 -0.47157360957620892 0 0.20442019459899149 -0.44533796874460208 0 0.2186728293425339 -0.44755637628226819 0 0.20365346230900849 -0.47086657296764728 0 0.21766866328091511 -0.47157360957620892 0 0.20442019459899149 -0.44533796874460208 0 0.20365346230900849 -0.47086657296764728 0 0.20442019459899149 -0.44533796874460208 0 0.1938641377332887 -0.4633108835168005 0 0.20442019459899149 -0.44533796874460208 0 0.18484232774876749 -0.43033534366960768 0 0.18590039067086719 -0.44115637567916172 0 0.20442019459899149 -0.44533796874460208 0 0.18923595964957429 -0.45067509688328122 0 0.18590039067086719 -0.44115637567916172 0 0.20442019459899149 -0.44533796874460208 0 0.1938641377332887 -0.4633108835168005 0 0.18923595964957429 -0.45067509688328122 0 0.20442019459899149 -0.44533796874460208 0 0.1911717259170673 -0.41910232791299562 0 0.20473537155931409 -0.42802668409371708 0 0.20442019459899149 -0.44533796874460208 0 0.1911717259170673 -0.41910232791299562 0 0.20442019459899149 -0.44533796874460208 0 0.1911717259170673 -0.41910232791299562 0 0.18484232774876749 -0.43033534366960768 0 0.1911717259170673 -0.41910232791299562 0 0.21088494443676881 -0.41598262622983972 0 0.20473537155931409 -0.42802668409371708 0 0.18851111772050869 -0.41383358608972459 0 0.208966154163157 -0.40126827473642579 0 0.1911717259170673 -0.41910232791299562 0 0.21088494443676881 -0.41598262622983972 0 0.1911717259170673 -0.41910232791299562 0 0.18851111772050869 -0.41383358608972459 0 0.21088494443676881 -0.41598262622983972 0 0.18851111772050869 -0.41383358608972459 0 0.21088494443676881 -0.41598262622983972 0 0.208966154163157 -0.40126827473642579 0 0.1911717259170673 -0.41910232791299562 0 0.18851111772050869 -0.41383358608972459 0 0.21088494443676881 -0.41598262622983972 0 0.22155668588658281 -0.40529615173032069 0 0.208966154163157 -0.40126827473642579 0 0.21088494443676881 -0.41598262622983972 0 0.20473537155931409 -0.42802668409371708 0 0.21246462128442831 -0.43168381348743168 0 0.21088494443676881 -0.41598262622983972 0 0.21246462128442831 -0.43168381348743168 0 0.21959695705502991 -0.42408781639437282 0 0.20442019459899149 -0.44533796874460208 0 0.20473537155931409 -0.42802668409371708 0 0.21246462128442831 -0.43168381348743168 0 0.21246462128442831 -0.43168381348743168 0 0.21959695705502991 -0.42408781639437282 0 0.22802564347410281 -0.43657531089878487 0 0.22802564347410281 -0.43657531089878487 0 0.23614533994983331 -0.4244462479719151 0 0.23059816295646979 -0.4128629245466815 0 0.22802564347410281 -0.43657531089878487 0 0.23059816295646979 -0.4128629245466815 0 0.21959695705502991 -0.42408781639437282 0 0.22802564347410281 -0.43657531089878487 0 0.23059816295646979 -0.4128629245466815 0 0.22802564347410281 -0.43657531089878487 0 0.2418992233321238 -0.43333026798624508 0 0.23614533994983331 -0.4244462479719151 0 0.2418992233321238 -0.43333026798624508 0 0.23614533994983331 -0.4244462479719151 0 0.2453827316299185 -0.42192330194190181 0 0.25513396950241118 -0.43290986753561628 0 0.2418992233321238 -0.43333026798624508 0 0.2453827316299185 -0.42192330194190181 0 0.256136481120742 -0.41447562176841068 0 0.2453827316299185 -0.42192330194190181 0 0.24629253832767661 -0.41022035877505542 0 0.2453827316299185 -0.42192330194190181 0 0.24629253832767661 -0.41022035877505542 0 0.2366098857920339 -0.41191154353144788 0 0.23614533994983331 -0.4244462479719151 0 0.2366098857920339 -0.41191154353144788 0 0.23059816295646979 -0.4128629245466815 0 0.23614533994983331 -0.4244462479719151 0 0.2453827316299185 -0.42192330194190181 0 0.2366098857920339 -0.41191154353144788 0 0.24629253832767661 -0.41022035877505542 0 0.2366098857920339 -0.41191154353144788 0 0.2422505545635501 -0.40276464775944387 0 0.21088494443676881 -0.41598262622983972 0 0.23059816295646979 -0.4128629245466815 0 0.2366098857920339 -0.41191154353144788 0 0.23059816295646979 -0.4128629245466815 0 0.23156745731421779 -0.4039283829592023 0 0.23059816295646979 -0.4128629245466815 0 0.22155668588658281 -0.40529615173032069 0 0.23156745731421779 -0.4039283829592023 0 0.23059816295646979 -0.4128629245466815 0 0.23156745731421779 -0.4039283829592023 0 0.21088494443676881 -0.41598262622983972 0 0.23059816295646979 -0.4128629245466815 0 0.22155668588658281 -0.40529615173032069 0 0.21088494443676881 -0.41598262622983972 0 0.21959695705502991 -0.42408781639437282 0 0.23059816295646979 -0.4128629245466815 0 0.2366098857920339 -0.41191154353144788 0 0.23059816295646979 -0.4128629245466815 0 0.22155668588658281 -0.40529615173032069 0 0.22942119060580499 -0.38870296338312649 0 0.208966154163157 -0.40126827473642579 0 0.22155668588658281 -0.40529615173032069 0 0.23156745731421779 -0.4039283829592023 0 0.22942119060580499 -0.38870296338312649 0 0.22942119060580499 -0.38870296338312649 0 0.208966154163157 -0.40126827473642579 0 0.23156745731421779 -0.4039283829592023 0 0.24309899287842279 -0.39271330151873202 0 0.2422505545635501 -0.40276464775944387 0 0.2366098857920339 -0.41191154353144788 0 0.23156745731421779 -0.4039283829592023 0 0.2422505545635501 -0.40276464775944387 0 0.23156745731421779 -0.4039283829592023 0 0.24309899287842279 -0.39271330151873202 0 0.22942119060580499 -0.38870296338312649 0 0.25108303853213881 -0.40002667887407228 0 0.24629253832767661 -0.41022035877505542 0 0.2422505545635501 -0.40276464775944387 0 0.25108303853213881 -0.40002667887407228 0 0.24309899287842279 -0.39271330151873202 0 0.2422505545635501 -0.40276464775944387 0 0.24987622704845311 -0.37613765202982719 0 0.22942119060580499 -0.38870296338312649 0 0.24309899287842279 -0.39271330151873202 0 0.24987622704845311 -0.37613765202982719 0 0.22942119060580499 -0.38870296338312649 0 0.24987622704845311 -0.37613765202982719 0 0.23474048966473349 -0.38137370792841258 0 0.22942119060580499 -0.38870296338312649 0 0.25687819372407023 -0.38903915957053298 0 0.24309899287842279 -0.39271330151873202 0 0.24987622704845311 -0.37613765202982719 0 0.23679608458568241 -0.3713456781615978 0 0.24987622704845311 -0.37613765202982719 0 0.23474048966473349 -0.38137370792841258 0 0.23474048966473349 -0.38137370792841258 0 0.23010576568282681 -0.37607478874810818 0 0.22189277223980711 -0.38054577212349588 0 0.23474048966473349 -0.38137370792841258 0 0.22189277223980711 -0.38054577212349588 0 0.20961824525516401 -0.3936281247522696 0 0.23474048966473349 -0.38137370792841258 0 0.22942119060580499 -0.38870296338312649 0 0.20961824525516401 -0.3936281247522696 0 0.23679608458568241 -0.3713456781615978 0 0.23474048966473349 -0.38137370792841258 0 0.23010576568282681 -0.37607478874810818 0 0.23474048966473349 -0.38137370792841258 0 0.20961824525516401 -0.3936281247522696 0 0.22699371624108439 -0.37103399677892651 0 0.23010576568282681 -0.37607478874810818 0 0.22189277223980711 -0.38054577212349588 0 0.21663927632257499 -0.37152038636996992 0 0.22189277223980711 -0.38054577212349588 0 0.21119602619295649 -0.38157571206759561 0 0.21663927632257499 -0.37152038636996992 0 0.21119602619295649 -0.38157571206759561 0 0.20576161095015591 -0.37595213443190167 0 0.21119602619295649 -0.38157571206759561 0 0.20576161095015591 -0.37595213443190167 0 0.20229958674085519 -0.38616776423662919 0 0.21119602619295649 -0.38157571206759561 0 0.20961824525516401 -0.3936281247522696 0 0.20229958674085519 -0.38616776423662919 0 0.22189277223980711 -0.38054577212349588 0 0.21119602619295649 -0.38157571206759561 0 0.20961824525516401 -0.3936281247522696 0 0.22942119060580499 -0.38870296338312649 0 0.208966154163157 -0.40126827473642579 0 0.20961824525516401 -0.3936281247522696 0 0.20961824525516401 -0.3936281247522696 0 0.18449600084559339 -0.40588254157612419 0 0.20961824525516401 -0.3936281247522696 0 0.19262774622386039 -0.39991289132556063 0 0.20229958674085519 -0.38616776423662919 0 0.18851111772050869 -0.41383358608972459 0 0.20961824525516401 -0.3936281247522696 0 0.18449600084559339 -0.40588254157612419 0 0.19262774622386039 -0.39991289132556063 0 0.193172237845981 -0.38760648281860499 0 0.20229958674085519 -0.38616776423662919 0 0.20961824525516401 -0.3936281247522696 0 0.19262774622386039 -0.39991289132556063 0 0.18449600084559339 -0.40588254157612419 0 0.18851111772050869 -0.41383358608972459 0 0.208966154163157 -0.40126827473642579 0 0.20961824525516401 -0.3936281247522696 0 0.19262774622386039 -0.39991289132556063 0 0.18963514604776821 -0.39361523539988952 0 0.193172237845981 -0.38760648281860499 0 0.19262774622386039 -0.39991289132556063 0 0.18963514604776821 -0.39361523539988952 0 0.18221634088723479 -0.40136818287387582 0 0.18963514604776821 -0.39361523539988952 0 0.193172237845981 -0.38760648281860499 0 0.18267650324237161 -0.39405502657648112 0 0.193172237845981 -0.38760648281860499 0 0.1910424400336663 -0.37547354736401328 0 0.18267650324237161 -0.39405502657648112 0 0.20576161095015591 -0.37595213443190167 0 0.1910424400336663 -0.37547354736401328 0 0.20229958674085519 -0.38616776423662919 0 0.193172237845981 -0.38760648281860499 0 0.1910424400336663 -0.37547354736401328 0 0.20229958674085519 -0.38616776423662919 0 0.1910424400336663 -0.37547354736401328 0 0.17822948803450961 -0.38676940160015832 0 0.1737051017910701 -0.38004230502140057 0 0.1910424400336663 -0.37547354736401328 0 0.18267650324237161 -0.39405502657648112 0 0.1910424400336663 -0.37547354736401328 0 0.17822948803450961 -0.38676940160015832 0 0.18267650324237161 -0.39405502657648112 0 0.17822948803450961 -0.38676940160015832 0 0.17910183421640119 -0.39520059623836468 0 0.1646215608890387 -0.38907553280053181 0 0.17822948803450961 -0.38676940160015832 0 0.1737051017910701 -0.38004230502140057 0 0.1646215608890387 -0.38907553280053181 0 0.17822948803450961 -0.38676940160015832 0 0.18267650324237161 -0.39405502657648112 0 0.17910183421640119 -0.39520059623836468 0 0.18221634088723479 -0.40136818287387582 0 0.17910183421640119 -0.39520059623836468 0 0.15805845094365739 -0.40474493864538458 0 0.18963514604776821 -0.39361523539988952 0 0.18267650324237161 -0.39405502657648112 0 0.18221634088723479 -0.40136818287387582 0 0.18267650324237161 -0.39405502657648112 0 0.18221634088723479 -0.40136818287387582 0 0.17910183421640119 -0.39520059623836468 0 0.18221634088723479 -0.40136818287387582 0 0.17910183421640119 -0.39520059623836468 0 0.19262774622386039 -0.39991289132556063 0 0.18221634088723479 -0.40136818287387582 0 0.19262774622386039 -0.39991289132556063 0 0.18449600084559339 -0.40588254157612419 0 0.18221634088723479 -0.40136818287387582 0 0.18449600084559339 -0.40588254157612419 0 0.18221634088723479 -0.40136818287387582 0 0.17910183421640119 -0.39520059623836468 0 0.15805845094365739 -0.40474493864538458 0 0.1646215608890387 -0.38907553280053181 0 0.18221634088723479 -0.40136818287387582 0 0.15805845094365739 -0.40474493864538458 0 0.15805845094365739 -0.40474493864538458 0 0.1646215608890387 -0.38907553280053181 0 0.14706277844018539 -0.39464292458295508 0 0.1737051017910701 -0.38004230502140057 0 0.1646215608890387 -0.38907553280053181 0 0.16307541855137739 -0.37743582412871929 0 0.17035242753357599 -0.36877211446365682 0 0.1737051017910701 -0.38004230502140057 0 0.16307541855137739 -0.37743582412871929 0 0.1569593121701936 -0.36832063090657668 0 0.16307541855137739 -0.37743582412871929 0 0.14973869037300869 -0.38096853745143089 0 0.1646215608890387 -0.38907553280053181 0 0.16307541855137739 -0.37743582412871929 0 0.14973869037300869 -0.38096853745143089 0 0.1646215608890387 -0.38907553280053181 0 0.14973869037300869 -0.38096853745143089 0 0.14706277844018539 -0.39464292458295508 0 0.14973869037300869 -0.38096853745143089 0 0.1375772795987745 -0.38493757303029391 0 0.14706277844018539 -0.39464292458295508 0 0.13524945632583441 -0.37311377610700652 0 0.14973869037300869 -0.38096853745143089 0 0.1375772795987745 -0.38493757303029391 0 0.13524945632583441 -0.37311377610700652 0 0.1375772795987745 -0.38493757303029391 0 0.12609635470998201 -0.38402791619100712 0 0.1375772795987745 -0.38493757303029391 0 0.12609635470998201 -0.38402791619100712 0 0.13569313113510631 -0.39589912548093298 0 0.12645644117523869 -0.39722706905544619 0 0.13569313113510631 -0.39589912548093298 0 0.1339005610000801 -0.40812169441689322 0 0.12645644117523869 -0.39722706905544619 0 0.1339005610000801 -0.40812169441689322 0 0.1250254850364893 -0.40936224001308058 0 0.12609635470998201 -0.38402791619100712 0 0.12645644117523869 -0.39722706905544619 0 0.13569313113510631 -0.39589912548093298 0 0.1375772795987745 -0.38493757303029391 0 0.13569313113510631 -0.39589912548093298 0 0.14706277844018539 -0.39464292458295508 0 0.13569313113510631 -0.39589912548093298 0 0.14706277844018539 -0.39464292458295508 0 0.1339005610000801 -0.40812169441689322 0 0.13569313113510631 -0.39589912548093298 0 0.1339005610000801 -0.40812169441689322 0 0.15805845094365739 -0.40474493864538458 0 0.14706277844018539 -0.39464292458295508 0 0.1339005610000801 -0.40812169441689322 0 0.15805845094365739 -0.40474493864538458 0 0.1339005610000801 -0.40812169441689322 0 0.15805845094365739 -0.40474493864538458 0 0.15398562739609989 -0.414436145328195 0 0.14500783119440661 -0.41410657591589572 0 0.15805845094365739 -0.40474493864538458 0 0.14500783119440661 -0.41410657591589572 0 0.1339005610000801 -0.40812169441689322 0 0.15398562739609989 -0.414436145328195 0 0.15088002640467921 -0.42009116626417142 0 0.14500783119440661 -0.41410657591589572 0 0.15088002640467921 -0.42009116626417142 0 0.15979138776423191 -0.42406840149736191 0 0.15636365466176849 -0.41960526040447821 0 0.15398562739609989 -0.414436145328195 0 0.15088002640467921 -0.42009116626417142 0 0.15636365466176849 -0.41960526040447821 0 0.15088002640467921 -0.42009116626417142 0 0.14500783119440661 -0.41410657591589572 0 0.14354831806896931 -0.42663893719234869 0 0.14500783119440661 -0.41410657591589572 0 0.1339005610000801 -0.40812169441689322 0 0.13212255532719441 -0.42024495614079282 0 0.14500783119440661 -0.41410657591589572 0 0.13212255532719441 -0.42024495614079282 0 0.14354831806896931 -0.42663893719234869 0 0.1339005610000801 -0.40812169441689322 0 0.13212255532719441 -0.42024495614079282 0 0.13212255532719441 -0.42024495614079282 0 0.1250254850364893 -0.40936224001308058 0 0.117866085899093 -0.41583132647739651 0 0.13212255532719441 -0.42024495614079282 0 0.1250254850364893 -0.40936224001308058 0 0.1339005610000801 -0.40812169441689322 0 0.13212255532719441 -0.42024495614079282 0 0.1250254850364893 -0.40936224001308058 0 0.1339005610000801 -0.40812169441689322 0 0.1250254850364893 -0.40936224001308058 0 0.13212255532719441 -0.42024495614079282 0 0.14354831806896931 -0.42663893719234869 0 0.1460535583969573 -0.44160689079445481 0 0.13212255532719441 -0.42024495614079282 0 0.128223579302082 -0.44682997076052833 0 0.13212255532719441 -0.42024495614079282 0 0.128223579302082 -0.44682997076052833 0 0.1159996351348133 -0.43474120747525058 0 0.13212255532719441 -0.42024495614079282 0 0.1460535583969573 -0.44160689079445481 0 0.13212255532719441 -0.42024495614079282 0 0.1460535583969573 -0.44160689079445481 0 0.128223579302082 -0.44682997076052833 0 0.15088002640467921 -0.42009116626417142 0 0.14354831806896931 -0.42663893719234869 0 0.15979138776423191 -0.42406840149736191 0 0.14354831806896931 -0.42663893719234869 0 0.15979138776423191 -0.42406840149736191 0 0.14354831806896931 -0.42663893719234869 0 0.15423293294423909 -0.43386412417913311 0 0.1460535583969573 -0.44160689079445481 0 0.14354831806896931 -0.42663893719234869 0 0.15423293294423909 -0.43386412417913311 0 0.15979138776423191 -0.42406840149736191 0 0.15423293294423909 -0.43386412417913311 0 0.16088991666547389 -0.43196094602310392 0 0.16557730454712019 -0.44172028084172121 0 0.1713980071398 -0.42434598792645378 0 0.15979138776423191 -0.42406840149736191 0 0.1760344574594947 -0.42149786580237669 0 0.15423293294423909 -0.43386412417913311 0 0.16088991666547389 -0.43196094602310392 0 0.15979138776423191 -0.42406840149736191 0 0.15979138776423191 -0.42406840149736191 0 0.1760344574594947 -0.42149786580237669 0 0.16626302434537371 -0.43076979168845952 0 0.17509911994716071 -0.43336510097506958 0 0.16557730454712019 -0.44172028084172121 0 0.16088991666547389 -0.43196094602310392 0 0.16626302434537371 -0.43076979168845952 0 0.16557730454712019 -0.44172028084172121 0 0.16626302434537371 -0.43076979168845952 0 0.1713980071398 -0.42434598792645378 0 0.17509911994716071 -0.43336510097506958 0 0.16626302434537371 -0.43076979168845952 0 0.1713980071398 -0.42434598792645378 0 0.15979138776423191 -0.42406840149736191 0 0.16088991666547389 -0.43196094602310392 0 0.16626302434537371 -0.43076979168845952 0 0.15979138776423191 -0.42406840149736191 0 0.15636365466176849 -0.41960526040447821 0 0.16176651730702801 -0.41283252991975622 0 0.17042982775368151 -0.41274390099030239 0 0.18221634088723479 -0.40136818287387582 0 0.15805845094365739 -0.40474493864538458 0 0.17042982775368151 -0.41274390099030239 0 0.15979138776423191 -0.42406840149736191 0 0.15636365466176849 -0.41960526040447821 0 0.17042982775368151 -0.41274390099030239 0 0.15636365466176849 -0.41960526040447821 0 0.17042982775368151 -0.41274390099030239 0 0.15979138776423191 -0.42406840149736191 0 0.17042982775368151 -0.41274390099030239 0 0.1760344574594947 -0.42149786580237669 0 0.15398562739609989 -0.414436145328195 0 0.15636365466176849 -0.41960526040447821 0 0.16176651730702801 -0.41283252991975622 0 0.15805845094365739 -0.40474493864538458 0 0.15398562739609989 -0.414436145328195 0 0.16176651730702801 -0.41283252991975622 0 0.15805845094365739 -0.40474493864538458 0 0.16176651730702801 -0.41283252991975622 0 0.17042982775368151 -0.41274390099030239 0 0.17042982775368151 -0.41274390099030239 0 0.1760344574594947 -0.42149786580237669 0 0.17986785094481991 -0.4134894736146324 0 0.18449600084559339 -0.40588254157612419 0 0.17042982775368151 -0.41274390099030239 0 0.18449600084559339 -0.40588254157612419 0 0.18221634088723479 -0.40136818287387582 0 0.17042982775368151 -0.41274390099030239 0 0.18449600084559339 -0.40588254157612419 0 0.17042982775368151 -0.41274390099030239 0 0.17986785094481991 -0.4134894736146324 0 0.18851111772050869 -0.41383358608972459 0 0.18449600084559339 -0.40588254157612419 0 0.18851111772050869 -0.41383358608972459 0 0.18449600084559339 -0.40588254157612419 0 0.17986785094481991 -0.4134894736146324 0 0.18851111772050869 -0.41383358608972459 0 0.1760344574594947 -0.42149786580237669 0 0.1911717259170673 -0.41910232791299562 0 0.1760344574594947 -0.42149786580237669 0 0.18851111772050869 -0.41383358608972459 0 0.1760344574594947 -0.42149786580237669 0 0.17986785094481991 -0.4134894736146324 0 0.1911717259170673 -0.41910232791299562 0 0.18851111772050869 -0.41383358608972459 0 0.1760344574594947 -0.42149786580237669 0 0.1911717259170673 -0.41910232791299562 0 0.1760344574594947 -0.42149786580237669 0 0.18484232774876749 -0.43033534366960768 0 0.18484232774876749 -0.43033534366960768 0 0.17509911994716071 -0.43336510097506958 0 0.18590039067086719 -0.44115637567916172 0 0.18484232774876749 -0.43033534366960768 0 0.17509911994716071 -0.43336510097506958 0 0.17653319474121221 -0.42750765242104072 0 0.1713980071398 -0.42434598792645378 0 0.17509911994716071 -0.43336510097506958 0 0.17653319474121221 -0.42750765242104072 0 0.1760344574594947 -0.42149786580237669 0 0.18484232774876749 -0.43033534366960768 0 0.17653319474121221 -0.42750765242104072 0 0.1713980071398 -0.42434598792645378 0 0.1760344574594947 -0.42149786580237669 0 0.17653319474121221 -0.42750765242104072 0 0.1713980071398 -0.42434598792645378 0 0.1760344574594947 -0.42149786580237669 0 0.17791556380287959 -0.4455361086535346 0 0.17376504419967539 -0.46076368888843938 0 0.16557730454712019 -0.44172028084172121 0 0.17509911994716071 -0.43336510097506958 0 0.17791556380287959 -0.4455361086535346 0 0.18590039067086719 -0.44115637567916172 0 0.17509911994716071 -0.43336510097506958 0 0.17791556380287959 -0.4455361086535346 0 0.16557730454712019 -0.44172028084172121 0 0.18923595964957429 -0.45067509688328122 0 0.17791556380287959 -0.4455361086535346 0 0.18590039067086719 -0.44115637567916172 0 0.18923595964957429 -0.45067509688328122 0 0.17791556380287959 -0.4455361086535346 0 0.17376504419967539 -0.46076368888843938 0 0.1938641377332887 -0.4633108835168005 0 0.18923595964957429 -0.45067509688328122 0 0.17376504419967539 -0.46076368888843938 0 0.1938641377332887 -0.4633108835168005 0 0.17376504419967539 -0.46076368888843938 0 0.17718182015316611 -0.48165544175840053 0 0.17376504419967539 -0.46076368888843938 0 0.15550290350416551 -0.45157236434768988 0 0.1539044029471725 -0.46809795184702829 0 0.17376504419967539 -0.46076368888843938 0 0.16557730454712019 -0.44172028084172121 0 0.15550290350416551 -0.45157236434768988 0 0.15423293294423909 -0.43386412417913311 0 0.16557730454712019 -0.44172028084172121 0 0.15550290350416551 -0.45157236434768988 0 0.15423293294423909 -0.43386412417913311 0 0.15550290350416551 -0.45157236434768988 0 0.1460535583969573 -0.44160689079445481 0 0.15550290350416551 -0.45157236434768988 0 0.1460535583969573 -0.44160689079445481 0 0.14153074802588431 -0.45654190970348868 0 0.1460535583969573 -0.44160689079445481 0 0.128223579302082 -0.44682997076052833 0 0.14153074802588431 -0.45654190970348868 0 0.128223579302082 -0.44682997076052833 0 0.12432460327697011 -0.47341498538026422 0 0.128223579302082 -0.44682997076052833 0 0.14153074802588431 -0.45654190970348868 0 0.12432460327697011 -0.47341498538026422 0 0.1539044029471725 -0.46809795184702829 0 0.14153074802588431 -0.45654190970348868 0 0.12432460327697011 -0.47341498538026422 0 0.15550290350416551 -0.45157236434768988 0 0.1539044029471725 -0.46809795184702829 0 0.14153074802588431 -0.45654190970348868 0 0.1539044029471725 -0.46809795184702829 0 0.15048103374274721 -0.48484579871078243 0 0.12432460327697011 -0.47341498538026422 0 0.1404625649124509 -0.5 0 0.15048103374274721 -0.48484579871078243 0 0.12432460327697011 -0.47341498538026422 0 0.1404625649124509 -0.5 0 0.12042562725185831 -0.49999999999999989 0 0.12432460327697011 -0.47341498538026422 0 0.1404625649124509 -0.5 0 0.15048103374274721 -0.48484579871078243 0 0.16049950257304349 -0.50000000000000033 0 0.16049950257304349 -0.50000000000000033 0 0.17718182015316611 -0.48165544175840053 0 0.15048103374274721 -0.48484579871078243 0 0.16049950257304349 -0.50000000000000033 0 0.17718182015316611 -0.48165544175840053 0 0.17376504419967539 -0.46076368888843938 0 0.1539044029471725 -0.46809795184702829 0 0.17718182015316611 -0.48165544175840053 0 0.1539044029471725 -0.46809795184702829 0 0.15048103374274721 -0.48484579871078243 0 0.17718182015316611 -0.48165544175840053 0 0.1938641377332887 -0.4633108835168005 0 0.17718182015316611 -0.48165544175840053 0 0.19122796324104871 -0.48466606029959602 0 0.1938641377332887 -0.4633108835168005 0 0.17718182015316611 -0.48165544175840053 0 0.16049950257304349 -0.50000000000000033 0 0.17718182015316611 -0.48165544175840053 0 0.18744203257390391 -0.5 0 0.19122796324104871 -0.48466606029959602 0 0.17718182015316611 -0.48165544175840053 0 0.18744203257390391 -0.5 0 0.072018957471098571 -0.48629524479662273 0 0.069142552082564368 -0.5 0 0.082735946582200875 -0.4892045976485363 0 0.072018957471098571 -0.48629524479662273 0 0.079568506083734697 -0.4785915255016745 0 0.082735946582200875 -0.4892045976485363 0 0.072018957471098571 -0.48629524479662273 0 0.062670741706174135 -0.48944359682069549 0 0.064881374578912687 -0.4815757870058418 0 0.072018957471098571 -0.48629524479662273 0 0.069142552082564368 -0.5 0 0.062670741706174135 -0.48944359682069549 0 0.073180054077148754 -0.46968413697177741 0 0.079568506083734697 -0.4785915255016745 0 0.081395248040860374 -0.46160025678040811 0 0.067447632246636219 -0.45716428258124142 0 0.05849497948899289 -0.47642287528831911 0 0.061758178687080389 -0.47580514524370598 0 0.072018957471098571 -0.48629524479662273 0 0.064881374578912687 -0.4815757870058418 0 0.070673492561877091 -0.4782128222507579 0 0.064881374578912687 -0.4815757870058418 0 0.066280053791524171 -0.47680462027284459 0 0.061758178687080389 -0.47580514524370598 0 0.064881374578912687 -0.4815757870058418 0 0.066280053791524171 -0.47680462027284459 0 0.070673492561877091 -0.4782128222507579 0 0.066280053791524171 -0.47680462027284459 0 0.067807169338226503 -0.47162472659107291 0 0.061758178687080389 -0.47580514524370598 0 0.066280053791524171 -0.47680462027284459 0 0.067807169338226503 -0.47162472659107291 0 0.070673492561877091 -0.4782128222507579 0 0.067807169338226503 -0.47162472659107291 0 0.073180054077148754 -0.46968413697177741 0 0.070673492561877091 -0.4782128222507579 0 0.073180054077148754 -0.46968413697177741 0 0.070673492561877091 -0.4782128222507579 0 0.079568506083734697 -0.4785915255016745 0 0.072018957471098571 -0.48629524479662273 0 0.070673492561877091 -0.4782128222507579 0 0.079568506083734697 -0.4785915255016745 0 0.096876661376123455 -0.48080012839020431 0 0.081395248040860374 -0.46160025678040811 0 0.096876661376123455 -0.48080012839020431 0 0.095349939854524335 -0.46404107218864848 0 0.081395248040860374 -0.46160025678040811 0 0.079568506083734697 -0.4785915255016745 0 0.082735946582200875 -0.4892045976485363 0 0.096876661376123455 -0.48080012839020431 0 0.079568506083734697 -0.4785915255016745 0 0.096876661376123455 -0.48080012839020431 0 0.081395248040860374 -0.46160025678040811 0 0.090750313396975479 -0.5 0 0.082735946582200875 -0.4892045976485363 0 0.096876661376123455 -0.48080012839020431 0 0.069142552082564368 -0.5 0 0.090750313396975479 -0.5 0 0.082735946582200875 -0.4892045976485363 0 0.1123580747113867 -0.50000000000000033 0 0.1124728586670535 -0.48406595427175642 0 0.096876661376123455 -0.48080012839020431 0 0.090750313396975479 -0.5 0 0.1123580747113867 -0.50000000000000033 0 0.096876661376123455 -0.48080012839020431 0 0.1123580747113867 -0.50000000000000033 0 0.096876661376123455 -0.48080012839020431 0 0.1123580747113867 -0.50000000000000033 0 0.12042562725185831 -0.49999999999999989 0 0.1124728586670535 -0.48406595427175642 0 0.12042562725185831 -0.49999999999999989 0 0.1124728586670535 -0.48406595427175642 0 0.12432460327697011 -0.47341498538026422 0 0.12042562725185831 -0.49999999999999989 0 0.12432460327697011 -0.47341498538026422 0 0.1124728586670535 -0.48406595427175642 0 0.12432460327697011 -0.47341498538026422 0 0.1082250197838846 -0.46311527911574241 0 0.096876661376123455 -0.48080012839020431 0 0.095349939854524335 -0.46404107218864848 0 0.1082250197838846 -0.46311527911574241 0 0.1124728586670535 -0.48406595427175642 0 0.096876661376123455 -0.48080012839020431 0 0.1082250197838846 -0.46311527911574241 0 0.095349939854524335 -0.46404107218864848 0 0.1082250197838846 -0.46311527911574241 0 0.094902830217228867 -0.45064862446823939 0 0.128223579302082 -0.44682997076052833 0 0.12432460327697011 -0.47341498538026422 0 0.1082250197838846 -0.46311527911574241 0 0.128223579302082 -0.44682997076052833 0 0.1069391861142964 -0.44299064961396012 0 0.1159996351348133 -0.43474120747525058 0 0.128223579302082 -0.44682997076052833 0 0.1082250197838846 -0.46311527911574241 0 0.1069391861142964 -0.44299064961396012 0 0.1082250197838846 -0.46311527911574241 0 0.1069391861142964 -0.44299064961396012 0 0.094902830217228867 -0.45064862446823939 0 0.1069391861142964 -0.44299064961396012 0 0.091812697424993442 -0.4386357446441016 0 0.098414951810672224 -0.43233268446502993 0 0.1069391861142964 -0.44299064961396012 0 0.094902830217228867 -0.45064862446823939 0 0.091812697424993442 -0.4386357446441016 0 0.094902830217228867 -0.45064862446823939 0 0.091812697424993442 -0.4386357446441016 0 0.082434724511159588 -0.44537142502386151 0 0.094902830217228867 -0.45064862446823939 0 0.082434724511159588 -0.44537142502386151 0 0.081395248040860374 -0.46160025678040811 0 0.091812697424993442 -0.4386357446441016 0 0.082434724511159588 -0.44537142502386151 0 0.078149012167117934 -0.43357211405594609 0 0.095349939854524335 -0.46404107218864848 0 0.094902830217228867 -0.45064862446823939 0 0.081395248040860374 -0.46160025678040811 0 0.067447632246636219 -0.45716428258124142 0 0.065913834705597293 -0.44240038517061198 0 0.057068655694905858 -0.46015288389510001 0 0.067447632246636219 -0.45716428258124142 0 0.05849497948899289 -0.47642287528831911 0 0.067807169338226503 -0.47162472659107291 0 0.067447632246636219 -0.45716428258124142 0 0.061758178687080389 -0.47580514524370598 0 0.081395248040860374 -0.46160025678040811 0 0.067447632246636219 -0.45716428258124142 0 0.065913834705597293 -0.44240038517061198 0 0.073180054077148754 -0.46968413697177741 0 0.081395248040860374 -0.46160025678040811 0 0.067447632246636219 -0.45716428258124142 0 0.067807169338226503 -0.47162472659107291 0 0.073180054077148754 -0.46968413697177741 0 0.067447632246636219 -0.45716428258124142 0 0.081395248040860374 -0.46160025678040811 0 0.065913834705597293 -0.44240038517061198 0 0.082434724511159588 -0.44537142502386151 0 0.081395248040860374 -0.46160025678040811 0 0.065913834705597293 -0.44240038517061198 0 0.082434724511159588 -0.44537142502386151 0 0.065913834705597293 -0.44240038517061198 0 0.078149012167117934 -0.43357211405594609 0 0.065921365320016911 -0.4273577277455588 0 0.073982485551444349 -0.42005290588181732 0 0.078149012167117934 -0.43357211405594609 0 0.065913834705597293 -0.44240038517061198 0 0.065921365320016911 -0.4273577277455588 0 0.078149012167117934 -0.43357211405594609 0 0.073982485551444349 -0.42005290588181732 0 0.069775570718114244 -0.40426700169235308 0 0.060774245729122177 -0.41691050055794487 0 0.065921365320016911 -0.4273577277455588 0 0.073982485551444349 -0.42005290588181732 0 0.060774245729122177 -0.41691050055794487 0 0.073982485551444349 -0.42005290588181732 0 0.086447448161059384 -0.41120764722282821 0 0.069775570718114244 -0.40426700169235308 0 0.073982485551444349 -0.42005290588181732 0 0.086447448161059384 -0.41120764722282821 0 0.088692331433278357 -0.42535053834926723 0 0.086447448161059384 -0.41120764722282821 0 0.093827427438274241 -0.41775801958915132 0 0.099702730965631758 -0.41290181884877419 0 0.086447448161059384 -0.41120764722282821 0 0.088692331433278357 -0.42535053834926723 0 0.093827427438274241 -0.41775801958915132 0 0.088692331433278357 -0.42535053834926723 0 0.097645949564215143 -0.42435504664253748 0 0.093827427438274241 -0.41775801958915132 0 0.073982485551444349 -0.42005290588181732 0 0.088692331433278357 -0.42535053834926723 0 0.078149012167117934 -0.43357211405594609 0 0.091812697424993442 -0.4386357446441016 0 0.088692331433278357 -0.42535053834926723 0 0.078149012167117934 -0.43357211405594609 0 0.091812697424993442 -0.4386357446441016 0 0.088692331433278357 -0.42535053834926723 0 0.098414951810672224 -0.43233268446502993 0 0.098414951810672224 -0.43233268446502993 0 0.097645949564215143 -0.42435504664253748 0 0.1061961683754654 -0.43004895598907111 0 0.088692331433278357 -0.42535053834926723 0 0.098414951810672224 -0.43233268446502993 0 0.097645949564215143 -0.42435504664253748 0 0.1061961683754654 -0.43004895598907111 0 0.11152958735588871 -0.42539382439527612 0 0.1045809803654715 -0.42051706085107571 0 0.097645949564215143 -0.42435504664253748 0 0.1061961683754654 -0.43004895598907111 0 0.1045809803654715 -0.42051706085107571 0 0.1069391861142964 -0.44299064961396012 0 0.098414951810672224 -0.43233268446502993 0 0.1061961683754654 -0.43004895598907111 0 0.1061961683754654 -0.43004895598907111 0 0.1159996351348133 -0.43474120747525058 0 0.11152958735588871 -0.42539382439527612 0 0.13212255532719441 -0.42024495614079282 0 0.1159996351348133 -0.43474120747525058 0 0.11851153239627241 -0.42275952171654291 0 0.1069391861142964 -0.44299064961396012 0 0.1061961683754654 -0.43004895598907111 0 0.1159996351348133 -0.43474120747525058 0 0.1159996351348133 -0.43474120747525058 0 0.11152958735588871 -0.42539382439527612 0 0.11851153239627241 -0.42275952171654291 0 0.11152958735588871 -0.42539382439527612 0 0.11851153239627241 -0.42275952171654291 0 0.1123596205074209 -0.41890237594444008 0 0.1250254850364893 -0.40936224001308058 0 0.117866085899093 -0.41583132647739651 0 0.1096180349996463 -0.41151587164058129 0 0.1250254850364893 -0.40936224001308058 0 0.1096180349996463 -0.41151587164058129 0 0.13212255532719441 -0.42024495614079282 0 0.11851153239627241 -0.42275952171654291 0 0.117866085899093 -0.41583132647739651 0 0.117866085899093 -0.41583132647739651 0 0.1123596205074209 -0.41890237594444008 0 0.1096180349996463 -0.41151587164058129 0 0.11851153239627241 -0.42275952171654291 0 0.117866085899093 -0.41583132647739651 0 0.1123596205074209 -0.41890237594444008 0 0.11152958735588871 -0.42539382439527612 0 0.1123596205074209 -0.41890237594444008 0 0.1045809803654715 -0.42051706085107571 0 0.1123596205074209 -0.41890237594444008 0 0.1096180349996463 -0.41151587164058129 0 0.1065506547415149 -0.41613106226330793 0 0.1096180349996463 -0.41151587164058129 0 0.1065506547415149 -0.41613106226330793 0 0.099702730965631758 -0.41290181884877419 0 0.1096180349996463 -0.41151587164058129 0 0.099702730965631758 -0.41290181884877419 0 0.1096180349996463 -0.41151587164058129 0 0.099702730965631758 -0.41290181884877419 0 0.1041447551606165 -0.40305668800175581 0 0.1123596205074209 -0.41890237594444008 0 0.1065506547415149 -0.41613106226330793 0 0.1045809803654715 -0.42051706085107571 0 0.1065506547415149 -0.41613106226330793 0 0.1045809803654715 -0.42051706085107571 0 0.099702730965631758 -0.41290181884877419 0 0.1045809803654715 -0.42051706085107571 0 0.093827427438274241 -0.41775801958915132 0 0.099702730965631758 -0.41290181884877419 0 0.097645949564215143 -0.42435504664253748 0 0.1045809803654715 -0.42051706085107571 0 0.093827427438274241 -0.41775801958915132 0 0.086447448161059384 -0.41120764722282821 0 0.099702730965631758 -0.41290181884877419 0 0.095691580682652475 -0.39908469234235189 0 0.095691580682652475 -0.39908469234235189 0 0.1041447551606165 -0.40305668800175581 0 0.1115666739945345 -0.38872436917531578 0 0.099702730965631758 -0.41290181884877419 0 0.095691580682652475 -0.39908469234235189 0 0.1041447551606165 -0.40305668800175581 0 0.1096180349996463 -0.41151587164058129 0 0.1041447551606165 -0.40305668800175581 0 0.1115666739945345 -0.38872436917531578 0 0.1250254850364893 -0.40936224001308058 0 0.1115666739945345 -0.38872436917531578 0 0.1096180349996463 -0.41151587164058129 0 0.1115666739945345 -0.38872436917531578 0 0.1250254850364893 -0.40936224001308058 0 0.1096180349996463 -0.41151587164058129 0 0.1115666739945345 -0.38872436917531578 0 0.12645644117523869 -0.39722706905544619 0 0.1250254850364893 -0.40936224001308058 0 0.1115666739945345 -0.38872436917531578 0 0.12609635470998201 -0.38402791619100712 0 0.1115666739945345 -0.38872436917531578 0 0.113745377556003 -0.36324200547299851 0 0.1115666739945345 -0.38872436917531578 0 0.113745377556003 -0.36324200547299851 0 0.12609635470998201 -0.38402791619100712 0 0.12645644117523869 -0.39722706905544619 0 0.1115666739945345 -0.38872436917531578 0 0.1115666739945345 -0.38872436917531578 0 0.096372132326470572 -0.36542491223168638 0 0.1115666739945345 -0.38872436917531578 0 0.089853218628298884 -0.38394717958202601 0 0.096372132326470572 -0.36542491223168638 0 0.095691580682652475 -0.39908469234235189 0 0.1115666739945345 -0.38872436917531578 0 0.089853218628298884 -0.38394717958202601 0 0.089853218628298884 -0.38394717958202601 0 0.082924844884061683 -0.39714926844771359 0 0.072939106935086151 -0.38728773006234168 0 0.089853218628298884 -0.38394717958202601 0 0.072939106935086151 -0.38728773006234168 0 0.07582030708563034 -0.37256671738353597 0 0.095691580682652475 -0.39908469234235189 0 0.089853218628298884 -0.38394717958202601 0 0.082924844884061683 -0.39714926844771359 0 0.086447448161059384 -0.41120764722282821 0 0.082924844884061683 -0.39714926844771359 0 0.069775570718114244 -0.40426700169235308 0 0.086447448161059384 -0.41120764722282821 0 0.095691580682652475 -0.39908469234235189 0 0.082924844884061683 -0.39714926844771359 0 0.069775570718114244 -0.40426700169235308 0 0.072939106935086151 -0.38728773006234168 0 0.058313699768321348 -0.39007371912844929 0 0.082924844884061683 -0.39714926844771359 0 0.069775570718114244 -0.40426700169235308 0 0.072939106935086151 -0.38728773006234168 0 0.072939106935086151 -0.38728773006234168 0 0.05933500968155693 -0.37671477575793533 0 0.058313699768321348 -0.39007371912844929 0 0.072939106935086151 -0.38728773006234168 0 0.05933500968155693 -0.37671477575793533 0 0.07582030708563034 -0.37256671738353597 0 0.05933500968155693 -0.37671477575793533 0 0.043300396670470892 -0.38581293046691678 0 0.039079294002052851 -0.37065651216905859 0 0.05933500968155693 -0.37671477575793533 0 0.058313699768321348 -0.39007371912844929 0 0.043300396670470892 -0.38581293046691678 0 0.058313699768321348 -0.39007371912844929 0 0.0466875803122518 -0.39705513158652528 0 0.054373060569327003 -0.40663711634463268 0 0.069775570718114244 -0.40426700169235308 0 0.058313699768321348 -0.39007371912844929 0 0.054373060569327003 -0.40663711634463268 0 0.058313699768321348 -0.39007371912844929 0 0.054373060569327003 -0.40663711634463268 0 0.0466875803122518 -0.39705513158652528 0 0.042121557959679479 -0.40689397827368962 0 0.054373060569327003 -0.40663711634463268 0 0.058313699768321348 -0.39007371912844929 0 0.0466875803122518 -0.39705513158652528 0 0.043300396670470892 -0.38581293046691678 0 0.0466875803122518 -0.39705513158652528 0 0.032645317368698572 -0.39721328630736241 0 0.043300396670470892 -0.38581293046691678 0 0.0466875803122518 -0.39705513158652528 0 0.032645317368698572 -0.39721328630736241 0 0.042121557959679479 -0.40689397827368962 0 0.032645317368698572 -0.39721328630736241 0 0.043300396670470892 -0.38581293046691678 0 0.025542853711361019 -0.38384675294920401 0 0.043300396670470892 -0.38581293046691678 0 0.025542853711361019 -0.38384675294920401 0 0.039079294002052851 -0.37065651216905859 0 0.025542853711361019 -0.38384675294920401 0 0.009690974369139977 -0.39295199195252922 0 0.016784443680880379 -0.36713146693108112 0 -0.0064694903547723136 -0.38059021958606692 0 0.009690974369139977 -0.39295199195252922 0 0.016784443680880379 -0.36713146693108112 0 0.032645317368698572 -0.39721328630736241 0 0.009690974369139977 -0.39295199195252922 0 0.030062121183744069 -0.41560348860952728 0 0.032645317368698572 -0.39721328630736241 0 0.025542853711361019 -0.38384675294920401 0 0.009690974369139977 -0.39295199195252922 0 0.009690974369139977 -0.39295199195252922 0 0.030062121183744069 -0.41560348860952728 0 0.01224976062295041 -0.42183763890738629 0 -0.0080625817845775948 -0.40608726553411861 0 0.009690974369139977 -0.39295199195252922 0 0.01224976062295041 -0.42183763890738629 0 0.009690974369139977 -0.39295199195252922 0 0.01224976062295041 -0.42183763890738629 0 0.01224976062295041 -0.42183763890738629 0 0.01480854687676085 -0.45072328586224342 0 0.030062121183744069 -0.41560348860952728 0 0.01224976062295041 -0.42183763890738629 0 0.028535899264767479 -0.43733174884408438 0 0.01224976062295041 -0.42183763890738629 0 0.028535899264767479 -0.43733174884408438 0 0.01480854687676085 -0.45072328586224342 0 0.030062121183744069 -0.41560348860952728 0 0.028535899264767479 -0.43733174884408438 0 0.039909128579099777 -0.42893709763038412 0 0.039909128579099777 -0.42893709763038412 0 0.050432421370333713 -0.42320051356081623 0 0.04400553312424714 -0.45021417746364167 0 0.039909128579099777 -0.42893709763038412 0 0.046509667952406512 -0.41833555967385072 0 0.050432421370333713 -0.42320051356081623 0 0.032645317368698572 -0.39721328630736241 0 0.030062121183744069 -0.41560348860952728 0 0.042121557959679479 -0.40689397827368962 0 0.030062121183744069 -0.41560348860952728 0 0.039909128579099777 -0.42893709763038412 0 0.046509667952406512 -0.41833555967385072 0 0.030062121183744069 -0.41560348860952728 0 0.042121557959679479 -0.40689397827368962 0 0.046509667952406512 -0.41833555967385072 0 0.054373060569327003 -0.40663711634463268 0 0.050432421370333713 -0.42320051356081623 0 0.046509667952406512 -0.41833555967385072 0 0.054373060569327003 -0.40663711634463268 0 0.050432421370333713 -0.42320051356081623 0 0.054373060569327003 -0.40663711634463268 0 0.060774245729122177 -0.41691050055794487 0 0.050432421370333713 -0.42320051356081623 0 0.046509667952406512 -0.41833555967385072 0 0.050432421370333713 -0.42320051356081623 0 0.042121557959679479 -0.40689397827368962 0 0.046509667952406512 -0.41833555967385072 0 0.054373060569327003 -0.40663711634463268 0 0.069775570718114244 -0.40426700169235308 0 0.054373060569327003 -0.40663711634463268 0 0.060774245729122177 -0.41691050055794487 0 0.050432421370333713 -0.42320051356081623 0 0.04400553312424714 -0.45021417746364167 0 0.065913834705597293 -0.44240038517061198 0 0.050432421370333713 -0.42320051356081623 0 0.065913834705597293 -0.44240038517061198 0 0.065921365320016911 -0.4273577277455588 0 0.050432421370333713 -0.42320051356081623 0 0.065921365320016911 -0.4273577277455588 0 0.060774245729122177 -0.41691050055794487 0 0.050432421370333713 -0.42320051356081623 0 0.065913834705597293 -0.44240038517061198 0 0.050432421370333713 -0.42320051356081623 0 0.04400553312424714 -0.45021417746364167 0 0.065913834705597293 -0.44240038517061198 0 0.057068655694905858 -0.46015288389510001 0 0.04400553312424714 -0.45021417746364167 0 0.057068655694905858 -0.46015288389510001 0 0.048043393468649283 -0.46676160836513853 0 0.04400553312424714 -0.45021417746364167 0 0.067447632246636219 -0.45716428258124142 0 0.057068655694905858 -0.46015288389510001 0 0.05849497948899289 -0.47642287528831911 0 0.057068655694905858 -0.46015288389510001 0 0.048043393468649283 -0.46676160836513853 0 0.052635520687858477 -0.47072247146996382 0 0.04400553312424714 -0.45021417746364167 0 0.037578644878161642 -0.47722784136646751 0 0.048043393468649283 -0.46676160836513853 0 0.04400553312424714 -0.45021417746364167 0 0.037578644878161642 -0.47722784136646751 0 0.04400553312424714 -0.45021417746364167 0 0.030366658319331299 -0.45781827645911538 0 0.037578644878161642 -0.47722784136646751 0 0.028535899264767479 -0.43733174884408438 0 0.039909128579099777 -0.42893709763038412 0 0.04400553312424714 -0.45021417746364167 0 0.028535899264767479 -0.43733174884408438 0 0.04400553312424714 -0.45021417746364167 0 0.030366658319331299 -0.45781827645911538 0 0.028535899264767479 -0.43733174884408438 0 0.01480854687676085 -0.45072328586224342 0 0.030366658319331299 -0.45781827645911538 0 -0.008216644178786571 -0.4466179140804285 0 0.01224976062295041 -0.42183763890738629 0 0.01480854687676085 -0.45072328586224342 0 0.01480854687676085 -0.45072328586224342 0 0.017367333130571299 -0.47960893281710049 0 0.0084119176919832291 -0.471974008478943 0 -0.0021957942935651631 -0.46571035637089769 0 0.01480854687676085 -0.45072328586224342 0 0.0084119176919832291 -0.471974008478943 0 -0.008216644178786571 -0.4466179140804285 0 -0.0021957942935651631 -0.46571035637089769 0 0.01480854687676085 -0.45072328586224342 0 0.01480854687676085 -0.45072328586224342 0 0.017367333130571299 -0.47960893281710049 0 0.01480854687676085 -0.45072328586224342 0 0.030366658319331299 -0.45781827645911538 0 0.0269046674527194 -0.47359432875914009 0 0.01480854687676085 -0.45072328586224342 0 0.0269046674527194 -0.47359432875914009 0 0.017367333130571299 -0.47960893281710049 0 0.017367333130571299 -0.47960893281710049 0 0.012735562036971701 -0.48508522326900949 0 0.035615270762982369 -0.48075404927866472 0 0.012735562036971701 -0.48508522326900949 0 0.035615270762982369 -0.48075404927866472 0 0.0269046674527194 -0.47359432875914009 0 0.017367333130571299 -0.47960893281710049 0 0.035615270762982369 -0.48075404927866472 0 0.017367333130571299 -0.47960893281710049 0 0.0084119176919832291 -0.471974008478943 0 0.012735562036971701 -0.48508522326900949 0 -0.00065605929082254884 -0.47874224407546379 0 0.0084119176919832291 -0.471974008478943 0 0.012735562036971701 -0.48508522326900949 0 -0.0021957942935651631 -0.46571035637089769 0 -0.00065605929082254884 -0.47874224407546379 0 0.0084119176919832291 -0.471974008478943 0 -0.010144146689038991 -0.48941639725935437 0 -0.00065605929082254884 -0.47874224407546379 0 0.012735562036971701 -0.48508522326900949 0 -0.010144146689038991 -0.48941639725935437 0 0.012735562036971701 -0.48508522326900949 0 -0.011489863113854141 -0.5 0 0.012735562036971701 -0.48508522326900949 0 0.01802246382714956 -0.5 0 0.01802246382714956 -0.5 0 0.025329369399590369 -0.48901546815995378 0 0.047534790768153173 -0.50000000000000044 0 0.012735562036971701 -0.48508522326900949 0 0.025329369399590369 -0.48901546815995378 0 0.035615270762982369 -0.48075404927866472 0 0.012735562036971701 -0.48508522326900949 0 0.01802246382714956 -0.5 0 0.025329369399590369 -0.48901546815995378 0 0.025329369399590369 -0.48901546815995378 0 0.035615270762982369 -0.48075404927866472 0 0.047534790768153173 -0.50000000000000044 0 0.030366658319331299 -0.45781827645911538 0 0.0269046674527194 -0.47359432875914009 0 0.037578644878161642 -0.47722784136646751 0 0.0269046674527194 -0.47359432875914009 0 0.037578644878161642 -0.47722784136646751 0 0.035615270762982369 -0.48075404927866472 0 0.048043393468649283 -0.46676160836513853 0 0.037578644878161642 -0.47722784136646751 0 0.046296380844488463 -0.47463440362945558 0 0.035615270762982369 -0.48075404927866472 0 0.046296380844488463 -0.47463440362945558 0 0.049693011087844949 -0.4756354888466594 0 0.037578644878161642 -0.47722784136646751 0 0.035615270762982369 -0.48075404927866472 0 0.046296380844488463 -0.47463440362945558 0 0.057068655694905858 -0.46015288389510001 0 0.052635520687858477 -0.47072247146996382 0 0.05849497948899289 -0.47642287528831911 0 0.035615270762982369 -0.48075404927866472 0 0.049693011087844949 -0.4756354888466594 0 0.05849497948899289 -0.47642287528831911 0 0.035615270762982369 -0.48075404927866472 0 0.05849497948899289 -0.47642287528831911 0 0.048043393468649283 -0.46676160836513853 0 0.046296380844488463 -0.47463440362945558 0 0.052635520687858477 -0.47072247146996382 0 0.049693011087844949 -0.4756354888466594 0 0.052635520687858477 -0.47072247146996382 0 0.05849497948899289 -0.47642287528831911 0 0.046296380844488463 -0.47463440362945558 0 0.049693011087844949 -0.4756354888466594 0 0.052635520687858477 -0.47072247146996382 0 0.05849497948899289 -0.47642287528831911 0 0.061758178687080389 -0.47580514524370598 0 0.062670741706174135 -0.48944359682069549 0 0.064881374578912687 -0.4815757870058418 0 0.05849497948899289 -0.47642287528831911 0 0.064881374578912687 -0.4815757870058418 0 0.05849497948899289 -0.47642287528831911 0 0.061758178687080389 -0.47580514524370598 0 0.069142552082564368 -0.5 0 0.062670741706174135 -0.48944359682069549 0 0.047534790768153173 -0.50000000000000044 0 0.05849497948899289 -0.47642287528831911 0 0.047534790768153173 -0.50000000000000044 0 0.035615270762982369 -0.48075404927866472 0 0.05849497948899289 -0.47642287528831911 0 0.047534790768153173 -0.50000000000000044 0 0.062670741706174135 -0.48944359682069549 0 0.05849497948899289 -0.47642287528831911 0 0.047534790768153173 -0.50000000000000044 0 0.089727975817252392 -0.29646224842349211 0 0.069967983226982527 -0.30495776272600778 0 0.075483032258224086 -0.28815868119130272 0 0.089727975817252392 -0.29646224842349211 0 0.088503230311337153 -0.27716835087377989 0 0.101883582619993 -0.28460947857741209 0 0.089727975817252392 -0.29646224842349211 0 0.075483032258224086 -0.28815868119130272 0 0.088503230311337153 -0.27716835087377989 0 0.089727975817252392 -0.29646224842349211 0 0.086214248119208581 -0.31193359067875348 0 0.069967983226982527 -0.30495776272600778 0 0.089727975817252392 -0.29646224842349211 0 0.086214248119208581 -0.31193359067875348 0 0.10049372866807189 -0.31082656242210721 0 0.069967983226982527 -0.30495776272600778 0 0.075483032258224086 -0.28815868119130272 0 0.059449054433483903 -0.28956707473318272 0 0.075483032258224086 -0.28815868119130272 0 0.0646939085167762 -0.2722383315448984 0 0.059449054433483903 -0.28956707473318272 0 0.0646939085167762 -0.2722383315448984 0 0.077350866508299074 -0.27549126298099152 0 0.080723294946858856 -0.26439968831398508 0 0.075483032258224086 -0.28815868119130272 0 0.0646939085167762 -0.2722383315448984 0 0.077350866508299074 -0.27549126298099152 0 0.0646939085167762 -0.2722383315448984 0 0.070005134957367529 -0.25889031236374099 0 0.080723294946858856 -0.26439968831398508 0 0.070005134957367529 -0.25889031236374099 0 0.061490933840310687 -0.25382890142296882 0 0.070069103552599196 -0.24823964670048029 0 0.0646939085167762 -0.2722383315448984 0 0.070005134957367529 -0.25889031236374099 0 0.060614126731859473 -0.2624009925450973 0 0.070005134957367529 -0.25889031236374099 0 0.061490933840310687 -0.25382890142296882 0 0.060614126731859473 -0.2624009925450973 0 0.070005134957367529 -0.25889031236374099 0 0.080071368274292315 -0.25145738896057979 0 0.080723294946858856 -0.26439968831398508 0 0.070005134957367529 -0.25889031236374099 0 0.080071368274292315 -0.25145738896057979 0 0.070069103552599196 -0.24823964670048029 0 0.080071368274292315 -0.25145738896057979 0 0.080723294946858856 -0.26439968831398508 0 0.090706365013478091 -0.25245448435890872 0 0.080723294946858856 -0.26439968831398508 0 0.090706365013478091 -0.25245448435890872 0 0.095060577752172304 -0.26241188567384149 0 0.075483032258224086 -0.28815868119130272 0 0.077350866508299074 -0.27549126298099152 0 0.088503230311337153 -0.27716835087377989 0 0.077350866508299074 -0.27549126298099152 0 0.080723294946858856 -0.26439968831398508 0 0.088503230311337153 -0.27716835087377989 0 0.080723294946858856 -0.26439968831398508 0 0.088503230311337153 -0.27716835087377989 0 0.095060577752172304 -0.26241188567384149 0 0.088503230311337153 -0.27716835087377989 0 0.1016952336099234 -0.27235330725820578 0 0.101883582619993 -0.28460947857741209 0 0.088503230311337153 -0.27716835087377989 0 0.1016952336099234 -0.27235330725820578 0 0.095060577752172304 -0.26241188567384149 0 0.1016952336099234 -0.27235330725820578 0 0.1104739380917857 -0.2612093749811526 0 0.1125548392743288 -0.27636744618484282 0 0.1016952336099234 -0.27235330725820578 0 0.1125548392743288 -0.27636744618484282 0 0.101883582619993 -0.28460947857741209 0 0.090706365013478091 -0.25245448435890872 0 0.099550463170151926 -0.25262580003909579 0 0.095060577752172304 -0.26241188567384149 0 0.1016952336099234 -0.27235330725820578 0 0.095060577752172304 -0.26241188567384149 0 0.1104739380917857 -0.2612093749811526 0 0.099550463170151926 -0.25262580003909579 0 0.095060577752172304 -0.26241188567384149 0 0.1104739380917857 -0.2612093749811526 0 0.099550463170151926 -0.25262580003909579 0 0.1104739380917857 -0.2612093749811526 0 0.1078238037173969 -0.24832262031645649 0 0.1311170075682456 -0.27142576198599933 0 0.1104739380917857 -0.2612093749811526 0 0.1212054647883809 -0.25073068226796852 0 0.1104739380917857 -0.2612093749811526 0 0.1212054647883809 -0.25073068226796852 0 0.1078238037173969 -0.24832262031645649 0 0.1311170075682456 -0.27142576198599933 0 0.1104739380917857 -0.2612093749811526 0 0.1311170075682456 -0.27142576198599933 0 0.1104739380917857 -0.2612093749811526 0 0.1193620271946058 -0.27249351692823448 0 0.1104739380917857 -0.2612093749811526 0 0.1125548392743288 -0.27636744618484282 0 0.1193620271946058 -0.27249351692823448 0 0.1125548392743288 -0.27636744618484282 0 0.1193620271946058 -0.27249351692823448 0 0.1233023238440631 -0.28097148456094378 0 0.1311170075682456 -0.27142576198599933 0 0.1193620271946058 -0.27249351692823448 0 0.1233023238440631 -0.28097148456094378 0 0.1233023238440631 -0.28097148456094378 0 0.1242383748246253 -0.29131174999725179 0 0.1141297936923768 -0.28878453930630188 0 0.1242383748246253 -0.29131174999725179 0 0.1141297936923768 -0.28878453930630188 0 0.1198701537204314 -0.30089140532399938 0 0.1141297936923768 -0.28878453930630188 0 0.10622170970645189 -0.29895353846799488 0 0.1198701537204314 -0.30089140532399938 0 0.1125548392743288 -0.27636744618484282 0 0.1233023238440631 -0.28097148456094378 0 0.1141297936923768 -0.28878453930630188 0 0.1125548392743288 -0.27636744618484282 0 0.1141297936923768 -0.28878453930630188 0 0.101883582619993 -0.28460947857741209 0 0.089727975817252392 -0.29646224842349211 0 0.101883582619993 -0.28460947857741209 0 0.10622170970645189 -0.29895353846799488 0 0.1141297936923768 -0.28878453930630188 0 0.101883582619993 -0.28460947857741209 0 0.10622170970645189 -0.29895353846799488 0 0.089727975817252392 -0.29646224842349211 0 0.10049372866807189 -0.31082656242210721 0 0.10622170970645189 -0.29895353846799488 0 0.10049372866807189 -0.31082656242210721 0 0.10622170970645189 -0.29895353846799488 0 0.1134387524627216 -0.31086840579325631 0 0.10622170970645189 -0.29895353846799488 0 0.1134387524627216 -0.31086840579325631 0 0.1198701537204314 -0.30089140532399938 0 0.1265219532001009 -0.3124330460259736 0 0.1134387524627216 -0.31086840579325631 0 0.1198701537204314 -0.30089140532399938 0 0.1265219532001009 -0.3124330460259736 0 0.1134387524627216 -0.31086840579325631 0 0.1192961391526948 -0.32261879728377291 0 0.1134387524627216 -0.31086840579325631 0 0.1192961391526948 -0.32261879728377291 0 0.1082288303285789 -0.31948708523568958 0 0.1192961391526948 -0.32261879728377291 0 0.1093748658769356 -0.32997486192450581 0 0.1082288303285789 -0.31948708523568958 0 0.1192961391526948 -0.32261879728377291 0 0.1168506625355451 -0.3296807312869221 0 0.1093748658769356 -0.32997486192450581 0 0.1192961391526948 -0.32261879728377291 0 0.12260601330919629 -0.33072698382653798 0 0.1168506625355451 -0.3296807312869221 0 0.13219802669416811 -0.32498852212276208 0 0.1192961391526948 -0.32261879728377291 0 0.12260601330919629 -0.33072698382653798 0 0.13051916655351839 -0.33696304048325831 0 0.12260601330919629 -0.33072698382653798 0 0.1159240811174677 -0.33775964177068091 0 0.12260601330919629 -0.33072698382653798 0 0.1159240811174677 -0.33775964177068091 0 0.1161256318033537 -0.33540228211287182 0 0.12260601330919629 -0.33072698382653798 0 0.1168506625355451 -0.3296807312869221 0 0.1161256318033537 -0.33540228211287182 0 0.13051916655351839 -0.33696304048325831 0 0.1159240811174677 -0.33775964177068091 0 0.13051916655351839 -0.33696304048325831 0 0.1159240811174677 -0.33775964177068091 0 0.123981461538115 -0.35128285539313481 0 0.1159240811174677 -0.33775964177068091 0 0.1161256318033537 -0.33540228211287182 0 0.1168506625355451 -0.3296807312869221 0 0.1161256318033537 -0.33540228211287182 0 0.1093748658769356 -0.32997486192450581 0 0.1159240811174677 -0.33775964177068091 0 0.1161256318033537 -0.33540228211287182 0 0.1093748658769356 -0.32997486192450581 0 0.1159240811174677 -0.33775964177068091 0 0.092335912071574502 -0.33904708650077298 0 0.1159240811174677 -0.33775964177068091 0 0.1093748658769356 -0.32997486192450581 0 0.092335912071574502 -0.33904708650077298 0 0.1093748658769356 -0.32997486192450581 0 0.096347407600029022 -0.32440529872184809 0 0.092335912071574502 -0.33904708650077298 0 0.1159240811174677 -0.33775964177068091 0 0.10211321446004019 -0.35101158716873732 0 0.092335912071574502 -0.33904708650077298 0 0.086214248119208581 -0.31193359067875348 0 0.10049372866807189 -0.31082656242210721 0 0.096347407600029022 -0.32440529872184809 0 0.10049372866807189 -0.31082656242210721 0 0.1134387524627216 -0.31086840579325631 0 0.1082288303285789 -0.31948708523568958 0 0.10049372866807189 -0.31082656242210721 0 0.096347407600029022 -0.32440529872184809 0 0.1082288303285789 -0.31948708523568958 0 0.1093748658769356 -0.32997486192450581 0 0.096347407600029022 -0.32440529872184809 0 0.1082288303285789 -0.31948708523568958 0 0.12784456261830821 -0.36308533366748658 0 0.12609635470998201 -0.38402791619100712 0 0.113745377556003 -0.36324200547299851 0 0.1159240811174677 -0.33775964177068091 0 0.113745377556003 -0.36324200547299851 0 0.123981461538115 -0.35128285539313481 0 0.1159240811174677 -0.33775964177068091 0 0.113745377556003 -0.36324200547299851 0 0.1159240811174677 -0.33775964177068091 0 0.113745377556003 -0.36324200547299851 0 0.10211321446004019 -0.35101158716873732 0 0.12784456261830821 -0.36308533366748658 0 0.113745377556003 -0.36324200547299851 0 0.123981461538115 -0.35128285539313481 0 0.1115666739945345 -0.38872436917531578 0 0.113745377556003 -0.36324200547299851 0 0.096372132326470572 -0.36542491223168638 0 0.113745377556003 -0.36324200547299851 0 0.10211321446004019 -0.35101158716873732 0 0.096372132326470572 -0.36542491223168638 0 0.089853218628298884 -0.38394717958202601 0 0.096372132326470572 -0.36542491223168638 0 0.07582030708563034 -0.37256671738353597 0 0.096372132326470572 -0.36542491223168638 0 0.082110249222110576 -0.35466523699539548 0 0.07582030708563034 -0.37256671738353597 0 0.10211321446004019 -0.35101158716873732 0 0.096372132326470572 -0.36542491223168638 0 0.082110249222110576 -0.35466523699539548 0 0.082110249222110576 -0.35466523699539548 0 0.092335912071574502 -0.33904708650077298 0 0.068747743025681235 -0.34033453123086538 0 0.10211321446004019 -0.35101158716873732 0 0.082110249222110576 -0.35466523699539548 0 0.092335912071574502 -0.33904708650077298 0 0.082110249222110576 -0.35466523699539548 0 0.068747743025681235 -0.34033453123086538 0 0.057272186363266697 -0.35960658745677498 0 0.082110249222110576 -0.35466523699539548 0 0.07582030708563034 -0.37256671738353597 0 0.057272186363266697 -0.35960658745677498 0 0.05933500968155693 -0.37671477575793533 0 0.07582030708563034 -0.37256671738353597 0 0.057272186363266697 -0.35960658745677498 0 0.086214248119208581 -0.31193359067875348 0 0.096347407600029022 -0.32440529872184809 0 0.078030795921920637 -0.32434601069550512 0 0.092335912071574502 -0.33904708650077298 0 0.068747743025681235 -0.34033453123086538 0 0.078030795921920637 -0.32434601069550512 0 0.092335912071574502 -0.33904708650077298 0 0.068747743025681235 -0.34033453123086538 0 0.096347407600029022 -0.32440529872184809 0 0.092335912071574502 -0.33904708650077298 0 0.078030795921920637 -0.32434601069550512 0 0.068747743025681235 -0.34033453123086538 0 0.078030795921920637 -0.32434601069550512 0 0.053863538987460123 -0.3232816795844588 0 0.069967983226982527 -0.30495776272600778 0 0.078030795921920637 -0.32434601069550512 0 0.053863538987460123 -0.3232816795844588 0 0.086214248119208581 -0.31193359067875348 0 0.069967983226982527 -0.30495776272600778 0 0.078030795921920637 -0.32434601069550512 0 0.068747743025681235 -0.34033453123086538 0 0.045159573979787898 -0.34162197596095778 0 0.068747743025681235 -0.34033453123086538 0 0.053863538987460123 -0.3232816795844588 0 0.045159573979787898 -0.34162197596095778 0 0.053863538987460123 -0.3232816795844588 0 0.034832013842728909 -0.33032259781876938 0 0.045159573979787898 -0.34162197596095778 0 0.034832013842728909 -0.33032259781876938 0 0.045159573979787898 -0.34162197596095778 0 0.02157140493389462 -0.34290942069105018 0 0.045159573979787898 -0.34162197596095778 0 0.02157140493389462 -0.34290942069105018 0 0.053863538987460123 -0.3232816795844588 0 0.034832013842728909 -0.33032259781876938 0 0.03621734991660093 -0.31670946998547028 0 0.053863538987460123 -0.3232816795844588 0 0.03621734991660093 -0.31670946998547028 0 0.048768037075517537 -0.30442990221103089 0 0.05933500968155693 -0.37671477575793533 0 0.057272186363266697 -0.35960658745677498 0 0.039079294002052851 -0.37065651216905859 0 0.068747743025681235 -0.34033453123086538 0 0.045159573979787898 -0.34162197596095778 0 0.057272186363266697 -0.35960658745677498 0 0.045159573979787898 -0.34162197596095778 0 0.034512899630155462 -0.3545258348651717 0 0.02157140493389462 -0.34290942069105018 0 0.045159573979787898 -0.34162197596095778 0 0.057272186363266697 -0.35960658745677498 0 0.034512899630155462 -0.3545258348651717 0 0.057272186363266697 -0.35960658745677498 0 0.034512899630155462 -0.3545258348651717 0 0.039079294002052851 -0.37065651216905859 0 0.025542853711361019 -0.38384675294920401 0 0.039079294002052851 -0.37065651216905859 0 0.016784443680880379 -0.36713146693108112 0 0.034512899630155462 -0.3545258348651717 0 0.039079294002052851 -0.37065651216905859 0 0.016784443680880379 -0.36713146693108112 0 0.034512899630155462 -0.3545258348651717 0 0.016784443680880379 -0.36713146693108112 0 0.02157140493389462 -0.34290942069105018 0 -0.0043130761299947744 -0.35643483176966217 0 0.016784443680880379 -0.36713146693108112 0 0.02157140493389462 -0.34290942069105018 0 -0.0038616663111063101 -0.33241552487502413 0 -0.0043130761299947744 -0.35643483176966217 0 0.02157140493389462 -0.34290942069105018 0 -0.0043130761299947744 -0.35643483176966217 0 -0.0064694903547723136 -0.38059021958606692 0 0.016784443680880379 -0.36713146693108112 0 0.03621734991660093 -0.31670946998547028 0 0.020048637459846991 -0.32439583124448262 0 0.029165048793799431 -0.30349547286963757 0 0.034832013842728909 -0.33032259781876938 0 0.03621734991660093 -0.31670946998547028 0 0.020048637459846991 -0.32439583124448262 0 0.020048637459846991 -0.32439583124448262 0 0.0094652366165251054 -0.31053241408104548 0 0.029165048793799431 -0.30349547286963757 0 0.034832013842728909 -0.33032259781876938 0 0.020048637459846991 -0.32439583124448262 0 0.02157140493389462 -0.34290942069105018 0 -0.0038616663111063101 -0.33241552487502413 0 0.020048637459846991 -0.32439583124448262 0 0.02157140493389462 -0.34290942069105018 0 -0.0038616663111063101 -0.33241552487502413 0 0.020048637459846991 -0.32439583124448262 0 0.0094652366165251054 -0.31053241408104548 0 -0.01007927323019326 -0.3103345258507364 0 0.0094652366165251054 -0.31053241408104548 0 0.0017563221397047381 -0.2997067901486577 0 0.0094652366165251054 -0.31053241408104548 0 0.0017563221397047381 -0.2997067901486577 0 0.017453688627786131 -0.29322190620108468 0 0.0017563221397047381 -0.2997067901486577 0 0.0066437179820165657 -0.2861171845936395 0 0.017453688627786131 -0.29322190620108468 0 -0.0080748459131490501 -0.2914060437848453 0 0.0017563221397047381 -0.2997067901486577 0 0.0066437179820165657 -0.2861171845936395 0 0.0066437179820165657 -0.2861171845936395 0 0.017453688627786131 -0.29322190620108468 0 0.01908241754038794 -0.28073467218482329 0 0.017453688627786131 -0.29322190620108468 0 0.029398966714908509 -0.28692964748338379 0 0.029165048793799431 -0.30349547286963757 0 0.017453688627786131 -0.29322190620108468 0 0.029398966714908509 -0.28692964748338379 0 0.01908241754038794 -0.28073467218482329 0 0.0094652366165251054 -0.31053241408104548 0 0.017453688627786131 -0.29322190620108468 0 0.029165048793799431 -0.30349547286963757 0 0.03621734991660093 -0.31670946998547028 0 0.029165048793799431 -0.30349547286963757 0 0.048768037075517537 -0.30442990221103089 0 0.029165048793799431 -0.30349547286963757 0 0.043029943860180789 -0.28970337243015992 0 0.048768037075517537 -0.30442990221103089 0 0.029398966714908509 -0.28692964748338379 0 0.029165048793799431 -0.30349547286963757 0 0.043029943860180789 -0.28970337243015992 0 0.029398966714908509 -0.28692964748338379 0 0.043029943860180789 -0.28970337243015992 0 0.038396769586432553 -0.27977596087564799 0 0.043029943860180789 -0.28970337243015992 0 0.051749435803858171 -0.27840569125857739 0 0.038396769586432553 -0.27977596087564799 0 0.043029943860180789 -0.28970337243015992 0 0.059449054433483903 -0.28956707473318272 0 0.051749435803858171 -0.27840569125857739 0 0.043029943860180789 -0.28970337243015992 0 0.059449054433483903 -0.28956707473318272 0 0.048768037075517537 -0.30442990221103089 0 0.069967983226982527 -0.30495776272600778 0 0.059449054433483903 -0.28956707473318272 0 0.048768037075517537 -0.30442990221103089 0 0.069967983226982527 -0.30495776272600778 0 0.053863538987460123 -0.3232816795844588 0 0.048768037075517537 -0.30442990221103089 0 0.053380735395516472 -0.25867595766617779 0 0.04428054005230446 -0.26275141268032309 0 0.045372505498807933 -0.25408090721008542 0 0.053380735395516472 -0.25867595766617779 0 0.053158010572478251 -0.26777612517812432 0 0.04428054005230446 -0.26275141268032309 0 0.053380735395516472 -0.25867595766617779 0 0.045372505498807933 -0.25408090721008542 0 0.05268811686830014 -0.24901610311096159 0 0.053380735395516472 -0.25867595766617779 0 0.061490933840310687 -0.25382890142296882 0 0.05268811686830014 -0.24901610311096159 0 0.053380735395516472 -0.25867595766617779 0 0.060614126731859473 -0.2624009925450973 0 0.053158010572478251 -0.26777612517812432 0 0.053380735395516472 -0.25867595766617779 0 0.061490933840310687 -0.25382890142296882 0 0.060614126731859473 -0.2624009925450973 0 0.0646939085167762 -0.2722383315448984 0 0.060614126731859473 -0.2624009925450973 0 0.053158010572478251 -0.26777612517812432 0 0.0646939085167762 -0.2722383315448984 0 0.059449054433483903 -0.28956707473318272 0 0.051749435803858171 -0.27840569125857739 0 0.0646939085167762 -0.2722383315448984 0 0.051749435803858171 -0.27840569125857739 0 0.053158010572478251 -0.26777612517812432 0 0.053158010572478251 -0.26777612517812432 0 0.044229316934554799 -0.27218436537367241 0 0.04428054005230446 -0.26275141268032309 0 0.051749435803858171 -0.27840569125857739 0 0.053158010572478251 -0.26777612517812432 0 0.044229316934554799 -0.27218436537367241 0 0.044229316934554799 -0.27218436537367241 0 0.031885251388666561 -0.26470215361104171 0 0.04428054005230446 -0.26275141268032309 0 0.051749435803858171 -0.27840569125857739 0 0.044229316934554799 -0.27218436537367241 0 0.038396769586432553 -0.27977596087564799 0 0.044229316934554799 -0.27218436537367241 0 0.038396769586432553 -0.27977596087564799 0 0.029696712261103771 -0.27487286106778819 0 0.029398966714908509 -0.28692964748338379 0 0.038396769586432553 -0.27977596087564799 0 0.029696712261103771 -0.27487286106778819 0 0.044229316934554799 -0.27218436537367241 0 0.031885251388666561 -0.26470215361104171 0 0.029696712261103771 -0.27487286106778819 0 0.037315510146954597 -0.25849363249326118 0 0.031885251388666561 -0.26470215361104171 0 0.04428054005230446 -0.26275141268032309 0 0.037315510146954597 -0.25849363249326118 0 0.031885251388666561 -0.26470215361104171 0 0.03069464768829987 -0.25176037071845259 0 0.037315510146954597 -0.25849363249326118 0 0.04428054005230446 -0.26275141268032309 0 0.045372505498807933 -0.25408090721008542 0 0.045372505498807933 -0.25408090721008542 0 0.03069464768829987 -0.25176037071845259 0 0.042588116356466379 -0.2448823624008481 0 0.037315510146954597 -0.25849363249326118 0 0.045372505498807933 -0.25408090721008542 0 0.03069464768829987 -0.25176037071845259 0 0.031885251388666561 -0.26470215361104171 0 0.021199614426200629 -0.26114166245967918 0 0.019908913466960752 -0.27058631964059482 0 0.031885251388666561 -0.26470215361104171 0 0.03069464768829987 -0.25176037071845259 0 0.021199614426200629 -0.26114166245967918 0 0.03069464768829987 -0.25176037071845259 0 0.021199614426200629 -0.26114166245967918 0 0.016145176335298529 -0.25210595968411048 0 0.029398966714908509 -0.28692964748338379 0 0.029696712261103771 -0.27487286106778819 0 0.01908241754038794 -0.28073467218482329 0 0.031885251388666561 -0.26470215361104171 0 0.029696712261103771 -0.27487286106778819 0 0.019908913466960752 -0.27058631964059482 0 0.019908913466960752 -0.27058631964059482 0 0.01908241754038794 -0.28073467218482329 0 0.01128192931255503 -0.27464126756021451 0 0.029696712261103771 -0.27487286106778819 0 0.019908913466960752 -0.27058631964059482 0 0.01908241754038794 -0.28073467218482329 0 -0.01145854626600548 -0.26602311564559261 0 0.01128192931255503 -0.27464126756021451 0 0.0057158633005241696 -0.26337829885565528 0 0.0066437179820165657 -0.2861171845936395 0 0.01908241754038794 -0.28073467218482329 0 0.01128192931255503 -0.27464126756021451 0 0.019908913466960752 -0.27058631964059482 0 0.01128192931255503 -0.27464126756021451 0 0.0057158633005241696 -0.26337829885565528 0 -0.002848760243290064 -0.27761611820401882 0 0.0066437179820165657 -0.2861171845936395 0 0.01128192931255503 -0.27464126756021451 0 0.016145176335298529 -0.25210595968411048 0 0.0057158633005241696 -0.26337829885565528 0 0.0054759062840018038 -0.25064707341720888 0 0.021199614426200629 -0.26114166245967918 0 0.019908913466960752 -0.27058631964059482 0 0.0057158633005241696 -0.26337829885565528 0 0.021199614426200629 -0.26114166245967918 0 0.016145176335298529 -0.25210595968411048 0 0.0057158633005241696 -0.26337829885565528 0 -0.0009620894167222515 -0.25496392916579452 0 0.0057158633005241696 -0.26337829885565528 0 0.0054759062840018038 -0.25064707341720888 0 -0.0009620894167222515 -0.25496392916579452 0 -0.0029313858115674811 -0.24854412401401971 0 0.0054759062840018038 -0.25064707341720888 0 0.0054759062840018038 -0.25064707341720888 0 0.0026199421412959989 -0.2430643023623929 0 0.011589873569895199 -0.24127835128668559 0 -0.0029313858115674811 -0.24854412401401971 0 0.0054759062840018038 -0.25064707341720888 0 0.0026199421412959989 -0.2430643023623929 0 0.016145176335298529 -0.25210595968411048 0 0.0054759062840018038 -0.25064707341720888 0 0.011589873569895199 -0.24127835128668559 0 0.011589873569895199 -0.24127835128668559 0 0.010668172172219499 -0.2272828987723072 0 0.020574075722817331 -0.2351284197632682 0 0.0026199421412959989 -0.2430643023623929 0 0.011589873569895199 -0.24127835128668559 0 0.0017465435191736189 -0.23378549097037141 0 -0.00080535468136348092 -0.21995366459000901 0 0.010668172172219499 -0.2272828987723072 0 0.01016515501406726 -0.20926501301563591 0 -0.00080535468136348092 -0.21995366459000901 0 0.0017465435191736189 -0.23378549097037141 0 0.010668172172219499 -0.2272828987723072 0 0.010668172172219499 -0.2272828987723072 0 0.02170661161633574 -0.22145314359659171 0 0.01016515501406726 -0.20926501301563591 0 0.011589873569895199 -0.24127835128668559 0 0.0017465435191736189 -0.23378549097037141 0 0.010668172172219499 -0.2272828987723072 0 0.010668172172219499 -0.2272828987723072 0 0.02170661161633574 -0.22145314359659171 0 0.020574075722817331 -0.2351284197632682 0 0.02170661161633574 -0.22145314359659171 0 0.02866695829179056 -0.22960637228307629 0 0.036392787169896093 -0.22322562645731159 0 0.02170661161633574 -0.22145314359659171 0 0.02866695829179056 -0.22960637228307629 0 0.020574075722817331 -0.2351284197632682 0 0.02866695829179056 -0.22960637228307629 0 0.020574075722817331 -0.2351284197632682 0 0.032071787069821417 -0.24054619649286721 0 0.022195152742869501 -0.2444300013669817 0 0.020574075722817331 -0.2351284197632682 0 0.032071787069821417 -0.24054619649286721 0 0.03069464768829987 -0.25176037071845259 0 0.022195152742869501 -0.2444300013669817 0 0.032071787069821417 -0.24054619649286721 0 0.03069464768829987 -0.25176037071845259 0 0.016145176335298529 -0.25210595968411048 0 0.022195152742869501 -0.2444300013669817 0 0.016145176335298529 -0.25210595968411048 0 0.011589873569895199 -0.24127835128668559 0 0.022195152742869501 -0.2444300013669817 0 0.011589873569895199 -0.24127835128668559 0 0.022195152742869501 -0.2444300013669817 0 0.020574075722817331 -0.2351284197632682 0 -0.003739977245034012 -0.19168309442994089 0 0.010514116253606281 -0.1925853606064957 0 0.01016515501406726 -0.20926501301563591 0 0.010514116253606281 -0.1925853606064957 0 0.01016515501406726 -0.20926501301563591 0 0.018596641755985681 -0.20049862993462389 0 0.02170661161633574 -0.22145314359659171 0 0.01016515501406726 -0.20926501301563591 0 0.028304225500431591 -0.20785134554231141 0 0.01016515501406726 -0.20926501301563591 0 0.028304225500431591 -0.20785134554231141 0 0.018596641755985681 -0.20049862993462389 0 0.02170661161633574 -0.22145314359659171 0 0.028304225500431591 -0.20785134554231141 0 0.036392787169896093 -0.22322562645731159 0 0.028304225500431591 -0.20785134554231141 0 0.018596641755985681 -0.20049862993462389 0 0.02540307025583758 -0.19229280057405279 0 0.010514116253606281 -0.1925853606064957 0 0.018596641755985681 -0.20049862993462389 0 0.02540307025583758 -0.19229280057405279 0 0.010514116253606281 -0.1925853606064957 0 0.02540307025583758 -0.19229280057405279 0 0.015764016274472759 -0.1812646672695073 0 0.02540307025583758 -0.19229280057405279 0 0.041440672425083092 -0.19607701236864419 0 0.030421272951226121 -0.1778391783376792 0 0.028304225500431591 -0.20785134554231141 0 0.02540307025583758 -0.19229280057405279 0 0.041440672425083092 -0.19607701236864419 0 0.041440672425083092 -0.19607701236864419 0 0.042310424588804782 -0.2140630995529598 0 0.055497750511994078 -0.2086068857692274 0 0.028304225500431591 -0.20785134554231141 0 0.041440672425083092 -0.19607701236864419 0 0.042310424588804782 -0.2140630995529598 0 0.028304225500431591 -0.20785134554231141 0 0.042310424588804782 -0.2140630995529598 0 0.036392787169896093 -0.22322562645731159 0 0.042310424588804782 -0.2140630995529598 0 0.055497750511994078 -0.2086068857692274 0 0.052955454276687589 -0.2198291654371925 0 0.062338921595789062 -0.21792006704763969 0 0.055497750511994078 -0.2086068857692274 0 0.052955454276687589 -0.2198291654371925 0 0.062338921595789062 -0.21792006704763969 0 0.055497750511994078 -0.2086068857692274 0 0.067863046951983474 -0.20503048868511209 0 0.055497750511994078 -0.2086068857692274 0 0.056257937900538298 -0.19577788601322099 0 0.067863046951983474 -0.20503048868511209 0 0.041440672425083092 -0.19607701236864419 0 0.056257937900538298 -0.19577788601322099 0 0.051449240160577621 -0.1762857105508405 0 0.041440672425083092 -0.19607701236864419 0 0.055497750511994078 -0.2086068857692274 0 0.056257937900538298 -0.19577788601322099 0 0.040491861427302538 -0.2355872617630255 0 0.042588116356466379 -0.2448823624008481 0 0.052307832003780613 -0.23884346229351339 0 0.040491861427302538 -0.2355872617630255 0 0.045866106706223042 -0.22907627795895011 0 0.052307832003780613 -0.23884346229351339 0 0.03069464768829987 -0.25176037071845259 0 0.042588116356466379 -0.2448823624008481 0 0.032071787069821417 -0.24054619649286721 0 0.040491861427302538 -0.2355872617630255 0 0.042588116356466379 -0.2448823624008481 0 0.032071787069821417 -0.24054619649286721 0 0.02866695829179056 -0.22960637228307629 0 0.040491861427302538 -0.2355872617630255 0 0.032071787069821417 -0.24054619649286721 0 0.02866695829179056 -0.22960637228307629 0 0.040491861427302538 -0.2355872617630255 0 0.036392787169896093 -0.22322562645731159 0 0.042310424588804782 -0.2140630995529598 0 0.036392787169896093 -0.22322562645731159 0 0.045866106706223042 -0.22907627795895011 0 0.040491861427302538 -0.2355872617630255 0 0.036392787169896093 -0.22322562645731159 0 0.045866106706223042 -0.22907627795895011 0 0.045866106706223042 -0.22907627795895011 0 0.058764067980626958 -0.22947949685718549 0 0.052307832003780613 -0.23884346229351339 0 0.045866106706223042 -0.22907627795895011 0 0.052955454276687589 -0.2198291654371925 0 0.058764067980626958 -0.22947949685718549 0 0.042310424588804782 -0.2140630995529598 0 0.045866106706223042 -0.22907627795895011 0 0.052955454276687589 -0.2198291654371925 0 0.062338921595789062 -0.21792006704763969 0 0.058764067980626958 -0.22947949685718549 0 0.065719467571416057 -0.22489822263154319 0 0.062338921595789062 -0.21792006704763969 0 0.052955454276687589 -0.2198291654371925 0 0.058764067980626958 -0.22947949685718549 0 0.058764067980626958 -0.22947949685718549 0 0.062159259289524899 -0.2368834247622158 0 0.052307832003780613 -0.23884346229351339 0 0.062159259289524899 -0.2368834247622158 0 0.052307832003780613 -0.23884346229351339 0 0.061229972926465738 -0.2445427902389527 0 0.045372505498807933 -0.25408090721008542 0 0.042588116356466379 -0.2448823624008481 0 0.05268811686830014 -0.24901610311096159 0 0.042588116356466379 -0.2448823624008481 0 0.052307832003780613 -0.23884346229351339 0 0.05268811686830014 -0.24901610311096159 0 0.061490933840310687 -0.25382890142296882 0 0.05268811686830014 -0.24901610311096159 0 0.061229972926465738 -0.2445427902389527 0 0.052307832003780613 -0.23884346229351339 0 0.05268811686830014 -0.24901610311096159 0 0.061229972926465738 -0.2445427902389527 0 0.061490933840310687 -0.25382890142296882 0 0.061229972926465738 -0.2445427902389527 0 0.070069103552599196 -0.24823964670048029 0 0.061229972926465738 -0.2445427902389527 0 0.070069103552599196 -0.24823964670048029 0 0.069856411684105391 -0.23913895996007839 0 0.062159259289524899 -0.2368834247622158 0 0.061229972926465738 -0.2445427902389527 0 0.069856411684105391 -0.23913895996007839 0 0.062159259289524899 -0.2368834247622158 0 0.069856411684105391 -0.23913895996007839 0 0.067142239376285745 -0.23139328163069281 0 0.069856411684105391 -0.23913895996007839 0 0.077788170153509889 -0.24196191377257101 0 0.076767606518392539 -0.23187249677345001 0 0.080071368274292315 -0.25145738896057979 0 0.070069103552599196 -0.24823964670048029 0 0.077788170153509889 -0.24196191377257101 0 0.070069103552599196 -0.24823964670048029 0 0.069856411684105391 -0.23913895996007839 0 0.077788170153509889 -0.24196191377257101 0 0.080071368274292315 -0.25145738896057979 0 0.090706365013478091 -0.25245448435890872 0 0.085906732882507178 -0.24385162082211831 0 0.080071368274292315 -0.25145738896057979 0 0.077788170153509889 -0.24196191377257101 0 0.085906732882507178 -0.24385162082211831 0 0.077788170153509889 -0.24196191377257101 0 0.085906732882507178 -0.24385162082211831 0 0.083256636250354649 -0.23616880796388259 0 0.077788170153509889 -0.24196191377257101 0 0.083256636250354649 -0.23616880796388259 0 0.076767606518392539 -0.23187249677345001 0 0.085906732882507178 -0.24385162082211831 0 0.089657973372422345 -0.23730775202069579 0 0.094006026236525903 -0.2441335510050745 0 0.085906732882507178 -0.24385162082211831 0 0.083256636250354649 -0.23616880796388259 0 0.089657973372422345 -0.23730775202069579 0 0.083256636250354649 -0.23616880796388259 0 0.089657973372422345 -0.23730775202069579 0 0.089763789457938253 -0.2306791647953326 0 0.089657973372422345 -0.23730775202069579 0 0.089763789457938253 -0.2306791647953326 0 0.096012267649498176 -0.23702186761809721 0 0.089657973372422345 -0.23730775202069579 0 0.094006026236525903 -0.2441335510050745 0 0.096012267649498176 -0.23702186761809721 0 0.090706365013478091 -0.25245448435890872 0 0.085906732882507178 -0.24385162082211831 0 0.094006026236525903 -0.2441335510050745 0 0.086446736705125371 -0.22420087797706609 0 0.091303359373345411 -0.22339335178318359 0 0.089763789457938253 -0.2306791647953326 0 0.086446736705125371 -0.22420087797706609 0 0.091303359373345411 -0.22339335178318359 0 0.086853981468707001 -0.2185547472363609 0 0.091303359373345411 -0.22339335178318359 0 0.086853981468707001 -0.2185547472363609 0 0.09077468002378962 -0.21857675351640271 0 0.091303359373345411 -0.22339335178318359 0 0.09077468002378962 -0.21857675351640271 0 0.094530837428433365 -0.22086489816084981 0 0.091303359373345411 -0.22339335178318359 0 0.089763789457938253 -0.2306791647953326 0 0.098670227838192195 -0.22970514568366851 0 0.086446736705125371 -0.22420087797706609 0 0.089763789457938253 -0.2306791647953326 0 0.083020570332336119 -0.22791650227557511 0 0.083256636250354649 -0.23616880796388259 0 0.083020570332336119 -0.22791650227557511 0 0.076767606518392539 -0.23187249677345001 0 0.083256636250354649 -0.23616880796388259 0 0.089763789457938253 -0.2306791647953326 0 0.083020570332336119 -0.22791650227557511 0 0.083020570332336119 -0.22791650227557511 0 0.077930889523722374 -0.22519622511208121 0 0.076767606518392539 -0.23187249677345001 0 0.083020570332336119 -0.22791650227557511 0 0.081291982893300085 -0.22046062379487821 0 0.077930889523722374 -0.22519622511208121 0 0.086446736705125371 -0.22420087797706609 0 0.083020570332336119 -0.22791650227557511 0 0.081291982893300085 -0.22046062379487821 0 0.086446736705125371 -0.22420087797706609 0 0.081291982893300085 -0.22046062379487821 0 0.086853981468707001 -0.2185547472363609 0 0.081291982893300085 -0.22046062379487821 0 0.077930889523722374 -0.22519622511208121 0 0.073706539318973169 -0.21796036257100029 0 0.072234091795087663 -0.22574485878751241 0 0.065719467571416057 -0.22489822263154319 0 0.073706539318973169 -0.21796036257100029 0 0.077930889523722374 -0.22519622511208121 0 0.072234091795087663 -0.22574485878751241 0 0.073706539318973169 -0.21796036257100029 0 0.069856411684105391 -0.23913895996007839 0 0.076767606518392539 -0.23187249677345001 0 0.067142239376285745 -0.23139328163069281 0 0.072234091795087663 -0.22574485878751241 0 0.076767606518392539 -0.23187249677345001 0 0.067142239376285745 -0.23139328163069281 0 0.077930889523722374 -0.22519622511208121 0 0.072234091795087663 -0.22574485878751241 0 0.076767606518392539 -0.23187249677345001 0 0.058764067980626958 -0.22947949685718549 0 0.062159259289524899 -0.2368834247622158 0 0.067142239376285745 -0.23139328163069281 0 0.058764067980626958 -0.22947949685718549 0 0.067142239376285745 -0.23139328163069281 0 0.065719467571416057 -0.22489822263154319 0 0.072234091795087663 -0.22574485878751241 0 0.067142239376285745 -0.23139328163069281 0 0.065719467571416057 -0.22489822263154319 0 0.062338921595789062 -0.21792006704763969 0 0.065719467571416057 -0.22489822263154319 0 0.073706539318973169 -0.21796036257100029 0 0.062338921595789062 -0.21792006704763969 0 0.067863046951983474 -0.20503048868511209 0 0.073706539318973169 -0.21796036257100029 0 0.067863046951983474 -0.20503048868511209 0 0.073706539318973169 -0.21796036257100029 0 0.079094442607528917 -0.20913243433380641 0 0.067863046951983474 -0.20503048868511209 0 0.081482512553192915 -0.1953056794767786 0 0.079094442607528917 -0.20913243433380641 0 0.056257937900538298 -0.19577788601322099 0 0.067863046951983474 -0.20503048868511209 0 0.066040058368007956 -0.18964665730407451 0 0.067863046951983474 -0.20503048868511209 0 0.066040058368007956 -0.18964665730407451 0 0.081482512553192915 -0.1953056794767786 0 0.081482512553192915 -0.1953056794767786 0 0.095454742848087734 -0.19451486061966669 0 0.093505174579280592 -0.1731787749771625 0 0.081482512553192915 -0.1953056794767786 0 0.08833530696517819 -0.21036332105093219 0 0.095454742848087734 -0.19451486061966669 0 0.08833530696517819 -0.21036332105093219 0 0.097404311116896569 -0.21585094626217091 0 0.095454742848087734 -0.19451486061966669 0 0.081291982893300085 -0.22046062379487821 0 0.073706539318973169 -0.21796036257100029 0 0.082946926161669862 -0.2149195339015407 0 0.082946926161669862 -0.2149195339015407 0 0.079094442607528917 -0.20913243433380641 0 0.08833530696517819 -0.21036332105093219 0 0.073706539318973169 -0.21796036257100029 0 0.082946926161669862 -0.2149195339015407 0 0.079094442607528917 -0.20913243433380641 0 0.081291982893300085 -0.22046062379487821 0 0.082946926161669862 -0.2149195339015407 0 0.086853981468707001 -0.2185547472363609 0 0.081482512553192915 -0.1953056794767786 0 0.079094442607528917 -0.20913243433380641 0 0.08833530696517819 -0.21036332105093219 0 0.082946926161669862 -0.2149195339015407 0 0.08833530696517819 -0.21036332105093219 0 0.086853981468707001 -0.2185547472363609 0 0.08833530696517819 -0.21036332105093219 0 0.086853981468707001 -0.2185547472363609 0 0.09077468002378962 -0.21857675351640271 0 0.08833530696517819 -0.21036332105093219 0 0.09077468002378962 -0.21857675351640271 0 0.092213447725184278 -0.21529843562297729 0 0.08833530696517819 -0.21036332105093219 0 0.092213447725184278 -0.21529843562297729 0 0.097404311116896569 -0.21585094626217091 0 0.09077468002378962 -0.21857675351640271 0 0.094501608789943028 -0.21679829355882299 0 0.094530837428433365 -0.22086489816084981 0 0.09077468002378962 -0.21857675351640271 0 0.092213447725184278 -0.21529843562297729 0 0.094501608789943028 -0.21679829355882299 0 0.094501608789943028 -0.21679829355882299 0 0.097404311116896569 -0.21585094626217091 0 0.094530837428433365 -0.22086489816084981 0 0.092213447725184278 -0.21529843562297729 0 0.094501608789943028 -0.21679829355882299 0 0.097404311116896569 -0.21585094626217091 0 0.097404311116896569 -0.21585094626217091 0 0.095454742848087734 -0.19451486061966669 0 0.097404311116896569 -0.21585094626217091 0 0.1059898830346106 -0.20430933332548051 0 0.095454742848087734 -0.19451486061966669 0 0.097404311116896569 -0.21585094626217091 0 0.1089347031997706 -0.21297733173581901 0 0.1146171121197104 -0.21980430615730401 0 0.097404311116896569 -0.21585094626217091 0 0.1059898830346106 -0.20430933332548051 0 0.1089347031997706 -0.21297733173581901 0 0.095454742848087734 -0.19451486061966669 0 0.1128143282819509 -0.19216489626002589 0 0.10772522460311169 -0.17968171223372481 0 0.1059898830346106 -0.20430933332548051 0 0.095454742848087734 -0.19451486061966669 0 0.1128143282819509 -0.19216489626002589 0 0.1128143282819509 -0.19216489626002589 0 0.1237689835273371 -0.19605207676116951 0 0.1178461100078927 -0.20838697738218431 0 0.1059898830346106 -0.20430933332548051 0 0.1128143282819509 -0.19216489626002589 0 0.1178461100078927 -0.20838697738218431 0 0.1128143282819509 -0.19216489626002589 0 0.1237689835273371 -0.19605207676116951 0 0.1232013989280239 -0.1819146573535104 0 0.1089347031997706 -0.21297733173581901 0 0.1178461100078927 -0.20838697738218431 0 0.1146171121197104 -0.21980430615730401 0 0.1059898830346106 -0.20430933332548051 0 0.1089347031997706 -0.21297733173581901 0 0.1178461100078927 -0.20838697738218431 0 0.1178461100078927 -0.20838697738218431 0 0.1146171121197104 -0.21980430615730401 0 0.12895394136930069 -0.22163642029703709 0 0.1146171121197104 -0.21980430615730401 0 0.12018370186474731 -0.23305432747703519 0 0.12895394136930069 -0.22163642029703709 0 0.097404311116896569 -0.21585094626217091 0 0.1146171121197104 -0.21980430615730401 0 0.12018370186474731 -0.23305432747703519 0 0.1212054647883809 -0.25073068226796852 0 0.12018370186474731 -0.23305432747703519 0 0.1059281586602189 -0.23527494890652931 0 0.13217397618885759 -0.25462043987800831 0 0.1212054647883809 -0.25073068226796852 0 0.12018370186474731 -0.23305432747703519 0 0.1212054647883809 -0.25073068226796852 0 0.1059281586602189 -0.23527494890652931 0 0.1078238037173969 -0.24832262031645649 0 0.1212054647883809 -0.25073068226796852 0 0.1059281586602189 -0.23527494890652931 0 0.099550463170151926 -0.25262580003909579 0 0.1078238037173969 -0.24832262031645649 0 0.10103467245524091 -0.24298905409433241 0 0.1059281586602189 -0.23527494890652931 0 0.1078238037173969 -0.24832262031645649 0 0.10103467245524091 -0.24298905409433241 0 0.099550463170151926 -0.25262580003909579 0 0.10103467245524091 -0.24298905409433241 0 0.094006026236525903 -0.2441335510050745 0 0.090706365013478091 -0.25245448435890872 0 0.099550463170151926 -0.25262580003909579 0 0.094006026236525903 -0.2441335510050745 0 0.1059281586602189 -0.23527494890652931 0 0.10103467245524091 -0.24298905409433241 0 0.096012267649498176 -0.23702186761809721 0 0.10103467245524091 -0.24298905409433241 0 0.094006026236525903 -0.2441335510050745 0 0.096012267649498176 -0.23702186761809721 0 0.1059281586602189 -0.23527494890652931 0 0.096012267649498176 -0.23702186761809721 0 0.098670227838192195 -0.22970514568366851 0 0.089763789457938253 -0.2306791647953326 0 0.096012267649498176 -0.23702186761809721 0 0.098670227838192195 -0.22970514568366851 0 0.097404311116896569 -0.21585094626217091 0 0.12018370186474731 -0.23305432747703519 0 0.097404311116896569 -0.21585094626217091 0 0.12018370186474731 -0.23305432747703519 0 0.1059281586602189 -0.23527494890652931 0 0.097404311116896569 -0.21585094626217091 0 0.1059281586602189 -0.23527494890652931 0 0.098670227838192195 -0.22970514568366851 0 0.091303359373345411 -0.22339335178318359 0 0.098670227838192195 -0.22970514568366851 0 0.094530837428433365 -0.22086489816084981 0 0.097404311116896569 -0.21585094626217091 0 0.098670227838192195 -0.22970514568366851 0 0.094530837428433365 -0.22086489816084981 0 0.097404311116896569 -0.21585094626217091 0 0.098670227838192195 -0.22970514568366851 0 0.1071373084330472 -0.14482826815459701 0 0.1035248479174861 -0.15311019857333261 0 0.098760878024456711 -0.14050656481393209 0 0.1071373084330472 -0.14482826815459701 0 0.1035248479174861 -0.15311019857333261 0 0.1121477659277255 -0.1503271840913511 0 0.1035248479174861 -0.15311019857333261 0 0.098760878024456711 -0.14050656481393209 0 0.091560400862706559 -0.15189516094014111 0 0.098760878024456711 -0.14050656481393209 0 0.099399694252258627 -0.1328638184600745 0 0.089615627146132512 -0.13061154690311971 0 0.099399694252258627 -0.1328638184600745 0 0.099525338641528904 -0.12611341339503321 0 0.089615627146132512 -0.13061154690311971 0 0.099525338641528904 -0.12611341339503321 0 0.1096969331969164 -0.13422374872821319 0 0.1121708616464093 -0.1216807098986791 0 0.099399694252258627 -0.1328638184600745 0 0.099525338641528904 -0.12611341339503321 0 0.1096969331969164 -0.13422374872821319 0 0.098760878024456711 -0.14050656481393209 0 0.099399694252258627 -0.1328638184600745 0 0.1096969331969164 -0.13422374872821319 0 0.1071373084330472 -0.14482826815459701 0 0.098760878024456711 -0.14050656481393209 0 0.1096969331969164 -0.13422374872821319 0 0.1096969331969164 -0.13422374872821319 0 0.1155243526086871 -0.14484298486410191 0 0.12532898621889721 -0.13663811256420449 0 0.1096969331969164 -0.13422374872821319 0 0.11997683785091839 -0.1276371159963853 0 0.12532898621889721 -0.13663811256420449 0 0.1096969331969164 -0.13422374872821319 0 0.11997683785091839 -0.1276371159963853 0 0.1121708616464093 -0.1216807098986791 0 0.1217036921304827 -0.1482443959076799 0 0.1155243526086871 -0.14484298486410191 0 0.12532898621889721 -0.13663811256420449 0 0.1217036921304827 -0.1482443959076799 0 0.1155243526086871 -0.14484298486410191 0 0.1179114041550178 -0.15136128022523329 0 0.1071373084330472 -0.14482826815459701 0 0.1155243526086871 -0.14484298486410191 0 0.1121477659277255 -0.1503271840913511 0 0.1071373084330472 -0.14482826815459701 0 0.1096969331969164 -0.13422374872821319 0 0.1155243526086871 -0.14484298486410191 0 0.1035248479174861 -0.15311019857333261 0 0.1121477659277255 -0.1503271840913511 0 0.1169082366172023 -0.15609331882735419 0 0.1155243526086871 -0.14484298486410191 0 0.1121477659277255 -0.1503271840913511 0 0.1179114041550178 -0.15136128022523329 0 0.1121477659277255 -0.1503271840913511 0 0.1169082366172023 -0.15609331882735419 0 0.1179114041550178 -0.15136128022523329 0 0.1169082366172023 -0.15609331882735419 0 0.1179114041550178 -0.15136128022523329 0 0.12324902196630889 -0.15465793599018671 0 0.1217036921304827 -0.1482443959076799 0 0.1179114041550178 -0.15136128022523329 0 0.12324902196630889 -0.15465793599018671 0 0.1217036921304827 -0.1482443959076799 0 0.12324902196630889 -0.15465793599018671 0 0.12831016946945831 -0.1492440347933528 0 0.1035248479174861 -0.15311019857333261 0 0.12443417021765769 -0.1709717485187108 0 0.1227471198665283 -0.15880086614903269 0 0.12098675462827781 -0.16200852072179159 0 0.1290045142054978 -0.1612372837293575 0 0.1035248479174861 -0.15311019857333261 0 0.12443417021765769 -0.1709717485187108 0 0.12083528946942131 -0.1711597280255607 0 0.1035248479174861 -0.15311019857333261 0 0.12098675462827781 -0.16200852072179159 0 0.12443417021765769 -0.1709717485187108 0 0.1035248479174861 -0.15311019857333261 0 0.1169082366172023 -0.15609331882735419 0 0.12098675462827781 -0.16200852072179159 0 0.1169082366172023 -0.15609331882735419 0 0.1227471198665283 -0.15880086614903269 0 0.12098675462827781 -0.16200852072179159 0 0.1169082366172023 -0.15609331882735419 0 0.12324902196630889 -0.15465793599018671 0 0.1227471198665283 -0.15880086614903269 0 0.12098675462827781 -0.16200852072179159 0 0.12443417021765769 -0.1709717485187108 0 0.12715697753007521 -0.16591248018761531 0 0.1128143282819509 -0.19216489626002589 0 0.1232013989280239 -0.1819146573535104 0 0.1157139550245927 -0.18029465614444529 0 0.12083528946942131 -0.1711597280255607 0 0.1232013989280239 -0.1819146573535104 0 0.1157139550245927 -0.18029465614444529 0 0.12443417021765769 -0.1709717485187108 0 0.12083528946942131 -0.1711597280255607 0 0.1232013989280239 -0.1819146573535104 0 0.12083528946942131 -0.1711597280255607 0 0.1157139550245927 -0.18029465614444529 0 0.10772522460311169 -0.17968171223372481 0 0.1128143282819509 -0.19216489626002589 0 0.1157139550245927 -0.18029465614444529 0 0.10772522460311169 -0.17968171223372481 0 0.095454742848087734 -0.19451486061966669 0 0.10772522460311169 -0.17968171223372481 0 0.093505174579280592 -0.1731787749771625 0 0.12083528946942131 -0.1711597280255607 0 0.093505174579280592 -0.1731787749771625 0 0.095454742848087734 -0.19451486061966669 0 0.093505174579280592 -0.1731787749771625 0 0.12083528946942131 -0.1711597280255607 0 0.10772522460311169 -0.17968171223372481 0 0.093505174579280592 -0.1731787749771625 0 0.1035248479174861 -0.15311019857333261 0 0.093505174579280592 -0.1731787749771625 0 0.091560400862706559 -0.15189516094014111 0 0.1035248479174861 -0.15311019857333261 0 0.12083528946942131 -0.1711597280255607 0 0.093505174579280592 -0.1731787749771625 0 0.078133883947979807 -0.15717501910519549 0 0.093505174579280592 -0.1731787749771625 0 0.091560400862706559 -0.15189516094014111 0 0.078133883947979807 -0.15717501910519549 0 0.093505174579280592 -0.1731787749771625 0 0.072477207369929117 -0.17473224276400179 0 0.093505174579280592 -0.1731787749771625 0 0.091560400862706559 -0.15189516094014111 0 0.081482512553192915 -0.1953056794767786 0 0.093505174579280592 -0.1731787749771625 0 0.072477207369929117 -0.17473224276400179 0 0.093505174579280592 -0.1731787749771625 0 0.072477207369929117 -0.17473224276400179 0 0.066040058368007956 -0.18964665730407451 0 0.072477207369929117 -0.17473224276400179 0 0.051449240160577621 -0.1762857105508405 0 0.066040058368007956 -0.18964665730407451 0 0.081482512553192915 -0.1953056794767786 0 0.072477207369929117 -0.17473224276400179 0 0.078133883947979807 -0.15717501910519549 0 0.072477207369929117 -0.17473224276400179 0 0.063878974636528515 -0.16401540189567099 0 0.072477207369929117 -0.17473224276400179 0 0.063878974636528515 -0.16401540189567099 0 0.051449240160577621 -0.1762857105508405 0 0.078133883947979807 -0.15717501910519549 0 0.063878974636528515 -0.16401540189567099 0 0.06522271263887458 -0.15305574504012881 0 0.06522271263887458 -0.15305574504012881 0 0.069316279952888193 -0.14186668388360371 0 0.075278834721760557 -0.14616760919767161 0 0.06522271263887458 -0.15305574504012881 0 0.069316279952888193 -0.14186668388360371 0 0.05757515479497001 -0.1486962131740798 0 0.069316279952888193 -0.14186668388360371 0 0.075278834721760557 -0.14616760919767161 0 0.079765110473415279 -0.13788087003968491 0 0.078133883947979807 -0.15717501910519549 0 0.06522271263887458 -0.15305574504012881 0 0.075278834721760557 -0.14616760919767161 0 0.098760878024456711 -0.14050656481393209 0 0.091560400862706559 -0.15189516094014111 0 0.089615627146132512 -0.13061154690311971 0 0.078133883947979807 -0.15717501910519549 0 0.083611330147541921 -0.14459745320402559 0 0.091560400862706559 -0.15189516094014111 0 0.091560400862706559 -0.15189516094014111 0 0.089615627146132512 -0.13061154690311971 0 0.078133883947979807 -0.15717501910519549 0 0.075278834721760557 -0.14616760919767161 0 0.083611330147541921 -0.14459745320402559 0 0.083611330147541921 -0.14459745320402559 0 0.091560400862706559 -0.15189516094014111 0 0.089615627146132512 -0.13061154690311971 0 0.075278834721760557 -0.14616760919767161 0 0.083611330147541921 -0.14459745320402559 0 0.079765110473415279 -0.13788087003968491 0 0.099525338641528904 -0.12611341339503321 0 0.089615627146132512 -0.13061154690311971 0 0.081894058627025895 -0.12584863130967919 0 0.083611330147541921 -0.14459745320402559 0 0.089615627146132512 -0.13061154690311971 0 0.079765110473415279 -0.13788087003968491 0 0.089615627146132512 -0.13061154690311971 0 0.079765110473415279 -0.13788087003968491 0 0.081894058627025895 -0.12584863130967919 0 0.081894058627025895 -0.12584863130967919 0 0.065576399090336079 -0.13067912082877309 0 0.057907204523981459 -0.13951585418161591 0 0.081894058627025895 -0.12584863130967919 0 0.057907204523981459 -0.13951585418161591 0 0.069316279952888193 -0.14186668388360371 0 0.081894058627025895 -0.12584863130967919 0 0.057907204523981459 -0.13951585418161591 0 0.081894058627025895 -0.12584863130967919 0 0.068207364780656948 -0.12563827965844471 0 0.065576399090336079 -0.13067912082877309 0 0.069316279952888193 -0.14186668388360371 0 0.079765110473415279 -0.13788087003968491 0 0.081894058627025895 -0.12584863130967919 0 0.068207364780656948 -0.12563827965844471 0 0.065576399090336079 -0.13067912082877309 0 0.054296968429680029 -0.13171371816535249 0 0.054296968429680029 -0.13171371816535249 0 0.057907204523981459 -0.13951585418161591 0 0.034849001543539322 -0.1503583031021323 0 0.054296968429680029 -0.13171371816535249 0 0.045553716665441668 -0.12681104972785159 0 0.052448498866582129 -0.1166826243517366 0 0.065576399090336079 -0.13067912082877309 0 0.054296968429680029 -0.13171371816535249 0 0.057907204523981459 -0.13951585418161591 0 0.069316279952888193 -0.14186668388360371 0 0.057907204523981459 -0.13951585418161591 0 0.05757515479497001 -0.1486962131740798 0 0.06522271263887458 -0.15305574504012881 0 0.05757515479497001 -0.1486962131740798 0 0.052111829065281459 -0.15882829201818821 0 0.046808539919221563 -0.15014413002933799 0 0.052111829065281459 -0.15882829201818821 0 0.043031393960321331 -0.1571354857308308 0 0.05757515479497001 -0.1486962131740798 0 0.046808539919221563 -0.15014413002933799 0 0.052111829065281459 -0.15882829201818821 0 0.057907204523981459 -0.13951585418161591 0 0.05757515479497001 -0.1486962131740798 0 0.046808539919221563 -0.15014413002933799 0 0.057907204523981459 -0.13951585418161591 0 0.046808539919221563 -0.15014413002933799 0 0.033920350420936912 -0.1531830770535528 0 0.057907204523981459 -0.13951585418161591 0 0.034849001543539322 -0.1503583031021323 0 0.033920350420936912 -0.1531830770535528 0 0.054296968429680029 -0.13171371816535249 0 0.034849001543539322 -0.1503583031021323 0 0.038558521200612962 -0.14006542407622449 0 0.054296968429680029 -0.13171371816535249 0 0.034849001543539322 -0.1503583031021323 0 0.057907204523981459 -0.13951585418161591 0 0.033920350420936912 -0.1531830770535528 0 0.046808539919221563 -0.15014413002933799 0 0.040219483271594643 -0.15466785876887121 0 0.033920350420936912 -0.1531830770535528 0 0.046808539919221563 -0.15014413002933799 0 0.040219483271594643 -0.15466785876887121 0 0.043031393960321331 -0.1571354857308308 0 0.040219483271594643 -0.15466785876887121 0 0.033920350420936912 -0.1531830770535528 0 0.037117648785898759 -0.15820874226176301 0 0.034849001543539322 -0.1503583031021323 0 0.031672068294339203 -0.14528428076340441 0 0.030051573782975471 -0.15027594372919439 0 0.034849001543539322 -0.1503583031021323 0 0.033920350420936912 -0.1531830770535528 0 0.030051573782975471 -0.15027594372919439 0 0.034849001543539322 -0.1503583031021323 0 0.031672068294339203 -0.14528428076340441 0 0.038558521200612962 -0.14006542407622449 0 0.031672068294339203 -0.14528428076340441 0 0.038558521200612962 -0.14006542407622449 0 0.030566093298411881 -0.13865773310914861 0 0.054296968429680029 -0.13171371816535249 0 0.038558521200612962 -0.14006542407622449 0 0.040644455285911409 -0.1338393175667463 0 0.038558521200612962 -0.14006542407622449 0 0.040644455285911409 -0.1338393175667463 0 0.030566093298411881 -0.13865773310914861 0 0.034824944079593127 -0.12500853882757099 0 0.040644455285911409 -0.1338393175667463 0 0.030566093298411881 -0.13865773310914861 0 0.034824944079593127 -0.12500853882757099 0 0.045553716665441668 -0.12681104972785159 0 0.040644455285911409 -0.1338393175667463 0 0.054296968429680029 -0.13171371816535249 0 0.045553716665441668 -0.12681104972785159 0 0.040644455285911409 -0.1338393175667463 0 0.072477207369929117 -0.17473224276400179 0 0.051449240160577621 -0.1762857105508405 0 0.056257937900538298 -0.19577788601322099 0 0.066040058368007956 -0.18964665730407451 0 0.051449240160577621 -0.1762857105508405 0 0.063878974636528515 -0.16401540189567099 0 0.051449240160577621 -0.1762857105508405 0 0.052111829065281459 -0.15882829201818821 0 0.051449240160577621 -0.1762857105508405 0 0.052111829065281459 -0.15882829201818821 0 0.040502396519655252 -0.1663673850483231 0 0.063878974636528515 -0.16401540189567099 0 0.06522271263887458 -0.15305574504012881 0 0.052111829065281459 -0.15882829201818821 0 0.043031393960321331 -0.1571354857308308 0 0.037117648785898759 -0.15820874226176301 0 0.040502396519655252 -0.1663673850483231 0 0.052111829065281459 -0.15882829201818821 0 0.043031393960321331 -0.1571354857308308 0 0.040502396519655252 -0.1663673850483231 0 0.040219483271594643 -0.15466785876887121 0 0.043031393960321331 -0.1571354857308308 0 0.037117648785898759 -0.15820874226176301 0 0.033920350420936912 -0.1531830770535528 0 0.033509818979212957 -0.15868168045615499 0 0.027465449436243041 -0.1628752445715565 0 0.037117648785898759 -0.15820874226176301 0 0.034071859908748191 -0.1623715567021686 0 0.040502396519655252 -0.1663673850483231 0 0.033920350420936912 -0.1531830770535528 0 0.037117648785898759 -0.15820874226176301 0 0.033509818979212957 -0.15868168045615499 0 0.037117648785898759 -0.15820874226176301 0 0.033509818979212957 -0.15868168045615499 0 0.034071859908748191 -0.1623715567021686 0 0.033509818979212957 -0.15868168045615499 0 0.034071859908748191 -0.1623715567021686 0 0.027465449436243041 -0.1628752445715565 0 0.031586668938662611 -0.1691709391612749 0 0.040502396519655252 -0.1663673850483231 0 0.030421272951226121 -0.1778391783376792 0 0.034071859908748191 -0.1623715567021686 0 0.031586668938662611 -0.1691709391612749 0 0.040502396519655252 -0.1663673850483231 0 0.051449240160577621 -0.1762857105508405 0 0.040502396519655252 -0.1663673850483231 0 0.030421272951226121 -0.1778391783376792 0 0.041440672425083092 -0.19607701236864419 0 0.051449240160577621 -0.1762857105508405 0 0.030421272951226121 -0.1778391783376792 0 0.051449240160577621 -0.1762857105508405 0 0.030421272951226121 -0.1778391783376792 0 0.02540307025583758 -0.19229280057405279 0 0.015764016274472759 -0.1812646672695073 0 0.030421272951226121 -0.1778391783376792 0 0.031586668938662611 -0.1691709391612749 0 0.030421272951226121 -0.1778391783376792 0 0.021575687727073561 -0.1734893605992324 0 0.015764016274472759 -0.1812646672695073 0 0.021575687727073561 -0.1734893605992324 0 0.012676990919703311 -0.16924925594887871 0 0.015764016274472759 -0.1812646672695073 0 0.030421272951226121 -0.1778391783376792 0 0.021575687727073561 -0.1734893605992324 0 0.033920350420936912 -0.1531830770535528 0 0.009933496317892726 -0.16685029992549011 0 0.02294500892830088 -0.1542832107784407 0 0.033920350420936912 -0.1531830770535528 0 0.027465449436243041 -0.1628752445715565 0 0.009933496317892726 -0.16685029992549011 0 0.019596439448784399 -0.16744493330375371 0 0.027465449436243041 -0.1628752445715565 0 0.009933496317892726 -0.16685029992549011 0 0.033920350420936912 -0.1531830770535528 0 0.009933496317892726 -0.16685029992549011 0 0.021575687727073561 -0.1734893605992324 0 0.019596439448784399 -0.16744493330375371 0 0.012676990919703311 -0.16924925594887871 0 0.021575687727073561 -0.1734893605992324 0 0.019596439448784399 -0.16744493330375371 0 0.025540403417393751 -0.1677775419388785 0 0.031586668938662611 -0.1691709391612749 0 0.021575687727073561 -0.1734893605992324 0 0.025540403417393751 -0.1677775419388785 0 0.019596439448784399 -0.16744493330375371 0 0.025540403417393751 -0.1677775419388785 0 0.027465449436243041 -0.1628752445715565 0 0.034071859908748191 -0.1623715567021686 0 0.031586668938662611 -0.1691709391612749 0 0.027465449436243041 -0.1628752445715565 0 0.031586668938662611 -0.1691709391612749 0 0.025540403417393751 -0.1677775419388785 0 0.027465449436243041 -0.1628752445715565 0 0.009933496317892726 -0.16685029992549011 0 0.01648447247354291 -0.15404273338364399 0 0.02294500892830088 -0.1542832107784407 0 0.009933496317892726 -0.16685029992549011 0 0.01648447247354291 -0.15404273338364399 0 0.0068311679390763679 -0.1533437069849535 0 0.019596439448784399 -0.16744493330375371 0 0.009933496317892726 -0.16685029992549011 0 0.012676990919703311 -0.16924925594887871 0 0.009933496317892726 -0.16685029992549011 0 0.012676990919703311 -0.16924925594887871 0 0.0034571977838801569 -0.17702496179755631 0 0.009933496317892726 -0.16685029992549011 0 0.012676990919703311 -0.16924925594887871 0 -0.0085976242789068957 -0.177408956520272 0 0.009933496317892726 -0.16685029992549011 0 -0.0085976242789068957 -0.177408956520272 0 0.009933496317892726 -0.16685029992549011 0 0.0034571977838801569 -0.17702496179755631 0 0.015764016274472759 -0.1812646672695073 0 0.012676990919703311 -0.16924925594887871 0 0.0034571977838801569 -0.17702496179755631 0 -0.003739977245034012 -0.19168309442994089 0 0.010514116253606281 -0.1925853606064957 0 0.0034571977838801569 -0.17702496179755631 0 0.010514116253606281 -0.1925853606064957 0 0.015764016274472759 -0.1812646672695073 0 0.0034571977838801569 -0.17702496179755631 0 0.02166725362828328 -0.1398342401410575 0 0.019282665512654749 -0.1297026577714144 0 0.01241268948209219 -0.14437852502616319 0 0.034824944079593127 -0.12500853882757099 0 0.019282665512654749 -0.1297026577714144 0 0.030566093298411881 -0.13865773310914861 0 0.02166725362828328 -0.1398342401410575 0 0.019282665512654749 -0.1297026577714144 0 0.030566093298411881 -0.13865773310914861 0 0.031672068294339203 -0.14528428076340441 0 0.030566093298411881 -0.13865773310914861 0 0.024335151646156381 -0.14706399980032239 0 0.02166725362828328 -0.1398342401410575 0 0.030566093298411881 -0.13865773310914861 0 0.024335151646156381 -0.14706399980032239 0 0.031672068294339203 -0.14528428076340441 0 0.024335151646156381 -0.14706399980032239 0 0.030051573782975471 -0.15027594372919439 0 0.033920350420936912 -0.1531830770535528 0 0.030051573782975471 -0.15027594372919439 0 0.02294500892830088 -0.1542832107784407 0 0.024335151646156381 -0.14706399980032239 0 0.030051573782975471 -0.15027594372919439 0 0.02294500892830088 -0.1542832107784407 0 0.024335151646156381 -0.14706399980032239 0 0.01648447247354291 -0.15404273338364399 0 0.01241268948209219 -0.14437852502616319 0 0.024335151646156381 -0.14706399980032239 0 0.01648447247354291 -0.15404273338364399 0 0.02294500892830088 -0.1542832107784407 0 0.02166725362828328 -0.1398342401410575 0 0.024335151646156381 -0.14706399980032239 0 0.01241268948209219 -0.14437852502616319 0 -0.011505986517222349 -0.14810326960451681 0 0.01241268948209219 -0.14437852502616319 0 0.0068311679390763679 -0.1533437069849535 0 -0.011505986517222349 -0.14810326960451681 0 0.009933496317892726 -0.16685029992549011 0 0.0068311679390763679 -0.1533437069849535 0 -0.011505986517222349 -0.14810326960451681 0 0.01241268948209219 -0.14437852502616319 0 0.0027021066240326768 -0.1317064378292063 0 0.01648447247354291 -0.15404273338364399 0 0.01241268948209219 -0.14437852502616319 0 0.0068311679390763679 -0.1533437069849535 0 0.019282665512654749 -0.1297026577714144 0 0.01241268948209219 -0.14437852502616319 0 0.0027021066240326768 -0.1317064378292063 0 0.019282665512654749 -0.1297026577714144 0 0.0027021066240326768 -0.1317064378292063 0 0.005085065621477718 -0.1151057880332567 0 0.019282665512654749 -0.1297026577714144 0 0.005085065621477718 -0.1151057880332567 0 0.024129304522527751 -0.1089818526354679 0 0.034824944079593127 -0.12500853882757099 0 0.019282665512654749 -0.1297026577714144 0 0.024129304522527751 -0.1089818526354679 0 0.024129304522527751 -0.1089818526354679 0 0.01380815825635252 -0.094132232187142617 0 0.031293966725895003 -0.08518965294817829 0 -0.00044729776891663488 -0.1011528385718463 0 0.005085065621477718 -0.1151057880332567 0 0.01380815825635252 -0.094132232187142617 0 0.005085065621477718 -0.1151057880332567 0 0.024129304522527751 -0.1089818526354679 0 0.01380815825635252 -0.094132232187142617 0 0.01380815825635252 -0.094132232187142617 0 0.0042106568376920582 -0.081118225430045127 0 0.020039989671696231 -0.071989185162356889 0 -0.00044729776891663488 -0.1011528385718463 0 0.01380815825635252 -0.094132232187142617 0 0.0042106568376920582 -0.081118225430045127 0 0.0042106568376920582 -0.081118225430045127 0 0.0052181775422467033 -0.064346337314722044 0 0.020039989671696231 -0.071989185162356889 0 -0.0043762627118289626 -0.071729097412358583 0 0.0042106568376920582 -0.081118225430045127 0 0.0052181775422467033 -0.064346337314722044 0 0.0052181775422467033 -0.064346337314722044 0 0.020039989671696231 -0.071989185162356889 0 0.0052181775422467033 -0.064346337314722044 0 0.020039989671696231 -0.071989185162356889 0 0.017880224012190679 -0.058506375123621113 0 0.020039989671696231 -0.071989185162356889 0 0.017880224012190679 -0.058506375123621113 0 0.035073137211611732 -0.060365082031122411 0 0.020039989671696231 -0.071989185162356889 0 0.031293966725895003 -0.08518965294817829 0 0.035073137211611732 -0.060365082031122411 0 0.01380815825635252 -0.094132232187142617 0 0.020039989671696231 -0.071989185162356889 0 0.031293966725895003 -0.08518965294817829 0 0.031293966725895003 -0.08518965294817829 0 0.050629459546369923 -0.074776417317023003 0 0.042727201812981508 -0.099892478072297022 0 0.050629459546369923 -0.074776417317023003 0 0.042727201812981508 -0.099892478072297022 0 0.031293966725895003 -0.08518965294817829 0 0.050629459546369923 -0.074776417317023003 0 0.035073137211611732 -0.060365082031122411 0 0.050629459546369923 -0.074776417317023003 0 0.058531717279758283 -0.049660356561749108 0 0.072219385832792832 -0.066659644627356851 0 0.050629459546369923 -0.074776417317023003 0 0.042727201812981508 -0.099892478072297022 0 0.069701838591585213 -0.089386546866783212 0 0.059655618646742382 -0.10475769562984739 0 0.052448498866582129 -0.1166826243517366 0 0.042727201812981508 -0.099892478072297022 0 0.059655618646742382 -0.10475769562984739 0 0.042727201812981508 -0.099892478072297022 0 0.069701838591585213 -0.089386546866783212 0 0.054296968429680029 -0.13171371816535249 0 0.052448498866582129 -0.1166826243517366 0 0.073744935315820714 -0.1130691332285727 0 0.059655618646742382 -0.10475769562984739 0 0.052448498866582129 -0.1166826243517366 0 0.073744935315820714 -0.1130691332285727 0 0.034824944079593127 -0.12500853882757099 0 0.045553716665441668 -0.12681104972785159 0 0.052448498866582129 -0.1166826243517366 0 0.034824944079593127 -0.12500853882757099 0 0.052448498866582129 -0.1166826243517366 0 0.042727201812981508 -0.099892478072297022 0 0.034824944079593127 -0.12500853882757099 0 0.024129304522527751 -0.1089818526354679 0 0.042727201812981508 -0.099892478072297022 0 0.034824944079593127 -0.12500853882757099 0 0.042727201812981508 -0.099892478072297022 0 0.024129304522527751 -0.1089818526354679 0 0.031293966725895003 -0.08518965294817829 0 0.042727201812981508 -0.099892478072297022 0 0.034885408484197772 0.0062912350017927032 0 0.01265631079038235 -0.01012693536007268 0 0.042517259973231587 -0.011683923625132649 0 -0.00118246574067416 -0.01324232368796026 0 0.0012074066645448821 -0.00065723147797176382 0 0.01265631079038235 -0.01012693536007268 0 0.01265631079038235 -0.01012693536007268 0 0.02406773205363014 -0.026959444655171291 0 0.0015263381015913891 -0.033415212413580753 0 0.01265631079038235 -0.01012693536007268 0 0.0015263381015913891 -0.033415212413580753 0 -0.00118246574067416 -0.01324232368796026 0 0.01265631079038235 -0.01012693536007268 0 0.0015263381015913891 -0.033415212413580753 0 0.01265631079038235 -0.01012693536007268 0 0.02406773205363014 -0.026959444655171291 0 0.042517259973231587 -0.011683923625132649 0 0.02406773205363014 -0.026959444655171291 0 0.021771409900077709 -0.044354063799483319 0 0.04186734150286768 -0.035217088077587062 0 0.02406773205363014 -0.026959444655171291 0 0.021771409900077709 -0.044354063799483319 0 0.0015263381015913891 -0.033415212413580753 0 0.021771409900077709 -0.044354063799483319 0 0.0015263381015913891 -0.033415212413580753 0 0.007298405735321048 -0.051477207310420908 0 -0.0096036345872028556 -0.056703489467087059 0 0.0052181775422467033 -0.064346337314722044 0 0.007298405735321048 -0.051477207310420908 0 0.0052181775422467033 -0.064346337314722044 0 0.007298405735321048 -0.051477207310420908 0 0.017880224012190679 -0.058506375123621113 0 0.021771409900077709 -0.044354063799483319 0 0.017880224012190679 -0.058506375123621113 0 0.035073137211611732 -0.060365082031122411 0 0.021771409900077709 -0.044354063799483319 0 0.007298405735321048 -0.051477207310420908 0 0.017880224012190679 -0.058506375123621113 0 0.035073137211611732 -0.060365082031122411 0 0.058531717279758283 -0.049660356561749108 0 0.04186734150286768 -0.035217088077587062 0 0.050629459546369923 -0.074776417317023003 0 0.058531717279758283 -0.049660356561749108 0 0.050629459546369923 -0.074776417317023003 0 0.035073137211611732 -0.060365082031122411 0 0.058531717279758283 -0.049660356561749108 0 0.058531717279758283 -0.049660356561749108 0 0.066433975013146629 -0.02454429580647528 0 0.058531717279758283 -0.049660356561749108 0 0.04186734150286768 -0.035217088077587062 0 0.066433975013146629 -0.02454429580647528 0 0.021771409900077709 -0.044354063799483319 0 0.035073137211611732 -0.060365082031122411 0 0.04186734150286768 -0.035217088077587062 0 0.02406773205363014 -0.026959444655171291 0 0.04186734150286768 -0.035217088077587062 0 0.042517259973231587 -0.011683923625132649 0 0.04186734150286768 -0.035217088077587062 0 0.042517259973231587 -0.011683923625132649 0 0.066433975013146629 -0.02454429580647528 0 0.052968053050369737 0.0090809173488315582 0 0.042517259973231587 -0.011683923625132649 0 0.067492943165135169 -0.0019794682467893379 0 0.042517259973231587 -0.011683923625132649 0 0.067492943165135169 -0.0019794682467893379 0 0.066433975013146629 -0.02454429580647528 0 0.087040675587819916 -0.0096101539263870796 0 0.066433975013146629 -0.02454429580647528 0 0.098032226742104309 -0.02831505409649597 0 0.083930998993742512 0.0059737405228527038 0 0.087040675587819916 -0.0096101539263870796 0 0.067492943165135169 -0.0019794682467893379 0 0.083930998993742512 0.0059737405228527038 0 0.098495163759696414 0.0029673617968291321 0 0.087040675587819916 -0.0096101539263870796 0 0.087040675587819916 -0.0096101539263870796 0 0.067492943165135169 -0.0019794682467893379 0 0.066433975013146629 -0.02454429580647528 0 0.066433975013146629 -0.02454429580647528 0 0.080663194565618018 -0.042742664855397232 0 0.098032226742104309 -0.02831505409649597 0 0.080663194565618018 -0.042742664855397232 0 0.099119978598511321 -0.045144617550746849 0 0.098032226742104309 -0.02831505409649597 0 0.058531717279758283 -0.049660356561749108 0 0.066433975013146629 -0.02454429580647528 0 0.080663194565618018 -0.042742664855397232 0 0.058531717279758283 -0.049660356561749108 0 0.080663194565618018 -0.042742664855397232 0 0.072219385832792832 -0.066659644627356851 0 0.080663194565618018 -0.042742664855397232 0 0.091985945990252393 -0.059557823171565508 0 0.072219385832792832 -0.066659644627356851 0 0.080663194565618018 -0.042742664855397232 0 0.091985945990252393 -0.059557823171565508 0 0.099119978598511321 -0.045144617550746849 0 0.091985945990252393 -0.059557823171565508 0 0.109385226414503 -0.056941989317685793 0 0.099119978598511321 -0.045144617550746849 0 0.109385226414503 -0.056941989317685793 0 0.1174221699598199 -0.069046986946925279 0 0.12664898879935529 -0.055605769639440771 0 0.109385226414503 -0.056941989317685793 0 0.1155332992800789 -0.038165556312589707 0 0.12664898879935529 -0.055605769639440771 0 0.1155332992800789 -0.038165556312589707 0 0.12954193793015309 -0.041748568408345607 0 0.12664898879935529 -0.055605769639440771 0 0.1155332992800789 -0.038165556312589707 0 0.1294320674019063 -0.023146095115484211 0 0.12954193793015309 -0.041748568408345607 0 0.109385226414503 -0.056941989317685793 0 0.1155332992800789 -0.038165556312589707 0 0.099119978598511321 -0.045144617550746849 0 0.1155332992800789 -0.038165556312589707 0 0.099119978598511321 -0.045144617550746849 0 0.098032226742104309 -0.02831505409649597 0 0.1155332992800789 -0.038165556312589707 0 0.098032226742104309 -0.02831505409649597 0 0.1112777463759113 -0.012222875866518469 0 0.087040675587819916 -0.0096101539263870796 0 0.098032226742104309 -0.02831505409649597 0 0.1112777463759113 -0.012222875866518469 0 0.1155332992800789 -0.038165556312589707 0 0.1112777463759113 -0.012222875866518469 0 0.1294320674019063 -0.023146095115484211 0 0.1158546052028349 0.0064685721448778594 0 0.13464870039648349 0.00080453217212592717 0 0.1112777463759113 -0.012222875866518469 0 0.098495163759696414 0.0029673617968291321 0 0.087040675587819916 -0.0096101539263870796 0 0.1112777463759113 -0.012222875866518469 0 0.1158546052028349 0.0064685721448778594 0 0.098495163759696414 0.0029673617968291321 0 0.1112777463759113 -0.012222875866518469 0 0.093192902201961414 -0.094424548291792879 0 0.088899626305776192 -0.1113374325741409 0 0.073744935315820714 -0.1130691332285727 0 0.093192902201961414 -0.094424548291792879 0 0.073744935315820714 -0.1130691332285727 0 0.069701838591585213 -0.089386546866783212 0 0.093192902201961414 -0.094424548291792879 0 0.073744935315820714 -0.1130691332285727 0 0.081894058627025895 -0.12584863130967919 0 0.088899626305776192 -0.1113374325741409 0 0.09397493983509804 -0.11322330148444169 0 0.081894058627025895 -0.12584863130967919 0 0.079920122843727764 -0.11786127252462281 0 0.075141871126288284 -0.1211898929860986 0 0.081894058627025895 -0.12584863130967919 0 0.088899626305776192 -0.1113374325741409 0 0.079920122843727764 -0.11786127252462281 0 0.088899626305776192 -0.1113374325741409 0 0.079920122843727764 -0.11786127252462281 0 0.073744935315820714 -0.1130691332285727 0 0.068207364780656948 -0.12563827965844471 0 0.054296968429680029 -0.13171371816535249 0 0.073744935315820714 -0.1130691332285727 0 0.054296968429680029 -0.13171371816535249 0 0.073744935315820714 -0.1130691332285727 0 0.068207364780656948 -0.12563827965844471 0 0.073744935315820714 -0.1130691332285727 0 0.075141871126288284 -0.1211898929860986 0 0.079920122843727764 -0.11786127252462281 0 0.073744935315820714 -0.1130691332285727 0 0.075141871126288284 -0.1211898929860986 0 0.081894058627025895 -0.12584863130967919 0 0.068207364780656948 -0.12563827965844471 0 0.075141871126288284 -0.1211898929860986 0 0.059655618646742382 -0.10475769562984739 0 0.073744935315820714 -0.1130691332285727 0 0.069701838591585213 -0.089386546866783212 0 0.050629459546369923 -0.074776417317023003 0 0.069701838591585213 -0.089386546866783212 0 0.072219385832792832 -0.066659644627356851 0 0.069701838591585213 -0.089386546866783212 0 0.072219385832792832 -0.066659644627356851 0 0.089711563165187497 -0.078251462936863553 0 0.091985945990252393 -0.059557823171565508 0 0.072219385832792832 -0.066659644627356851 0 0.089711563165187497 -0.078251462936863553 0 0.093192902201961414 -0.094424548291792879 0 0.069701838591585213 -0.089386546866783212 0 0.089711563165187497 -0.078251462936863553 0 0.093192902201961414 -0.094424548291792879 0 0.089711563165187497 -0.078251462936863553 0 0.1048667032735431 -0.089595599910983495 0 0.089711563165187497 -0.078251462936863553 0 0.1048667032735431 -0.089595599910983495 0 0.1056935618466131 -0.072691272791708894 0 0.1048667032735431 -0.089595599910983495 0 0.1056935618466131 -0.072691272791708894 0 0.11564058922802831 -0.08068930143821873 0 0.091985945990252393 -0.059557823171565508 0 0.089711563165187497 -0.078251462936863553 0 0.1056935618466131 -0.072691272791708894 0 0.091985945990252393 -0.059557823171565508 0 0.109385226414503 -0.056941989317685793 0 0.1056935618466131 -0.072691272791708894 0 0.1174221699598199 -0.069046986946925279 0 0.12840026197867099 -0.078951386265116219 0 0.12664898879935529 -0.055605769639440771 0 0.109385226414503 -0.056941989317685793 0 0.1056935618466131 -0.072691272791708894 0 0.1174221699598199 -0.069046986946925279 0 0.1056935618466131 -0.072691272791708894 0 0.1174221699598199 -0.069046986946925279 0 0.11564058922802831 -0.08068930143821873 0 0.1174221699598199 -0.069046986946925279 0 0.11564058922802831 -0.08068930143821873 0 0.12840026197867099 -0.078951386265116219 0 0.1048667032735431 -0.089595599910983495 0 0.11564058922802831 -0.08068930143821873 0 0.1191358060176364 -0.092450830711447801 0 0.1191358060176364 -0.092450830711447801 0 0.12840026197867099 -0.078951386265116219 0 0.11564058922802831 -0.08068930143821873 0 0.1191358060176364 -0.092450830711447801 0 0.12840026197867099 -0.078951386265116219 0 0.1058809127300703 -0.11218140843774239 0 0.12023297736745781 -0.1110263554770618 0 0.12986776683311119 -0.098514185565799078 0 0.1058809127300703 -0.11218140843774239 0 0.12986776683311119 -0.098514185565799078 0 0.1048667032735431 -0.089595599910983495 0 0.1191358060176364 -0.092450830711447801 0 0.10987135005660249 -0.1059502751577799 0 0.10987135005660249 -0.1059502751577799 0 0.1058809127300703 -0.11218140843774239 0 0.12986776683311119 -0.098514185565799078 0 0.1191358060176364 -0.092450830711447801 0 0.10987135005660249 -0.1059502751577799 0 0.12986776683311119 -0.098514185565799078 0 0.1191358060176364 -0.092450830711447801 0 0.10987135005660249 -0.1059502751577799 0 0.093192902201961414 -0.094424548291792879 0 0.088899626305776192 -0.1113374325741409 0 0.099225161677519755 -0.1035257336162041 0 0.1048667032735431 -0.089595599910983495 0 0.10987135005660249 -0.1059502751577799 0 0.099225161677519755 -0.1035257336162041 0 0.10987135005660249 -0.1059502751577799 0 0.099225161677519755 -0.1035257336162041 0 0.1058809127300703 -0.11218140843774239 0 0.088899626305776192 -0.1113374325741409 0 0.099225161677519755 -0.1035257336162041 0 0.09397493983509804 -0.11322330148444169 0 0.093192902201961414 -0.094424548291792879 0 0.1048667032735431 -0.089595599910983495 0 0.099225161677519755 -0.1035257336162041 0 0.081894058627025895 -0.12584863130967919 0 0.1058809127300703 -0.11218140843774239 0 0.099525338641528904 -0.12611341339503321 0 0.081894058627025895 -0.12584863130967919 0 0.1058809127300703 -0.11218140843774239 0 0.081894058627025895 -0.12584863130967919 0 0.09397493983509804 -0.11322330148444169 0 0.1058809127300703 -0.11218140843774239 0 0.099225161677519755 -0.1035257336162041 0 0.09397493983509804 -0.11322330148444169 0 0.1058809127300703 -0.11218140843774239 0 0.099525338641528904 -0.12611341339503321 0 0.1058809127300703 -0.11218140843774239 0 0.1121708616464093 -0.1216807098986791 0 0.1058809127300703 -0.11218140843774239 0 0.1121708616464093 -0.1216807098986791 0 0.12023297736745781 -0.1110263554770618 0 0.11997683785091839 -0.1276371159963853 0 0.121067612134044 -0.1214532534018402 0 0.13188977167139071 -0.12546883223523481 0 0.12023297736745781 -0.1110263554770618 0 0.121067612134044 -0.1214532534018402 0 0.13188977167139071 -0.12546883223523481 0 0.11997683785091839 -0.1276371159963853 0 0.1121708616464093 -0.1216807098986791 0 0.121067612134044 -0.1214532534018402 0 0.1121708616464093 -0.1216807098986791 0 0.12023297736745781 -0.1110263554770618 0 0.121067612134044 -0.1214532534018402 0 0.12023297736745781 -0.1110263554770618 0 0.12986776683311119 -0.098514185565799078 0 0.13188977167139071 -0.12546883223523481 0 0.12986776683311119 -0.098514185565799078 0 0.13188977167139071 -0.12546883223523481 0 0.14925441928633251 -0.10969288085116551 0 0.13995942417209239 -0.1034127274713456 0 0.13188977167139071 -0.12546883223523481 0 0.14724036225017881 -0.1245170930860646 0 0.14925441928633251 -0.10969288085116551 0 0.13188977167139071 -0.12546883223523481 0 0.14925441928633251 -0.10969288085116551 0 0.15485465026004211 -0.11932571079310079 0 0.15999890680388329 -0.1096406796162286 0 0.14724036225017881 -0.1245170930860646 0 0.15485465026004211 -0.11932571079310079 0 0.15557261582888751 -0.13003178131142151 0 0.14724036225017881 -0.1245170930860646 0 0.14925441928633251 -0.10969288085116551 0 0.15485465026004211 -0.11932571079310079 0 0.14925441928633251 -0.10969288085116551 0 0.14348993397904131 -0.092765062884646393 0 0.1620153957752187 -0.097165399419701551 0 0.14348993397904131 -0.092765062884646393 0 0.1620153957752187 -0.097165399419701551 0 0.14925441928633251 -0.10969288085116551 0 0.13995942417209239 -0.1034127274713456 0 0.14348993397904131 -0.092765062884646393 0 0.13995942417209239 -0.1034127274713456 0 0.12986776683311119 -0.098514185565799078 0 0.13188977167139071 -0.12546883223523481 0 0.13995942417209239 -0.1034127274713456 0 0.12986776683311119 -0.098514185565799078 0 0.14348993397904131 -0.092765062884646393 0 0.12986776683311119 -0.098514185565799078 0 0.12840026197867099 -0.078951386265116219 0 0.1428482005174804 -0.076716741777837147 0 0.1191358060176364 -0.092450830711447801 0 0.12986776683311119 -0.098514185565799078 0 0.12840026197867099 -0.078951386265116219 0 0.12986776683311119 -0.098514185565799078 0 0.12840026197867099 -0.078951386265116219 0 0.12840026197867099 -0.078951386265116219 0 0.12664898879935529 -0.055605769639440771 0 0.12840026197867099 -0.078951386265116219 0 0.12664898879935529 -0.055605769639440771 0 0.14464694777039611 -0.055277979731059648 0 0.12840026197867099 -0.078951386265116219 0 0.1428482005174804 -0.076716741777837147 0 0.14464694777039611 -0.055277979731059648 0 0.12840026197867099 -0.078951386265116219 0 0.14464694777039611 -0.055277979731059648 0 0.1428482005174804 -0.076716741777837147 0 0.15680899227989839 -0.06637062400294011 0 0.14464694777039611 -0.055277979731059648 0 0.1428482005174804 -0.076716741777837147 0 0.15451703372532541 -0.084469533324270707 0 0.15680899227989839 -0.06637062400294011 0 0.12986776683311119 -0.098514185565799078 0 0.15451703372532541 -0.084469533324270707 0 0.12986776683311119 -0.098514185565799078 0 0.14348993397904131 -0.092765062884646393 0 0.15451703372532541 -0.084469533324270707 0 0.14348993397904131 -0.092765062884646393 0 0.15451703372532541 -0.084469533324270707 0 0.1620153957752187 -0.097165399419701551 0 0.12986776683311119 -0.098514185565799078 0 0.1428482005174804 -0.076716741777837147 0 0.15451703372532541 -0.084469533324270707 0 0.15451703372532541 -0.084469533324270707 0 0.1674193516126988 -0.088794767656503876 0 0.1620153957752187 -0.097165399419701551 0 0.15451703372532541 -0.084469533324270707 0 0.1674193516126988 -0.088794767656503876 0 0.16389165652408541 -0.076485311925560115 0 0.1674193516126988 -0.088794767656503876 0 0.16389165652408541 -0.076485311925560115 0 0.17613181446746839 -0.084287857658230353 0 0.15451703372532541 -0.084469533324270707 0 0.15680899227989839 -0.06637062400294011 0 0.16389165652408541 -0.076485311925560115 0 0.16389165652408541 -0.076485311925560115 0 0.1717227713635387 -0.067009979361705274 0 0.17613181446746839 -0.084287857658230353 0 0.15680899227989839 -0.06637062400294011 0 0.16389165652408541 -0.076485311925560115 0 0.1717227713635387 -0.067009979361705274 0 0.15680899227989839 -0.06637062400294011 0 0.1717227713635387 -0.067009979361705274 0 0.1652446184022294 -0.054500080927008407 0 0.1717227713635387 -0.067009979361705274 0 0.17613181446746839 -0.084287857658230353 0 0.1717227713635387 -0.067009979361705274 0 0.18346211879182289 -0.064955309332027283 0 0.18137547142311691 -0.085525622921553163 0 0.18346211879182289 -0.064955309332027283 0 0.18137547142311691 -0.085525622921553163 0 0.1952329782378138 -0.068464889048657496 0 0.1717227713635387 -0.067009979361705274 0 0.18137547142311691 -0.085525622921553163 0 0.1717227713635387 -0.067009979361705274 0 0.18346211879182289 -0.064955309332027283 0 0.1746283364613696 -0.057560297553190053 0 0.18137547142311691 -0.085525622921553163 0 0.17613181446746839 -0.084287857658230353 0 0.18054085757139629 -0.1015657359547559 0 0.17613181446746839 -0.084287857658230353 0 0.18054085757139629 -0.1015657359547559 0 0.1674193516126988 -0.088794767656503876 0 0.17613181446746839 -0.084287857658230353 0 0.18054085757139629 -0.1015657359547559 0 0.1717227713635387 -0.067009979361705274 0 0.18137547142311691 -0.085525622921553163 0 0.17613181446746839 -0.084287857658230353 0 0.18137547142311691 -0.085525622921553163 0 0.19100769245097829 -0.1040519139747048 0 0.18137547142311691 -0.085525622921553163 0 0.18054085757139629 -0.1015657359547559 0 0.19100769245097829 -0.1040519139747048 0 0.18054085757139629 -0.1015657359547559 0 0.1749190978293893 -0.1165979942053425 0 0.16884250162088479 -0.1080310140379921 0 0.18054085757139629 -0.1015657359547559 0 0.19100769245097829 -0.1040519139747048 0 0.18054085757139629 -0.1015657359547559 0 0.1862357176231304 -0.1238823921021804 0 0.1749190978293893 -0.1165979942053425 0 0.18054085757139629 -0.1015657359547559 0 0.1862357176231304 -0.1238823921021804 0 0.19100769245097829 -0.1040519139747048 0 0.18054085757139629 -0.1015657359547559 0 0.1862357176231304 -0.1238823921021804 0 0.1862357176231304 -0.1238823921021804 0 0.1749190978293893 -0.1165979942053425 0 0.17324983187337631 -0.13165498831909611 0 0.1749190978293893 -0.1165979942053425 0 0.16471491079178111 -0.1205264202314431 0 0.16884250162088479 -0.1080310140379921 0 0.16471491079178111 -0.1205264202314431 0 0.15999890680388329 -0.1096406796162286 0 0.16884250162088479 -0.1080310140379921 0 0.1749190978293893 -0.1165979942053425 0 0.16471491079178111 -0.1205264202314431 0 0.17324983187337631 -0.13165498831909611 0 0.15485465026004211 -0.11932571079310079 0 0.16471491079178111 -0.1205264202314431 0 0.15557261582888751 -0.13003178131142151 0 0.15485465026004211 -0.11932571079310079 0 0.16471491079178111 -0.1205264202314431 0 0.15999890680388329 -0.1096406796162286 0 0.18054085757139629 -0.1015657359547559 0 0.1620153957752187 -0.097165399419701551 0 0.1674193516126988 -0.088794767656503876 0 0.18054085757139629 -0.1015657359547559 0 0.1620153957752187 -0.097165399419701551 0 0.14925441928633251 -0.10969288085116551 0 0.15999890680388329 -0.1096406796162286 0 0.1620153957752187 -0.097165399419701551 0 0.15999890680388329 -0.1096406796162286 0 0.1620153957752187 -0.097165399419701551 0 0.16884250162088479 -0.1080310140379921 0 0.18054085757139629 -0.1015657359547559 0 0.1620153957752187 -0.097165399419701551 0 0.16884250162088479 -0.1080310140379921 0 0.13464870039648349 0.00080453217212592717 0 0.15480995508657039 -0.001084596553268768 0 0.14892696920713289 -0.018041582065753459 0 0.13464870039648349 0.00080453217212592717 0 0.1294320674019063 -0.023146095115484211 0 0.14892696920713289 -0.018041582065753459 0 0.13464870039648349 0.00080453217212592717 0 0.1112777463759113 -0.012222875866518469 0 0.1294320674019063 -0.023146095115484211 0 0.1294320674019063 -0.023146095115484211 0 0.14892696920713289 -0.018041582065753459 0 0.14270131340979469 -0.036531096068384838 0 0.14892696920713289 -0.018041582065753459 0 0.14270131340979469 -0.036531096068384838 0 0.16089363356212191 -0.031604573197003549 0 0.14270131340979469 -0.036531096068384838 0 0.14464694777039611 -0.055277979731059648 0 0.16089363356212191 -0.031604573197003549 0 0.14464694777039611 -0.055277979731059648 0 0.15561449558007559 -0.051164132387281437 0 0.16089363356212191 -0.031604573197003549 0 0.14464694777039611 -0.055277979731059648 0 0.16089363356212191 -0.031604573197003549 0 0.14270131340979469 -0.036531096068384838 0 0.12954193793015309 -0.041748568408345607 0 0.14464694777039611 -0.055277979731059648 0 0.1294320674019063 -0.023146095115484211 0 0.14270131340979469 -0.036531096068384838 0 0.12954193793015309 -0.041748568408345607 0 0.12954193793015309 -0.041748568408345607 0 0.12664898879935529 -0.055605769639440771 0 0.14464694777039611 -0.055277979731059648 0 0.15680899227989839 -0.06637062400294011 0 0.14464694777039611 -0.055277979731059648 0 0.15561449558007559 -0.051164132387281437 0 0.15680899227989839 -0.06637062400294011 0 0.15561449558007559 -0.051164132387281437 0 0.1652446184022294 -0.054500080927008407 0 0.15561449558007559 -0.051164132387281437 0 0.1652446184022294 -0.054500080927008407 0 0.1617942405007988 -0.043199732881276223 0 0.1652446184022294 -0.054500080927008407 0 0.1746283364613696 -0.057560297553190053 0 0.1617942405007988 -0.043199732881276223 0 0.1717227713635387 -0.067009979361705274 0 0.1652446184022294 -0.054500080927008407 0 0.1717227713635387 -0.067009979361705274 0 0.1652446184022294 -0.054500080927008407 0 0.1746283364613696 -0.057560297553190053 0 0.1746283364613696 -0.057560297553190053 0 0.1828119860636557 -0.050363577362968731 0 0.1617942405007988 -0.043199732881276223 0 0.18346211879182289 -0.064955309332027283 0 0.1746283364613696 -0.057560297553190053 0 0.1828119860636557 -0.050363577362968731 0 0.18346211879182289 -0.064955309332027283 0 0.1828119860636557 -0.050363577362968731 0 0.19188844298534441 -0.056659859735039647 0 0.1617942405007988 -0.043199732881276223 0 0.18853740735089011 -0.033706188378118708 0 0.1828119860636557 -0.050363577362968731 0 0.1617942405007988 -0.043199732881276223 0 0.18853740735089011 -0.033706188378118708 0 0.15561449558007559 -0.051164132387281437 0 0.16089363356212191 -0.031604573197003549 0 0.1617942405007988 -0.043199732881276223 0 0.16089363356212191 -0.031604573197003549 0 0.1617942405007988 -0.043199732881276223 0 0.18853740735089011 -0.033706188378118708 0 0.16089363356212191 -0.031604573197003549 0 0.17714031935384769 -0.0079311666629475405 0 0.14892696920713289 -0.018041582065753459 0 0.16089363356212191 -0.031604573197003549 0 0.17714031935384769 -0.0079311666629475405 0 0.16089363356212191 -0.031604573197003549 0 0.17714031935384769 -0.0079311666629475405 0 0.18853740735089011 -0.033706188378118708 0 0.1657030786406338 0.0084270166623369204 0 0.15480995508657039 -0.001084596553268768 0 0.17714031935384769 -0.0079311666629475405 0 0.15480995508657039 -0.001084596553268768 0 0.14892696920713289 -0.018041582065753459 0 0.17714031935384769 -0.0079311666629475405 0 0.21351355446813719 -0.0021103410187178909 0 0.2110126965438916 -0.012672932103663791 0 0.2228246624943325 -0.0092295053444410857 0 0.2110126965438916 -0.012672932103663791 0 0.21911622703360889 -0.015650702578479541 0 0.2228246624943325 -0.0092295053444410857 0 0.21351355446813719 -0.0021103410187178909 0 0.2110126965438916 -0.012672932103663791 0 0.19836939172364151 -0.01016904411482358 0 0.1998105265397013 0.00335350757378736 0 0.21351355446813719 -0.0021103410187178909 0 0.19836939172364151 -0.01016904411482358 0 0.1998105265397013 0.00335350757378736 0 0.17714031935384769 -0.0079311666629475405 0 0.19836939172364151 -0.01016904411482358 0 0.17714031935384769 -0.0079311666629475405 0 0.19836939172364151 -0.01016904411482358 0 0.18853740735089011 -0.033706188378118708 0 0.2110126965438916 -0.012672932103663791 0 0.19836939172364151 -0.01016904411482358 0 0.18853740735089011 -0.033706188378118708 0 0.21528057420098159 -0.024212643874961401 0 0.18853740735089011 -0.033706188378118708 0 0.2110126965438916 -0.012672932103663791 0 0.21528057420098159 -0.024212643874961401 0 0.18853740735089011 -0.033706188378118708 0 0.21528057420098159 -0.024212643874961401 0 0.20886364623554921 -0.031523512657201581 0 0.18853740735089011 -0.033706188378118708 0 0.2110126965438916 -0.012672932103663791 0 0.21528057420098159 -0.024212643874961401 0 0.21911622703360889 -0.015650702578479541 0 0.21528057420098159 -0.024212643874961401 0 0.2158000993154765 -0.027276596113623111 0 0.21360323626451261 -0.02858374534336202 0 0.21528057420098159 -0.024212643874961401 0 0.2158000993154765 -0.027276596113623111 0 0.21995729679401421 -0.029331280632926501 0 0.2158000993154765 -0.027276596113623111 0 0.21503400689837671 -0.030930810510401429 0 0.21995729679401421 -0.029331280632926501 0 0.2158000993154765 -0.027276596113623111 0 0.21503400689837671 -0.030930810510401429 0 0.21360323626451261 -0.02858374534336202 0 0.21528057420098159 -0.024212643874961401 0 0.21360323626451261 -0.02858374534336202 0 0.20886364623554921 -0.031523512657201581 0 0.21503400689837671 -0.030930810510401429 0 0.21360323626451261 -0.02858374534336202 0 0.20886364623554921 -0.031523512657201581 0 0.2128060919330283 -0.035124071741943173 0 0.2180191377477218 -0.035203133534298187 0 0.2167024847658664 -0.043974661413588162 0 0.21503400689837671 -0.030930810510401429 0 0.2128060919330283 -0.035124071741943173 0 0.20886364623554921 -0.031523512657201581 0 0.21503400689837671 -0.030930810510401429 0 0.2128060919330283 -0.035124071741943173 0 0.2180191377477218 -0.035203133534298187 0 0.21503400689837671 -0.030930810510401429 0 0.2180191377477218 -0.035203133534298187 0 0.21995729679401421 -0.029331280632926501 0 0.2167024847658664 -0.043974661413588162 0 0.20890374551960481 -0.040729144831228678 0 0.20897987019450001 -0.050060865146210963 0 0.2128060919330283 -0.035124071741943173 0 0.2167024847658664 -0.043974661413588162 0 0.20890374551960481 -0.040729144831228678 0 0.20890374551960481 -0.040729144831228678 0 0.19655169947710091 -0.043788383486002072 0 0.20897987019450001 -0.050060865146210963 0 0.2128060919330283 -0.035124071741943173 0 0.20890374551960481 -0.040729144831228678 0 0.20886364623554921 -0.031523512657201581 0 0.20890374551960481 -0.040729144831228678 0 0.20886364623554921 -0.031523512657201581 0 0.19655169947710091 -0.043788383486002072 0 0.1828119860636557 -0.050363577362968731 0 0.18853740735089011 -0.033706188378118708 0 0.19655169947710091 -0.043788383486002072 0 0.20886364623554921 -0.031523512657201581 0 0.18853740735089011 -0.033706188378118708 0 0.19655169947710091 -0.043788383486002072 0 0.19655169947710091 -0.043788383486002072 0 0.20138343235632811 -0.055727139445542639 0 0.20897987019450001 -0.050060865146210963 0 0.19655169947710091 -0.043788383486002072 0 0.19188844298534441 -0.056659859735039647 0 0.20138343235632811 -0.055727139445542639 0 0.1828119860636557 -0.050363577362968731 0 0.19655169947710091 -0.043788383486002072 0 0.19188844298534441 -0.056659859735039647 0 0.19188844298534441 -0.056659859735039647 0 0.20138343235632811 -0.055727139445542639 0 0.1952329782378138 -0.068464889048657496 0 0.20138343235632811 -0.055727139445542639 0 0.22670270369963491 -0.067064047377793826 0 0.20138343235632811 -0.055727139445542639 0 0.21577564808412511 -0.056666161138016313 0 0.22670270369963491 -0.067064047377793826 0 0.20138343235632811 -0.055727139445542639 0 0.20897987019450001 -0.050060865146210963 0 0.21577564808412511 -0.056666161138016313 0 0.2167024847658664 -0.043974661413588162 0 0.20897987019450001 -0.050060865146210963 0 0.21577564808412511 -0.056666161138016313 0 0.21577564808412511 -0.056666161138016313 0 0.23694359709532001 -0.061394592404840097 0 0.22670270369963491 -0.067064047377793826 0 0.21577564808412511 -0.056666161138016313 0 0.22648325856373289 -0.049317463857355977 0 0.23694359709532001 -0.061394592404840097 0 0.21577564808412511 -0.056666161138016313 0 0.23694359709532001 -0.061394592404840097 0 0.2167024847658664 -0.043974661413588162 0 0.21577564808412511 -0.056666161138016313 0 0.22648325856373289 -0.049317463857355977 0 0.22648325856373289 -0.049317463857355977 0 0.23694359709532001 -0.061394592404840097 0 0.23716366819637241 -0.046229271507985323 0 0.25811154610651499 -0.066123023671663908 0 0.23694359709532001 -0.061394592404840097 0 0.24870160087168189 -0.052882304334001928 0 0.23694359709532001 -0.061394592404840097 0 0.24870160087168189 -0.052882304334001928 0 0.23716366819637241 -0.046229271507985323 0 0.24870160087168189 -0.052882304334001928 0 0.23716366819637241 -0.046229271507985323 0 0.24731406762381819 -0.035960341631652723 0 0.23716366819637241 -0.046229271507985323 0 0.24731406762381819 -0.035960341631652723 0 0.23342582712955959 -0.033308149953783547 0 0.23342582712955959 -0.033308149953783547 0 0.2258308946769807 -0.038322632822349968 0 0.22548915127375299 -0.027513718828695861 0 0.22648325856373289 -0.049317463857355977 0 0.23716366819637241 -0.046229271507985323 0 0.2258308946769807 -0.038322632822349968 0 0.23716366819637241 -0.046229271507985323 0 0.23342582712955959 -0.033308149953783547 0 0.2258308946769807 -0.038322632822349968 0 0.2180191377477218 -0.035203133534298187 0 0.2167024847658664 -0.043974661413588162 0 0.2258308946769807 -0.038322632822349968 0 0.2167024847658664 -0.043974661413588162 0 0.22648325856373289 -0.049317463857355977 0 0.2258308946769807 -0.038322632822349968 0 0.2180191377477218 -0.035203133534298187 0 0.2258308946769807 -0.038322632822349968 0 0.21995729679401421 -0.029331280632926501 0 0.2258308946769807 -0.038322632822349968 0 0.22548915127375299 -0.027513718828695861 0 0.21995729679401421 -0.029331280632926501 0 0.21528057420098159 -0.024212643874961401 0 0.2313313538768734 -0.018514784978234038 0 0.22829619310998309 -0.01520182636873813 0 0.21528057420098159 -0.024212643874961401 0 0.2313313538768734 -0.018514784978234038 0 0.21528057420098159 -0.024212643874961401 0 0.22548915127375299 -0.027513718828695861 0 0.2313313538768734 -0.018514784978234038 0 0.21528057420098159 -0.024212643874961401 0 0.22548915127375299 -0.027513718828695861 0 0.21995729679401421 -0.029331280632926501 0 0.21528057420098159 -0.024212643874961401 0 0.22829619310998309 -0.01520182636873813 0 0.21528057420098159 -0.024212643874961401 0 0.21911622703360889 -0.015650702578479541 0 0.22829619310998309 -0.01520182636873813 0 0.2313313538768734 -0.018514784978234038 0 0.22829619310998309 -0.01520182636873813 0 0.23342582712955959 -0.033308149953783547 0 0.22548915127375299 -0.027513718828695861 0 0.2313313538768734 -0.018514784978234038 0 0.25508119948702751 -0.010083838205662381 0 0.2313313538768734 -0.018514784978234038 0 0.2482857443068576 -0.021714794414400052 0 0.24731406762381819 -0.035960341631652723 0 0.2313313538768734 -0.018514784978234038 0 0.2482857443068576 -0.021714794414400052 0 0.24731406762381819 -0.035960341631652723 0 0.23342582712955959 -0.033308149953783547 0 0.2313313538768734 -0.018514784978234038 0 0.24731406762381819 -0.035960341631652723 0 0.2313313538768734 -0.018514784978234038 0 0.25508119948702751 -0.010083838205662381 0 0.2313313538768734 -0.018514784978234038 0 0.24138147174972829 -0.0061427828714447699 0 0.25508119948702751 -0.010083838205662381 0 0.2313313538768734 -0.018514784978234038 0 0.24138147174972829 -0.0061427828714447699 0 0.22829619310998309 -0.01520182636873813 0 0.25446675038947358 0.0029162606258486688 0 0.2541426920980116 -0.0036136263454906951 0 0.24138147174972829 -0.0061427828714447699 0 0.25446675038947358 0.0029162606258486688 0 0.24138147174972829 -0.0061427828714447699 0 0.22999165343287109 0.0038227322559807589 0 0.24138147174972829 -0.0061427828714447699 0 0.23189167676904729 -0.0064153040848911828 0 0.22999165343287109 0.0038227322559807589 0 0.23189167676904729 -0.0064153040848911828 0 0.2228246624943325 -0.0092295053444410857 0 0.22999165343287109 0.0038227322559807589 0 0.21351355446813719 -0.0021103410187178909 0 0.2228246624943325 -0.0092295053444410857 0 0.23189167676904729 -0.0064153040848911828 0 0.22829619310998309 -0.01520182636873813 0 0.2228246624943325 -0.0092295053444410857 0 0.2313313538768734 -0.018514784978234038 0 0.24138147174972829 -0.0061427828714447699 0 0.22829619310998309 -0.01520182636873813 0 0.24138147174972829 -0.0061427828714447699 0 0.23189167676904729 -0.0064153040848911828 0 0.22829619310998309 -0.01520182636873813 0 0.21911622703360889 -0.015650702578479541 0 0.22829619310998309 -0.01520182636873813 0 0.2228246624943325 -0.0092295053444410857 0 0.22829619310998309 -0.01520182636873813 0 0.2228246624943325 -0.0092295053444410857 0 0.2084634723971549 -0.097930235578601213 0 0.21737999015654699 -0.1103161024944793 0 0.2275791846540145 -0.10054182369239011 0 0.21737999015654699 -0.1103161024944793 0 0.19100769245097829 -0.1040519139747048 0 0.2084634723971549 -0.097930235578601213 0 0.21140608144591419 -0.084503356370523836 0 0.2275791846540145 -0.10054182369239011 0 0.2084634723971549 -0.097930235578601213 0 0.21737999015654699 -0.1103161024944793 0 0.19100769245097829 -0.1040519139747048 0 0.21737999015654699 -0.1103161024944793 0 0.21277072480774051 -0.1248863227998855 0 0.20025029595199689 -0.1218288277367077 0 0.21737999015654699 -0.1103161024944793 0 0.21277072480774051 -0.1248863227998855 0 0.2239597136694004 -0.1277946194696456 0 0.1862357176231304 -0.1238823921021804 0 0.20025029595199689 -0.1218288277367077 0 0.19100769245097829 -0.1040519139747048 0 0.21737999015654699 -0.1103161024944793 0 0.20025029595199689 -0.1218288277367077 0 0.19100769245097829 -0.1040519139747048 0 0.20025029595199689 -0.1218288277367077 0 0.19100769245097829 -0.1040519139747048 0 0.2084634723971549 -0.097930235578601213 0 0.19100769245097829 -0.1040519139747048 0 0.19624682445825681 -0.08914472739044943 0 0.18137547142311691 -0.085525622921553163 0 0.19100769245097829 -0.1040519139747048 0 0.19624682445825681 -0.08914472739044943 0 0.19624682445825681 -0.08914472739044943 0 0.1952329782378138 -0.068464889048657496 0 0.21140608144591419 -0.084503356370523836 0 0.18137547142311691 -0.085525622921553163 0 0.19624682445825681 -0.08914472739044943 0 0.1952329782378138 -0.068464889048657496 0 0.20138343235632811 -0.055727139445542639 0 0.1952329782378138 -0.068464889048657496 0 0.21149591893834541 -0.070957707586151192 0 0.18346211879182289 -0.064955309332027283 0 0.19188844298534441 -0.056659859735039647 0 0.1952329782378138 -0.068464889048657496 0 0.1952329782378138 -0.068464889048657496 0 0.21140608144591419 -0.084503356370523836 0 0.20138343235632811 -0.055727139445542639 0 0.21149591893834541 -0.070957707586151192 0 0.22670270369963491 -0.067064047377793826 0 0.1952329782378138 -0.068464889048657496 0 0.21149591893834541 -0.070957707586151192 0 0.21140608144591419 -0.084503356370523836 0 0.2084634723971549 -0.097930235578601213 0 0.19624682445825681 -0.08914472739044943 0 0.21140608144591419 -0.084503356370523836 0 0.21149591893834541 -0.070957707586151192 0 0.21140608144591419 -0.084503356370523836 0 0.2227543989520358 -0.079029105688238177 0 0.21140608144591419 -0.084503356370523836 0 0.2275791846540145 -0.10054182369239011 0 0.2227543989520358 -0.079029105688238177 0 0.23449163343577681 -0.083610487294907485 0 0.2275791846540145 -0.10054182369239011 0 0.21140608144591419 -0.084503356370523836 0 0.2227543989520358 -0.079029105688238177 0 0.2275791846540145 -0.10054182369239011 0 0.2227543989520358 -0.079029105688238177 0 0.22670270369963491 -0.067064047377793826 0 0.23449163343577681 -0.083610487294907485 0 0.21149591893834541 -0.070957707586151192 0 0.2227543989520358 -0.079029105688238177 0 0.22670270369963491 -0.067064047377793826 0 0.25202197504294188 -0.078400955310045109 0 0.25811154610651499 -0.066123023671663908 0 0.23694359709532001 -0.061394592404840097 0 0.25202197504294188 -0.078400955310045109 0 0.22670270369963491 -0.067064047377793826 0 0.25202197504294188 -0.078400955310045109 0 0.22670270369963491 -0.067064047377793826 0 0.23449163343577681 -0.083610487294907485 0 0.25202197504294188 -0.078400955310045109 0 0.23694359709532001 -0.061394592404840097 0 0.22670270369963491 -0.067064047377793826 0 0.25811154610651499 -0.066123023671663908 0 0.23694359709532001 -0.061394592404840097 0 0.25202197504294188 -0.078400955310045109 0 0.23449163343577681 -0.083610487294907485 0 0.24624903761231479 -0.086847438891893419 0 0.23449163343577681 -0.083610487294907485 0 0.24292322406264641 -0.096552741650977186 0 0.2275791846540145 -0.10054182369239011 0 0.23449163343577681 -0.083610487294907485 0 0.24624903761231479 -0.086847438891893419 0 0.24292322406264641 -0.096552741650977186 0 0.25304747237378489 -0.090741332181114118 0 0.24624903761231479 -0.086847438891893419 0 0.24292322406264641 -0.096552741650977186 0 0.2275791846540145 -0.10054182369239011 0 0.24375228786211539 -0.116580291014256 0 0.24292322406264641 -0.096552741650977186 0 0.2275791846540145 -0.10054182369239011 0 0.24375228786211539 -0.116580291014256 0 0.25771864553297669 -0.099620140202181948 0 0.24292322406264641 -0.096552741650977186 0 0.24375228786211539 -0.116580291014256 0 0.21737999015654699 -0.1103161024944793 0 0.2275791846540145 -0.10054182369239011 0 0.24375228786211539 -0.116580291014256 0 0.21737999015654699 -0.1103161024944793 0 0.24375228786211539 -0.116580291014256 0 0.2239597136694004 -0.1277946194696456 0 0.21737999015654699 -0.1103161024944793 0 0.24375228786211539 -0.116580291014256 0 0.24375228786211539 -0.116580291014256 0 0.235054631712311 -0.13955626642273861 0 0.24955680073527009 -0.143898101237383 0 0.235054631712311 -0.13955626642273861 0 0.24955680073527009 -0.143898101237383 0 0.23627457688356679 -0.15840319400941011 0 0.25449645062408999 -0.16331052089379791 0 0.24955680073527009 -0.143898101237383 0 0.23627457688356679 -0.15840319400941011 0 0.235054631712311 -0.13955626642273861 0 0.22199130801810529 -0.1478171468904442 0 0.23627457688356679 -0.15840319400941011 0 0.24375228786211539 -0.116580291014256 0 0.235054631712311 -0.13955626642273861 0 0.2239597136694004 -0.1277946194696456 0 0.235054631712311 -0.13955626642273861 0 0.22199130801810529 -0.1478171468904442 0 0.2239597136694004 -0.1277946194696456 0 0.20025029595199689 -0.1218288277367077 0 0.20949289945301761 -0.1396057414987095 0 0.22199130801810529 -0.1478171468904442 0 0.2239597136694004 -0.1277946194696456 0 0.20949289945301761 -0.1396057414987095 0 0.21277072480774051 -0.1248863227998855 0 0.20025029595199689 -0.1218288277367077 0 0.20949289945301761 -0.1396057414987095 0 0.21277072480774051 -0.1248863227998855 0 0.2239597136694004 -0.1277946194696456 0 0.20949289945301761 -0.1396057414987095 0 0.22199130801810529 -0.1478171468904442 0 0.20949289945301761 -0.1396057414987095 0 0.2069794531536403 -0.1537888919124783 0 0.20949289945301761 -0.1396057414987095 0 0.2069794531536403 -0.1537888919124783 0 0.1919305776748628 -0.1461990482496055 0 0.2069794531536403 -0.1537888919124783 0 0.1919305776748628 -0.1461990482496055 0 0.19225769977326759 -0.16432491474026781 0 0.1862357176231304 -0.1238823921021804 0 0.1919305776748628 -0.1461990482496055 0 0.19714487019074359 -0.1333469628700395 0 0.20025029595199689 -0.1218288277367077 0 0.20949289945301761 -0.1396057414987095 0 0.19714487019074359 -0.1333469628700395 0 0.20949289945301761 -0.1396057414987095 0 0.1919305776748628 -0.1461990482496055 0 0.19714487019074359 -0.1333469628700395 0 0.1862357176231304 -0.1238823921021804 0 0.1919305776748628 -0.1461990482496055 0 0.1862357176231304 -0.1238823921021804 0 0.20025029595199689 -0.1218288277367077 0 0.19714487019074359 -0.1333469628700395 0 0.19629081049063871 -0.1815365299480412 0 0.19225769977326759 -0.16432491474026781 0 0.17982600751226671 -0.1762593337595659 0 0.19629081049063871 -0.1815365299480412 0 0.19225769977326759 -0.16432491474026781 0 0.22018657323669569 -0.16775416802968299 0 0.2069794531536403 -0.1537888919124783 0 0.19225769977326759 -0.16432491474026781 0 0.22018657323669569 -0.16775416802968299 0 0.22199130801810529 -0.1478171468904442 0 0.2069794531536403 -0.1537888919124783 0 0.22018657323669569 -0.16775416802968299 0 0.19629081049063871 -0.1815365299480412 0 0.22018657323669569 -0.16775416802968299 0 0.21237941264848451 -0.18810475376770611 0 0.22018657323669569 -0.16775416802968299 0 0.23934418379307471 -0.18436482883247621 0 0.22018657323669569 -0.16775416802968299 0 0.23934418379307471 -0.18436482883247621 0 0.21237941264848451 -0.18810475376770611 0 0.22018657323669569 -0.16775416802968299 0 0.23627457688356679 -0.15840319400941011 0 0.23934418379307471 -0.18436482883247621 0 0.22199130801810529 -0.1478171468904442 0 0.22018657323669569 -0.16775416802968299 0 0.23627457688356679 -0.15840319400941011 0 0.25449645062408999 -0.16331052089379791 0 0.23627457688356679 -0.15840319400941011 0 0.23934418379307471 -0.18436482883247621 0 0.25850179434945381 -0.20097548963526929 0 0.23934418379307471 -0.18436482883247621 0 0.25850179434945381 -0.20097548963526929 0 0.23934418379307471 -0.18436482883247621 0 0.23907695871134879 -0.21289681242661959 0 0.23907695871134879 -0.21289681242661959 0 0.22308479462261119 -0.20217133576560289 0 0.21722062693650279 -0.2226466586169516 0 0.23934418379307471 -0.18436482883247621 0 0.22308479462261119 -0.20217133576560289 0 0.21237941264848451 -0.18810475376770611 0 0.23934418379307471 -0.18436482883247621 0 0.23907695871134879 -0.21289681242661959 0 0.22308479462261119 -0.20217133576560289 0 0.25037283077400019 -0.2416092145933311 0 0.23239962387573149 -0.2337287944253621 0 0.2339549802858914 -0.24933471903745599 0 0.25658827463044448 -0.2222138965281123 0 0.23907695871134879 -0.21289681242661959 0 0.2446094219978813 -0.2276121794933563 0 0.25037283077400019 -0.2416092145933311 0 0.2446094219978813 -0.2276121794933563 0 0.23239962387573149 -0.2337287944253621 0 0.23907695871134879 -0.21289681242661959 0 0.2446094219978813 -0.2276121794933563 0 0.23239962387573149 -0.2337287944253621 0 0.23907695871134879 -0.21289681242661959 0 0.23239962387573149 -0.2337287944253621 0 0.21722062693650279 -0.2226466586169516 0 0.23239962387573149 -0.2337287944253621 0 0.2194561222393229 -0.23682627783696539 0 0.21722062693650279 -0.2226466586169516 0 0.23239962387573149 -0.2337287944253621 0 0.22502312889380549 -0.2426362774769398 0 0.2339549802858914 -0.24933471903745599 0 0.2194561222393229 -0.23682627783696539 0 0.22502312889380549 -0.2426362774769398 0 0.21456577207223029 -0.24270171036535029 0 0.23239962387573149 -0.2337287944253621 0 0.2194561222393229 -0.23682627783696539 0 0.22502312889380549 -0.2426362774769398 0 0.22331750647786899 -0.25281133177650322 0 0.22502312889380549 -0.2426362774769398 0 0.21456577207223029 -0.24270171036535029 0 0.22331750647786899 -0.25281133177650322 0 0.22502312889380549 -0.2426362774769398 0 0.2339549802858914 -0.24933471903745599 0 0.2084475354763706 -0.25511513831035743 0 0.2080714594183444 -0.2424179483002232 0 0.21336353465090491 -0.24693864317134839 0 0.2080714594183444 -0.2424179483002232 0 0.21336353465090491 -0.24693864317134839 0 0.2080714594183444 -0.2424179483002232 0 0.21336353465090491 -0.24693864317134839 0 0.21456577207223029 -0.24270171036535029 0 0.2194561222393229 -0.23682627783696539 0 0.2080714594183444 -0.2424179483002232 0 0.21456577207223029 -0.24270171036535029 0 0.21722062693650279 -0.2226466586169516 0 0.20244123733496699 -0.2260211367091485 0 0.19848523837712481 -0.2136299623964425 0 0.2080714594183444 -0.2424179483002232 0 0.21722062693650279 -0.2226466586169516 0 0.2194561222393229 -0.23682627783696539 0 0.2080714594183444 -0.2424179483002232 0 0.21722062693650279 -0.2226466586169516 0 0.2080714594183444 -0.2424179483002232 0 0.21722062693650279 -0.2226466586169516 0 0.20244123733496699 -0.2260211367091485 0 0.2080714594183444 -0.2424179483002232 0 0.18716213711817259 -0.22455639835484539 0 0.2080714594183444 -0.2424179483002232 0 0.20244123733496699 -0.2260211367091485 0 0.18716213711817259 -0.22455639835484539 0 0.20244123733496699 -0.2260211367091485 0 0.19848523837712481 -0.2136299623964425 0 0.18716213711817259 -0.22455639835484539 0 0.2080714594183444 -0.2424179483002232 0 0.19254414318066221 -0.24961624770678509 0 0.1866817818972302 -0.23981118877977231 0 0.2080714594183444 -0.2424179483002232 0 0.1866817818972302 -0.23981118877977231 0 0.18716213711817259 -0.22455639835484539 0 0.19254414318066221 -0.24961624770678509 0 0.18399505531774341 -0.24981832115951039 0 0.1866817818972302 -0.23981118877977231 0 0.21237941264848451 -0.18810475376770611 0 0.20793523744788639 -0.20366419955677639 0 0.19447652973028121 -0.19759128756789451 0 0.22308479462261119 -0.20217133576560289 0 0.21237941264848451 -0.18810475376770611 0 0.20793523744788639 -0.20366419955677639 0 0.22308479462261119 -0.20217133576560289 0 0.21722062693650279 -0.2226466586169516 0 0.20793523744788639 -0.20366419955677639 0 0.21722062693650279 -0.2226466586169516 0 0.20793523744788639 -0.20366419955677639 0 0.19848523837712481 -0.2136299623964425 0 0.19848523837712481 -0.2136299623964425 0 0.19447652973028121 -0.19759128756789451 0 0.1831457957419608 -0.2071674304332729 0 0.20793523744788639 -0.20366419955677639 0 0.19848523837712481 -0.2136299623964425 0 0.19447652973028121 -0.19759128756789451 0 0.19848523837712481 -0.2136299623964425 0 0.1831457957419608 -0.2071674304332729 0 0.18716213711817259 -0.22455639835484539 0 0.19629081049063871 -0.1815365299480412 0 0.19447652973028121 -0.19759128756789451 0 0.1840061663436266 -0.1900566622106199 0 0.19629081049063871 -0.1815365299480412 0 0.21237941264848451 -0.18810475376770611 0 0.19447652973028121 -0.19759128756789451 0 0.19447652973028121 -0.19759128756789451 0 0.1840061663436266 -0.1900566622106199 0 0.1831457957419608 -0.2071674304332729 0 0.1840061663436266 -0.1900566622106199 0 0.1831457957419608 -0.2071674304332729 0 0.16486725365112659 -0.18785963188663279 0 0.1831457957419608 -0.2071674304332729 0 0.16486725365112659 -0.18785963188663279 0 0.1831457957419608 -0.2071674304332729 0 0.16625281481800089 -0.2066948484094672 0 0.18716213711817259 -0.22455639835484539 0 0.16625281481800089 -0.2066948484094672 0 0.18716213711817259 -0.22455639835484539 0 0.16625281481800089 -0.2066948484094672 0 0.18716213711817259 -0.22455639835484539 0 0.16937657335138201 -0.22198425569814831 0 0.16625281481800089 -0.2066948484094672 0 0.15661990237239229 -0.21733625041789439 0 0.14909823278687431 -0.20687378182447139 0 0.16625281481800089 -0.2066948484094672 0 0.15661990237239229 -0.21733625041789439 0 0.16937657335138201 -0.22198425569814831 0 0.1831457957419608 -0.2071674304332729 0 0.16625281481800089 -0.2066948484094672 0 0.16486725365112659 -0.18785963188663279 0 0.16625281481800089 -0.2066948484094672 0 0.16486725365112659 -0.18785963188663279 0 0.14534349251782941 -0.188833298464089 0 0.17619278994504239 -0.24587918172992959 0 0.18399505531774341 -0.24981832115951039 0 0.1866817818972302 -0.23981118877977231 0 0.17619278994504239 -0.24587918172992959 0 0.17450151464944069 -0.23276490516368609 0 0.16609645978724119 -0.24143951784646769 0 0.17619278994504239 -0.24587918172992959 0 0.1866817818972302 -0.23981118877977231 0 0.17450151464944069 -0.23276490516368609 0 0.17450151464944069 -0.23276490516368609 0 0.18716213711817259 -0.22455639835484539 0 0.16937657335138201 -0.22198425569814831 0 0.1866817818972302 -0.23981118877977231 0 0.17450151464944069 -0.23276490516368609 0 0.18716213711817259 -0.22455639835484539 0 0.15661990237239229 -0.21733625041789439 0 0.1623464977989032 -0.22856887614484861 0 0.15090654410468329 -0.22688320449844629 0 0.15661990237239229 -0.21733625041789439 0 0.16937657335138201 -0.22198425569814831 0 0.1623464977989032 -0.22856887614484861 0 0.17450151464944069 -0.23276490516368609 0 0.1623464977989032 -0.22856887614484861 0 0.16609645978724119 -0.24143951784646769 0 0.17450151464944069 -0.23276490516368609 0 0.16937657335138201 -0.22198425569814831 0 0.1623464977989032 -0.22856887614484861 0 0.1623464977989032 -0.22856887614484861 0 0.16609645978724119 -0.24143951784646769 0 0.1528270009437688 -0.23836283418195289 0 0.16001236861667459 -0.2513654190734112 0 0.16609645978724119 -0.24143951784646769 0 0.1528270009437688 -0.23836283418195289 0 0.16978669848249819 -0.25098739912941831 0 0.17619278994504239 -0.24587918172992959 0 0.16609645978724119 -0.24143951784646769 0 0.16001236861667459 -0.2513654190734112 0 0.16978669848249819 -0.25098739912941831 0 0.16609645978724119 -0.24143951784646769 0 0.1429630926125974 -0.2502577086919005 0 0.16001236861667459 -0.2513654190734112 0 0.1528270009437688 -0.23836283418195289 0 0.1429630926125974 -0.2502577086919005 0 0.1528270009437688 -0.23836283418195289 0 0.13988621804673579 -0.23152362256679451 0 0.1528270009437688 -0.23836283418195289 0 0.15090654410468329 -0.22688320449844629 0 0.13988621804673579 -0.23152362256679451 0 0.1623464977989032 -0.22856887614484861 0 0.1528270009437688 -0.23836283418195289 0 0.15090654410468329 -0.22688320449844629 0 0.15661990237239229 -0.21733625041789439 0 0.15090654410468329 -0.22688320449844629 0 0.1428531013616163 -0.21862443918074129 0 0.15090654410468329 -0.22688320449844629 0 0.13988621804673579 -0.23152362256679451 0 0.1428531013616163 -0.21862443918074129 0 0.12018370186474731 -0.23305432747703519 0 0.12895394136930069 -0.22163642029703709 0 0.13988621804673579 -0.23152362256679451 0 0.12895394136930069 -0.22163642029703709 0 0.13988621804673579 -0.23152362256679451 0 0.1428531013616163 -0.21862443918074129 0 0.1429630926125974 -0.2502577086919005 0 0.12018370186474731 -0.23305432747703519 0 0.1429630926125974 -0.2502577086919005 0 0.12018370186474731 -0.23305432747703519 0 0.13988621804673579 -0.23152362256679451 0 0.13217397618885759 -0.25462043987800831 0 0.1429630926125974 -0.2502577086919005 0 0.12018370186474731 -0.23305432747703519 0 0.16625281481800089 -0.2066948484094672 0 0.14534349251782941 -0.188833298464089 0 0.16625281481800089 -0.2066948484094672 0 0.14534349251782941 -0.188833298464089 0 0.14909823278687431 -0.20687378182447139 0 0.14534349251782941 -0.188833298464089 0 0.14909823278687431 -0.20687378182447139 0 0.1346280568372662 -0.20359450925845249 0 0.15661990237239229 -0.21733625041789439 0 0.14909823278687431 -0.20687378182447139 0 0.1428531013616163 -0.21862443918074129 0 0.14909823278687431 -0.20687378182447139 0 0.1428531013616163 -0.21862443918074129 0 0.1346280568372662 -0.20359450925845249 0 0.1178461100078927 -0.20838697738218431 0 0.12895394136930069 -0.22163642029703709 0 0.1346280568372662 -0.20359450925845249 0 0.12895394136930069 -0.22163642029703709 0 0.1428531013616163 -0.21862443918074129 0 0.1346280568372662 -0.20359450925845249 0 0.14534349251782941 -0.188833298464089 0 0.1346280568372662 -0.20359450925845249 0 0.13128332926409281 -0.18787359724935929 0 0.1237689835273371 -0.19605207676116951 0 0.1178461100078927 -0.20838697738218431 0 0.1346280568372662 -0.20359450925845249 0 0.1237689835273371 -0.19605207676116951 0 0.1346280568372662 -0.20359450925845249 0 0.13128332926409281 -0.18787359724935929 0 0.1237689835273371 -0.19605207676116951 0 0.1232013989280239 -0.1819146573535104 0 0.13128332926409281 -0.18787359724935929 0 0.12443417021765769 -0.1709717485187108 0 0.14534349251782941 -0.188833298464089 0 0.12443417021765769 -0.1709717485187108 0 0.1232013989280239 -0.1819146573535104 0 0.13128332926409281 -0.18787359724935929 0 0.12443417021765769 -0.1709717485187108 0 0.14534349251782941 -0.188833298464089 0 0.13128332926409281 -0.18787359724935929 0 0.12443417021765769 -0.1709717485187108 0 0.14534349251782941 -0.188833298464089 0 0.13540865390058859 -0.1688207667960602 0 0.14534349251782941 -0.188833298464089 0 0.14658871156029241 -0.16855183333999291 0 0.13540865390058859 -0.1688207667960602 0 0.16486725365112659 -0.18785963188663279 0 0.14658871156029241 -0.16855183333999291 0 0.16486725365112659 -0.18785963188663279 0 0.14534349251782941 -0.188833298464089 0 0.14658871156029241 -0.16855183333999291 0 0.14658871156029241 -0.16855183333999291 0 0.13391177650968769 -0.15242347890466901 0 0.14971917460686079 -0.1530450482394467 0 0.14658871156029241 -0.16855183333999291 0 0.14971917460686079 -0.1530450482394467 0 0.16192904395431579 -0.15800089119817939 0 0.14658871156029241 -0.16855183333999291 0 0.13391177650968769 -0.15242347890466901 0 0.12831016946945831 -0.1492440347933528 0 0.14658871156029241 -0.16855183333999291 0 0.12831016946945831 -0.1492440347933528 0 0.14658871156029241 -0.16855183333999291 0 0.13540865390058859 -0.1688207667960602 0 0.1290045142054978 -0.1612372837293575 0 0.14658871156029241 -0.16855183333999291 0 0.1290045142054978 -0.1612372837293575 0 0.12831016946945831 -0.1492440347933528 0 0.13540865390058859 -0.1688207667960602 0 0.12715697753007521 -0.16591248018761531 0 0.1290045142054978 -0.1612372837293575 0 0.12443417021765769 -0.1709717485187108 0 0.13540865390058859 -0.1688207667960602 0 0.12715697753007521 -0.16591248018761531 0 0.12098675462827781 -0.16200852072179159 0 0.12715697753007521 -0.16591248018761531 0 0.1290045142054978 -0.1612372837293575 0 0.12324902196630889 -0.15465793599018671 0 0.1227471198665283 -0.15880086614903269 0 0.1290045142054978 -0.1612372837293575 0 0.13391177650968769 -0.15242347890466901 0 0.12831016946945831 -0.1492440347933528 0 0.12532898621889721 -0.13663811256420449 0 0.12324902196630889 -0.15465793599018671 0 0.1290045142054978 -0.1612372837293575 0 0.12831016946945831 -0.1492440347933528 0 0.1217036921304827 -0.1482443959076799 0 0.12831016946945831 -0.1492440347933528 0 0.12532898621889721 -0.13663811256420449 0 0.13391177650968769 -0.15242347890466901 0 0.13188977167139071 -0.12546883223523481 0 0.13391177650968769 -0.15242347890466901 0 0.13188977167139071 -0.12546883223523481 0 0.1446303542042412 -0.1380662602394005 0 0.13391177650968769 -0.15242347890466901 0 0.13188977167139071 -0.12546883223523481 0 0.12532898621889721 -0.13663811256420449 0 0.11997683785091839 -0.1276371159963853 0 0.13188977167139071 -0.12546883223523481 0 0.12532898621889721 -0.13663811256420449 0 0.1446303542042412 -0.1380662602394005 0 0.15557261582888751 -0.13003178131142151 0 0.1621281360659286 -0.14191921566573409 0 0.14724036225017881 -0.1245170930860646 0 0.13188977167139071 -0.12546883223523481 0 0.1446303542042412 -0.1380662602394005 0 0.14724036225017881 -0.1245170930860646 0 0.1446303542042412 -0.1380662602394005 0 0.15557261582888751 -0.13003178131142151 0 0.13391177650968769 -0.15242347890466901 0 0.1446303542042412 -0.1380662602394005 0 0.14971917460686079 -0.1530450482394467 0 0.1446303542042412 -0.1380662602394005 0 0.14971917460686079 -0.1530450482394467 0 0.1621281360659286 -0.14191921566573409 0 0.1621281360659286 -0.14191921566573409 0 0.17324983187337631 -0.13165498831909611 0 0.17651024624945799 -0.1485415537171802 0 0.14971917460686079 -0.1530450482394467 0 0.1621281360659286 -0.14191921566573409 0 0.16192904395431579 -0.15800089119817939 0 0.1621281360659286 -0.14191921566573409 0 0.17651024624945799 -0.1485415537171802 0 0.16192904395431579 -0.15800089119817939 0 0.16471491079178111 -0.1205264202314431 0 0.15557261582888751 -0.13003178131142151 0 0.1639163736399934 -0.1310331013819237 0 0.15557261582888751 -0.13003178131142151 0 0.1621281360659286 -0.14191921566573409 0 0.1639163736399934 -0.1310331013819237 0 0.1621281360659286 -0.14191921566573409 0 0.1639163736399934 -0.1310331013819237 0 0.17324983187337631 -0.13165498831909611 0 0.16471491079178111 -0.1205264202314431 0 0.1639163736399934 -0.1310331013819237 0 0.17324983187337631 -0.13165498831909611 0 0.1862357176231304 -0.1238823921021804 0 0.1919305776748628 -0.1461990482496055 0 0.17324983187337631 -0.13165498831909611 0 0.1919305776748628 -0.1461990482496055 0 0.17324983187337631 -0.13165498831909611 0 0.17651024624945799 -0.1485415537171802 0 0.1919305776748628 -0.1461990482496055 0 0.19225769977326759 -0.16432491474026781 0 0.17651024624945799 -0.1485415537171802 0 0.19225769977326759 -0.16432491474026781 0 0.17526083145963689 -0.16308053239281189 0 0.17982600751226671 -0.1762593337595659 0 0.19225769977326759 -0.16432491474026781 0 0.17651024624945799 -0.1485415537171802 0 0.17526083145963689 -0.16308053239281189 0 0.17526083145963689 -0.16308053239281189 0 0.17982600751226671 -0.1762593337595659 0 0.16627328335530381 -0.17069773137902189 0 0.1840061663436266 -0.1900566622106199 0 0.16486725365112659 -0.18785963188663279 0 0.17982600751226671 -0.1762593337595659 0 0.19629081049063871 -0.1815365299480412 0 0.1840061663436266 -0.1900566622106199 0 0.17982600751226671 -0.1762593337595659 0 0.16486725365112659 -0.18785963188663279 0 0.14658871156029241 -0.16855183333999291 0 0.16627328335530381 -0.17069773137902189 0 0.16486725365112659 -0.18785963188663279 0 0.17982600751226671 -0.1762593337595659 0 0.16627328335530381 -0.17069773137902189 0 0.14658871156029241 -0.16855183333999291 0 0.16192904395431579 -0.15800089119817939 0 0.16627328335530381 -0.17069773137902189 0 0.17526083145963689 -0.16308053239281189 0 0.16192904395431579 -0.15800089119817939 0 0.16627328335530381 -0.17069773137902189 0 0.17651024624945799 -0.1485415537171802 0 0.17526083145963689 -0.16308053239281189 0 0.16192904395431579 -0.15800089119817939 0 
</DataArray>
</Points>
<Cells>
<DataArray type="UInt32" Name="connectivity" format="ascii">
0 1 2 3 4 5 6 7 8 9 10 11 12 13 14 15 16 17 18 19 20 21 22 23 24 25 26 27 28 29 30 31 32 33 34 35 36 37 38 39 40 41 42 43 44 45 46 47 48 49 50 51 52 53 54 55 56 57 58 59 60 61 62 63 64 65 66 67 68 69 70 71 72 73 74 75 76 77 78 79 80 81 82 83 84 85 86 87 88 89 90 91 92 93 94 95 96 97 98 99 100 101 102 103 104 105 106 107 108 109 110 111 112 113 114 115 116 117 118 119 120 121 122 123 124 125 126 127 128 129 130 131 132 133 134 135 136 137 138 139 140 141 142 143 144 145 146 147 148 149 150 151 152 153 154 155 156 157 158 159 160 161 162 163 164 165 166 167 168 169 170 171 172 173 174 175 176 177 178 179 180 181 182 183 184 185 186 187 188 189 190 191 192 193 194 195 196 197 198 199 200 201 202 203 204 205 206 207 208 209 210 211 212 213 214 215 216 217 218 219 220 221 222 223 224 225 226 227 228 229 230 231 232 233 234 235 236 237 238 239 240 241 242 243 244 245 246 247 248 249 250 251 252 253 254 255 256 257 258 259 260 261 262 263 264 265 266 267 268 269 270 271 272 273 274 275 276 277 278 279 280 281 282 283 284 285 286 287 288 289 290 291 292 293 294 295 296 297 298 299 300 301 302 303 304 305 306 307 308 309 310 311 312 313 314 315 316 317 318 319 320 321 322 323 324 325 326 327 328 329 330 331 332 333 334 335 336 337 338 339 340 341 342 343 344 345 346 347 348 349 350 351 352 353 354 355 356 357 358 359 360 361 362 363 364 365 366 367 368 369 370 371 372 373 374 375 376 377 378 379 380 381 382 383 384 385 386 387 388 389 390 391 392 393 394 395 396 397 398 399 400 401 402 403 404 405 406 407 408 409 410 411 412 413 414 415 416 417 418 419 420 421 422 423 424 425 426 427 428 429 430 431 432 433 434 435 436 437 438 439 440 441 442 443 444 445 446 447 448 449 450 451 452 453 454 455 456 457 458 459 460 461 462 463 464 465 466 467 468 469 470 471 472 473 474 475 476 477 478 479 480 481 482 483 484 485 486 487 488 489 490 491 492 493 494 495 496 497 498 499 500 501 502 503 504 505 506 507 508 509 510 511 512 513 514 515 516 517 518 519 520 521 522 523 524 525 526 527 528 529 530 531 532 533 534 535 536 537 538 539 540 541 542 543 544 545 546 547 548 549 550 551 552 553 554 555 556 557 558 559 560 561 562 563 564 565 566 567 568 569 570 571 572 573 574 575 576 577 578 579 580 581 582 583 584 585 586 587 588 589 590 591 592 593 594 595 596 597 598 599 600 601 602 603 604 605 606 607 608 609 610 611 612 613 614 615 616 617 618 619 620 621 622 623 624 625 626 627 628 629 630 631 632 633 634 635 636 637 638 639 640 641 642 643 644 645 646 647 648 649 650 651 652 653 654 655 656 657 658 659 660 661 662 663 664 665 666 667 668 669 670 671 672 673 674 675 676 677 678 679 680 681 682 683 684 685 686 687 688 689 690 691 692 693 694 695 696 697 698 699 700 701 702 703 704 705 706 707 708 709 710 711 712 713 714 715 716 717 718 719 720 721 722 723 724 725 726 727 728 729 730 731 732 733 734 735 736 737 738 739 740 741 742 743 744 745 746 747 748 749 750 751 752 753 754 755 756 757 758 759 760 761 762 763 764 765 766 767 768 769 770 771 772 773 774 775 776 777 778 779 780 781 782 783 784 785 786 787 788 789 790 791 792 793 794 795 796 797 798 799 800 801 802 803 804 805 806 807 808 809 810 811 812 813 814 815 816 817 818 819 820 821 822 823 824 825 826 827 828 829 830 831 832 833 834 835 836 837 838 839 840 841 842 843 844 845 846 847 848 849 850 851 852 853 854 855 856 857 858 859 860 861 862 863 864 865 866 867 868 869 870 871 872 873 874 875 876 877 878 879 880 881 882 883 884 885 886 887 888 889 890 891 892 893 894 895 896 897 898 899 900 901 902 903 904 905 906 907 908 909 910 911 912 913 914 915 916 917 918 919 920 921 922 923 924 925 926 927 928 929 930 931 932 933 934 935 936 937 938 939 940 941 942 943 944 945 946 947 948 949 950 951 952 953 954 955 956 957 958 959 960 961 962 963 964 965 966 967 968 969 970 971 972 973 974 975 976 977 978 979 980 981 982 983 984 985 986 987 988 989 990 991 992 993 994 995 996 997 998 999 1000 1001 1002 1003 1004 1005 1006 1007 1008 1009 1010 1011 1012 1013 1014 1015 1016 1017 1018 1019 1020 1021 1022 1023 1024 1025 1026 1027 1028 1029 1030 1031 1032 1033 1034 1035 1036 1037 1038 1039 1040 1041 1042 1043 1044 1045 1046 1047 1048 1049 1050 1051 1052 1053 1054 1055 1056 1057 1058 1059 1060 1061 1062 1063 1064 1065 1066 1067 1068 1069 1070 1071 1072 1073 1074 1075 1076 1077 1078 1079 1080 1081 1082 1083 1084 1085 1086 1087 1088 1089 1090 1091 1092 1093 1094 1095 1096 1097 1098 1099 1100 1101 1102 1103 1104 1105 1106 1107 1108 1109 1110 1111 1112 1113 1114 1115 1116 1117 1118 1119 1120 1121 1122 1123 1124 1125 1126 1127 1128 1129 1130 1131 1132 1133 1134 1135 1136 1137 1138 1139 1140 1141 1142 1143 1144 1145 1146 1147 1148 1149 1150 1151 1152 1153 1154 1155 1156 1157 1158 1159 1160 1161 1162 1163 1164 1165 1166 1167 1168 1169 1170 1171 1172 1173 1174 1175 1176 1177 1178 1179 1180 1181 1182 1183 1184 1185 1186 1187 1188 1189 1190 1191 1192 1193 1194 1195 1196 1197 1198 1199 1200 1201 1202 1203 1204 1205 1206 1207 1208 1209 1210 1211 1212 1213 1214 1215 1216 1217 1218 1219 1220 1221 1222 1223 1224 1225 1226 1227 1228 1229 1230 1231 1232 1233 1234 1235 1236 1237 1238 1239 1240 1241 1242 1243 1244 1245 1246 1247 1248 1249 1250 1251 1252 1253 1254 1255 1256 1257 1258 1259 1260 1261 1262 1263 1264 1265 1266 1267 1268 1269 1270 1271 1272 1273 1274 1275 1276 1277 1278 1279 1280 1281 1282 1283 1284 1285 1286 1287 1288 1289 1290 1291 1292 1293 1294 1295 1296 1297 1298 1299 1300 1301 1302 1303 1304 1305 1306 1307 1308 1309 1310 1311 1312 1313 1314 1315 1316 1317 1318 1319 1320 1321 1322 1323 1324 1325 1326 1327 1328 1329 1330 1331 1332 1333 1334 1335 1336 1337 1338 1339 1340 1341 1342 1343 1344 1345 1346 1347 1348 1349 1350 1351 1352 1353 1354 1355 1356 1357 1358 1359 1360 1361 1362 1363 1364 1365 1366 1367 1368 1369 1370 1371 1372 1373 1374 1375 1376 1377 1378 1379 1380 1381 1382 1383 1384 1385 1386 1387 1388 1389 1390 1391 1392 1393 1394 1395 1396 1397 1398 1399 1400 1401 1402 1403 1404 1405 1406 1407 1408 1409 1410 1411 1412 1413 1414 1415 1416 1417 1418 1419 1420 1421 1422 1423 1424 1425 1426 1427 1428 1429 1430 1431 1432 1433 1434 1435 1436 1437 1438 1439 1440 1441 1442 1443 1444 1445 1446 1447 1448 1449 1450 1451 1452 1453 1454 1455 1456 1457 1458 1459 1460 1461 1462 1463 1464 1465 1466 1467 1468 1469 1470 1471 1472 1473 1474 1475 1476 1477 1478 1479 1480 1481 1482 1483 1484 1485 1486 1487 1488 1489 1490 1491 1492 1493 1494 1495 1496 1497 1498 1499 1500 1501 1502 1503 1504 1505 1506 1507 1508 1509 1510 1511 1512 1513 1514 1515 1516 1517 1518 1519 1520 1521 1522 1523 1524 1525 1526 1527 1528 1529 1530 1531 1532 1533 1534 1535 1536 1537 1538 1539 1540 1541 1542 1543 1544 1545 1546 1547 1548 1549 1550 1551 1552 1553 1554 1555 1556 1557 1558 1559 1560 1561 1562 1563 1564 1565 1566 1567 1568 1569 1570 1571 1572 1573 1574 1575 1576 1577 1578 1579 1580 1581 1582 1583 1584 1585 1586 1587 1588 1589 1590 1591 1592 1593 1594 1595 1596 1597 1598 1599 1600 1601 1602 1603 1604 1605 1606 1607 1608 1609 1610 1611 1612 1613 1614 1615 1616 1617 1618 1619 1620 1621 1622 1623 1624 1625 1626 1627 1628 1629 1630 1631 1632 1633 1634 1635 1636 1637 1638 1639 1640 1641 1642 1643 1644 1645 1646 1647 1648 1649 1650 1651 1652 1653 1654 1655 1656 1657 1658 1659 1660 1661 1662 1663 1664 1665 1666 1667 1668 1669 1670 1671 1672 1673 1674 1675 1676 1677 1678 1679 1680 1681 1682 1683 1684 1685 1686 1687 1688 1689 1690 1691 1692 1693 1694 1695 1696 1697 1698 1699 1700 1701 1702 1703 1704 1705 1706 1707 1708 1709 1710 1711 1712 1713 1714 1715 1716 1717 1718 1719 1720 1721 1722 1723 1724 1725 1726 1727 1728 1729 1730 1731 1732 1733 1734 1735 1736 1737 1738 1739 1740 1741 1742 1743 1744 1745 1746 1747 1748 1749 1750 1751 1752 1753 1754 1755 1756 1757 1758 1759 1760 1761 1762 1763 1764 1765 1766 1767 1768 1769 1770 1771 1772 1773 1774 1775 1776 1777 1778 1779 1780 1781 1782 1783 1784 1785 1786 1787 1788 1789 1790 1791 1792 1793 1794 1795 1796 1797 1798 1799 1800 1801 1802 1803 1804 1805 1806 1807 1808 1809 1810 1811 1812 1813 1814 1815 1816 1817 1818 1819 1820 1821 1822 1823 1824 1825 1826 1827 1828 1829 1830 1831 1832 1833 1834 1835 1836 1837 1838 1839 1840 1841 1842 1843 1844 1845 1846 1847 1848 1849 1850 1851 1852 1853 1854 1855 1856 1857 1858 1859 1860 1861 1862 1863 1864 1865 1866 1867 1868 1869 1870 1871 1872 1873 1874 1875 1876 1877 1878 1879 1880 1881 1882 1883 1884 1885 1886 1887 1888 1889 1890 1891 1892 1893 1894 1895 1896 1897 1898 1899 1900 1901 1902 1903 1904 1905 1906 1907 1908 1909 1910 1911 1912 1913 1914 1915 1916 1917 1918 1919 1920 1921 1922 1923 1924 1925 1926 1927 1928 1929 1930 1931 1932 1933 1934 1935 1936 1937 1938 1939 1940 1941 1942 1943 1944 1945 1946 1947 1948 1949 1950 1951 1952 1953 1954 1955 1956 1957 1958 1959 1960 1961 1962 1963 1964 1965 1966 1967 1968 1969 1970 1971 1972 1973 1974 1975 1976 1977 1978 1979 1980 1981 1982 1983 1984 1985 1986 1987 1988 1989 1990 1991 1992 1993 1994 1995 1996 1997 1998 1999 2000 2001 2002 2003 2004 2005 2006 2007 2008 2009 2010 2011 2012 2013 2014 2015 2016 2017 2018 2019 2020 2021 2022 2023 2024 2025 2026 2027 2028 2029 2030 2031 2032 2033 2034 2035 2036 2037 2038 2039 2040 2041 2042 2043 2044 2045 2046 2047 2048 2049 2050 2051 2052 2053 2054 2055 2056 2057 2058 2059 2060 2061 2062 2063 2064 2065 2066 2067 2068 2069 2070 2071 2072 2073 2074 2075 2076 2077 2078 2079 2080 2081 2082 2083 2084 2085 2086 2087 2088 2089 2090 2091 2092 2093 2094 2095 2096 2097 2098 2099 2100 2101 2102 2103 2104 2105 2106 2107 2108 2109 2110 2111 2112 2113 2114 2115 2116 2117 2118 2119 2120 2121 2122 2123 2124 2125 2126 2127 2128 2129 2130 2131 2132 2133 2134 2135 2136 2137 2138 2139 2140 2141 2142 2143 2144 2145 2146 2147 2148 2149 2150 2151 2152 2153 2154 2155 2156 2157 2158 2159 2160 2161 2162 2163 2164 2165 2166 2167 2168 2169 2170 2171 2172 2173 2174 2175 2176 2177 2178 2179 2180 2181 2182 2183 2184 2185 2186 2187 2188 2189 2190 2191 2192 2193 2194 2195 2196 2197 2198 2199 2200 2201 2202 2203 2204 2205 2206 2207 2208 2209 2210 2211 2212 2213 2214 2215 2216 2217 2218 2219 2220 2221 2222 2223 2224 2225 2226 2227 2228 2229 2230 2231 2232 2233 2234 2235 2236 2237 2238 2239 2240 2241 2242 2243 2244 2245 2246 2247 2248 2249 2250 2251 2252 2253 2254 2255 2256 2257 2258 2259 2260 2261 2262 2263 2264 2265 2266 2267 2268 2269 2270 2271 2272 2273 2274 2275 2276 2277 2278 2279 2280 2281 2282 2283 2284 2285 2286 2287 2288 2289 2290 2291 2292 2293 2294 2295 2296 2297 2298 2299 2300 2301 2302 2303 2304 2305 2306 2307 2308 2309 2310 2311 2312 2313 2314 2315 2316 2317 2318 2319 2320 2321 2322 2323 2324 2325 2326 2327 2328 2329 2330 2331 2332 2333 2334 2335 2336 2337 2338 2339 2340 2341 2342 2343 2344 2345 2346 2347 2348 2349 2350 2351 2352 2353 2354 2355 2356 2357 2358 2359 2360 2361 2362 2363 2364 2365 2366 2367 2368 2369 2370 2371 2372 2373 2374 2375 2376 2377 2378 2379 2380 2381 2382 2383 2384 2385 2386 2387 2388 2389 2390 2391 2392 2393 2394 2395 2396 2397 2398 2399 2400 2401 2402 2403 2404 2405 2406 2407 2408 2409 2410 2411 2412 2413 2414 2415 2416 2417 2418 2419 2420 2421 2422 2423 2424 2425 2426 2427 2428 2429 2430 2431 2432 2433 2434 2435 2436 2437 2438 2439 2440 2441 2442 2443 2444 2445 2446 2447 2448 2449 2450 2451 2452 2453 2454 2455 2456 2457 2458 2459 2460 2461 2462 2463 2464 2465 2466 2467 2468 2469 2470 2471 2472 2473 2474 2475 2476 2477 2478 2479 2480 2481 2482 2483 2484 2485 2486 2487 2488 2489 2490 2491 2492 2493 2494 2495 2496 2497 2498 2499 2500 2501 2502 2503 2504 2505 2506 2507 2508 2509 2510 2511 2512 2513 2514 2515 2516 2517 2518 2519 2520 2521 2522 2523 2524 2525 2526 2527 2528 2529 2530 2531 2532 2533 2534 2535 2536 2537 2538 2539 2540 2541 2542 2543 2544 2545 2546 2547 2548 2549 2550 2551 2552 2553 2554 2555 2556 2557 2558 2559 2560 2561 2562 2563 2564 2565 2566 2567 2568 2569 2570 2571 2572 2573 2574 2575 2576 2577 2578 2579 2580 2581 2582 2583 2584 2585 2586 2587 2588 2589 2590 2591 2592 2593 2594 2595 2596 2597 2598 2599 2600 2601 2602 2603 2604 2605 2606 2607 2608 2609 2610 2611 2612 2613 2614 2615 2616 2617 2618 2619 2620 2621 2622 2623 2624 2625 2626 2627 2628 2629 2630 2631 2632 2633 2634 2635 2636 2637 2638 2639 2640 2641 2642 2643 2644 2645 2646 2647 2648 2649 2650 2651 2652 2653 2654 2655 2656 2657 2658 2659 2660 2661 2662 2663 2664 2665 2666 2667 2668 2669 2670 2671 2672 2673 2674 2675 2676 2677 2678 2679 2680 2681 2682 2683 2684 2685 2686 2687 2688 2689 2690 2691 2692 2693 2694 2695 2696 2697 2698 2699 2700 2701 2702 2703 2704 2705 2706 2707 2708 2709 2710 2711 2712 2713 2714 2715 2716 2717 2718 2719 2720 2721 2722 2723 2724 2725 2726 2727 2728 2729 2730 2731 2732 2733 2734 2735 2736 2737 2738 2739 2740 2741 2742 2743 2744 2745 2746 2747 2748 2749 2750 2751 2752 2753 2754 2755 2756 2757 2758 2759 2760 2761 2762 2763 2764 2765 2766 2767 2768 2769 2770 2771 2772 2773 2774 2775 2776 2777 2778 2779 2780 2781 2782 2783 2784 2785 2786 2787 2788 2789 2790 2791 2792 2793 2794 2795 2796 2797 2798 2799 2800 2801 2802 2803 2804 2805 2806 2807 2808 2809 2810 2811 2812 2813 2814 2815 2816 2817 2818 2819 2820 2821 2822 2823 2824 2825 2826 2827 2828 2829 2830 2831 2832 2833 2834 2835 2836 2837 2838 2839 2840 2841 2842 2843 2844 2845 2846 2847 2848 2849 2850 2851 2852 2853 2854 2855 2856 2857 2858 2859 2860 2861 2862 2863 2864 2865 2866 2867 2868 2869 2870 2871 2872 2873 2874 2875 2876 2877 2878 2879 2880 2881 2882 2883 2884 2885 2886 2887 2888 2889 2890 2891 2892 2893 2894 2895 2896 2897 2898 2899 2900 2901 2902 2903 2904 2905 2906 2907 2908 2909 2910 2911 2912 2913 2914 2915 2916 2917 2918 2919 2920 2921 2922 2923 2924 2925 2926 2927 2928 2929 2930 2931 2932 2933 2934 2935 2936 2937 2938 2939 2940 2941 2942 2943 2944 2945 2946 2947 2948 2949 2950 2951 2952 2953 2954 2955 2956 2957 2958 2959 2960 2961 2962 2963 2964 2965 2966 2967 2968 2969 2970 2971 2972 2973 2974 2975 2976 2977 2978 2979 2980 2981 2982 2983 2984 2985 2986 2987 2988 2989 2990 2991 2992 2993 2994 2995 2996 2997 2998 2999 3000 3001 3002 3003 3004 3005 3006 3007 3008 3009 3010 3011 3012 3013 3014 3015 3016 3017 3018 3019 3020 3021 3022 3023 3024 3025 3026 3027 3028 3029 3030 3031 3032 3033 3034 3035 3036 3037 3038 3039 3040 3041 3042 3043 3044 3045 3046 3047 3048 3049 3050 3051 3052 3053 3054 3055 3056 3057 3058 3059 3060 3061 3062 3063 3064 3065 3066 3067 3068 3069 3070 3071 3072 3073 3074 3075 3076 3077 3078 3079 3080 3081 3082 3083 3084 3085 3086 3087 3088 3089 3090 3091 3092 3093 3094 3095 3096 3097 3098 3099 3100 3101 3102 3103 3104 3105 3106 3107 3108 3109 3110 3111 3112 3113 3114 3115 3116 3117 3118 3119 3120 3121 3122 3123 3124 3125 3126 3127 3128 3129 3130 3131 3132 3133 3134 3135 3136 3137 3138 3139 3140 3141 3142 3143 3144 3145 3146 3147 3148 3149 3150 3151 3152 3153 3154 3155 3156 3157 3158 3159 3160 3161 3162 3163 3164 3165 3166 3167 3168 3169 3170 3171 3172 3173 3174 3175 3176 3177 3178 3179 3180 3181 3182 3183 3184 3185 3186 3187 3188 3189 3190 3191 3192 3193 3194 3195 3196 3197 3198 3199 3200 3201 3202 3203 3204 3205 3206 3207 3208 3209 3210 3211 3212 3213 3214 3215 3216 3217 3218 3219 3220 3221 3222 3223 3224 3225 3226 3227 3228 3229 3230 3231 3232 3233 3234 3235 3236 3237 3238 3239 3240 3241 3242 3243 3244 3245 3246 3247 3248 3249 3250 3251 3252 3253 3254 3255 3256 3257 3258 3259 3260 3261 3262 3263 3264 3265 3266 3267 3268 3269 3270 3271 3272 3273 3274 3275 3276 3277 3278 3279 3280 3281 3282 3283 3284 3285 3286 3287 3288 3289 3290 3291 3292 3293 3294 3295 3296 3297 3298 3299 3300 3301 3302 3303 3304 3305 3306 3307 3308 3309 3310 3311 3312 3313 3314 3315 3316 3317 3318 3319 3320 3321 3322 3323 3324 3325 3326 3327 3328 3329 3330 3331 3332 3333 3334 3335 3336 3337 3338 3339 3340 3341 3342 3343 3344 3345 3346 3347 3348 3349 3350 3351 3352 3353 3354 3355 3356 3357 3358 3359 3360 3361 3362 3363 3364 3365 3366 3367 3368 3369 3370 3371 3372 3373 3374 3375 3376 3377 3378 3379 3380 3381 3382 3383 3384 3385 3386 3387 3388 3389 3390 3391 3392 3393 3394 3395 3396 3397 3398 3399 3400 3401 3402 3403 3404 3405 3406 3407 3408 3409 3410 3411 3412 3413 3414 3415 3416 3417 3418 3419 3420 3421 3422 3423 3424 3425 3426 3427 3428 3429 3430 3431 3432 3433 3434 3435 3436 3437 3438 3439 3440 3441 3442 3443 3444 3445 3446 3447 3448 3449 3450 3451 3452 3453 3454 3455 3456 3457 3458 3459 3460 3461 3462 3463 3464 3465 3466 3467 3468 3469 3470 3471 3472 3473 3474 3475 3476 3477 3478 3479 3480 3481 3482 3483 3484 3485 3486 3487 3488 3489 3490 3491 3492 3493 3494 3495 3496 3497 3498 3499 3500 3501 3502 3503 3504 3505 3506 3507 3508 3509 3510 3511 3512 3513 3514 3515 3516 3517 3518 3519 3520 3521 3522 3523 3524 3525 3526 3527 3528 3529 3530 3531 3532 3533 3534 3535 3536 3537 3538 3539 3540 3541 3542 3543 3544 3545 3546 3547 3548 3549 3550 3551 3552 3553 3554 3555 3556 3557 3558 3559 3560 3561 3562 3563 3564 3565 3566 3567 3568 3569 3570 3571 3572 3573 3574 3575 3576 3577 3578 3579 3580 3581 3582 3583 3584 3585 3586 3587 3588 3589 3590 3591 3592 3593 3594 3595 3596 3597 3598 3599 3600 3601 3602 3603 3604 3605 3606 3607 3608 3609 3610 3611 3612 3613 3614 3615 3616 3617 3618 3619 3620 3621 3622 3623 3624 3625 3626 3627 3628 3629 3630 3631 3632 3633 3634 3635 3636 3637 3638 3639 3640 3641 3642 3643 3644 3645 3646 3647 3648 3649 3650 3651 3652 3653 3654 3655 3656 3657 3658 3659 3660 3661 3662 3663 3664 3665 3666 3667 3668 3669 3670 3671 3672 3673 3674 3675 3676 3677 3678 3679 3680 3681 3682 3683 3684 3685 3686 3687 3688 3689 3690 3691 3692 3693 3694 3695 3696 3697 3698 3699 3700 3701 3702 3703 3704 3705 3706 3707 3708 3709 3710 3711 3712 3713 3714 3715 3716 3717 3718 3719 3720 3721 3722 3723 3724 3725 3726 3727 3728 3729 3730 3731 3732 3733 3734 3735 3736 3737 3738 3739 3740 3741 3742 3743 3744 3745 3746 3747 3748 3749 3750 3751 3752 3753 3754 3755 3756 3757 3758 3759 3760 3761 3762 3763 3764 3765 3766 3767 3768 3769 3770 3771 3772 3773 3774 3775 3776 3777 3778 3779 3780 3781 3782 3783 3784 3785 3786 3787 3788 3789 3790 3791 3792 3793 3794 3795 3796 3797 3798 3799 3800 3801 3802 3803 3804 3805 3806 3807 3808 3809 3810 3811 3812 3813 3814 3815 3816 3817 3818 3819 3820 3821 3822 3823 3824 3825 3826 3827 3828 3829 3830 3831 3832 3833 3834 3835 3836 3837 3838 3839 3840 3841 3842 3843 3844 3845 3846 3847 3848 3849 3850 3851 3852 3853 3854 3855 3856 3857 3858 3859 3860 3861 3862 3863 3864 3865 3866 3867 3868 3869 3870 3871 3872 3873 3874 3875 3876 3877 3878 3879 3880 3881 3882 3883 3884 3885 3886 3887 3888 3889 3890 3891 3892 3893 3894 3895 3896 3897 3898 3899 3900 3901 3902 3903 3904 3905 3906 3907 3908 3909 3910 3911 3912 3913 3914 3915 3916 3917 3918 3919 3920 3921 3922 3923 3924 3925 3926 3927 3928 3929 3930 3931 3932 3933 3934 3935 3936 3937 3938 3939 3940 3941 3942 3943 3944 3945 3946 3947 3948 3949 3950 3951 3952 3953 3954 3955 3956 3957 3958 3959 3960 3961 3962 3963 3964 3965 3966 3967 3968 3969 3970 3971 3972 3973 3974 3975 3976 3977 3978 3979 3980 3981 3982 3983 3984 3985 3986 3987 3988 3989 3990 3991 3992 3993 3994 3995 3996 3997 3998 3999 4000 4001 4002 4003 4004 4005 4006 4007 4008 4009 4010 4011 4012 4013 4014 4015 4016 4017 4018 4019 4020 4021 4022 4023 4024 4025 4026 4027 4028 4029 4030 4031 4032 4033 4034 4035 4036 4037 4038 4039 4040 4041 4042 4043 4044 4045 4046 4047 4048 4049 4050 4051 4052 4053 4054 4055 4056 4057 4058 4059 4060 4061 4062 4063 4064 4065 4066 4067 4068 4069 4070 4071 4072 4073 4074 4075 4076 4077 4078 4079 4080 4081 4082 4083 4084 4085 4086 4087 4088 4089 4090 4091 4092 4093 4094 4095 4096 4097 4098 4099 4100 4101 4102 4103 4104 4105 4106 4107 4108 4109 4110 4111 4112 4113 4114 4115 4116 4117 4118 4119 4120 4121 4122 4123 4124 4125 4126 4127 4128 4129 4130 4131 4132 4133 4134 4135 4136 4137 4138 4139 4140 4141 4142 4143 4144 4145 4146 4147 4148 4149 4150 4151 4152 4153 4154 4155 4156 4157 4158 4159 4160 4161 4162 4163 4164 4165 4166 4167 4168 4169 4170 4171 4172 4173 4174 4175 4176 4177 4178 4179 4180 4181 4182 4183 4184 4185 4186 4187 4188 4189 4190 4191 4192 4193 4194 4195 4196 4197 4198 4199 4200 4201 4202 4203 4204 4205 4206 4207 4208 4209 4210 4211 4212 4213 4214 4215 4216 4217 4218 4219 4220 4221 4222 4223 4224 4225 4226 4227 4228 4229 4230 4231 4232 4233 4234 4235 4236 4237 4238 4239 4240 4241 4242 4243 4244 4245 4246 4247 4248 4249 4250 4251 4252 4253 4254 4255 4256 4257 4258 4259 4260 4261 4262 4263 4264 4265 4266 4267 4268 4269 4270 4271 4272 4273 4274 4275 4276 4277 4278 4279 4280 4281 4282 4283 4284 4285 4286 4287 4288 4289 4290 4291 4292 4293 4294 4295 4296 4297 4298 4299 4300 4301 4302 4303 4304 4305 4306 4307 4308 4309 4310 4311 4312 4313 4314 4315 4316 4317 4318 4319 4320 4321 4322 4323 4324 4325 4326 4327 4328 4329 4330 4331 4332 4333 4334 4335 4336 4337 4338 4339 4340 4341 4342 4343 4344 4345 4346 4347 4348 4349 4350 4351 4352 4353 4354 4355 4356 4357 4358 4359 4360 4361 4362 4363 4364 4365 4366 4367 4368 4369 4370 4371 4372 4373 4374 4375 4376 4377 4378 4379 4380 4381 4382 4383 4384 4385 4386 4387 4388 4389 4390 4391 4392 4393 4394 4395 4396 4397 4398 4399 4400 4401 4402 4403 4404 4405 4406 4407 4408 4409 4410 4411 4412 4413 4414 4415 4416 4417 4418 4419 4420 4421 4422 4423 4424 4425 4426 4427 4428 4429 4430 4431 4432 4433 4434 4435 4436 4437 4438 4439 4440 4441 4442 4443 4444 4445 4446 4447 4448 4449 4450 4451 4452 4453 4454 4455 4456 4457 4458 4459 4460 4461 4462 4463 4464 4465 4466 4467 4468 4469 4470 4471 4472 4473 4474 4475 4476 4477 4478 4479 4480 4481 4482 4483 4484 4485 4486 4487 4488 4489 4490 4491 4492 4493 4494 4495 4496 4497 4498 4499 4500 4501 4502 4503 4504 4505 4506 4507 4508 4509 4510 4511 4512 4513 4514 4515 4516 4517 4518 4519 4520 4521 4522 4523 4524 4525 4526 4527 4528 4529 4530 4531 4532 4533 4534 4535 4536 4537 4538 4539 4540 4541 4542 4543 4544 4545 4546 4547 4548 4549 4550 4551 4552 4553 4554 4555 4556 4557 4558 4559 4560 4561 4562 4563 4564 4565 4566 4567 4568 4569 4570 4571 4572 4573 4574 4575 4576 4577 4578 4579 4580 4581 4582 4583 4584 4585 4586 4587 4588 4589 4590 4591 4592 4593 4594 4595 4596 4597 4598 4599 4600 4601 4602 4603 4604 4605 4606 4607 4608 4609 4610 4611 4612 4613 4614 4615 4616 4617 4618 4619 4620 4621 4622 4623 4624 4625 4626 4627 4628 4629 4630 4631 4632 4633 4634 4635 4636 4637 4638 4639 4640 4641 4642 4643 4644 4645 4646 4647 4648 4649 4650 4651 4652 4653 4654 4655 4656 4657 4658 4659 4660 4661 4662 4663 4664 4665 4666 4667 4668 4669 4670 4671 4672 4673 4674 4675 4676 4677 4678 4679 4680 4681 4682 4683 4684 4685 4686 4687 4688 4689 4690 4691 4692 4693 4694 4695 4696 4697 4698 4699 4700 4701 4702 4703 4704 4705 4706 4707 4708 4709 4710 4711 4712 4713 4714 4715 4716 4717 4718 4719 4720 4721 4722 4723 4724 4725 4726 4727 4728 4729 4730 4731 4732 4733 4734 4735 4736 4737 4738 4739 4740 4741 4742 4743 4744 4745 4746 4747 4748 4749 4750 4751 4752 4753 4754 4755 4756 4757 4758 4759 4760 4761 4762 4763 4764 4765 4766 4767 4768 4769 4770 4771 4772 4773 4774 4775 4776 4777 4778 4779 4780 4781 4782 4783 4784 4785 4786 4787 4788 4789 4790 4791 4792 4793 4794 4795 4796 4797 4798 4799 4800 4801 4802 4803 4804 4805 4806 4807 4808 4809 4810 4811 4812 4813 4814 4815 4816 4817 4818 4819 4820 4821 4822 4823 4824 4825 4826 4827 4828 4829 4830 4831 4832 4833 4834 4835 4836 4837 4838 4839 4840 4841 4842 4843 4844 4845 4846 4847 4848 4849 4850 4851 4852 4853 4854 4855 4856 4857 4858 4859 4860 4861 4862 4863 4864 4865 4866 4867 4868 4869 4870 4871 4872 4873 4874 4875 4876 4877 4878 4879 4880 4881 4882 4883 4884 4885 4886 4887 4888 4889 4890 4891 4892 4893 4894 4895 4896 4897 4898 4899 4900 4901 4902 4903 4904 4905 4906 4907 4908 4909 4910 4911 4912 4913 4914 4915 4916 4917 4918 4919 4920 4921 4922 4923 4924 4925 4926 4927 4928 4929 4930 4931 4932 4933 4934 4935 4936 4937 4938 4939 4940 4941 4942 4943 4944 4945 4946 4947 4948 4949 4950 4951 4952 4953 4954 4955 4956 4957 4958 4959 4960 4961 4962 4963 4964 4965 4966 4967 4968 4969 4970 4971 4972 4973 4974 4975 4976 4977 4978 4979 4980 4981 4982 4983 4984 4985 4986 4987 4988 4989 4990 4991 4992 4993 4994 4995 4996 4997 4998 4999 5000 5001 5002 5003 5004 5005 5006 5007 5008 5009 5010 5011 5012 5013 5014 5015 5016 5017 5018 5019 5020 5021 5022 5023 5024 5025 5026 5027 5028 5029 5030 5031 5032 5033 5034 5035 5036 5037 5038 5039 5040 5041 5042 5043 5044 5045 5046 5047 5048 5049 5050 5051 5052 5053 5054 5055 5056 5057 5058 5059 5060 5061 5062 5063 5064 5065 5066 5067 5068 5069 5070 5071 5072 5073 5074 5075 5076 5077 5078 5079 5080 5081 5082 5083 5084 5085 5086 5087 5088 5089 5090 5091 5092 5093 5094 5095 5096 5097 5098 5099 5100 5101 5102 5103 5104 5105 5106 5107 5108 5109 5110 5111 5112 5113 5114 5115 5116 5117 5118 5119 5120 5121 5122 5123 5124 5125 5126 5127 5128 5129 5130 5131 5132 5133 5134 5135 5136 5137 5138 5139 5140 5141 5142 5143 5144 5145 5146 5147 5148 5149 5150 5151 5152 5153 5154 5155 5156 5157 5158 5159 5160 5161 5162 5163 5164 5165 5166 5167 5168 5169 5170 5171 5172 5173 5174 5175 5176 5177 5178 5179 5180 5181 5182 5183 5184 5185 5186 5187 5188 5189 5190 5191 5192 5193 5194 5195 5196 5197 5198 5199 5200 5201 5202 5203 5204 5205 5206 5207 5208 5209 5210 5211 5212 5213 5214 5215 5216 5217 5218 5219 5220 5221 5222 5223 5224 5225 5226 5227 5228 5229 5230 5231 5232 5233 5234 5235 5236 5237 5238 5239 5240 5241 5242 5243 5244 5245 5246 5247 5248 5249 5250 5251 5252 5253 5254 5255 5256 5257 5258 5259 5260 5261 5262 5263 5264 5265 5266 5267 5268 5269 5270 5271 5272 5273 5274 5275 5276 5277 5278 5279 5280 5281 5282 5283 5284 5285 5286 5287 5288 5289 5290 5291 5292 5293 5294 5295 5296 5297 5298 5299 5300 5301 5302 5303 5304 5305 5306 5307 5308 5309 5310 5311 5312 5313 5314 5315 5316 5317 5318 5319 5320 5321 5322 5323 5324 5325 5326 5327 5328 5329 5330 5331 5332 5333 5334 5335 5336 5337 5338 5339 5340 5341 5342 5343 5344 5345 5346 5347 5348 5349 5350 5351 5352 5353 5354 5355 5356 5357 5358 5359 5360 5361 5362 5363 5364 5365 5366 5367 5368 5369 5370 5371 5372 5373 5374 5375 5376 5377 5378 5379 5380 5381 5382 5383 5384 5385 5386 5387 5388 5389 5390 5391 5392 5393 5394 5395 5396 5397 5398 5399 5400 5401 5402 5403 5404 5405 5406 5407 5408 5409 5410 5411 5412 5413 5414 5415 5416 5417 5418 5419 5420 5421 5422 5423 5424 5425 5426 5427 5428 5429 5430 5431 5432 5433 5434 5435 5436 5437 5438 5439 5440 5441 5442 5443 5444 5445 5446 5447 5448 5449 5450 5451 5452 5453 5454 5455 5456 5457 5458 5459 5460 5461 5462 5463 5464 5465 5466 5467 5468 5469 5470 5471 5472 5473 5474 5475 5476 5477 5478 5479 5480 5481 5482 5483 5484 5485 5486 5487 5488 5489 5490 5491 5492 5493 5494 5495 5496 5497 5498 5499 5500 5501 5502 5503 5504 5505 5506 5507 5508 5509 5510 5511 5512 5513 5514 5515 5516 5517 5518 5519 5520 5521 5522 5523 5524 5525 5526 5527 5528 5529 5530 5531 5532 5533 5534 5535 5536 5537 5538 5539 5540 5541 5542 5543 5544 5545 5546 5547 5548 5549 5550 5551 5552 5553 5554 5555 5556 5557 5558 5559 5560 5561 5562 5563 5564 5565 5566 5567 5568 5569 5570 5571 5572 5573 5574 5575 5576 5577 5578 5579 5580 5581 5582 5583 5584 5585 5586 5587 5588 5589 5590 5591 5592 5593 5594 5595 5596 5597 5598 5599 5600 5601 5602 5603 5604 5605 5606 5607 5608 5609 5610 5611 5612 5613 5614 5615 5616 5617 5618 5619 5620 5621 5622 5623 5624 5625 5626 5627 5628 5629 5630 5631 5632 5633 5634 5635 5636 5637 5638 5639 5640 5641 5642 5643 5644 5645 5646 5647 5648 5649 5650 5651 5652 5653 5654 5655 5656 5657 5658 5659 5660 5661 5662 5663 5664 5665 5666 5667 5668 5669 5670 5671 5672 5673 5674 5675 5676 5677 5678 5679 5680 5681 5682 5683 5684 5685 5686 5687 5688 5689 5690 5691 5692 5693 5694 5695 5696 5697 5698 5699 5700 5701 5702 5703 5704 5705 5706 5707 5708 5709 5710 5711 5712 5713 5714 5715 5716 5717 5718 5719 5720 5721 5722 5723 5724 5725 5726 5727 5728 5729 5730 5731 5732 5733 5734 5735 5736 5737 5738 5739 5740 5741 5742 5743 5744 5745 5746 5747 5748 5749 5750 5751 5752 5753 5754 5755 5756 5757 5758 5759 5760 5761 5762 5763 5764 5765 5766 5767 5768 5769 5770 5771 5772 5773 5774 5775 5776 5777 5778 5779 5780 5781 5782 5783 5784 5785 5786 5787 5788 5789 5790 5791 5792 5793 5794 5795 5796 5797 5798 5799 5800 5801 5802 5803 5804 5805 5806 5807 5808 5809 5810 5811 5812 5813 5814 5815 5816 5817 5818 5819 5820 5821 5822 5823 5824 5825 5826 5827 5828 5829 5830 5831 5832 5833 5834 5835 5836 5837 5838 5839 5840 5841 5842 5843 5844 5845 5846 5847 5848 5849 5850 5851 5852 5853 5854 5855 5856 5857 5858 5859 5860 5861 5862 5863 5864 5865 5866 5867 5868 5869 5870 5871 5872 5873 5874 5875 5876 5877 5878 5879 5880 5881 5882 5883 5884 5885 5886 5887 5888 5889 5890 5891 5892 5893 5894 5895 5896 5897 5898 5899 5900 5901 5902 5903 5904 5905 5906 5907 5908 5909 5910 5911 5912 5913 5914 5915 5916 5917 5918 5919 5920 5921 5922 5923 5924 5925 5926 5927 5928 5929 5930 5931 5932 5933 5934 5935 5936 5937 5938 5939 5940 5941 5942 5943 5944 5945 5946 5947 5948 5949 5950 5951 5952 5953 5954 5955 5956 5957 5958 5959 5960 5961 5962 5963 5964 5965 5966 5967 5968 5969 5970 5971 5972 5973 5974 5975 5976 5977 5978 5979 5980 5981 5982 5983 5984 5985 5986 5987 5988 5989 5990 5991 5992 5993 5994 5995 5996 5997 5998 5999 6000 6001 6002 6003 6004 6005 6006 6007 6008 6009 6010 6011 6012 6013 6014 6015 6016 6017 6018 6019 6020 6021 6022 6023 6024 6025 6026 6027 6028 6029 6030 6031 6032 6033 6034 6035 6036 6037 6038 6039 6040 6041 6042 6043 6044 6045 6046 6047 6048 6049 6050 6051 6052 6053 6054 6055 6056 6057 6058 6059 6060 6061 6062 6063 6064 6065 6066 6067 6068 6069 6070 6071 6072 6073 6074 6075 6076 6077 6078 6079 6080 6081 6082 6083 6084 6085 6086 6087 6088 6089 6090 6091 6092 6093 6094 6095 6096 6097 6098 6099 6100 6101 6102 6103 6104 6105 6106 6107 6108 6109 6110 6111 6112 6113 6114 6115 6116 6117 6118 6119 6120 6121 6122 6123 6124 6125 6126 6127 6128 6129 6130 6131 6132 6133 6134 6135 6136 6137 6138 6139 6140 6141 6142 6143 6144 6145 6146 6147 6148 6149 6150 6151 6152 6153 6154 6155 6156 6157 6158 6159 6160 6161 6162 6163 6164 6165 6166 6167 6168 6169 6170 6171 6172 6173 6174 6175 6176 6177 6178 6179 6180 6181 6182 6183 6184 6185 6186 6187 6188 6189 6190 6191 6192 6193 6194 6195 6196 6197 6198 6199 6200 6201 6202 6203 6204 6205 6206 6207 6208 6209 6210 6211 6212 6213 6214 6215 6216 6217 6218 6219 6220 6221 6222 6223 6224 6225 6226 6227 6228 6229 6230 6231 6232 6233 6234 6235 6236 6237 6238 6239 6240 6241 6242 6243 6244 6245 6246 6247 6248 6249 6250 6251 6252 6253 6254 6255 6256 6257 6258 6259 6260 6261 6262 6263 6264 6265 6266 6267 6268 6269 6270 6271 6272 6273 6274 6275 6276 6277 6278 6279 6280 6281 6282 6283 6284 6285 6286 6287 6288 6289 6290 6291 6292 6293 6294 6295 6296 6297 6298 6299 6300 6301 6302 6303 6304 6305 6306 6307 6308 6309 6310 6311 6312 6313 6314 6315 6316 6317 6318 6319 6320 6321 6322 6323 6324 6325 6326 6327 6328 6329 6330 6331 6332 6333 6334 6335 6336 6337 6338 6339 6340 6341 6342 6343 6344 6345 6346 6347 6348 6349 6350 6351 6352 6353 6354 6355 6356 6357 6358 6359 6360 6361 6362 6363 6364 6365 6366 6367 6368 6369 6370 6371 6372 6373 6374 6375 6376 6377 6378 6379 6380 6381 6382 6383 6384 6385 6386 6387 6388 6389 6390 6391 6392 6393 6394 6395 6396 6397 6398 6399 6400 6401 6402 6403 6404 6405 6406 6407 6408 6409 6410 6411 6412 6413 6414 6415 6416 6417 6418 6419 6420 6421 6422 6423 6424 6425 6426 6427 6428 6429 6430 6431 6432 6433 6434 6435 6436 6437 6438 6439 6440 6441 6442 6443 6444 6445 6446 6447 6448 6449 6450 6451 6452 6453 6454 6455 6456 6457 6458 6459 6460 6461 6462 6463 6464 6465 6466 6467 6468 6469 6470 6471 6472 6473 6474 6475 6476 6477 6478 6479 6480 6481 6482 6483 6484 6485 6486 6487 6488 6489 6490 6491 6492 6493 6494 6495 6496 6497 6498 6499 6500 6501 6502 6503 6504 6505 6506 6507 6508 6509 6510 6511 6512 6513 6514 6515 6516 6517 6518 6519 6520 6521 6522 6523 6524 6525 6526 6527 6528 6529 6530 6531 6532 6533 6534 6535 6536 6537 6538 6539 6540 6541 6542 6543 6544 6545 6546 6547 6548 6549 6550 6551 6552 6553 6554 6555 6556 6557 6558 6559 6560 6561 6562 6563 6564 6565 6566 6567 6568 6569 6570 6571 6572 6573 6574 6575 6576 6577 6578 6579 6580 6581 6582 6583 6584 6585 6586 6587 6588 6589 6590 6591 6592 6593 6594 6595 6596 6597 6598 6599 6600 6601 6602 6603 6604 6605 6606 6607 6608 6609 6610 6611 6612 6613 6614 6615 6616 6617 6618 6619 6620 6621 6622 6623 6624 6625 6626 6627 6628 6629 6630 6631 6632 6633 6634 6635 6636 6637 6638 6639 6640 6641 6642 6643 6644 6645 6646 6647 6648 6649 6650 6651 6652 6653 6654 6655 6656 6657 6658 6659 6660 6661 6662 6663 6664 6665 6666 6667 6668 6669 6670 6671 6672 6673 6674 6675 6676 6677 6678 6679 6680 6681 6682 6683 6684 6685 6686 6687 6688 6689 6690 6691 6692 6693 6694 6695 6696 6697 6698 6699 6700 6701 6702 6703 6704 6705 6706 6707 6708 6709 6710 6711 6712 6713 6714 6715 6716 6717 6718 6719 6720 6721 6722 6723 6724 6725 6726 6727 6728 6729 6730 6731 6732 6733 6734 6735 6736 6737 6738 6739 6740 6741 6742 6743 6744 6745 6746 6747 6748 6749 6750 6751 6752 6753 6754 6755 6756 6757 6758 6759 6760 6761 6762 6763 6764 6765 6766 6767 6768 6769 6770 6771 6772 6773 6774 6775 6776 6777 6778 6779 6780 6781 6782 6783 6784 6785 6786 6787 6788 6789 6790 6791 6792 6793 6794 6795 6796 6797 6798 6799 6800 6801 6802 6803 6804 6805 6806 6807 6808 6809 6810 6811 6812 6813 6814 6815 6816 6817 6818 6819 6820 6821 6822 6823 6824 6825 6826 6827 6828 6829 6830 6831 6832 6833 6834 6835 6836 6837 6838 6839 6840 6841 6842 6843 6844 6845 6846 6847 6848 6849 6850 6851 6852 6853 6854 6855 6856 6857 6858 6859 6860 6861 6862 6863 6864 6865 6866 6867 6868 6869 6870 6871 6872 6873 6874 6875 6876 6877 6878 6879 6880 6881 6882 6883 6884 6885 6886 6887 6888 6889 6890 6891 6892 6893 6894 6895 6896 6897 6898 6899 6900 6901 6902 6903 6904 6905 6906 6907 6908 6909 6910 6911 6912 6913 6914 6915 6916 6917 6918 6919 6920 6921 6922 6923 6924 6925 6926 6927 6928 6929 6930 6931 6932 6933 6934 6935 6936 6937 6938 6939 6940 6941 6942 6943 6944 6945 6946 6947 6948 6949 6950 6951 6952 6953 6954 6955 6956 6957 6958 6959 6960 6961 6962 6963 6964 6965 6966 6967 6968 6969 6970 6971 6972 6973 6974 6975 6976 6977 6978 6979 6980 6981 6982 6983 6984 6985 6986 6987 6988 6989 6990 6991 6992 6993 6994 6995 6996 6997 6998 6999 7000 7001 7002 7003 7004 7005 7006 7007 7008 7009 7010 7011 7012 7013 7014 7015 7016 7017 7018 7019 7020 7021 7022 7023 7024 7025 7026 7027 7028 7029 7030 7031 7032 7033 7034 7035 7036 7037 7038 7039 7040 7041 7042 7043 7044 7045 7046 7047 7048 7049 7050 7051 7052 7053 7054 7055 7056 7057 7058 7059 7060 7061 7062 7063 7064 7065 7066 7067 7068 7069 7070 7071 7072 7073 7074 7075 7076 7077 7078 7079 7080 7081 7082 7083 7084 7085 7086 7087 7088 7089 7090 7091 7092 7093 7094 7095 7096 7097 7098 7099 7100 7101 7102 7103 7104 7105 7106 7107 7108 7109 7110 7111 7112 7113 7114 7115 7116 7117 7118 7119 7120 7121 7122 7123 7124 7125 7126 7127 7128 7129 7130 7131 7132 7133 7134 7135 7136 7137 7138 7139 7140 7141 7142 7143 7144 7145 7146 7147 7148 7149 7150 7151 7152 7153 7154 7155 7156 7157 7158 7159 7160 7161 7162 7163 7164 7165 7166 7167 7168 7169 7170 7171 7172 7173 7174 7175 7176 7177 7178 7179 7180 7181 7182 7183 7184 7185 7186 7187 7188 7189 7190 7191 7192 7193 7194 7195 7196 7197 7198 7199 7200 7201 7202 7203 7204 7205 7206 7207 7208 7209 7210 7211 7212 7213 7214 7215 7216 7217 7218 7219 7220 7221 7222 7223 7224 7225 7226 7227 7228 7229 7230 7231 7232 7233 7234 7235 7236 7237 7238 7239 7240 7241 7242 7243 7244 7245 7246 7247 7248 7249 7250 7251 7252 7253 7254 7255 7256 7257 7258 7259 7260 7261 7262 7263 7264 7265 7266 7267 7268 7269 7270 7271 7272 7273 7274 7275 7276 7277 7278 7279 7280 7281 7282 7283 7284 7285 7286 7287 7288 7289 7290 7291 7292 7293 7294 7295 7296 7297 7298 7299 7300 7301 7302 7303 7304 7305 7306 7307 7308 7309 7310 7311 7312 7313 7314 7315 7316 7317 7318 7319 7320 7321 7322 7323 7324 7325 7326 7327 7328 7329 7330 7331 7332 7333 7334 7335 7336 7337 7338 7339 7340 7341 7342 7343 7344 7345 7346 7347 7348 7349 7350 7351 7352 7353 7354 7355 7356 7357 7358 7359 7360 7361 7362 7363 7364 7365 7366 7367 7368 7369 7370 7371 7372 7373 7374 7375 7376 7377 7378 7379 7380 7381 7382 7383 7384 7385 7386 7387 7388 7389 7390 7391 7392 7393 7394 7395 7396 7397 7398 7399 7400 7401 7402 7403 7404 7405 7406 7407 7408 7409 7410 7411 7412 7413 7414 7415 7416 7417 7418 7419 7420 7421 7422 7423 7424 7425 7426 7427 7428 7429 7430 7431 7432 7433 7434 7435 7436 7437 7438 7439 7440 7441 7442 7443 7444 7445 7446 7447 7448 7449 7450 7451 7452 7453 7454 7455 7456 7457 7458 7459 7460 7461 7462 7463 7464 7465 7466 7467 7468 7469 7470 7471 7472 7473 7474 7475 7476 7477 7478 7479 7480 7481 7482 7483 7484 7485 7486 7487 7488 7489 7490 7491 7492 7493 7494 7495 7496 7497 7498 7499 7500 7501 7502 7503 7504 7505 7506 7507 7508 7509 7510 7511 7512 7513 7514 7515 7516 7517 7518 7519 7520 7521 7522 7523 7524 7525 7526 7527 7528 7529 7530 7531 7532 7533 7534 7535 7536 7537 7538 7539 7540 7541 7542 7543 7544 7545 7546 7547 7548 7549 7550 7551 7552 7553 7554 7555 7556 7557 7558 7559 7560 7561 7562 7563 7564 7565 7566 7567 7568 7569 7570 7571 7572 7573 7574 7575 7576 7577 7578 7579 7580 7581 7582 7583 7584 7585 7586 7587 7588 7589 7590 7591 7592 7593 7594 7595 7596 7597 7598 7599 7600 7601 7602 7603 7604 7605 7606 7607 7608 7609 7610 7611 7612 7613 7614 7615 7616 7617 7618 7619 7620 7621 7622 7623 7624 7625 7626 7627 7628 7629 7630 7631 7632 7633 7634 7635 7636 7637 7638 7639 7640 7641 7642 7643 7644 7645 7646 7647 7648 7649 7650 7651 7652 7653 7654 7655 7656 7657 7658 7659 7660 7661 7662 7663 7664 7665 7666 7667 7668 7669 7670 7671 7672 7673 7674 7675 7676 7677 7678 7679 7680 7681 7682 7683 7684 7685 7686 7687 7688 7689 7690 7691 7692 7693 7694 7695 7696 7697 7698 7699 7700 7701 7702 7703 7704 7705 7706 7707 7708 7709 7710 7711 7712 7713 7714 7715 7716 7717 7718 7719 7720 7721 7722 7723 7724 7725 7726 7727 7728 7729 7730 7731 7732 7733 7734 7735 7736 7737 7738 7739 7740 7741 7742 7743 7744 7745 7746 7747 7748 7749 7750 7751 7752 7753 7754 7755 7756 7757 7758 7759 7760 7761 7762 7763 7764 7765 7766 7767 7768 7769 7770 7771 7772 7773 7774 7775 7776 7777 7778 7779 7780 7781 7782 7783 7784 7785 7786 7787 7788 7789 7790 7791 7792 7793 7794 7795 7796 7797 7798 7799 7800 7801 7802 7803 7804 7805 7806 7807 7808 7809 7810 7811 7812 7813 7814 7815 7816 7817 7818 7819 7820 7821 7822 7823 7824 7825 7826 7827 7828 7829 7830 7831 7832 7833 7834 7835 7836 7837 7838 7839 7840 7841 7842 7843 7844 7845 7846 7847 7848 7849 7850 7851 7852 7853 7854 7855 7856 7857 7858 7859 7860 7861 7862 7863 7864 7865 7866 7867 7868 7869 7870 7871 7872 7873 7874 7875 7876 7877 7878 7879 7880 7881 7882 7883 7884 7885 7886 7887 7888 7889 7890 7891 7892 7893 7894 7895 7896 7897 7898 7899 7900 7901 7902 7903 7904 7905 7906 7907 7908 7909 7910 7911 7912 7913 7914 7915 7916 7917 7918 7919 7920 7921 7922 7923 7924 7925 7926 7927 7928 7929 7930 7931 7932 7933 7934 7935 7936 7937 7938 7939 7940 7941 7942 7943 7944 7945 7946 7947 7948 7949 7950 7951 7952 7953 7954 7955 7956 7957 7958 7959 7960 7961 7962 7963 7964 7965 7966 7967 7968 7969 7970 7971 7972 7973 7974 7975 7976 7977 7978 7979 7980 7981 7982 7983 7984 7985 7986 7987 7988 7989 7990 7991 7992 7993 7994 7995 7996 7997 7998 7999 8000 8001 8002 8003 8004 8005 8006 8007 8008 8009 8010 8011 8012 8013 8014 8015 8016 8017 8018 8019 8020 8021 8022 8023 8024 8025 8026 8027 8028 8029 8030 8031 8032 8033 8034 8035 8036 8037 8038 8039 8040 8041 8042 8043 8044 8045 8046 8047 8048 8049 8050 8051 8052 8053 8054 8055 8056 8057 8058 8059 8060 8061 8062 8063 8064 8065 8066 8067 8068 8069 8070 8071 8072 8073 8074 8075 8076 8077 8078 8079 8080 8081 8082 8083 8084 8085 8086 8087 8088 8089 8090 8091 8092 8093 8094 8095 8096 8097 8098 8099 8100 8101 8102 8103 8104 8105 8106 8107 8108 8109 8110 8111 8112 8113 8114 8115 8116 8117 8118 8119 8120 8121 8122 8123 8124 8125 8126 8127 8128 8129 8130 8131 8132 8133 8134 8135 8136 8137 8138 8139 8140 8141 8142 8143 8144 8145 8146 8147 8148 8149 8150 8151 8152 8153 8154 8155 8156 8157 8158 8159 8160 8161 8162 8163 8164 8165 8166 8167 8168 8169 8170 8171 8172 8173 8174 8175 8176 8177 8178 8179 8180 8181 8182 8183 8184 8185 8186 8187 8188 8189 8190 8191 8192 8193 8194 8195 8196 8197 8198 8199 8200 8201 8202 8203 8204 8205 8206 8207 8208 8209 8210 8211 8212 8213 8214 8215 8216 8217 8218 8219 8220 8221 8222 8223 8224 8225 8226 8227 8228 8229 8230 8231 8232 8233 8234 8235 8236 8237 8238 8239 8240 8241 8242 8243 8244 8245 8246 8247 8248 8249 8250 8251 8252 8253 8254 8255 8256 8257 8258 8259 8260 8261 8262 8263 8264 8265 8266 8267 8268 8269 8270 8271 8272 8273 8274 8275 8276 8277 8278 8279 8280 8281 8282 8283 8284 8285 8286 8287 8288 8289 8290 8291 8292 8293 8294 8295 8296 8297 8298 8299 8300 8301 8302 8303 8304 8305 8306 8307 8308 8309 8310 8311 8312 8313 8314 8315 8316 8317 8318 8319 8320 8321 8322 8323 8324 8325 8326 8327 8328 8329 8330 8331 8332 8333 8334 8335 8336 8337 8338 8339 8340 8341 8342 8343 8344 8345 8346 8347 8348 8349 8350 8351 8352 8353 8354 8355 8356 8357 8358 8359 8360 8361 8362 8363 8364 8365 8366 8367 8368 8369 8370 8371 8372 8373 8374 8375 8376 8377 8378 8379 8380 8381 8382 8383 8384 8385 8386 8387 8388 8389 8390 8391 8392 8393 8394 8395 8396 8397 8398 8399 8400 8401 8402 8403 8404 8405 8406 8407 8408 8409 8410 8411 8412 8413 8414 8415 8416 8417 8418 8419 8420 8421 8422 8423 8424 8425 8426 8427 8428 8429 8430 8431 8432 8433 8434 8435 8436 8437 8438 8439 8440 8441 8442 8443 8444 8445 8446 8447 8448 8449 8450 8451 8452 8453 8454 8455 8456 8457 8458 8459 8460 8461 8462 8463 8464 8465 8466 8467 8468 8469 8470 8471 8472 8473 8474 8475 8476 8477 8478 8479 8480 8481 8482 8483 8484 8485 8486 8487 8488 8489 8490 8491 8492 8493 8494 8495 8496 8497 8498 8499 8500 8501 8502 8503 8504 8505 8506 8507 8508 8509 8510 8511 8512 8513 8514 8515 8516 8517 8518 8519 8520 8521 8522 8523 8524 8525 8526 8527 8528 8529 8530 8531 8532 8533 8534 8535 8536 8537 8538 8539 8540 8541 8542 8543 8544 8545 8546 8547 8548 8549 8550 8551 8552 8553 8554 8555 8556 8557 8558 8559 8560 8561 8562 8563 8564 8565 8566 8567 8568 8569 8570 8571 8572 8573 8574 8575 8576 8577 8578 8579 8580 8581 8582 8583 8584 8585 8586 8587 8588 8589 8590 8591 8592 8593 8594 8595 8596 8597 8598 8599 8600 8601 8602 8603 8604 8605 8606 8607 8608 8609 8610 8611 8612 8613 8614 8615 8616 8617 8618 8619 8620 8621 8622 8623 8624 8625 8626 8627 8628 8629 8630 8631 8632 8633 8634 8635 8636 8637 8638 8639 8640 8641 8642 8643 8644 8645 8646 8647 8648 8649 8650 8651 8652 8653 8654 8655 8656 8657 8658 8659 8660 8661 8662 8663 8664 8665 8666 8667 8668 8669 8670 8671 8672 8673 8674 8675 8676 8677 8678 8679 8680 8681 8682 8683 8684 8685 8686 8687 8688 8689 8690 8691 8692 8693 8694 8695 8696 8697 8698 8699 8700 8701 8702 8703 8704 8705 8706 8707 8708 8709 8710 8711 8712 8713 8714 8715 8716 8717 8718 8719 8720 8721 8722 8723 8724 8725 8726 8727 8728 8729 8730 8731 8732 8733 8734 8735 8736 8737 8738 8739 8740 8741 8742 8743 8744 8745 8746 8747 8748 8749 8750 8751 8752 8753 8754 8755 8756 8757 8758 8759 8760 8761 8762 8763 8764 8765 8766 8767 8768 8769 8770 8771 8772 8773 8774 8775 8776 8777 8778 8779 8780 8781 8782 8783 8784 8785 8786 8787 8788 8789 8790 8791 8792 8793 8794 8795 8796 8797 8798 8799 8800 8801 8802 8803 8804 8805 8806 8807 8808 8809 8810 8811 8812 8813 8814 8815 8816 8817 8818 8819 8820 8821 8822 8823 8824 8825 8826 8827 8828 8829 8830 8831 8832 8833 8834 8835 8836 8837 8838 8839 8840 8841 8842 8843 8844 8845 8846 8847 8848 8849 8850 8851 8852 8853 8854 8855 8856 8857 8858 8859 8860 8861 8862 8863 8864 8865 8866 8867 8868 8869 8870 8871 8872 8873 8874 8875 8876 8877 8878 8879 8880 8881 8882 8883 8884 8885 8886 8887 8888 8889 8890 8891 8892 8893 8894 8895 8896 8897 8898 8899 8900 8901 8902 8903 8904 8905 8906 8907 8908 8909 8910 8911 8912 8913 8914 8915 8916 8917 8918 8919 8920 8921 8922 8923 8924 8925 8926 8927 8928 8929 8930 8931 8932 8933 8934 8935 8936 8937 8938 8939 8940 8941 8942 8943 8944 8945 8946 8947 8948 8949 8950 8951 8952 8953 8954 8955 8956 8957 8958 8959 8960 8961 8962 8963 8964 8965 8966 8967 8968 8969 8970 8971 8972 8973 8974 8975 8976 8977 8978 8979 8980 8981 8982 8983 8984 8985 8986 8987 8988 8989 8990 8991 8992 8993 8994 8995 8996 8997 8998 8999 9000 9001 9002 9003 9004 9005 9006 9007 9008 9009 9010 9011 9012 9013 9014 9015 9016 9017 9018 9019 9020 9021 9022 9023 9024 9025 9026 9027 9028 9029 9030 9031 9032 9033 9034 9035 9036 9037 9038 9039 9040 9041 9042 9043 9044 9045 9046 9047 9048 9049 9050 9051 9052 9053 9054 9055 9056 9057 9058 9059 9060 9061 9062 9063 9064 9065 9066 9067 9068 9069 9070 9071 9072 9073 9074 9075 9076 9077 9078 9079 9080 9081 9082 9083 9084 9085 9086 9087 9088 9089 9090 9091 9092 9093 9094 9095 9096 9097 9098 9099 9100 9101 9102 9103 9104 9105 9106 9107 9108 9109 9110 9111 9112 9113 9114 9115 9116 9117 9118 9119 9120 9121 9122 9123 9124 9125 9126 9127 9128 9129 9130 9131 9132 9133 9134 9135 9136 9137 9138 9139 9140 9141 9142 9143 9144 9145 9146 9147 9148 9149 9150 9151 9152 9153 9154 9155 9156 9157 9158 9159 9160 9161 9162 9163 9164 9165 9166 9167 9168 9169 9170 9171 9172 9173 9174 9175 9176 9177 9178 9179 9180 9181 9182 9183 9184 9185 9186 9187 9188 9189 9190 9191 9192 9193 9194 9195 9196 9197 9198 9199 9200 9201 9202 9203 9204 9205 9206 9207 9208 9209 9210 9211 9212 9213 9214 9215 9216 9217 9218 9219 9220 9221 9222 9223 9224 9225 9226 9227 9228 9229 9230 9231 9232 9233 9234 9235 9236 9237 9238 9239 9240 9241 9242 9243 9244 9245 9246 9247 9248 9249 9250 9251 9252 9253 9254 9255 9256 9257 9258 9259 9260 9261 9262 9263 9264 9265 9266 9267 9268 9269 9270 9271 9272 9273 9274 9275 9276 9277 9278 9279 9280 9281 9282 9283 9284 9285 9286 9287 9288 9289 9290 9291 9292 9293 9294 9295 9296 9297 9298 9299 9300 9301 9302 9303 9304 9305 9306 9307 9308 9309 9310 9311 9312 9313 9314 9315 9316 9317 9318 9319 9320 9321 9322 9323 9324 9325 9326 9327 9328 9329 9330 9331 9332 9333 9334 9335 9336 9337 9338 9339 9340 9341 9342 9343 9344 9345 9346 9347 9348 9349 9350 9351 9352 9353 9354 9355 9356 9357 9358 9359 9360 9361 9362 9363 9364 9365 9366 9367 9368 9369 9370 9371 9372 9373 9374 9375 9376 9377 9378 9379 9380 9381 9382 9383 9384 9385 9386 9387 9388 9389 9390 9391 9392 9393 9394 9395 9396 9397 9398 9399 9400 9401 9402 9403 9404 9405 9406 9407 9408 9409 9410 9411 9412 9413 9414 9415 9416 9417 9418 9419 9420 9421 9422 9423 9424 9425 9426 9427 9428 9429 9430 9431 9432 9433 9434 9435 9436 9437 9438 9439 9440 9441 9442 9443 9444 9445 9446 9447 9448 9449 9450 9451 9452 9453 9454 9455 9456 9457 9458 9459 9460 9461 9462 9463 9464 9465 9466 9467 9468 9469 9470 9471 9472 9473 9474 9475 9476 9477 9478 9479 9480 9481 9482 9483 9484 9485 9486 9487 9488 9489 9490 9491 9492 9493 9494 9495 9496 9497 9498 9499 9500 9501 9502 9503 9504 9505 9506 9507 9508 9509 9510 9511 9512 9513 9514 9515 9516 9517 9518 9519 9520 9521 9522 9523 9524 9525 9526 9527 9528 9529 9530 9531 9532 9533 9534 9535 9536 9537 9538 9539 9540 9541 9542 9543 9544 9545 9546 9547 9548 9549 9550 9551 9552 9553 9554 9555 9556 9557 9558 9559 9560 9561 9562 9563 9564 9565 9566 9567 9568 9569 9570 9571 9572 9573 9574 9575 9576 9577 9578 9579 9580 9581 9582 9583 9584 9585 9586 9587 9588 9589 9590 9591 9592 9593 9594 9595 9596 9597 9598 9599 9600 9601 9602 9603 9604 9605 9606 9607 9608 9609 9610 9611 9612 9613 9614 9615 9616 9617 9618 9619 9620 9621 9622 9623 9624 9625 9626 9627 9628 9629 9630 9631 9632 9633 9634 9635 9636 9637 9638 9639 9640 9641 9642 9643 9644 9645 9646 9647 9648 9649 9650 9651 9652 9653 9654 9655 9656 9657 9658 9659 9660 9661 9662 9663 9664 9665 9666 9667 9668 9669 9670 9671 9672 9673 9674 9675 9676 9677 9678 9679 9680 9681 9682 9683 9684 9685 9686 9687 9688 9689 9690 9691 9692 9693 9694 9695 9696 9697 9698 9699 9700 9701 9702 9703 9704 9705 9706 9707 9708 9709 9710 9711 9712 9713 9714 9715 9716 9717 9718 9719 9720 9721 9722 9723 9724 9725 9726 9727 9728 9729 9730 9731 9732 9733 9734 9735 9736 9737 9738 9739 9740 9741 9742 9743 9744 9745 9746 9747 9748 9749 9750 9751 9752 9753 9754 9755 9756 9757 9758 9759 9760 9761 9762 9763 9764 9765 9766 9767 9768 9769 9770 9771 9772 9773 9774 9775 9776 9777 9778 9779 9780 9781 9782 9783 9784 9785 9786 9787 9788 9789 9790 9791 9792 9793 9794 9795 9796 9797 9798 9799 9800 9801 9802 9803 9804 9805 9806 9807 9808 9809 9810 9811 9812 9813 9814 9815 9816 9817 9818 9819 9820 9821 9822 9823 9824 9825 9826 9827 9828 9829 9830 9831 9832 9833 9834 9835 9836 9837 9838 9839 9840 9841 9842 9843 9844 9845 9846 9847 9848 9849 9850 9851 9852 9853 9854 9855 9856 9857 9858 9859 9860 9861 9862 9863 9864 9865 9866 9867 9868 9869 9870 9871 9872 9873 9874 9875 9876 9877 9878 9879 9880 9881 9882 9883 9884 9885 9886 9887 9888 9889 9890 9891 9892 9893 9894 9895 9896 9897 9898 9899 9900 9901 9902 9903 9904 9905 9906 9907 9908 9909 9910 9911 9912 9913 9914 9915 9916 9917 9918 9919 9920 9921 9922 9923 9924 9925 9926 9927 9928 9929 9930 9931 9932 9933 9934 9935 9936 9937 9938 9939 9940 9941 9942 9943 9944 9945 9946 9947 9948 9949 9950 9951 9952 9953 9954 9955 9956 9957 9958 9959 9960 9961 9962 9963 9964 9965 9966 9967 9968 9969 9970 9971 9972 9973 9974 9975 9976 9977 9978 9979 9980 9981 9982 9983 9984 9985 9986 9987 9988 9989 9990 9991 9992 9993 9994 9995 9996 9997 9998 9999 10000 10001 10002 10003 10004 10005 10006 10007 10008 10009 10010 10011 10012 10013 10014 10015 10016 10017 10018 10019 10020 10021 10022 10023 10024 10025 10026 10027 10028 10029 10030 10031 10032 10033 10034 10035 10036 10037 10038 10039 10040 10041 10042 10043 10044 10045 10046 10047 10048 10049 10050 10051 10052 10053 10054 10055 10056 10057 10058 10059 10060 10061 10062 10063 10064 10065 10066 10067 10068 10069 10070 10071 10072 10073 10074 10075 10076 10077 10078 10079 10080 10081 10082 10083 10084 10085 10086 10087 10088 10089 10090 10091 10092 10093 10094 10095 10096 10097 10098 10099 10100 10101 10102 10103 10104 10105 10106 10107 10108 10109 10110 10111 10112 10113 10114 10115 10116 10117 10118 10119 10120 10121 10122 10123 10124 10125 10126 10127 10128 10129 10130 10131 10132 10133 10134 10135 10136 10137 10138 10139 10140 10141 10142 10143 10144 10145 10146 10147 10148 10149 10150 10151 10152 10153 10154 10155 10156 10157 10158 10159 10160 10161 10162 10163 10164 10165 10166 10167 10168 10169 10170 10171 10172 10173 10174 10175 10176 10177 10178 10179 10180 10181 10182 10183 10184 10185 10186 10187 10188 10189 10190 10191 10192 10193 10194 10195 10196 10197 10198 10199 10200 10201 10202 10203 10204 10205 10206 10207 10208 10209 10210 10211 10212 10213 10214 10215 10216 10217 10218 10219 10220 10221 10222 10223 10224 10225 10226 10227 10228 10229 10230 10231 10232 10233 10234 10235 10236 10237 10238 10239 10240 10241 10242 10243 10244 10245 10246 10247 10248 10249 10250 10251 10252 10253 10254 10255 10256 10257 10258 10259 10260 10261 10262 10263 10264 10265 10266 10267 10268 10269 10270 10271 10272 10273 10274 10275 10276 10277 10278 10279 10280 10281 10282 10283 10284 10285 10286 10287 10288 10289 10290 10291 10292 10293 10294 10295 10296 10297 10298 10299 10300 10301 10302 10303 10304 10305 10306 10307 10308 10309 10310 10311 10312 10313 10314 10315 10316 10317 10318 10319 10320 10321 10322 10323 10324 10325 10326 10327 10328 10329 10330 10331 10332 10333 10334 10335 10336 10337 10338 10339 10340 10341 10342 10343 10344 10345 10346 10347 10348 10349 10350 10351 10352 10353 10354 10355 10356 10357 10358 10359 10360 10361 10362 10363 10364 10365 10366 10367 10368 10369 10370 10371 10372 10373 10374 10375 10376 10377 10378 10379 10380 10381 10382 10383 10384 10385 10386 10387 10388 10389 10390 10391 10392 10393 10394 10395 10396 10397 10398 10399 10400 10401 10402 10403 10404 10405 10406 10407 10408 10409 10410 10411 10412 10413 10414 10415 10416 10417 10418 10419 10420 10421 10422 10423 10424 10425 10426 10427 10428 10429 10430 10431 10432 10433 10434 10435 10436 10437 10438 10439 10440 10441 10442 10443 10444 10445 10446 10447 10448 10449 10450 10451 10452 10453 10454 10455 10456 10457 10458 10459 10460 10461 10462 10463 10464 10465 10466 10467 10468 10469 10470 10471 10472 10473 10474 10475 10476 10477 10478 10479 10480 10481 10482 10483 10484 10485 10486 10487 10488 10489 10490 10491 10492 10493 10494 10495 10496 10497 10498 10499 10500 10501 10502 10503 10504 10505 10506 10507 10508 10509 10510 10511 10512 10513 10514 10515 10516 10517 10518 10519 10520 10521 10522 10523 10524 10525 10526 10527 10528 10529 10530 10531 10532 10533 10534 10535 10536 10537 10538 10539 10540 10541 10542 10543 10544 10545 10546 10547 10548 10549 10550 10551 10552 10553 10554 10555 10556 10557 10558 10559 10560 10561 10562 10563 10564 10565 10566 10567 10568 10569 10570 10571 10572 10573 10574 10575 10576 10577 10578 10579 10580 10581 10582 10583 10584 10585 10586 10587 10588 10589 10590 10591 10592 10593 10594 10595 10596 10597 10598 10599 10600 10601 10602 10603 10604 10605 10606 10607 10608 10609 10610 10611 10612 10613 10614 10615 10616 10617 10618 10619 10620 10621 10622 10623 10624 10625 10626 10627 10628 10629 10630 10631 10632 10633 10634 10635 10636 10637 10638 10639 10640 10641 10642 10643 10644 10645 10646 10647 10648 10649 10650 10651 10652 10653 10654 10655 10656 10657 10658 10659 10660 10661 10662 10663 10664 10665 10666 10667 10668 10669 10670 10671 10672 10673 10674 10675 10676 10677 10678 10679 10680 10681 10682 10683 10684 10685 10686 10687 10688 10689 10690 10691 10692 10693 10694 10695 10696 10697 10698 10699 10700 10701 10702 10703 10704 10705 10706 10707 10708 10709 10710 10711 10712 10713 10714 10715 10716 10717 10718 10719 10720 10721 10722 10723 10724 10725 10726 10727 10728 10729 10730 10731 10732 10733 10734 10735 10736 10737 10738 10739 10740 10741 10742 10743 10744 10745 10746 10747 10748 10749 10750 10751 10752 10753 10754 10755 10756 10757 10758 10759 10760 10761 10762 10763 10764 10765 10766 10767 10768 10769 10770 10771 10772 10773 10774 10775 10776 10777 10778 10779 10780 10781 10782 10783 10784 10785 10786 10787 10788 10789 10790 10791 10792 10793 10794 10795 10796 10797 10798 10799 10800 10801 10802 10803 10804 10805 10806 10807 10808 10809 10810 10811 10812 10813 10814 10815 10816 10817 10818 10819 10820 10821 10822 10823 10824 10825 10826 10827 10828 10829 10830 10831 10832 10833 10834 10835 10836 10837 10838 10839 10840 10841 10842 10843 10844 10845 10846 10847 10848 10849 10850 10851 10852 10853 10854 10855 10856 10857 10858 10859 10860 10861 10862 10863 10864 10865 10866 10867 10868 10869 10870 10871 10872 10873 10874 10875 10876 10877 10878 10879 10880 10881 10882 10883 10884 10885 10886 10887 10888 10889 10890 10891 10892 10893 10894 10895 10896 10897 10898 10899 10900 10901 10902 10903 10904 10905 10906 10907 10908 10909 10910 10911 10912 10913 10914 10915 10916 10917 10918 10919 10920 10921 10922 10923 10924 10925 10926 10927 10928 10929 10930 10931 10932 10933 10934 10935 10936 10937 10938 10939 10940 10941 10942 10943 10944 10945 10946 10947 10948 10949 10950 10951 10952 10953 10954 10955 10956 10957 10958 10959 10960 10961 10962 10963 10964 10965 10966 10967 10968 10969 10970 10971 10972 10973 10974 10975 10976 10977 10978 10979 10980 10981 10982 10983 10984 10985 10986 10987 10988 10989 10990 10991 10992 10993 10994 10995 10996 10997 10998 10999 11000 11001 11002 11003 11004 11005 11006 11007 11008 11009 11010 11011 11012 11013 11014 11015 11016 11017 11018 11019 11020 11021 11022 11023 11024 11025 11026 11027 11028 11029 11030 11031 11032 11033 11034 11035 11036 11037 11038 11039 11040 11041 11042 11043 11044 11045 11046 11047 11048 11049 11050 11051 11052 11053 11054 11055 11056 11057 11058 11059 11060 11061 11062 11063 11064 11065 11066 11067 11068 11069 11070 11071 11072 11073 11074 11075 11076 11077 11078 11079 11080 11081 11082 11083 11084 11085 11086 11087 11088 11089 11090 11091 11092 11093 11094 11095 11096 11097 11098 11099 11100 11101 11102 11103 11104 11105 11106 11107 11108 11109 11110 11111 11112 11113 11114 11115 11116 11117 11118 11119 11120 11121 11122 11123 11124 11125 11126 11127 11128 11129 11130 11131 11132 11133 11134 11135 11136 11137 11138 11139 11140 11141 11142 11143 11144 11145 11146 11147 11148 11149 11150 11151 11152 11153 11154 11155 11156 11157 11158 11159 11160 11161 11162 11163 11164 11165 11166 11167 11168 11169 11170 11171 11172 11173 11174 11175 11176 11177 11178 11179 11180 11181 11182 11183 11184 11185 11186 11187 11188 11189 11190 11191 11192 11193 11194 11195 11196 11197 11198 11199 11200 11201 11202 11203 11204 11205 11206 11207 11208 11209 11210 11211 11212 11213 11214 11215 11216 11217 11218 11219 11220 11221 11222 11223 11224 11225 11226 11227 11228 11229 11230 11231 11232 11233 11234 11235 11236 11237 11238 11239 11240 11241 11242 11243 11244 11245 11246 11247 11248 11249 11250 11251 11252 11253 11254 11255 11256 11257 11258 11259 11260 11261 11262 11263 11264 11265 11266 11267 11268 11269 11270 11271 11272 11273 11274 11275 11276 11277 11278 11279 11280 11281 11282 11283 11284 11285 11286 11287 11288 11289 11290 11291 11292 11293 11294 11295 11296 11297 11298 11299 11300 11301 11302 11303 11304 11305 11306 11307 11308 11309 11310 11311 11312 11313 11314 11315 11316 11317 11318 11319 11320 11321 11322 11323 11324 11325 11326 11327 11328 11329 11330 11331 11332 11333 11334 11335 11336 11337 11338 11339 11340 11341 11342 11343 11344 11345 11346 11347 11348 11349 11350 11351 11352 11353 11354 11355 11356 11357 11358 11359 11360 11361 11362 11363 11364 11365 11366 11367 11368 11369 11370 11371 11372 11373 11374 11375 11376 11377 11378 11379 11380 11381 11382 11383 11384 11385 11386 11387 11388 11389 11390 11391 11392 11393 11394 11395 11396 11397 11398 11399 11400 11401 11402 11403 11404 11405 11406 11407 11408 11409 11410 11411 11412 11413 11414 11415 11416 11417 11418 11419 11420 11421 11422 11423 11424 11425 11426 11427 11428 11429 11430 11431 11432 11433 11434 11435 11436 11437 11438 11439 11440 11441 11442 11443 11444 11445 11446 11447 11448 11449 11450 11451 11452 11453 11454 11455 11456 11457 11458 11459 11460 11461 11462 11463 11464 11465 11466 11467 11468 11469 11470 11471 11472 11473 11474 11475 11476 11477 11478 11479 11480 11481 11482 11483 11484 11485 11486 11487 11488 11489 11490 11491 11492 11493 11494 11495 11496 11497 11498 11499 11500 11501 11502 11503 11504 11505 11506 11507 11508 11509 11510 11511 11512 11513 11514 11515 11516 11517 11518 11519 11520 11521 11522 11523 11524 11525 11526 11527 11528 11529 11530 11531 11532 11533 11534 11535 11536 11537 11538 11539 11540 11541 11542 11543 11544 11545 11546 11547 11548 11549 11550 11551 11552 11553 11554 11555 11556 11557 11558 11559 11560 11561 11562 11563 11564 11565 11566 11567 11568 11569 11570 11571 11572 11573 11574 11575 11576 11577 11578 11579 11580 11581 11582 11583 11584 11585 11586 11587 11588 11589 11590 11591 11592 11593 11594 11595 11596 11597 11598 11599 11600 11601 11602 11603 11604 11605 11606 11607 11608 11609 11610 11611 11612 11613 11614 11615 11616 11617 11618 11619 11620 11621 11622 11623 11624 11625 11626 11627 11628 11629 11630 11631 11632 11633 11634 11635 11636 11637 11638 11639 11640 11641 11642 11643 11644 11645 11646 11647 11648 11649 11650 11651 11652 11653 11654 11655 11656 11657 11658 11659 11660 11661 11662 11663 11664 11665 11666 11667 11668 11669 11670 11671 11672 11673 11674 11675 11676 11677 11678 11679 11680 11681 11682 11683 11684 11685 11686 11687 11688 11689 11690 11691 11692 11693 11694 11695 11696 11697 11698 11699 11700 11701 11702 11703 11704 11705 11706 11707 11708 11709 11710 11711 11712 11713 11714 11715 11716 11717 11718 11719 11720 11721 11722 11723 11724 11725 11726 11727 11728 11729 11730 11731 11732 11733 11734 11735 11736 11737 11738 11739 11740 11741 11742 11743 11744 11745 11746 11747 11748 11749 11750 11751 11752 11753 11754 11755 11756 11757 11758 11759 11760 11761 11762 11763 11764 11765 11766 11767 11768 11769 11770 11771 11772 11773 11774 11775 11776 11777 11778 11779 11780 11781 11782 11783 11784 11785 11786 11787 11788 11789 11790 11791 11792 11793 11794 11795 11796 11797 11798 11799 11800 11801 11802 11803 11804 11805 11806 11807 11808 11809 11810 11811 11812 11813 11814 11815 11816 11817 11818 11819 11820 11821 11822 11823 11824 11825 11826 11827 11828 11829 11830 11831 11832 11833 11834 11835 11836 11837 11838 11839 11840 11841 11842 11843 11844 11845 11846 11847 11848 11849 11850 11851 11852 11853 11854 11855 11856 11857 11858 11859 11860 11861 11862 11863 11864 11865 11866 11867 11868 11869 11870 11871 11872 11873 11874 11875 11876 11877 11878 11879 11880 11881 11882 11883 11884 11885 11886 11887 11888 11889 11890 11891 11892 11893 11894 11895 11896 11897 11898 11899 11900 11901 11902 11903 11904 11905 11906 11907 11908 11909 11910 11911 11912 11913 11914 11915 11916 11917 11918 11919 11920 11921 11922 11923 11924 11925 11926 11927 11928 11929 11930 11931 11932 11933 11934 11935 11936 11937 11938 11939 11940 11941 11942 11943 11944 11945 11946 11947 11948 11949 11950 11951 11952 11953 11954 11955 11956 11957 11958 11959 11960 11961 11962 11963 11964 11965 11966 11967 11968 11969 11970 11971 11972 11973 11974 11975 11976 11977 11978 11979 11980 11981 11982 11983 11984 11985 11986 11987 11988 11989 11990 11991 11992 11993 11994 11995 11996 11997 11998 11999 12000 12001 12002 12003 12004 12005 12006 12007 12008 12009 12010 12011 12012 12013 12014 12015 12016 12017 12018 12019 12020 12021 12022 12023 12024 12025 12026 12027 12028 12029 12030 12031 12032 12033 12034 12035 12036 12037 12038 12039 12040 12041 12042 12043 12044 12045 12046 12047 12048 12049 12050 12051 12052 12053 12054 12055 12056 12057 12058 12059 12060 12061 12062 12063 12064 12065 12066 12067 12068 12069 12070 12071 12072 12073 12074 12075 12076 12077 12078 12079 12080 12081 12082 12083 12084 12085 12086 12087 12088 12089 12090 12091 12092 12093 12094 12095 12096 12097 12098 12099 12100 12101 12102 12103 12104 12105 12106 12107 12108 12109 12110 12111 12112 12113 12114 12115 12116 12117 12118 12119 12120 12121 12122 12123 12124 12125 12126 12127 12128 12129 12130 12131 12132 12133 12134 12135 12136 12137 12138 12139 12140 12141 12142 12143 12144 12145 12146 12147 12148 12149 12150 12151 12152 12153 12154 12155 12156 12157 12158 12159 12160 12161 12162 12163 12164 12165 12166 12167 12168 12169 12170 12171 12172 12173 12174 12175 12176 12177 12178 12179 12180 12181 12182 12183 12184 12185 12186 12187 12188 12189 12190 12191 12192 12193 12194 12195 12196 12197 12198 12199 12200 12201 12202 12203 12204 12205 12206 12207 12208 12209 12210 12211 12212 12213 12214 12215 12216 12217 12218 12219 12220 12221 12222 12223 12224 12225 12226 12227 12228 12229 12230 12231 12232 12233 12234 12235 12236 12237 12238 12239 12240 12241 12242 12243 12244 12245 12246 12247 12248 12249 12250 12251 12252 12253 12254 12255 12256 12257 12258 12259 12260 12261 12262 12263 12264 12265 12266 12267 12268 12269 12270 12271 12272 12273 12274 12275 12276 12277 12278 12279 12280 12281 12282 12283 12284 12285 12286 12287 12288 12289 12290 12291 12292 12293 12294 12295 12296 12297 12298 12299 12300 12301 12302 12303 12304 12305 12306 12307 12308 12309 12310 12311 12312 12313 12314 12315 12316 12317 12318 12319 12320 12321 12322 12323 12324 12325 12326 12327 12328 12329 12330 12331 12332 12333 12334 12335 12336 12337 12338 12339 12340 12341 12342 12343 12344 12345 12346 12347 12348 12349 12350 12351 12352 12353 12354 12355 12356 12357 12358 12359 12360 12361 12362 12363 12364 12365 12366 12367 12368 12369 12370 12371 12372 12373 12374 12375 12376 12377 12378 12379 12380 12381 12382 12383 12384 12385 12386 12387 12388 12389 12390 12391 12392 12393 12394 12395 12396 12397 12398 12399 12400 12401 12402 12403 12404 12405 12406 12407 12408 12409 12410 12411 12412 12413 12414 12415 12416 12417 12418 12419 12420 12421 12422 12423 12424 12425 12426 12427 12428 12429 12430 12431 12432 12433 12434 12435 12436 12437 12438 12439 12440 12441 12442 12443 12444 12445 12446 12447 12448 12449 12450 12451 12452 12453 12454 12455 12456 12457 12458 12459 12460 12461 12462 12463 12464 12465 12466 12467 12468 12469 12470 12471 12472 12473 12474 12475 12476 12477 12478 12479 12480 12481 12482 12483 12484 12485 12486 12487 12488 12489 12490 12491 12492 12493 12494 12495 12496 12497 12498 12499 12500 12501 12502 12503 12504 12505 12506 12507 12508 12509 12510 12511 12512 12513 12514 12515 12516 12517 12518 12519 12520 12521 12522 12523 12524 12525 12526 12527 12528 12529 12530 12531 12532 12533 12534 12535 12536 12537 12538 12539 12540 12541 12542 12543 12544 12545 12546 12547 12548 12549 12550 12551 12552 12553 12554 12555 12556 12557 12558 12559 12560 12561 12562 12563 12564 12565 12566 12567 12568 12569 12570 12571 12572 12573 12574 12575 12576 12577 12578 12579 12580 12581 12582 12583 12584 12585 12586 12587 12588 12589 12590 12591 12592 12593 12594 12595 12596 12597 12598 12599 12600 12601 12602 12603 12604 12605 12606 12607 12608 12609 12610 12611 12612 12613 12614 12615 12616 12617 12618 12619 12620 12621 12622 12623 12624 12625 12626 12627 12628 12629 12630 12631 12632 12633 12634 12635 12636 12637 12638 12639 12640 12641 12642 12643 12644 12645 12646 12647 12648 12649 12650 12651 12652 12653 12654 12655 12656 12657 12658 12659 12660 12661 12662 12663 12664 12665 12666 12667 12668 12669 12670 12671 12672 12673 12674 12675 12676 12677 12678 12679 12680 12681 12682 12683 12684 12685 12686 12687 12688 12689 12690 12691 12692 12693 12694 12695 12696 12697 12698 12699 12700 12701 12702 12703 12704 12705 12706 12707 12708 12709 12710 12711 12712 12713 12714 12715 12716 12717 12718 12719 12720 12721 12722 12723 12724 12725 12726 12727 12728 12729 12730 12731 12732 12733 12734 12735 12736 12737 12738 12739 12740 12741 12742 12743 12744 12745 12746 12747 12748 12749 12750 12751 12752 12753 12754 12755 12756 12757 12758 12759 12760 12761 12762 12763 12764 12765 12766 12767 12768 12769 12770 12771 12772 12773 12774 12775 12776 12777 12778 12779 12780 12781 12782 12783 12784 12785 12786 12787 12788 12789 12790 12791 12792 12793 12794 12795 12796 12797 12798 12799 12800 12801 12802 12803 12804 12805 12806 12807 12808 12809 12810 12811 12812 12813 12814 12815 12816 12817 12818 12819 12820 12821 12822 12823 12824 12825 12826 12827 12828 12829 12830 12831 12832 12833 12834 12835 12836 12837 12838 12839 12840 12841 12842 12843 12844 12845 12846 12847 12848 12849 12850 12851 12852 12853 12854 12855 12856 12857 12858 12859 12860 12861 12862 12863 12864 12865 12866 12867 12868 12869 12870 12871 12872 12873 12874 12875 12876 12877 12878 12879 12880 12881 12882 12883 12884 12885 12886 12887 12888 12889 12890 12891 12892 12893 12894 12895 12896 12897 12898 12899 12900 12901 12902 12903 12904 12905 12906 12907 12908 12909 12910 12911 12912 12913 12914 12915 12916 12917 12918 12919 12920 12921 12922 12923 12924 12925 12926 12927 12928 12929 12930 12931 12932 12933 12934 12935 12936 12937 12938 12939 12940 12941 12942 12943 12944 12945 12946 12947 12948 12949 12950 12951 12952 12953 12954 12955 12956 12957 12958 12959 12960 12961 12962 12963 12964 12965 12966 12967 12968 12969 12970 12971 12972 12973 12974 12975 12976 12977 12978 12979 12980 12981 12982 12983 12984 12985 12986 12987 12988 12989 12990 12991 12992 12993 12994 12995 12996 12997 12998 12999 13000 13001 13002 13003 13004 13005 13006 13007 13008 13009 13010 13011 13012 13013 13014 13015 13016 13017 13018 13019 13020 13021 13022 13023 13024 13025 13026 13027 13028 13029 13030 13031 13032 13033 13034 13035 13036 13037 13038 13039 13040 13041 13042 13043 13044 13045 13046 13047 13048 13049 13050 13051 13052 13053 13054 13055 13056 13057 13058 13059 13060 13061 13062 13063 13064 13065 13066 13067 13068 13069 13070 13071 13072 13073 13074 13075 13076 13077 13078 13079 13080 13081 13082 13083 13084 13085 13086 13087 13088 13089 13090 13091 13092 13093 13094 13095 13096 13097 13098 13099 13100 13101 13102 13103 13104 13105 13106 13107 13108 13109 13110 13111 13112 13113 13114 13115 13116 13117 13118 13119 13120 13121 13122 13123 13124 13125 13126 13127 13128 13129 13130 13131 13132 13133 13134 13135 13136 13137 13138 13139 13140 13141 13142 13143 13144 13145 13146 13147 13148 13149 13150 13151 13152 13153 13154 13155 13156 13157 13158 13159 13160 13161 13162 13163 13164 13165 13166 13167 13168 13169 13170 13171 13172 13173 13174 13175 13176 13177 13178 13179 13180 13181 13182 13183 13184 13185 13186 13187 13188 13189 13190 13191 13192 13193 13194 13195 13196 13197 13198 13199 13200 13201 13202 13203 13204 13205 13206 13207 13208 13209 13210 13211 13212 13213 13214 13215 13216 13217 13218 13219 13220 13221 13222 13223 13224 13225 13226 13227 13228 13229 13230 13231 13232 13233 13234 13235 13236 13237 13238 13239 13240 13241 13242 13243 13244 13245 13246 13247 13248 13249 13250 13251 13252 13253 13254 13255 13256 13257 13258 13259 13260 13261 13262 13263 13264 13265 13266 13267 13268 13269 13270 13271 13272 13273 13274 13275 13276 13277 13278 13279 13280 13281 13282 13283 13284 13285 13286 13287 13288 13289 13290 13291 13292 13293 13294 13295 13296 13297 13298 13299 13300 13301 13302 13303 13304 13305 13306 13307 13308 13309 13310 13311 13312 13313 13314 13315 13316 13317 13318 13319 13320 13321 13322 13323 13324 13325 13326 13327 13328 13329 13330 13331 13332 13333 13334 13335 13336 13337 13338 13339 13340 13341 13342 13343 13344 13345 13346 13347 13348 13349 13350 13351 13352 13353 13354 13355 13356 13357 13358 13359 13360 13361 13362 13363 13364 13365 13366 13367 13368 13369 13370 13371 13372 13373 13374 13375 13376 13377 13378 13379 13380 13381 13382 13383 13384 13385 13386 13387 13388 13389 13390 13391 13392 13393 13394 13395 13396 13397 13398 13399 13400 13401 13402 13403 13404 13405 13406 13407 13408 13409 13410 13411 13412 13413 13414 13415 13416 13417 13418 13419 13420 13421 13422 13423 13424 13425 13426 13427 13428 13429 13430 13431 13432 13433 13434 13435 13436 13437 13438 13439 13440 13441 13442 13443 13444 13445 13446 13447 13448 13449 13450 13451 13452 13453 13454 13455 13456 13457 13458 13459 13460 13461 13462 13463 13464 13465 13466 13467 13468 13469 13470 13471 13472 13473 13474 13475 13476 13477 13478 13479 13480 13481 13482 13483 13484 13485 13486 13487 13488 13489 13490 13491 13492 13493 13494 13495 13496 13497 13498 13499 13500 13501 13502 13503 13504 13505 13506 13507 13508 13509 13510 13511 13512 13513 13514 13515 13516 13517 13518 13519 13520 13521 13522 13523 13524 13525 13526 13527 13528 13529 13530 13531 13532 13533 13534 13535 13536 13537 13538 13539 13540 13541 13542 13543 13544 13545 13546 13547 13548 13549 13550 13551 13552 13553 13554 13555 13556 13557 13558 13559 13560 13561 13562 13563 13564 13565 13566 13567 13568 13569 13570 13571 13572 13573 13574 13575 13576 13577 13578 13579 13580 13581 13582 13583 13584 13585 13586 13587 13588 13589 13590 13591 13592 13593 13594 13595 13596 13597 13598 13599 13600 13601 13602 13603 13604 13605 13606 13607 13608 13609 13610 13611 13612 13613 13614 13615 13616 13617 13618 13619 13620 13621 13622 13623 13624 13625 13626 13627 13628 13629 13630 13631 13632 13633 13634 13635 13636 13637 13638 13639 13640 13641 13642 13643 13644 13645 13646 13647 13648 13649 13650 13651 13652 13653 13654 13655 13656 13657 13658 13659 13660 13661 13662 13663 13664 13665 13666 13667 13668 13669 13670 13671 13672 13673 13674 13675 13676 13677 13678 13679 13680 13681 13682 13683 13684 13685 13686 13687 13688 13689 13690 13691 13692 13693 13694 13695 13696 13697 13698 13699 13700 13701 13702 13703 13704 13705 13706 13707 13708 13709 13710 13711 13712 13713 13714 13715 13716 13717 13718 13719 13720 13721 13722 13723 13724 13725 13726 13727 13728 13729 13730 13731 13732 13733 13734 13735 13736 13737 13738 13739 13740 13741 13742 13743 13744 13745 13746 13747 13748 13749 13750 13751 13752 13753 13754 13755 13756 13757 13758 13759 13760 13761 13762 13763 13764 13765 13766 13767 13768 13769 13770 13771 13772 13773 13774 13775 13776 13777 13778 13779 13780 13781 13782 13783 13784 13785 13786 13787 13788 13789 13790 13791 13792 13793 13794 13795 13796 13797 13798 13799 13800 13801 13802 13803 13804 13805 13806 13807 13808 13809 13810 13811 13812 13813 13814 13815 13816 13817 13818 13819 13820 13821 13822 13823 13824 13825 13826 13827 13828 13829 13830 13831 13832 13833 13834 13835 13836 13837 13838 13839 13840 13841 13842 13843 13844 13845 13846 13847 13848 13849 13850 13851 13852 13853 13854 13855 13856 13857 13858 13859 13860 13861 13862 13863 13864 13865 13866 13867 13868 13869 13870 13871 13872 13873 13874 13875 13876 13877 13878 13879 13880 13881 13882 13883 13884 13885 13886 13887 13888 13889 13890 13891 13892 13893 13894 13895 13896 13897 13898 13899 13900 13901 13902 13903 13904 13905 13906 13907 13908 13909 13910 13911 13912 13913 13914 13915 13916 13917 13918 13919 13920 13921 13922 13923 13924 13925 13926 13927 13928 13929 13930 13931 13932 13933 13934 13935 13936 13937 13938 13939 13940 13941 13942 13943 13944 13945 13946 13947 13948 13949 13950 13951 13952 13953 13954 13955 13956 13957 13958 13959 13960 13961 13962 13963 13964 13965 13966 13967 13968 13969 13970 13971 13972 13973 13974 13975 13976 13977 13978 13979 13980 13981 13982 13983 13984 13985 13986 13987 13988 13989 13990 13991 13992 13993 13994 13995 13996 13997 13998 13999 14000 14001 14002 14003 14004 14005 14006 14007 14008 14009 14010 14011 14012 14013 14014 14015 14016 14017 14018 14019 14020 14021 14022 14023 14024 14025 14026 14027 14028 14029 14030 14031 14032 14033 14034 14035 14036 14037 14038 14039 14040 14041 14042 14043 14044 14045 14046 14047 14048 14049 14050 14051 14052 14053 14054 14055 14056 14057 14058 14059 14060 14061 14062 14063 14064 14065 14066 14067 14068 14069 14070 14071 14072 14073 14074 14075 14076 14077 14078 14079 14080 14081 14082 14083 14084 14085 14086 14087 14088 14089 14090 14091 14092 14093 14094 14095 14096 14097 14098 14099 14100 14101 14102 14103 14104 14105 14106 14107 14108 14109 14110 14111 14112 14113 14114 14115 14116 14117 14118 14119 14120 14121 14122 14123 14124 14125 14126 14127 14128 14129 14130 14131 14132 14133 14134 14135 14136 14137 14138 14139 14140 14141 14142 14143 14144 14145 14146 14147 14148 14149 14150 14151 14152 14153 14154 14155 14156 14157 14158 14159 14160 14161 14162 14163 14164 14165 14166 14167 14168 14169 14170 14171 14172 14173 14174 14175 14176 14177 14178 14179 14180 14181 14182 14183 14184 14185 14186 14187 14188 14189 14190 14191 14192 14193 14194 14195 14196 14197 14198 14199 14200 14201 14202 14203 14204 14205 14206 14207 14208 14209 14210 14211 14212 14213 14214 14215 14216 14217 14218 14219 14220 14221 14222 14223 14224 14225 14226 14227 14228 14229 14230 14231 14232 14233 14234 14235 14236 14237 14238 14239 14240 14241 14242 14243 14244 14245 14246 14247 14248 14249 14250 14251 14252 14253 14254 14255 14256 14257 14258 14259 14260 14261 14262 14263 14264 14265 14266 14267 14268 14269 14270 14271 14272 14273 14274 14275 14276 14277 14278 14279 14280 14281 14282 14283 14284 14285 14286 14287 14288 14289 14290 14291 14292 14293 14294 14295 14296 14297 14298 14299 14300 14301 14302 14303 14304 14305 14306 14307 14308 14309 14310 14311 14312 14313 14314 14315 14316 14317 14318 14319 14320 14321 14322 14323 14324 14325 14326 14327 14328 14329 14330 14331 14332 14333 14334 14335 14336 14337 14338 14339 14340 14341 14342 14343 14344 14345 14346 14347 14348 14349 14350 14351 14352 14353 14354 14355 14356 14357 14358 14359 14360 14361 14362 14363 14364 14365 14366 14367 14368 14369 14370 14371 14372 14373 14374 14375 14376 14377 14378 14379 14380 14381 14382 14383 14384 14385 14386 14387 14388 14389 14390 14391 14392 14393 14394 14395 14396 14397 14398 14399 14400 14401 14402 14403 14404 14405 14406 14407 14408 14409 14410 14411 14412 14413 14414 14415 14416 14417 14418 14419 14420 14421 14422 14423 14424 14425 14426 14427 14428 14429 14430 14431 14432 14433 14434 14435 14436 14437 14438 14439 14440 14441 14442 14443 14444 14445 14446 14447 14448 14449 14450 14451 14452 14453 14454 14455 14456 14457 14458 14459 14460 14461 14462 14463 14464 14465 14466 14467 14468 14469 14470 14471 14472 14473 14474 14475 14476 14477 14478 14479 14480 14481 14482 14483 14484 14485 14486 14487 14488 14489 14490 14491 14492 14493 14494 14495 14496 14497 14498 14499 14500 14501 14502 14503 14504 14505 14506 14507 14508 14509 14510 14511 14512 14513 14514 14515 14516 14517 14518 14519 14520 14521 14522 14523 14524 14525 14526 14527 14528 14529 14530 14531 14532 14533 14534 14535 14536 14537 14538 14539 14540 14541 14542 14543 14544 14545 14546 14547 14548 14549 14550 14551 14552 14553 14554 14555 14556 14557 14558 14559 14560 14561 14562 14563 14564 14565 14566 14567 14568 14569 14570 14571 14572 14573 14574 14575 14576 14577 14578 14579 14580 14581 14582 14583 14584 14585 14586 14587 14588 14589 14590 14591 14592 14593 14594 14595 14596 14597 14598 14599 14600 14601 14602 14603 14604 14605 14606 14607 14608 14609 14610 14611 14612 14613 14614 14615 14616 14617 14618 14619 14620 14621 14622 14623 14624 14625 14626 14627 14628 14629 14630 14631 14632 14633 14634 14635 14636 14637 14638 14639 14640 14641 14642 14643 14644 14645 14646 14647 14648 14649 14650 14651 14652 14653 14654 14655 14656 14657 14658 14659 14660 14661 14662 14663 14664 14665 14666 14667 14668 14669 14670 14671 14672 14673 14674 14675 14676 14677 14678 14679 14680 14681 14682 14683 14684 14685 14686 14687 14688 14689 14690 14691 14692 14693 14694 14695 14696 14697 14698 14699 14700 14701 14702 14703 14704 14705 14706 14707 14708 14709 14710 14711 14712 14713 14714 14715 14716 14717 14718 14719 14720 14721 14722 14723 14724 14725 14726 14727 14728 14729 14730 14731 14732 14733 14734 14735 14736 14737 14738 14739 14740 14741 14742 14743 14744 14745 14746 14747 14748 14749 14750 14751 14752 14753 14754 14755 14756 14757 14758 14759 14760 14761 14762 14763 14764 14765 14766 14767 14768 14769 14770 14771 14772 14773 14774 14775 14776 14777 14778 14779 14780 14781 14782 14783 14784 14785 14786 14787 14788 14789 14790 14791 14792 14793 14794 14795 14796 14797 14798 14799 14800 14801 14802 14803 14804 14805 14806 14807 14808 14809 14810 14811 14812 14813 14814 14815 14816 14817 14818 14819 14820 14821 14822 14823 14824 14825 14826 14827 14828 14829 14830 14831 14832 14833 14834 14835 14836 14837 14838 14839 14840 14841 14842 14843 14844 14845 14846 14847 14848 14849 14850 14851 14852 14853 14854 14855 14856 14857 14858 14859 14860 14861 14862 14863 14864 14865 14866 14867 14868 14869 14870 14871 14872 14873 14874 14875 14876 14877 14878 14879 14880 14881 14882 14883 14884 14885 14886 14887 14888 14889 14890 14891 14892 14893 14894 14895 14896 14897 14898 14899 14900 14901 14902 14903 14904 14905 14906 14907 14908 14909 14910 14911 14912 14913 14914 14915 14916 14917 14918 14919 14920 14921 14922 14923 14924 14925 14926 14927 14928 14929 14930 14931 14932 14933 14934 14935 14936 14937 14938 14939 14940 14941 14942 14943 14944 14945 14946 14947 14948 14949 14950 14951 14952 14953 14954 14955 14956 14957 14958 14959 14960 14961 14962 14963 14964 14965 14966 14967 14968 14969 14970 14971 14972 14973 14974 14975 14976 14977 14978 14979 14980 14981 14982 14983 14984 14985 14986 14987 14988 14989 14990 14991 14992 14993 14994 14995 14996 14997 14998 14999 15000 15001 15002 15003 15004 15005 15006 15007 15008 15009 15010 15011 15012 15013 15014 15015 15016 15017 15018 15019 15020 15021 15022 15023 15024 15025 15026 15027 15028 15029 15030 15031 15032 15033 15034 15035 15036 15037 15038 15039 15040 15041 15042 15043 15044 15045 15046 15047 15048 15049 15050 15051 15052 15053 15054 15055 15056 15057 15058 15059 15060 15061 15062 15063 15064 15065 15066 15067 15068 15069 15070 15071 15072 15073 15074 15075 15076 15077 15078 15079 15080 15081 15082 15083 15084 15085 15086 15087 15088 15089 15090 15091 15092 15093 15094 15095 15096 15097 15098 15099 15100 15101 15102 15103 15104 15105 15106 15107 15108 15109 15110 15111 15112 15113 15114 15115 15116 15117 15118 15119 15120 15121 15122 15123 15124 15125 15126 15127 15128 15129 15130 15131 15132 15133 15134 15135 15136 15137 15138 15139 15140 15141 15142 15143 15144 15145 15146 15147 15148 15149 15150 15151 15152 15153 15154 15155 15156 15157 15158 15159 15160 15161 15162 15163 15164 15165 15166 15167 15168 15169 15170 15171 15172 15173 15174 15175 15176 15177 15178 15179 15180 15181 15182 15183 15184 15185 15186 15187 15188 15189 15190 15191 15192 15193 15194 15195 15196 15197 15198 15199 15200 15201 15202 15203 15204 15205 15206 15207 15208 15209 15210 15211 15212 15213 15214 15215 15216 15217 15218 15219 15220 15221 15222 15223 15224 15225 15226 15227 15228 15229 15230 15231 15232 15233 15234 15235 15236 15237 15238 15239 15240 15241 15242 15243 15244 15245 15246 15247 15248 15249 15250 15251 15252 15253 15254 15255 15256 15257 15258 15259 15260 15261 15262 15263 15264 15265 15266 15267 15268 15269 15270 15271 15272 15273 15274 15275 15276 15277 15278 15279 15280 15281 15282 15283 15284 15285 15286 15287 15288 15289 15290 15291 15292 15293 15294 15295 15296 15297 15298 15299 15300 15301 15302 15303 15304 15305 15306 15307 15308 15309 15310 15311 15312 15313 15314 15315 15316 15317 15318 15319 15320 15321 15322 15323 15324 15325 15326 15327 15328 15329 15330 15331 15332 15333 15334 15335 15336 15337 15338 15339 15340 15341 15342 15343 15344 15345 15346 15347 15348 15349 15350 15351 15352 15353 15354 15355 15356 15357 15358 15359 15360 15361 15362 15363 15364 15365 15366 15367 15368 15369 15370 15371 15372 15373 15374 15375 15376 15377 15378 15379 15380 15381 15382 15383 15384 15385 15386 15387 15388 15389 15390 15391 15392 15393 15394 15395 15396 15397 15398 15399 15400 15401 15402 15403 15404 15405 15406 15407 15408 15409 15410 15411 15412 15413 15414 15415 15416 15417 15418 15419 15420 15421 15422 15423 15424 15425 15426 15427 15428 15429 15430 15431 15432 15433 15434 15435 15436 15437 15438 15439 15440 15441 15442 15443 15444 15445 15446 15447 15448 15449 15450 15451 15452 15453 15454 15455 15456 15457 15458 15459 15460 15461 15462 15463 15464 15465 15466 15467 15468 15469 15470 15471 15472 15473 15474 15475 15476 15477 15478 15479 15480 15481 15482 15483 15484 15485 15486 15487 15488 15489 15490 15491 15492 15493 15494 15495 15496 15497 15498 15499 15500 15501 15502 15503 15504 15505 15506 15507 15508 15509 15510 15511 15512 15513 15514 15515 15516 15517 15518 15519 15520 15521 15522 15523 15524 15525 15526 15527 15528 15529 15530 15531 15532 15533 15534 15535 15536 15537 15538 15539 15540 15541 15542 15543 15544 15545 15546 15547 15548 15549 15550 15551 15552 15553 15554 15555 15556 15557 15558 15559 15560 15561 15562 15563 15564 15565 15566 15567 15568 15569 15570 15571 15572 15573 15574 15575 15576 15577 15578 15579 15580 15581 15582 15583 15584 15585 15586 15587 15588 15589 15590 15591 15592 15593 15594 15595 15596 15597 15598 15599 15600 15601 15602 15603 15604 15605 15606 15607 15608 15609 15610 15611 15612 15613 15614 15615 15616 15617 15618 15619 15620 15621 15622 15623 15624 15625 15626 15627 15628 15629 15630 15631 15632 15633 15634 15635 15636 15637 15638 15639 15640 15641 15642 15643 15644 15645 15646 15647 15648 15649 15650 15651 15652 15653 15654 15655 15656 15657 15658 15659 15660 15661 15662 15663 15664 15665 15666 15667 15668 15669 15670 15671 15672 15673 15674 15675 15676 15677 15678 15679 15680 15681 15682 15683 15684 15685 15686 15687 15688 15689 15690 15691 15692 15693 15694 15695 15696 15697 15698 15699 15700 15701 15702 15703 15704 15705 15706 15707 15708 15709 15710 15711 15712 15713 15714 15715 15716 15717 15718 15719 15720 15721 15722 15723 15724 15725 15726 15727 15728 15729 15730 15731 15732 15733 15734 15735 15736 15737 15738 15739 15740 15741 15742 15743 15744 15745 15746 15747 15748 15749 15750 15751 15752 15753 15754 15755 15756 15757 15758 15759 15760 15761 15762 15763 15764 15765 15766 15767 15768 15769 15770 15771 15772 15773 15774 15775 15776 15777 15778 15779 15780 15781 15782 15783 15784 15785 15786 15787 15788 15789 15790 15791 15792 15793 15794 15795 15796 15797 15798 15799 15800 15801 15802 15803 15804 15805 15806 15807 15808 15809 15810 15811 15812 15813 15814 15815 15816 15817 15818 15819 15820 15821 15822 15823 15824 15825 15826 15827 15828 15829 15830 15831 15832 15833 15834 15835 15836 15837 15838 15839 15840 15841 15842 15843 15844 15845 15846 15847 15848 15849 15850 15851 15852 15853 15854 15855 15856 15857 15858 15859 15860 15861 15862 15863 15864 15865 15866 15867 15868 15869 15870 15871 15872 15873 15874 15875 15876 15877 15878 15879 15880 15881 15882 15883 15884 15885 15886 15887 15888 15889 15890 15891 15892 15893 15894 15895 15896 15897 15898 15899 15900 15901 15902 15903 15904 15905 15906 15907 15908 15909 15910 15911 15912 15913 15914 15915 15916 15917 15918 15919 15920 15921 15922 15923 15924 15925 15926 15927 15928 15929 15930 15931 15932 15933 15934 15935 15936 15937 15938 15939 15940 15941 15942 15943 15944 15945 15946 15947 15948 15949 15950 15951 15952 15953 15954 15955 15956 15957 15958 15959 15960 15961 15962 15963 15964 15965 15966 15967 15968 15969 15970 15971 15972 15973 15974 15975 15976 15977 15978 15979 15980 15981 15982 15983 15984 15985 15986 15987 15988 15989 15990 15991 15992 15993 15994 15995 15996 15997 15998 15999 16000 16001 16002 16003 16004 16005 16006 16007 16008 16009 16010 16011 16012 16013 16014 16015 16016 16017 16018 16019 16020 16021 16022 16023 16024 16025 16026 16027 16028 16029 16030 16031 16032 16033 16034 16035 16036 16037 16038 16039 16040 16041 16042 16043 16044 16045 16046 16047 16048 16049 16050 16051 16052 16053 16054 16055 16056 16057 16058 16059 16060 16061 16062 16063 16064 16065 16066 16067 16068 16069 16070 16071 16072 16073 16074 16075 16076 16077 16078 16079 16080 16081 16082 16083 16084 16085 16086 16087 16088 16089 16090 16091 16092 16093 16094 16095 16096 16097 16098 16099 16100 16101 16102 16103 16104 16105 16106 16107 16108 16109 16110 16111 16112 16113 16114 16115 16116 16117 16118 16119 16120 16121 16122 16123 16124 16125 16126 16127 16128 16129 16130 16131 16132 16133 16134 16135 16136 16137 16138 16139 16140 16141 16142 16143 16144 16145 16146 16147 16148 16149 16150 16151 16152 16153 16154 16155 16156 16157 16158 16159 16160 16161 16162 16163 16164 16165 16166 16167 16168 16169 16170 16171 16172 16173 16174 16175 16176 16177 16178 16179 16180 16181 16182 16183 16184 16185 16186 16187 16188 16189 16190 16191 16192 16193 16194 16195 16196 16197 16198 16199 16200 16201 16202 16203 16204 16205 16206 16207 16208 16209 16210 16211 16212 16213 16214 16215 16216 16217 16218 16219 16220 16221 16222 16223 16224 16225 16226 16227 16228 16229 16230 16231 16232 16233 16234 16235 16236 16237 16238 16239 16240 16241 16242 16243 16244 16245 16246 16247 16248 16249 16250 16251 16252 16253 16254 16255 16256 16257 16258 16259 16260 16261 16262 16263 16264 16265 16266 16267 16268 16269 16270 16271 16272 16273 16274 16275 16276 16277 16278 16279 16280 16281 16282 16283 16284 16285 16286 16287 16288 16289 16290 16291 16292 16293 16294 16295 16296 16297 16298 16299 16300 16301 16302 16303 16304 16305 16306 16307 16308 16309 16310 16311 16312 16313 16314 16315 16316 16317 16318 16319 16320 16321 16322 16323 16324 16325 16326 16327 16328 16329 16330 16331 16332 16333 16334 16335 16336 16337 16338 16339 16340 16341 16342 16343 16344 16345 16346 16347 16348 16349 16350 16351 16352 16353 16354 16355 16356 16357 16358 16359 16360 16361 16362 16363 16364 16365 16366 16367 16368 16369 16370 16371 16372 16373 16374 16375 16376 16377 16378 16379 16380 16381 16382 16383 16384 16385 16386 16387 16388 16389 16390 16391 16392 16393 16394 16395 16396 16397 16398 16399 16400 16401 16402 16403 16404 16405 16406 16407 16408 16409 16410 16411 16412 16413 16414 16415 16416 16417 16418 16419 16420 16421 16422 16423 16424 16425 16426 16427 16428 16429 16430 16431 16432 16433 16434 16435 16436 16437 16438 16439 16440 16441 16442 16443 16444 16445 16446 16447 16448 16449 16450 16451 16452 16453 16454 16455 16456 16457 16458 16459 16460 16461 16462 16463 16464 16465 16466 16467 16468 16469 16470 16471 16472 16473 16474 16475 16476 16477 16478 16479 16480 16481 16482 16483 16484 16485 16486 16487 16488 16489 16490 16491 16492 16493 16494 16495 16496 16497 16498 16499 16500 16501 16502 16503 16504 16505 16506 16507 16508 16509 16510 16511 16512 16513 16514 16515 16516 16517 16518 16519 16520 16521 16522 16523 16524 16525 16526 16527 16528 16529 16530 16531 16532 16533 16534 16535 16536 16537 16538 16539 16540 16541 16542 16543 16544 16545 16546 16547 16548 16549 16550 16551 16552 16553 16554 16555 16556 16557 16558 16559 16560 16561 16562 16563 16564 16565 16566 16567 16568 16569 16570 16571 16572 16573 16574 16575 16576 16577 16578 16579 16580 16581 16582 16583 16584 16585 16586 16587 16588 16589 16590 16591 16592 16593 16594 16595 16596 16597 16598 16599 16600 16601 16602 16603 16604 16605 16606 16607 16608 16609 16610 16611 16612 16613 16614 16615 16616 16617 16618 16619 16620 16621 16622 16623 16624 16625 16626 16627 16628 16629 16630 16631 16632 16633 16634 16635 16636 16637 16638 16639 16640 16641 16642 16643 16644 16645 16646 16647 16648 16649 16650 16651 16652 16653 16654 16655 16656 16657 16658 16659 16660 16661 16662 16663 16664 16665 16666 16667 16668 16669 16670 16671 16672 16673 16674 16675 16676 16677 16678 16679 16680 16681 16682 16683 16684 16685 16686 16687 16688 16689 16690 16691 16692 16693 16694 16695 16696 16697 16698 16699 16700 16701 16702 16703 16704 16705 16706 16707 16708 16709 16710 16711 16712 16713 16714 16715 16716 16717 16718 16719 16720 16721 16722 16723 16724 16725 16726 16727 16728 16729 16730 16731 16732 16733 16734 16735 16736 16737 16738 16739 16740 16741 16742 16743 16744 16745 16746 16747 16748 16749 16750 16751 16752 16753 16754 16755 16756 16757 16758 16759 16760 16761 16762 16763 16764 16765 16766 16767 16768 16769 16770 16771 16772 16773 16774 16775 16776 16777 16778 16779 16780 16781 16782 16783 16784 16785 16786 16787 16788 16789 16790 16791 16792 16793 16794 16795 16796 16797 16798 16799 16800 16801 16802 16803 16804 16805 16806 16807 16808 16809 16810 16811 16812 16813 16814 16815 16816 16817 16818 16819 16820 16821 16822 16823 16824 16825 16826 16827 16828 16829 16830 16831 16832 16833 16834 16835 16836 16837 16838 16839 16840 16841 16842 16843 16844 16845 16846 16847 16848 16849 16850 16851 16852 16853 16854 16855 16856 16857 16858 16859 16860 16861 16862 16863 16864 16865 16866 16867 16868 16869 16870 16871 16872 16873 16874 16875 16876 16877 16878 16879 16880 16881 16882 16883 16884 16885 16886 16887 16888 16889 16890 16891 16892 16893 16894 16895 16896 16897 16898 16899 16900 16901 16902 16903 16904 16905 16906 16907 16908 16909 16910 16911 16912 16913 16914 16915 16916 16917 16918 16919 16920 16921 16922 16923 16924 16925 16926 16927 16928 16929 16930 16931 16932 16933 16934 16935 16936 16937 16938 16939 16940 16941 16942 16943 16944 16945 16946 16947 16948 16949 16950 16951 16952 16953 16954 16955 16956 16957 16958 16959 16960 16961 16962 16963 16964 16965 16966 16967 16968 16969 16970 16971 16972 16973 16974 16975 16976 16977 16978 16979 16980 16981 16982 16983 16984 16985 16986 16987 16988 16989 16990 16991 16992 16993 16994 16995 16996 16997 16998 16999 17000 17001 17002 17003 17004 17005 17006 17007 17008 17009 17010 17011 17012 17013 17014 17015 17016 17017 17018 17019 17020 17021 17022 17023 17024 17025 17026 17027 17028 17029 17030 17031 17032 17033 17034 17035 17036 17037 17038 17039 17040 17041 17042 17043 17044 17045 17046 17047 17048 17049 17050 17051 17052 17053 17054 17055 17056 17057 17058 17059 17060 17061 17062 17063 17064 17065 17066 17067 17068 17069 17070 17071 17072 17073 17074 17075 17076 17077 17078 17079 17080 17081 17082 17083 17084 17085 17086 17087 17088 17089 17090 17091 17092 17093 17094 17095 17096 17097 17098 17099 17100 17101 17102 17103 17104 17105 17106 17107 17108 17109 17110 17111 17112 17113 17114 17115 17116 17117 17118 17119 17120 17121 17122 17123 17124 17125 17126 17127 17128 17129 17130 17131 17132 17133 17134 17135 17136 17137 17138 17139 17140 17141 17142 17143 17144 17145 17146 17147 17148 17149 17150 17151 17152 17153 17154 17155 17156 17157 17158 17159 17160 17161 17162 17163 17164 17165 17166 17167 17168 17169 17170 17171 17172 17173 17174 17175 17176 17177 17178 17179 17180 17181 17182 17183 17184 17185 17186 17187 17188 17189 17190 17191 17192 17193 17194 17195 17196 17197 17198 17199 17200 17201 17202 17203 17204 17205 17206 17207 17208 17209 17210 17211 17212 17213 17214 17215 17216 17217 17218 17219 17220 17221 17222 17223 17224 17225 17226 17227 17228 17229 17230 17231 17232 17233 17234 17235 17236 17237 17238 17239 17240 17241 17242 17243 17244 17245 17246 17247 17248 17249 17250 17251 17252 17253 17254 17255 17256 17257 17258 17259 17260 17261 17262 17263 17264 17265 17266 17267 17268 17269 17270 17271 17272 17273 17274 17275 17276 17277 17278 17279 17280 17281 17282 17283 17284 17285 17286 17287 17288 17289 17290 17291 17292 17293 17294 17295 17296 17297 17298 17299 17300 17301 17302 17303 17304 17305 17306 17307 17308 17309 17310 17311 17312 17313 17314 17315 17316 17317 17318 17319 17320 17321 17322 17323 17324 17325 17326 17327 17328 17329 17330 17331 17332 17333 17334 17335 17336 17337 17338 17339 17340 17341 17342 17343 17344 17345 17346 17347 17348 17349 17350 17351 17352 17353 17354 17355 17356 17357 17358 17359 17360 17361 17362 17363 17364 17365 17366 17367 17368 17369 17370 17371 17372 17373 17374 17375 17376 17377 17378 17379 17380 17381 17382 17383 17384 17385 17386 17387 17388 17389 17390 17391 17392 17393 17394 17395 17396 17397 17398 17399 17400 17401 17402 17403 17404 17405 17406 17407 17408 17409 17410 17411 17412 17413 17414 17415 17416 17417 17418 17419 17420 17421 17422 17423 17424 17425 17426 17427 17428 17429 17430 17431 17432 17433 17434 17435 17436 17437 17438 17439 17440 17441 17442 17443 17444 17445 17446 17447 17448 17449 17450 17451 17452 17453 17454 17455 17456 17457 17458 17459 17460 17461 17462 17463 17464 17465 17466 17467 17468 17469 17470 17471 17472 17473 17474 17475 17476 17477 17478 17479 17480 17481 17482 17483 17484 17485 17486 17487 17488 17489 17490 17491 17492 17493 17494 17495 17496 17497 17498 17499 17500 17501 17502 17503 17504 17505 17506 17507 17508 17509 17510 17511 17512 17513 17514 17515 17516 17517 17518 17519 17520 17521 17522 17523 17524 17525 17526 17527 17528 17529 17530 17531 17532 17533 17534 17535 17536 17537 17538 17539 17540 17541 17542 17543 17544 17545 17546 17547 17548 17549 17550 17551 17552 17553 17554 17555 17556 17557 17558 17559 17560 17561 17562 17563 17564 17565 17566 17567 17568 17569 17570 17571 17572 17573 17574 17575 17576 17577 17578 17579 17580 17581 17582 17583 17584 17585 17586 17587 17588 17589 17590 17591 17592 17593 17594 17595 17596 17597 17598 17599 17600 17601 17602 17603 17604 17605 17606 17607 17608 17609 17610 17611 17612 17613 17614 17615 17616 17617 17618 17619 17620 17621 17622 17623 17624 17625 17626 17627 17628 17629 17630 17631 17632 17633 17634 17635 17636 17637 17638 17639 17640 17641 17642 17643 17644 17645 17646 17647 17648 17649 17650 17651 17652 17653 17654 17655 17656 17657 17658 17659 17660 17661 17662 17663 17664 17665 17666 17667 17668 17669 17670 17671 17672 17673 17674 17675 17676 17677 17678 17679 17680 17681 17682 17683 17684 17685 17686 17687 17688 17689 17690 17691 17692 17693 17694 17695 17696 17697 17698 17699 17700 17701 17702 17703 17704 17705 17706 17707 17708 17709 17710 17711 17712 17713 17714 17715 17716 17717 17718 17719 17720 17721 17722 17723 17724 17725 17726 17727 17728 17729 17730 17731 17732 17733 17734 17735 17736 17737 17738 17739 17740 17741 17742 17743 17744 17745 17746 17747 17748 17749 17750 17751 17752 17753 17754 17755 17756 17757 17758 17759 17760 17761 17762 17763 17764 17765 17766 17767 17768 17769 17770 17771 17772 17773 17774 17775 17776 17777 17778 17779 17780 17781 17782 17783 17784 17785 17786 17787 17788 17789 17790 17791 17792 17793 17794 17795 17796 17797 17798 17799 17800 17801 17802 17803 17804 17805 17806 17807 17808 17809 17810 17811 17812 17813 17814 17815 17816 17817 17818 17819 17820 17821 17822 17823 17824 17825 17826 17827 17828 17829 17830 17831 17832 17833 17834 17835 17836 17837 17838 17839 17840 17841 17842 17843 17844 17845 17846 17847 17848 17849 17850 17851 17852 17853 17854 17855 17856 17857 17858 17859 17860 17861 17862 17863 17864 17865 17866 17867 17868 17869 17870 17871 17872 17873 17874 17875 17876 17877 17878 17879 17880 17881 17882 17883 17884 17885 17886 17887 17888 17889 17890 17891 17892 17893 17894 17895 17896 17897 17898 17899 17900 17901 17902 17903 17904 17905 17906 17907 17908 17909 17910 17911 17912 17913 17914 17915 17916 17917 17918 17919 17920 17921 17922 17923 17924 17925 17926 17927 17928 17929 17930 17931 17932 17933 17934 17935 17936 17937 17938 17939 17940 17941 17942 17943 17944 17945 17946 17947 17948 17949 17950 17951 17952 17953 17954 17955 17956 17957 17958 17959 17960 17961 17962 17963 17964 17965 17966 17967 17968 17969 17970 17971 17972 17973 17974 17975 17976 17977 17978 17979 17980 17981 17982 17983 17984 17985 17986 17987 17988 17989 17990 17991 17992 17993 17994 17995 17996 17997 17998 17999 18000 18001 18002 18003 18004 18005 18006 18007 18008 18009 18010 18011 18012 18013 18014 18015 18016 18017 18018 18019 18020 18021 18022 18023 18024 18025 18026 18027 18028 18029 18030 18031 18032 18033 18034 18035 18036 18037 18038 18039 18040 18041 18042 18043 18044 18045 18046 18047 18048 18049 18050 18051 18052 18053 18054 18055 18056 18057 18058 18059 18060 18061 18062 18063 18064 18065 18066 18067 18068 18069 18070 18071 18072 18073 18074 18075 18076 18077 18078 18079 18080 18081 18082 18083 18084 18085 18086 18087 18088 18089 18090 18091 18092 18093 18094 18095 18096 18097 18098 18099 18100 18101 18102 18103 18104 18105 18106 18107 18108 18109 18110 18111 18112 18113 18114 18115 18116 18117 18118 18119 18120 18121 18122 18123 18124 18125 18126 18127 18128 18129 18130 18131 18132 18133 18134 18135 18136 18137 18138 18139 18140 18141 18142 18143 18144 18145 18146 18147 18148 18149 18150 18151 18152 18153 18154 18155 18156 18157 18158 18159 18160 18161 18162 18163 18164 18165 18166 18167 18168 18169 18170 18171 18172 18173 18174 18175 18176 18177 18178 18179 18180 18181 18182 18183 18184 18185 18186 18187 18188 18189 18190 18191 18192 18193 18194 18195 18196 18197 18198 18199 18200 18201 18202 18203 18204 18205 18206 18207 18208 18209 18210 18211 18212 18213 18214 18215 18216 18217 18218 18219 18220 18221 18222 18223 18224 18225 18226 18227 18228 18229 18230 18231 18232 18233 18234 18235 18236 18237 18238 18239 18240 18241 18242 18243 18244 18245 18246 18247 18248 18249 18250 18251 18252 18253 18254 18255 18256 18257 18258 18259 18260 18261 18262 18263 18264 18265 18266 18267 18268 18269 18270 18271 18272 18273 18274 18275 18276 18277 18278 18279 18280 18281 18282 18283 18284 18285 18286 18287 18288 18289 18290 18291 18292 18293 18294 18295 18296 18297 18298 18299 18300 18301 18302 18303 18304 18305 18306 18307 18308 18309 18310 18311 18312 18313 18314 18315 18316 18317 18318 18319 18320 18321 18322 18323 18324 18325 18326 18327 18328 18329 18330 18331 18332 18333 18334 18335 18336 18337 18338 18339 18340 18341 18342 18343 18344 18345 18346 18347 18348 18349 18350 18351 18352 18353 18354 18355 18356 18357 18358 18359 18360 18361 18362 18363 18364 18365 18366 18367 18368 18369 18370 18371 18372 18373 18374 18375 18376 18377 18378 18379 18380 18381 18382 18383 18384 18385 18386 18387 18388 18389 18390 18391 18392 18393 18394 18395 18396 18397 18398 18399 18400 18401 18402 18403 18404 18405 18406 18407 18408 18409 18410 18411 18412 18413 18414 18415 18416 18417 18418 18419 18420 18421 18422 18423 18424 18425 18426 18427 18428 18429 18430 18431 18432 18433 18434 18435 18436 18437 18438 18439 18440 18441 18442 18443 18444 18445 18446 18447 18448 18449 18450 18451 18452 18453 18454 18455 18456 18457 18458 18459 18460 18461 18462 18463 18464 18465 18466 18467 18468 18469 18470 18471 18472 18473 18474 18475 18476 18477 18478 18479 18480 18481 18482 18483 18484 18485 18486 18487 18488 18489 18490 18491 18492 18493 18494 18495 18496 18497 18498 18499 18500 18501 18502 18503 18504 18505 18506 18507 18508 18509 18510 18511 18512 18513 18514 18515 18516 18517 18518 18519 18520 18521 18522 18523 18524 18525 18526 18527 18528 18529 18530 18531 18532 18533 18534 18535 18536 18537 18538 18539 18540 18541 18542 18543 18544 18545 18546 18547 18548 18549 18550 18551 18552 18553 18554 18555 18556 18557 18558 18559 18560 18561 18562 18563 18564 18565 18566 18567 18568 18569 18570 18571 18572 18573 18574 18575 18576 18577 18578 18579 18580 18581 18582 18583 18584 18585 18586 18587 18588 18589 18590 18591 18592 18593 18594 18595 18596 18597 18598 18599 18600 18601 18602 18603 18604 18605 18606 18607 18608 18609 18610 18611 18612 18613 18614 18615 18616 18617 18618 18619 18620 18621 18622 18623 18624 18625 18626 18627 18628 18629 18630 18631 18632 18633 18634 18635 18636 18637 18638 18639 18640 18641 18642 18643 18644 18645 18646 18647 18648 18649 18650 18651 18652 18653 18654 18655 18656 18657 18658 18659 18660 18661 18662 18663 18664 18665 18666 18667 18668 18669 18670 18671 18672 18673 18674 18675 18676 18677 18678 18679 18680 18681 18682 18683 18684 18685 18686 18687 18688 18689 18690 18691 18692 18693 18694 18695 18696 18697 18698 18699 18700 18701 18702 18703 18704 18705 18706 18707 18708 18709 18710 18711 18712 18713 18714 18715 18716 18717 18718 18719 18720 18721 18722 18723 18724 18725 18726 18727 18728 18729 18730 18731 18732 18733 18734 18735 18736 18737 18738 18739 18740 18741 18742 18743 18744 18745 18746 18747 18748 18749 18750 18751 18752 18753 18754 18755 18756 18757 18758 18759 18760 18761 18762 18763 18764 18765 18766 18767 18768 18769 18770 18771 18772 18773 18774 18775 18776 18777 18778 18779 18780 18781 18782 18783 18784 18785 18786 18787 18788 18789 18790 18791 18792 18793 18794 18795 18796 18797 18798 18799 18800 18801 18802 18803 18804 18805 18806 18807 18808 18809 18810 18811 18812 18813 18814 18815 18816 18817 18818 18819 18820 18821 18822 18823 18824 18825 18826 18827 18828 18829 18830 18831 18832 18833 18834 18835 18836 18837 18838 18839 18840 18841 18842 18843 18844 18845 18846 18847 18848 18849 18850 18851 18852 18853 18854 18855 18856 18857 18858 18859 18860 18861 18862 18863 18864 18865 18866 18867 18868 18869 18870 18871 18872 18873 18874 18875 18876 18877 18878 18879 18880 18881 18882 18883 18884 18885 18886 18887 18888 18889 18890 18891 18892 18893 18894 18895 18896 18897 18898 18899 18900 18901 18902 18903 18904 18905 18906 18907 18908 18909 18910 18911 18912 18913 18914 18915 18916 18917 18918 18919 18920 18921 18922 18923 18924 18925 18926 18927 18928 18929 18930 18931 18932 18933 18934 18935 18936 18937 18938 18939 18940 18941 18942 18943 18944 18945 18946 18947 18948 18949 18950 18951 18952 18953 18954 18955 18956 18957 18958 18959 18960 18961 18962 18963 18964 18965 18966 18967 18968 18969 18970 18971 18972 18973 18974 18975 18976 18977 18978 18979 18980 18981 18982 18983 18984 18985 18986 18987 18988 18989 18990 18991 18992 18993 18994 18995 18996 18997 18998 18999 19000 19001 19002 19003 19004 19005 19006 19007 19008 19009 19010 19011 19012 19013 19014 19015 19016 19017 19018 19019 19020 19021 19022 19023 19024 19025 19026 19027 19028 19029 19030 19031 19032 19033 19034 19035 19036 19037 19038 19039 19040 19041 19042 19043 19044 19045 19046 19047 19048 19049 19050 19051 19052 19053 19054 19055 19056 19057 19058 19059 19060 19061 19062 19063 19064 19065 19066 19067 19068 19069 19070 19071 19072 19073 19074 19075 19076 19077 19078 19079 19080 19081 19082 19083 19084 19085 19086 19087 19088 19089 19090 19091 19092 19093 19094 19095 19096 19097 19098 19099 19100 19101 19102 19103 19104 19105 19106 19107 19108 19109 19110 19111 19112 19113 19114 19115 19116 19117 19118 19119 19120 19121 19122 19123 19124 19125 19126 19127 19128 19129 19130 19131 19132 19133 19134 19135 19136 19137 19138 19139 19140 19141 19142 19143 19144 19145 19146 19147 19148 19149 19150 19151 19152 19153 19154 19155 19156 19157 19158 19159 19160 19161 19162 19163 19164 19165 19166 19167 19168 19169 19170 19171 19172 19173 19174 19175 19176 19177 19178 19179 19180 19181 19182 19183 19184 19185 19186 19187 19188 19189 19190 19191 19192 19193 19194 19195 19196 19197 19198 19199 19200 19201 19202 19203 19204 19205 19206 19207 19208 19209 19210 19211 19212 19213 19214 19215 19216 19217 19218 19219 19220 19221 19222 19223 19224 19225 19226 19227 19228 19229 19230 19231 19232 19233 19234 19235 19236 19237 19238 19239 19240 19241 19242 19243 19244 19245 19246 19247 19248 19249 19250 19251 19252 19253 19254 19255 19256 19257 19258 19259 19260 19261 19262 19263 19264 19265 19266 19267 19268 19269 19270 19271 19272 19273 19274 19275 19276 19277 19278 19279 19280 19281 19282 19283 19284 19285 19286 19287 19288 19289 19290 19291 19292 19293 19294 19295 19296 19297 19298 19299 19300 19301 19302 19303 19304 19305 19306 19307 19308 19309 19310 19311 19312 19313 19314 19315 19316 19317 19318 19319 19320 19321 19322 19323 19324 19325 19326 19327 19328 19329 19330 19331 19332 19333 19334 19335 19336 19337 19338 19339 19340 19341 19342 19343 19344 19345 19346 19347 19348 19349 19350 19351 19352 19353 19354 19355 19356 19357 19358 19359 19360 19361 19362 19363 19364 19365 19366 19367 19368 19369 19370 19371 19372 19373 19374 19375 19376 19377 19378 19379 19380 19381 19382 19383 19384 19385 19386 19387 19388 19389 19390 19391 19392 19393 19394 19395 19396 19397 19398 19399 19400 19401 19402 19403 19404 19405 19406 19407 19408 19409 19410 19411 19412 19413 19414 19415 19416 19417 19418 19419 19420 19421 19422 19423 19424 19425 19426 19427 19428 19429 19430 19431 19432 19433 19434 19435 19436 19437 19438 19439 19440 19441 19442 19443 19444 19445 19446 19447 19448 19449 19450 19451 19452 19453 19454 19455 19456 19457 19458 19459 19460 19461 19462 19463 19464 19465 19466 19467 19468 19469 19470 19471 19472 19473 19474 19475 19476 19477 19478 19479 19480 19481 19482 19483 19484 19485 19486 19487 19488 19489 19490 19491 19492 19493 19494 19495 19496 19497 19498 19499 19500 19501 19502 19503 19504 19505 19506 19507 19508 19509 19510 19511 19512 19513 19514 19515 19516 19517 19518 19519 19520 19521 19522 19523 19524 19525 19526 19527 19528 19529 19530 19531 19532 19533 19534 19535 19536 19537 19538 19539 19540 19541 19542 19543 19544 19545 19546 19547 19548 19549 19550 19551 19552 19553 19554 19555 19556 19557 19558 19559 19560 19561 19562 19563 19564 19565 19566 19567 19568 19569 19570 19571 19572 19573 19574 19575 19576 19577 19578 19579 19580 19581 19582 19583 19584 19585 19586 19587 19588 19589 19590 19591 19592 19593 19594 19595 19596 19597 19598 19599 19600 19601 19602 19603 19604 19605 19606 19607 19608 19609 19610 19611 19612 19613 19614 19615 19616 19617 19618 19619 19620 19621 19622 19623 19624 19625 19626 19627 19628 19629 19630 19631 19632 19633 19634 19635 19636 19637 19638 19639 19640 19641 19642 19643 19644 19645 19646 19647 19648 19649 19650 19651 19652 19653 19654 19655 19656 19657 19658 19659 19660 19661 19662 19663 19664 19665 19666 19667 19668 19669 19670 19671 19672 19673 19674 19675 19676 19677 19678 19679 19680 19681 19682 19683 19684 19685 19686 19687 19688 19689 19690 19691 19692 19693 19694 19695 19696 19697 19698 19699 19700 19701 19702 19703 19704 19705 19706 19707 19708 19709 19710 19711 19712 19713 19714 19715 19716 19717 19718 19719 19720 19721 19722 19723 19724 19725 19726 19727 19728 19729 19730 19731 19732 19733 19734 19735 19736 19737 19738 19739 19740 19741 19742 19743 19744 19745 19746 19747 19748 19749 19750 19751 19752 19753 19754 19755 19756 19757 19758 19759 19760 19761 19762 19763 19764 19765 19766 19767 19768 19769 19770 19771 19772 19773 19774 19775 19776 19777 19778 19779 19780 19781 19782 19783 19784 19785 19786 19787 19788 19789 19790 19791 19792 19793 19794 19795 19796 19797 19798 19799 19800 19801 19802 19803 19804 19805 19806 19807 19808 19809 19810 19811 19812 19813 19814 19815 19816 19817 19818 19819 19820 19821 19822 19823 19824 19825 19826 19827 19828 19829 19830 19831 19832 19833 19834 19835 19836 19837 19838 19839 19840 19841 19842 19843 19844 19845 19846 19847 19848 19849 19850 19851 19852 19853 19854 19855 19856 19857 19858 19859 19860 19861 19862 19863 19864 19865 19866 19867 19868 19869 19870 19871 19872 19873 19874 19875 19876 19877 19878 19879 19880 19881 19882 19883 19884 19885 19886 19887 19888 19889 19890 19891 19892 19893 19894 19895 19896 19897 19898 19899 19900 19901 19902 19903 19904 19905 19906 19907 19908 19909 19910 19911 19912 19913 19914 19915 19916 19917 19918 19919 19920 19921 19922 19923 19924 19925 19926 19927 19928 19929 19930 19931 19932 19933 19934 19935 19936 19937 19938 19939 19940 19941 19942 19943 19944 19945 19946 19947 19948 19949 19950 19951 19952 19953 19954 19955 19956 19957 19958 19959 19960 19961 19962 19963 19964 19965 19966 19967 19968 19969 19970 19971 19972 19973 19974 19975 19976 19977 19978 19979 19980 19981 19982 19983 19984 19985 19986 19987 19988 19989 19990 19991 19992 19993 19994 19995 19996 19997 19998 19999 20000 20001 20002 20003 20004 20005 20006 20007 20008 20009 20010 20011 20012 20013 20014 20015 20016 20017 20018 20019 20020 20021 20022 20023 20024 20025 20026 20027 20028 20029 20030 20031 20032 20033 20034 20035 20036 20037 20038 20039 20040 20041 20042 20043 20044 20045 20046 20047 20048 20049 20050 20051 20052 20053 20054 20055 20056 20057 20058 20059 20060 20061 20062 20063 20064 20065 20066 20067 20068 20069 20070 20071 20072 20073 20074 20075 20076 20077 20078 20079 20080 20081 20082 20083 20084 20085 20086 20087 20088 20089 20090 20091 20092 20093 20094 20095 20096 20097 20098 20099 20100 20101 20102 20103 20104 20105 20106 20107 20108 20109 20110 20111 20112 20113 20114 20115 20116 20117 20118 20119 20120 20121 20122 20123 20124 20125 20126 20127 20128 20129 20130 20131 20132 20133 20134 20135 20136 20137 20138 20139 20140 20141 20142 20143 20144 20145 20146 20147 20148 20149 20150 20151 20152 20153 20154 20155 20156 20157 20158 20159 20160 20161 20162 20163 20164 20165 20166 20167 20168 20169 20170 20171 20172 20173 20174 20175 20176 20177 20178 20179 20180 20181 20182 20183 20184 20185 20186 20187 20188 20189 20190 20191 20192 20193 20194 20195 20196 20197 20198 20199 20200 20201 20202 20203 20204 20205 20206 20207 20208 20209 20210 20211 20212 20213 20214 20215 20216 20217 20218 20219 20220 20221 20222 20223 20224 20225 20226 20227 20228 20229 20230 20231 20232 20233 20234 20235 20236 20237 20238 20239 20240 20241 20242 20243 20244 20245 20246 20247 20248 20249 20250 20251 20252 20253 20254 20255 20256 20257 20258 20259 20260 20261 20262 20263 20264 20265 20266 20267 20268 20269 20270 20271 20272 20273 20274 20275 20276 20277 20278 20279 20280 20281 20282 20283 20284 20285 20286 20287 20288 20289 20290 20291 20292 20293 20294 20295 20296 20297 20298 20299 20300 20301 20302 20303 20304 20305 20306 20307 20308 20309 20310 20311 20312 20313 20314 20315 20316 20317 20318 20319 20320 20321 20322 20323 20324 20325 20326 20327 20328 20329 20330 20331 20332 20333 20334 20335 20336 20337 20338 20339 20340 20341 20342 20343 20344 20345 20346 20347 20348 20349 20350 20351 20352 20353 20354 20355 20356 20357 20358 20359 20360 20361 20362 20363 20364 20365 20366 20367 20368 20369 20370 20371 20372 20373 20374 20375 20376 20377 20378 20379 20380 20381 20382 20383 20384 20385 20386 20387 20388 20389 20390 20391 20392 20393 20394 20395 20396 20397 20398 20399 20400 20401 20402 20403 20404 20405 20406 20407 20408 20409 20410 20411 20412 20413 20414 20415 20416 20417 20418 20419 20420 20421 20422 20423 20424 20425 20426 20427 20428 20429 20430 20431 20432 20433 20434 20435 20436 20437 20438 20439 20440 20441 20442 20443 20444 20445 20446 20447 20448 20449 20450 20451 20452 20453 20454 20455 20456 20457 20458 20459 20460 20461 20462 20463 20464 20465 20466 20467 20468 20469 20470 20471 20472 20473 20474 20475 20476 20477 20478 20479 20480 20481 20482 20483 20484 20485 20486 20487 20488 20489 20490 20491 20492 20493 20494 20495 20496 20497 20498 20499 20500 20501 20502 20503 20504 20505 20506 20507 20508 20509 20510 20511 20512 20513 20514 20515 20516 20517 20518 20519 20520 20521 20522 20523 20524 20525 20526 20527 20528 20529 20530 20531 20532 20533 20534 20535 20536 20537 20538 20539 20540 20541 20542 20543 20544 20545 20546 20547 20548 20549 20550 20551 20552 20553 20554 20555 20556 20557 20558 20559 20560 20561 20562 20563 20564 20565 20566 20567 20568 20569 20570 20571 20572 20573 20574 20575 20576 20577 20578 20579 20580 20581 20582 20583 20584 20585 20586 20587 20588 20589 20590 20591 20592 20593 20594 20595 20596 20597 20598 20599 20600 20601 20602 20603 20604 20605 20606 20607 20608 20609 20610 20611 20612 20613 20614 20615 20616 20617 20618 20619 20620 20621 20622 20623 20624 20625 20626 20627 20628 20629 20630 20631 20632 20633 20634 20635 20636 20637 20638 20639 20640 20641 20642 20643 20644 20645 20646 20647 20648 20649 20650 20651 20652 20653 20654 20655 20656 20657 20658 20659 20660 20661 20662 20663 20664 20665 20666 20667 20668 20669 20670 20671 20672 20673 20674 20675 20676 20677 20678 20679 20680 20681 20682 20683 20684 20685 20686 20687 20688 20689 20690 20691 20692 20693 20694 20695 20696 20697 20698 20699 20700 20701 20702 20703 20704 20705 20706 20707 20708 20709 20710 20711 20712 20713 20714 20715 20716 20717 20718 20719 20720 20721 20722 20723 20724 20725 20726 20727 20728 20729 20730 20731 20732 20733 20734 20735 20736 20737 20738 20739 20740 20741 20742 20743 20744 20745 20746 20747 20748 20749 20750 20751 20752 20753 20754 20755 20756 20757 20758 20759 20760 20761 20762 20763 20764 20765 20766 20767 20768 20769 20770 20771 20772 20773 20774 20775 20776 20777 20778 20779 20780 20781 20782 20783 20784 20785 20786 20787 20788 20789 20790 20791 20792 20793 20794 20795 20796 20797 20798 20799 20800 20801 20802 20803 20804 20805 20806 20807 20808 20809 20810 20811 20812 20813 20814 20815 20816 20817 20818 20819 20820 20821 20822 20823 20824 20825 20826 20827 20828 20829 20830 20831 20832 20833 20834 20835 20836 20837 20838 20839 20840 20841 20842 20843 20844 20845 20846 20847 20848 20849 20850 20851 20852 20853 20854 20855 20856 20857 20858 20859 20860 20861 20862 20863 20864 20865 20866 20867 20868 20869 20870 20871 20872 20873 20874 20875 20876 20877 20878 20879 20880 20881 20882 20883 20884 20885 20886 20887 20888 20889 20890 20891 20892 20893 20894 20895 20896 20897 20898 20899 20900 20901 20902 20903 20904 20905 20906 20907 20908 20909 20910 20911 20912 20913 20914 20915 20916 20917 20918 20919 20920 20921 20922 20923 20924 20925 20926 20927 20928 20929 20930 20931 20932 20933 20934 20935 20936 20937 20938 20939 20940 20941 20942 20943 20944 20945 20946 20947 20948 20949 20950 20951 20952 20953 20954 20955 20956 20957 20958 20959 20960 20961 20962 20963 20964 20965 20966 20967 20968 20969 20970 20971 20972 20973 20974 20975 20976 20977 20978 20979 20980 20981 20982 20983 20984 20985 20986 20987 20988 20989 20990 20991 20992 20993 20994 20995 20996 20997 20998 20999 21000 21001 21002 21003 21004 21005 21006 21007 21008 21009 21010 21011 21012 21013 21014 21015 21016 21017 21018 21019 21020 21021 21022 21023 21024 21025 21026 21027 21028 21029 21030 21031 21032 21033 21034 21035 21036 21037 21038 21039 21040 21041 21042 21043 21044 21045 21046 21047 21048 21049 21050 21051 21052 21053 21054 21055 21056 21057 21058 21059 21060 21061 21062 21063 21064 21065 21066 21067 21068 21069 21070 21071 21072 21073 21074 21075 21076 21077 21078 21079 21080 21081 21082 21083 21084 21085 21086 21087 21088 21089 21090 21091 21092 21093 21094 21095 21096 21097 21098 21099 21100 21101 21102 21103 21104 21105 21106 21107 21108 21109 21110 21111 21112 21113 21114 21115 21116 21117 21118 21119 21120 21121 21122 21123 21124 21125 21126 21127 21128 21129 21130 21131 21132 21133 21134 21135 21136 21137 21138 21139 21140 21141 21142 21143 21144 21145 21146 21147 21148 21149 21150 21151 21152 21153 21154 21155 21156 21157 21158 21159 21160 21161 21162 21163 21164 21165 21166 21167 21168 21169 21170 21171 21172 21173 21174 21175 21176 21177 21178 21179 21180 21181 21182 21183 21184 21185 21186 21187 21188 21189 21190 21191 21192 21193 21194 21195 21196 21197 21198 21199 21200 21201 21202 21203 21204 21205 21206 21207 21208 21209 21210 21211 21212 21213 21214 21215 21216 21217 21218 21219 21220 21221 21222 21223 21224 21225 21226 21227 21228 21229 21230 21231 21232 21233 21234 21235 21236 21237 21238 21239 21240 21241 21242 21243 21244 21245 21246 21247 21248 21249 21250 21251 21252 21253 21254 21255 21256 21257 21258 21259 21260 21261 21262 21263 21264 21265 21266 21267 21268 21269 21270 21271 21272 21273 21274 21275 21276 21277 21278 21279 21280 21281 21282 21283 21284 21285 21286 21287 21288 21289 21290 21291 21292 21293 21294 21295 21296 21297 21298 21299 21300 21301 21302 21303 21304 21305 21306 21307 21308 21309 21310 21311 21312 21313 21314 21315 21316 21317 21318 21319 21320 21321 21322 21323 21324 21325 21326 21327 21328 21329 21330 21331 21332 21333 21334 21335 21336 21337 21338 21339 21340 21341 21342 21343 21344 21345 21346 21347 21348 21349 21350 21351 21352 21353 21354 21355 21356 21357 21358 21359 21360 21361 21362 21363 21364 21365 21366 21367 21368 21369 21370 21371 21372 21373 21374 21375 21376 21377 21378 21379 21380 21381 21382 21383 21384 21385 21386 21387 21388 21389 21390 21391 21392 21393 21394 21395 21396 21397 21398 21399 21400 21401 21402 21403 21404 21405 21406 21407 21408 21409 21410 21411 21412 21413 21414 21415 21416 21417 21418 21419 21420 21421 21422 21423 21424 21425 21426 21427 21428 21429 21430 21431 21432 21433 21434 21435 21436 21437 21438 21439 21440 21441 21442 21443 21444 21445 21446 21447 21448 21449 21450 21451 21452 21453 21454 21455 21456 21457 21458 21459 21460 21461 21462 21463 21464 21465 21466 21467 21468 21469 21470 21471 21472 21473 21474 21475 21476 21477 21478 21479 21480 21481 21482 21483 21484 21485 21486 21487 21488 21489 21490 21491 21492 21493 21494 21495 21496 21497 21498 21499 21500 21501 21502 21503 21504 21505 21506 21507 21508 21509 21510 21511 21512 21513 21514 21515 21516 21517 21518 21519 21520 21521 21522 21523 21524 21525 21526 21527 21528 21529 21530 21531 21532 21533 21534 21535 21536 21537 21538 21539 21540 21541 21542 21543 21544 21545 21546 21547 21548 21549 21550 21551 21552 21553 21554 21555 21556 21557 21558 21559 21560 21561 21562 21563 21564 21565 21566 21567 21568 21569 21570 21571 21572 21573 21574 21575 21576 21577 21578 21579 21580 21581 21582 21583 21584 21585 21586 21587 21588 21589 21590 21591 21592 21593 21594 21595 21596 21597 21598 21599 21600 21601 21602 21603 21604 21605 21606 21607 21608 21609 21610 21611 21612 21613 21614 21615 21616 21617 21618 21619 21620 21621 21622 21623 21624 21625 21626 21627 21628 21629 21630 21631 21632 21633 21634 21635 21636 21637 21638 21639 21640 21641 21642 21643 21644 21645 21646 21647 21648 21649 21650 21651 21652 21653 21654 21655 21656 21657 21658 21659 21660 21661 21662 21663 21664 21665 21666 21667 21668 21669 21670 21671 21672 21673 21674 21675 21676 21677 21678 21679 21680 21681 21682 21683 21684 21685 21686 21687 21688 21689 21690 21691 21692 21693 21694 21695 21696 21697 21698 21699 21700 21701 21702 21703 21704 21705 21706 21707 21708 21709 21710 21711 21712 21713 21714 21715 21716 21717 21718 21719 21720 21721 21722 21723 21724 21725 21726 21727 21728 21729 21730 21731 21732 21733 21734 21735 21736 21737 21738 21739 21740 21741 21742 21743 21744 21745 21746 21747 21748 21749 21750 21751 21752 21753 21754 21755 21756 21757 21758 21759 21760 21761 21762 21763 21764 21765 21766 21767 21768 21769 21770 21771 21772 21773 21774 21775 21776 21777 21778 21779 21780 21781 21782 21783 21784 21785 21786 21787 21788 21789 21790 21791 21792 21793 21794 21795 21796 21797 21798 21799 21800 21801 21802 21803 21804 21805 21806 21807 21808 21809 21810 21811 21812 21813 21814 21815 21816 21817 21818 21819 21820 21821 21822 21823 21824 21825 21826 21827 21828 21829 21830 21831 21832 21833 21834 21835 21836 21837 21838 21839 21840 21841 21842 21843 21844 21845 21846 21847 21848 21849 21850 21851 21852 21853 21854 21855 21856 21857 21858 21859 21860 21861 21862 21863 21864 21865 21866 21867 21868 21869 21870 21871 21872 21873 21874 21875 21876 21877 21878 21879 21880 21881 21882 21883 21884 21885 21886 21887 21888 21889 21890 21891 21892 21893 21894 21895 21896 21897 21898 21899 21900 21901 21902 21903 21904 21905 21906 21907 21908 21909 21910 21911 21912 21913 21914 21915 21916 21917 21918 21919 21920 21921 21922 21923 21924 21925 21926 21927 21928 21929 21930 21931 21932 21933 21934 21935 21936 21937 21938 21939 21940 21941 21942 21943 21944 21945 21946 21947 21948 21949 21950 21951 21952 21953 21954 21955 21956 21957 21958 21959 21960 21961 21962 21963 21964 21965 21966 21967 21968 21969 21970 21971 21972 21973 21974 21975 21976 21977 21978 21979 21980 21981 21982 21983 21984 21985 21986 21987 21988 21989 21990 21991 21992 21993 21994 21995 21996 21997 21998 21999 22000 22001 22002 22003 22004 22005 22006 22007 22008 22009 22010 22011 22012 22013 22014 22015 22016 22017 22018 22019 22020 22021 22022 22023 22024 22025 22026 22027 22028 22029 22030 22031 22032 22033 22034 22035 22036 22037 22038 22039 22040 22041 22042 22043 22044 22045 22046 22047 22048 22049 22050 22051 22052 22053 22054 22055 22056 22057 22058 22059 22060 22061 22062 22063 22064 22065 22066 22067 22068 22069 22070 22071 22072 22073 22074 22075 22076 22077 22078 22079 22080 22081 22082 22083 22084 22085 22086 22087 22088 22089 22090 22091 22092 22093 22094 22095 22096 22097 22098 22099 22100 22101 22102 22103 22104 22105 22106 22107 22108 22109 22110 22111 22112 22113 22114 22115 22116 22117 22118 22119 22120 22121 22122 22123 22124 22125 22126 22127 22128 22129 22130 22131 22132 22133 22134 22135 22136 22137 22138 22139 22140 22141 22142 22143 22144 22145 22146 22147 22148 22149 22150 22151 22152 22153 22154 22155 22156 22157 22158 22159 22160 22161 22162 22163 22164 22165 22166 22167 22168 22169 22170 22171 22172 22173 22174 22175 22176 22177 22178 22179 22180 22181 22182 22183 22184 22185 22186 22187 22188 22189 22190 22191 22192 22193 22194 22195 22196 22197 22198 22199 22200 22201 22202 22203 22204 22205 22206 22207 22208 22209 22210 22211 22212 22213 22214 22215 22216 22217 22218 22219 22220 22221 22222 22223 22224 22225 22226 22227 22228 22229 22230 22231 22232 22233 22234 22235 22236 22237 22238 22239 22240 22241 22242 22243 22244 22245 22246 22247 22248 22249 22250 22251 22252 22253 22254 22255 22256 22257 22258 22259 22260 22261 22262 22263 22264 22265 22266 22267 22268 22269 22270 22271 22272 22273 22274 22275 22276 22277 22278 22279 22280 22281 22282 22283 22284 22285 22286 22287 22288 22289 22290 22291 22292 22293 22294 22295 22296 22297 22298 22299 22300 22301 22302 22303 22304 22305 22306 22307 22308 22309 22310 22311 22312 22313 22314 22315 22316 22317 22318 22319 22320 22321 22322 22323 22324 22325 22326 22327 22328 22329 22330 22331 22332 22333 22334 22335 22336 22337 22338 22339 22340 22341 22342 22343 22344 22345 22346 22347 22348 22349 22350 22351 22352 22353 22354 22355 22356 22357 22358 22359 22360 22361 22362 22363 22364 22365 22366 22367 22368 22369 22370 22371 22372 22373 22374 22375 22376 22377 22378 22379 22380 22381 22382 22383 22384 22385 22386 22387 22388 22389 22390 22391 22392 22393 22394 22395 22396 22397 22398 22399 22400 22401 22402 22403 22404 22405 22406 22407 22408 22409 22410 22411 22412 22413 22414 22415 22416 22417 22418 22419 22420 22421 22422 22423 22424 22425 22426 22427 22428 22429 22430 22431 22432 22433 22434 22435 22436 22437 22438 22439 22440 22441 22442 22443 22444 22445 22446 22447 22448 22449 22450 22451 22452 22453 22454 22455 22456 22457 22458 22459 22460 22461 22462 22463 22464 22465 22466 22467 22468 22469 22470 22471 22472 22473 22474 22475 22476 22477 22478 22479 22480 22481 22482 22483 22484 22485 22486 22487 22488 22489 22490 22491 22492 22493 22494 22495 22496 22497 22498 22499 22500 22501 22502 22503 22504 22505 22506 22507 22508 22509 22510 22511 22512 22513 22514 22515 22516 22517 22518 22519 22520 22521 22522 22523 22524 22525 22526 22527 22528 22529 22530 22531 22532 22533 22534 22535 22536 22537 22538 22539 22540 22541 22542 22543 22544 22545 22546 22547 22548 22549 22550 22551 22552 22553 22554 22555 22556 22557 22558 22559 22560 22561 22562 22563 22564 22565 22566 22567 22568 22569 22570 22571 22572 22573 22574 22575 22576 22577 22578 22579 22580 22581 22582 22583 22584 22585 22586 22587 22588 22589 22590 22591 22592 22593 22594 22595 22596 22597 22598 22599 22600 22601 22602 22603 22604 22605 22606 22607 22608 22609 22610 22611 22612 22613 22614 22615 22616 22617 22618 22619 22620 22621 22622 22623 22624 22625 22626 22627 22628 22629 22630 22631 22632 22633 22634 22635 22636 22637 22638 22639 22640 22641 22642 22643 22644 22645 22646 22647 22648 22649 22650 22651 22652 22653 22654 22655 22656 22657 22658 22659 22660 22661 22662 22663 22664 22665 22666 22667 22668 22669 22670 22671 22672 22673 22674 22675 22676 22677 22678 22679 22680 22681 22682 22683 22684 22685 22686 22687 22688 22689 22690 22691 22692 22693 22694 22695 22696 22697 22698 22699 22700 22701 22702 22703 22704 22705 22706 22707 22708 22709 22710 22711 22712 22713 22714 22715 22716 22717 22718 22719 22720 22721 22722 22723 22724 22725 22726 22727 22728 22729 22730 22731 22732 22733 22734 22735 22736 22737 22738 22739 22740 22741 22742 22743 22744 22745 22746 22747 22748 22749 22750 22751 22752 22753 22754 22755 22756 22757 22758 22759 22760 22761 22762 22763 22764 22765 22766 22767 22768 22769 22770 22771 22772 22773 22774 22775 22776 22777 22778 22779 22780 22781 22782 22783 22784 22785 22786 22787 22788 22789 22790 22791 22792 22793 22794 22795 22796 22797 22798 22799 22800 22801 22802 22803 22804 22805 22806 22807 22808 22809 22810 22811 22812 22813 22814 22815 22816 22817 22818 22819 22820 22821 22822 22823 22824 22825 22826 22827 22828 22829 22830 22831 22832 22833 22834 22835 22836 22837 22838 22839 22840 22841 22842 22843 22844 22845 22846 22847 22848 22849 22850 22851 22852 22853 22854 22855 22856 22857 22858 22859 22860 22861 22862 22863 22864 22865 22866 22867 22868 22869 22870 22871 22872 22873 22874 22875 22876 22877 22878 22879 22880 22881 22882 22883 22884 22885 22886 22887 22888 22889 22890 22891 22892 22893 22894 22895 22896 22897 22898 22899 22900 22901 22902 22903 22904 22905 22906 22907 22908 22909 22910 22911 22912 22913 22914 22915 22916 22917 22918 22919 22920 22921 22922 22923 22924 22925 22926 22927 22928 22929 22930 22931 22932 22933 22934 22935 22936 22937 22938 22939 22940 22941 22942 22943 22944 22945 22946 22947 22948 22949 22950 22951 22952 22953 22954 22955 22956 22957 22958 22959 22960 22961 22962 22963 22964 22965 22966 22967 22968 22969 22970 22971 22972 22973 22974 22975 22976 22977 22978 22979 22980 22981 22982 22983 22984 22985 22986 22987 22988 22989 22990 22991 22992 22993 22994 22995 22996 22997 22998 22999 23000 23001 23002 23003 23004 23005 23006 23007 23008 23009 23010 23011 23012 23013 23014 23015 23016 23017 23018 23019 23020 23021 23022 23023 23024 23025 23026 23027 23028 23029 23030 23031 23032 23033 23034 23035 23036 23037 23038 23039 23040 23041 23042 23043 23044 23045 23046 23047 23048 23049 23050 23051 23052 23053 23054 23055 23056 23057 23058 23059 23060 23061 23062 23063 23064 23065 23066 23067 23068 23069 23070 23071 23072 23073 23074 23075 23076 23077 23078 23079 23080 23081 23082 23083 23084 23085 23086 23087 23088 23089 23090 23091 23092 23093 23094 23095 23096 23097 23098 23099 23100 23101 23102 23103 23104 23105 23106 23107 23108 23109 23110 23111 23112 23113 23114 23115 23116 23117 23118 23119 23120 23121 23122 23123 23124 23125 23126 23127 23128 23129 23130 23131 23132 23133 23134 23135 23136 23137 23138 23139 23140 23141 23142 23143 23144 23145 23146 23147 23148 23149 23150 23151 23152 23153 23154 23155 23156 23157 23158 23159 23160 23161 23162 23163 23164 23165 23166 23167 23168 23169 23170 23171 23172 23173 23174 23175 23176 23177 23178 23179 23180 23181 23182 23183 23184 23185 23186 23187 23188 23189 23190 23191 23192 23193 23194 23195 23196 23197 23198 23199 23200 23201 23202 23203 23204 23205 23206 23207 23208 23209 23210 23211 23212 23213 23214 23215 23216 23217 23218 23219 23220 23221 23222 23223 23224 23225 23226 23227 23228 23229 23230 23231 23232 23233 23234 23235 23236 23237 23238 23239 23240 23241 23242 23243 23244 23245 23246 23247 23248 23249 23250 23251 23252 23253 23254 23255 23256 23257 23258 23259 23260 23261 23262 23263 23264 23265 23266 23267 23268 23269 23270 23271 23272 23273 23274 23275 23276 23277 23278 23279 23280 23281 23282 23283 23284 23285 23286 23287 23288 23289 23290 23291 23292 23293 23294 23295 23296 23297 23298 23299 23300 23301 23302 23303 23304 23305 23306 23307 23308 23309 23310 23311 23312 23313 23314 23315 23316 23317 23318 23319 23320 23321 23322 23323 23324 23325 23326 23327 23328 23329 23330 23331 23332 23333 23334 23335 23336 23337 23338 23339 23340 23341 23342 23343 23344 23345 23346 23347 23348 23349 23350 23351 23352 23353 23354 23355 23356 23357 23358 23359 23360 23361 23362 23363 23364 23365 23366 23367 23368 23369 23370 23371 23372 23373 23374 23375 23376 23377 23378 23379 23380 23381 23382 23383 23384 23385 23386 23387 23388 23389 23390 23391 23392 23393 23394 23395 23396 23397 23398 23399 23400 23401 23402 23403 23404 23405 23406 23407 23408 23409 23410 23411 23412 23413 23414 23415 23416 23417 23418 23419 23420 23421 23422 23423 23424 23425 23426 23427 23428 23429 23430 23431 23432 23433 23434 23435 23436 23437 23438 23439 23440 23441 23442 23443 23444 23445 23446 23447 23448 23449 23450 23451 23452 23453 23454 23455 23456 23457 23458 23459 23460 23461 23462 23463 23464 23465 23466 23467 23468 23469 23470 23471 23472 23473 23474 23475 23476 23477 23478 23479 23480 23481 23482 23483 23484 23485 23486 23487 23488 23489 23490 23491 23492 23493 23494 23495 23496 23497 23498 23499 23500 23501 23502 23503 23504 23505 23506 23507 23508 23509 23510 23511 23512 23513 23514 23515 23516 23517 23518 23519 23520 23521 23522 23523 23524 23525 23526 23527 23528 23529 23530 23531 23532 23533 23534 23535 23536 23537 23538 23539 23540 23541 23542 23543 23544 23545 23546 23547 23548 23549 23550 23551 23552 23553 23554 23555 23556 23557 23558 23559 23560 23561 23562 23563 23564 23565 23566 23567 23568 23569 23570 23571 23572 23573 23574 23575 23576 23577 23578 23579 23580 23581 23582 23583 23584 23585 23586 23587 23588 23589 23590 23591 23592 23593 23594 23595 23596 23597 23598 23599 23600 23601 23602 23603 23604 23605 23606 23607 23608 23609 23610 23611 23612 23613 23614 23615 23616 23617 23618 23619 23620 23621 23622 23623 23624 23625 23626 23627 23628 23629 23630 23631 23632 23633 23634 23635 23636 23637 23638 23639 23640 23641 23642 23643 23644 23645 23646 23647 23648 23649 23650 23651 23652 23653 23654 23655 23656 23657 23658 23659 23660 23661 23662 23663 23664 23665 23666 23667 23668 23669 23670 23671 23672 23673 23674 23675 23676 23677 23678 23679 23680 23681 23682 23683 23684 23685 23686 23687 23688 23689 23690 23691 23692 23693 23694 23695 23696 23697 23698 23699 23700 23701 23702 23703 23704 23705 23706 23707 23708 23709 23710 23711 23712 23713 23714 23715 23716 23717 23718 23719 23720 23721 23722 23723 23724 23725 23726 23727 23728 23729 23730 23731 23732 23733 23734 23735 23736 23737 23738 23739 23740 23741 23742 23743 23744 23745 23746 23747 23748 23749 23750 23751 23752 23753 23754 23755 23756 23757 23758 23759 23760 23761 23762 23763 23764 23765 23766 23767 23768 23769 23770 23771 23772 23773 23774 23775 23776 23777 23778 23779 23780 23781 23782 23783 23784 23785 23786 23787 23788 23789 23790 23791 23792 23793 23794 23795 23796 23797 23798 23799 23800 23801 23802 23803 23804 23805 23806 23807 23808 23809 23810 23811 23812 23813 23814 23815 23816 23817 23818 23819 23820 23821 23822 23823 23824 23825 23826 23827 23828 23829 23830 23831 23832 23833 23834 23835 23836 23837 23838 23839 23840 23841 23842 23843 23844 23845 23846 23847 23848 23849 23850 23851 23852 23853 23854 23855 23856 23857 23858 23859 23860 23861 23862 23863 23864 23865 23866 23867 23868 23869 23870 23871 23872 23873 23874 23875 23876 23877 23878 23879 23880 23881 23882 23883 23884 23885 23886 23887 23888 23889 23890 23891 23892 23893 23894 23895 23896 23897 23898 23899 23900 23901 23902 23903 23904 23905 23906 23907 23908 23909 23910 23911 23912 23913 23914 23915 23916 23917 23918 23919 23920 23921 23922 23923 23924 23925 23926 23927 23928 23929 23930 23931 23932 23933 23934 23935 23936 23937 23938 23939 23940 23941 23942 23943 23944 23945 23946 23947 23948 23949 23950 23951 23952 23953 23954 23955 23956 23957 23958 23959 23960 23961 23962 23963 23964 23965 23966 23967 23968 23969 23970 23971 23972 23973 23974 23975 23976 23977 23978 23979 23980 23981 23982 23983 23984 23985 23986 23987 23988 23989 23990 23991 23992 23993 23994 23995 23996 23997 23998 23999 24000 24001 24002 24003 24004 24005 24006 24007 24008 24009 24010 24011 24012 24013 24014 24015 24016 24017 24018 24019 24020 24021 24022 24023 24024 24025 24026 24027 24028 24029 24030 24031 24032 24033 24034 24035 24036 24037 24038 24039 24040 24041 24042 24043 24044 24045 24046 24047 24048 24049 24050 24051 24052 24053 24054 24055 24056 24057 24058 24059 24060 24061 24062 24063 24064 24065 24066 24067 24068 24069 24070 24071 24072 24073 24074 24075 24076 24077 24078 24079 24080 24081 24082 24083 24084 24085 24086 24087 24088 24089 24090 24091 24092 24093 24094 24095 24096 24097 24098 24099 24100 24101 24102 24103 24104 24105 24106 24107 24108 24109 24110 24111 24112 24113 24114 24115 24116 24117 24118 24119 24120 24121 24122 24123 24124 24125 24126 24127 24128 24129 24130 24131 24132 24133 24134 24135 24136 24137 24138 24139 24140 24141 24142 24143 24144 24145 24146 24147 24148 24149 24150 24151 24152 24153 24154 24155 24156 24157 24158 24159 24160 24161 24162 24163 24164 24165 24166 24167 24168 24169 24170 24171 24172 24173 24174 24175 24176 24177 24178 24179 24180 24181 24182 24183 24184 24185 24186 24187 24188 24189 24190 24191 24192 24193 24194 24195 24196 24197 24198 24199 24200 24201 24202 24203 24204 24205 24206 24207 24208 24209 24210 24211 24212 24213 24214 24215 24216 24217 24218 24219 24220 24221 24222 24223 24224 24225 24226 24227 24228 24229 24230 24231 24232 24233 24234 24235 24236 24237 24238 24239 24240 24241 24242 24243 24244 24245 24246 24247 24248 24249 24250 24251 24252 24253 24254 24255 24256 24257 24258 24259 24260 24261 24262 24263 24264 24265 24266 24267 24268 24269 24270 24271 24272 24273 24274 24275 24276 24277 24278 24279 24280 24281 24282 24283 24284 24285 24286 24287 24288 24289 24290 24291 24292 24293 24294 24295 24296 24297 24298 24299 24300 24301 24302 24303 24304 24305 24306 24307 24308 24309 24310 24311 24312 24313 24314 24315 24316 24317 24318 24319 24320 24321 24322 24323 24324 24325 24326 24327 24328 24329 24330 24331 24332 24333 24334 24335 24336 24337 24338 24339 24340 24341 24342 24343 24344 24345 24346 24347 24348 24349 24350 24351 24352 24353 24354 24355 24356 24357 24358 24359 24360 24361 24362 24363 24364 24365 24366 24367 24368 24369 24370 24371 24372 24373 24374 24375 24376 24377 24378 24379 24380 24381 24382 24383 24384 24385 24386 24387 24388 24389 24390 24391 24392 24393 24394 24395 24396 24397 24398 24399 24400 24401 24402 24403 24404 24405 24406 24407 24408 24409 24410 24411 24412 24413 24414 24415 24416 24417 24418 24419 24420 24421 24422 24423 24424 24425 24426 24427 24428 24429 24430 24431 24432 24433 24434 24435 24436 24437 24438 24439 24440 24441 24442 24443 24444 24445 24446 24447 24448 24449 24450 24451 24452 24453 24454 24455 24456 24457 24458 24459 24460 24461 24462 24463 24464 24465 24466 24467 24468 24469 24470 24471 24472 24473 24474 24475 24476 24477 24478 24479 24480 24481 24482 24483 24484 24485 24486 24487 24488 24489 24490 24491 24492 24493 24494 24495 24496 24497 24498 24499 24500 24501 24502 24503 24504 24505 24506 24507 24508 24509 24510 24511 24512 24513 24514 24515 24516 24517 24518 24519 24520 24521 24522 24523 24524 24525 24526 24527 24528 24529 24530 24531 24532 24533 24534 24535 24536 24537 24538 24539 24540 24541 24542 24543 24544 24545 24546 24547 24548 24549 24550 24551 24552 24553 24554 24555 24556 24557 24558 24559 24560 24561 24562 24563 24564 24565 24566 24567 24568 24569 24570 24571 24572 24573 24574 24575 24576 24577 24578 24579 24580 24581 24582 24583 24584 24585 24586 24587 24588 24589 24590 24591 24592 24593 24594 24595 24596 24597 24598 24599 24600 24601 24602 24603 24604 24605 24606 24607 24608 24609 24610 24611 24612 24613 24614 24615 24616 24617 24618 24619 24620 24621 24622 24623 24624 24625 24626 24627 24628 24629 24630 24631 24632 24633 24634 24635 24636 24637 24638 24639 24640 24641 24642 24643 24644 24645 24646 24647 24648 24649 24650 24651 24652 24653 24654 24655 24656 24657 24658 24659 24660 24661 24662 24663 24664 24665 24666 24667 24668 24669 24670 24671 24672 24673 24674 24675 24676 24677 24678 24679 24680 24681 24682 24683 24684 24685 24686 24687 24688 24689 24690 24691 24692 24693 24694 24695 24696 24697 24698 24699 24700 24701 24702 24703 24704 24705 24706 24707 24708 24709 24710 24711 24712 24713 24714 24715 24716 24717 24718 24719 24720 24721 24722 24723 24724 24725 24726 24727 24728 24729 24730 24731 24732 24733 24734 24735 24736 24737 24738 24739 24740 24741 24742 24743 24744 24745 24746 24747 24748 24749 24750 24751 24752 24753 24754 24755 24756 24757 24758 24759 24760 24761 24762 24763 24764 24765 24766 24767 24768 24769 24770 24771 24772 24773 24774 24775 24776 24777 24778 24779 24780 24781 24782 24783 24784 24785 24786 24787 24788 24789 24790 24791 24792 24793 24794 24795 24796 24797 24798 24799 24800 24801 24802 24803 24804 24805 24806 24807 24808 24809 24810 24811 24812 24813 24814 24815 24816 24817 24818 24819 24820 24821 24822 24823 24824 24825 24826 24827 24828 24829 24830 24831 24832 24833 24834 24835 24836 24837 24838 24839 24840 24841 24842 24843 24844 24845 24846 24847 24848 24849 24850 24851 24852 24853 24854 24855 24856 24857 24858 24859 24860 24861 24862 24863 24864 24865 24866 24867 24868 24869 24870 24871 24872 24873 24874 24875 24876 24877 24878 24879 24880 24881 24882 24883 24884 24885 24886 24887 24888 24889 24890 24891 24892 24893 24894 24895 24896 24897 24898 24899 24900 24901 24902 24903 24904 24905 24906 24907 24908 24909 24910 24911 24912 24913 24914 24915 24916 24917 24918 24919 24920 24921 24922 24923 24924 24925 24926 24927 24928 24929 24930 24931 24932 24933 24934 24935 24936 24937 24938 24939 24940 24941 24942 24943 24944 24945 24946 24947 24948 24949 24950 24951 24952 24953 24954 24955 24956 24957 24958 24959 24960 24961 24962 24963 24964 24965 24966 24967 24968 24969 24970 24971 24972 24973 24974 24975 24976 24977 24978 24979 24980 24981 24982 24983 24984 24985 24986 24987 24988 24989 24990 24991 24992 24993 24994 24995 24996 24997 24998 24999 25000 25001 25002 25003 25004 25005 25006 25007 25008 25009 25010 25011 25012 25013 25014 25015 25016 25017 25018 25019 25020 25021 25022 25023 25024 25025 25026 25027 25028 25029 25030 25031 25032 25033 25034 25035 25036 25037 25038 25039 25040 25041 25042 25043 25044 25045 25046 25047 25048 25049 25050 25051 25052 25053 25054 25055 25056 25057 25058 25059 25060 25061 25062 25063 25064 25065 25066 25067 25068 25069 25070 25071 25072 25073 25074 25075 25076 25077 25078 25079 25080 25081 25082 25083 25084 25085 25086 25087 25088 25089 25090 25091 25092 25093 25094 25095 25096 25097 25098 25099 25100 25101 25102 25103 25104 25105 25106 25107 25108 25109 25110 25111 25112 25113 25114 25115 25116 25117 25118 25119 25120 25121 25122 25123 25124 25125 25126 25127 25128 25129 25130 25131 25132 25133 25134 25135 25136 25137 25138 25139 25140 25141 25142 25143 25144 25145 25146 25147 25148 25149 25150 25151 25152 25153 25154 25155 25156 25157 25158 25159 25160 25161 25162 25163 25164 25165 25166 25167 25168 25169 25170 25171 25172 25173 25174 25175 25176 25177 25178 25179 25180 25181 25182 25183 25184 25185 25186 25187 25188 25189 25190 25191 25192 25193 25194 25195 25196 25197 25198 25199 25200 25201 25202 25203 25204 25205 25206 25207 25208 25209 25210 25211 25212 25213 25214 25215 25216 25217 25218 25219 25220 25221 25222 25223 25224 25225 25226 25227 25228 25229 25230 25231 25232 25233 25234 25235 25236 25237 25238 25239 25240 25241 25242 25243 25244 25245 25246 25247 25248 25249 25250 25251 25252 25253 25254 25255 25256 25257 25258 25259 25260 25261 25262 25263 25264 25265 25266 25267 25268 25269 25270 25271 25272 25273 25274 25275 25276 25277 25278 25279 25280 25281 25282 25283 25284 25285 25286 25287 25288 25289 25290 25291 25292 25293 25294 25295 25296 25297 25298 25299 25300 25301 25302 25303 25304 25305 25306 25307 25308 25309 25310 25311 25312 25313 25314 25315 25316 25317 25318 25319 25320 25321 25322 25323 25324 25325 25326 25327 25328 25329 25330 25331 25332 25333 25334 25335 25336 25337 25338 25339 25340 25341 25342 25343 25344 25345 25346 25347 25348 25349 25350 25351 25352 25353 25354 25355 25356 25357 25358 25359 25360 25361 25362 25363 25364 25365 25366 25367 25368 25369 25370 25371 25372 25373 25374 25375 25376 25377 25378 25379 25380 25381 25382 25383 25384 25385 25386 25387 25388 25389 25390 25391 25392 25393 25394 25395 25396 25397 25398 25399 25400 25401 25402 25403 25404 25405 25406 25407 25408 25409 25410 25411 25412 25413 25414 25415 25416 25417 25418 25419 25420 25421 25422 25423 25424 25425 25426 25427 25428 25429 25430 25431 25432 25433 25434 25435 25436 25437 25438 25439 25440 25441 25442 25443 25444 25445 25446 25447 25448 25449 25450 25451 25452 25453 25454 25455 25456 25457 25458 25459 25460 25461 25462 25463 25464 25465 25466 25467 25468 25469 25470 25471 25472 25473 25474 25475 25476 25477 25478 25479 25480 25481 25482 25483 25484 25485 25486 25487 25488 25489 25490 25491 25492 25493 25494 25495 25496 25497 25498 25499 25500 25501 25502 25503 25504 25505 25506 25507 25508 25509 25510 25511 25512 25513 25514 25515 25516 25517 25518 25519 25520 25521 25522 25523 25524 25525 25526 25527 25528 25529 25530 25531 25532 25533 25534 25535 25536 25537 25538 25539 25540 25541 25542 25543 25544 25545 25546 25547 25548 25549 25550 25551 25552 25553 25554 25555 25556 25557 25558 25559 25560 25561 25562 25563 25564 25565 25566 25567 25568 25569 25570 25571 25572 25573 25574 25575 25576 25577 25578 25579 25580 25581 25582 25583 25584 25585 25586 25587 25588 25589 25590 25591 25592 25593 25594 25595 25596 25597 25598 25599 25600 25601 25602 25603 25604 25605 25606 25607 25608 25609 25610 25611 25612 25613 25614 25615 25616 25617 25618 25619 25620 25621 25622 25623 25624 25625 25626 25627 25628 25629 25630 25631 25632 25633 25634 25635 25636 25637 25638 25639 25640 25641 25642 25643 25644 25645 25646 25647 25648 25649 25650 25651 25652 25653 25654 25655 25656 25657 25658 25659 25660 25661 25662 25663 25664 25665 25666 25667 25668 25669 25670 25671 25672 25673 25674 25675 25676 25677 25678 25679 25680 25681 25682 25683 25684 25685 25686 25687 25688 25689 25690 25691 25692 25693 25694 25695 25696 25697 25698 25699 25700 25701 25702 25703 25704 25705 25706 25707 25708 25709 25710 25711 25712 25713 25714 25715 25716 25717 25718 25719 25720 25721 25722 25723 25724 25725 25726 25727 25728 25729 25730 25731 25732 25733 25734 25735 25736 25737 25738 25739 25740 25741 25742 25743 25744 25745 25746 25747 25748 25749 25750 25751 25752 25753 25754 25755 25756 25757 25758 25759 25760 25761 25762 25763 25764 25765 25766 25767 25768 25769 25770 25771 25772 25773 25774 25775 25776 25777 25778 25779 25780 25781 25782 25783 25784 25785 25786 25787 25788 25789 25790 25791 25792 25793 25794 25795 25796 25797 25798 25799 25800 25801 25802 25803 25804 25805 25806 25807 25808 25809 25810 25811 25812 25813 25814 25815 25816 25817 25818 25819 25820 25821 25822 25823 25824 25825 25826 25827 25828 25829 25830 25831 25832 25833 25834 25835 25836 25837 25838 25839 25840 25841 25842 25843 25844 25845 25846 25847 25848 25849 25850 25851 25852 25853 25854 25855 25856 25857 25858 25859 25860 25861 25862 25863 25864 25865 25866 25867 25868 25869 25870 25871 25872 25873 25874 25875 25876 25877 25878 25879 25880 25881 25882 25883 25884 25885 25886 25887 25888 25889 25890 25891 25892 25893 25894 25895 25896 25897 25898 25899 25900 25901 25902 25903 25904 25905 25906 25907 25908 25909 25910 25911 25912 25913 25914 25915 25916 25917 25918 25919 25920 25921 25922 25923 25924 25925 25926 25927 25928 25929 25930 25931 25932 25933 25934 25935 25936 25937 25938 25939 25940 25941 25942 25943 25944 25945 25946 25947 25948 25949 25950 25951 25952 25953 25954 25955 25956 25957 25958 25959 25960 25961 25962 25963 25964 25965 25966 25967 25968 25969 25970 25971 25972 25973 25974 25975 25976 25977 25978 25979 25980 25981 25982 25983 25984 25985 25986 25987 25988 25989 25990 25991 25992 25993 25994 25995 25996 25997 25998 25999 26000 26001 26002 26003 26004 26005 26006 26007 26008 26009 26010 26011 26012 26013 26014 26015 26016 26017 26018 26019 26020 26021 26022 26023 26024 26025 26026 26027 26028 26029 26030 26031 26032 26033 26034 26035 26036 26037 26038 26039 26040 26041 26042 26043 26044 26045 26046 26047 26048 26049 26050 26051 26052 26053 26054 26055 26056 26057 26058 26059 26060 26061 26062 26063 26064 26065 26066 26067 26068 26069 26070 26071 26072 26073 26074 26075 26076 26077 26078 26079 26080 26081 26082 26083 26084 26085 26086 26087 26088 26089 26090 26091 26092 26093 26094 26095 26096 26097 26098 26099 26100 26101 26102 26103 26104 26105 26106 26107 26108 26109 26110 26111 26112 26113 26114 26115 26116 26117 26118 26119 26120 26121 26122 26123 26124 26125 26126 26127 26128 26129 26130 26131 26132 26133 26134 26135 26136 26137 26138 26139 26140 26141 26142 26143 26144 26145 26146 26147 26148 26149 26150 26151 26152 26153 26154 26155 26156 26157 26158 26159 26160 26161 26162 26163 26164 26165 26166 26167 26168 26169 26170 26171 26172 26173 26174 26175 26176 26177 26178 26179 26180 26181 26182 26183 26184 26185 26186 26187 26188 26189 26190 26191 26192 26193 26194 26195 26196 26197 26198 26199 26200 26201 26202 26203 26204 26205 26206 26207 26208 26209 26210 26211 26212 26213 26214 26215 26216 26217 26218 26219 26220 26221 26222 26223 26224 26225 26226 26227 26228 26229 26230 26231 26232 26233 26234 26235 26236 26237 26238 26239 26240 26241 26242 26243 26244 26245 26246 26247 26248 26249 26250 26251 26252 26253 26254 26255 26256 26257 26258 26259 26260 26261 26262 26263 26264 26265 26266 26267 26268 26269 26270 26271 26272 26273 26274 26275 26276 26277 26278 26279 26280 26281 26282 26283 26284 26285 26286 26287 26288 26289 26290 26291 26292 26293 26294 26295 26296 26297 26298 26299 26300 26301 26302 26303 26304 26305 26306 26307 26308 26309 26310 26311 26312 26313 26314 26315 26316 26317 26318 26319 26320 26321 26322 26323 26324 26325 26326 26327 26328 26329 26330 26331 26332 26333 26334 26335 26336 26337 26338 26339 26340 26341 26342 26343 26344 26345 26346 26347 26348 26349 26350 26351 26352 26353 26354 26355 26356 26357 26358 26359 26360 26361 26362 26363 26364 26365 26366 26367 26368 26369 26370 26371 26372 26373 26374 26375 26376 26377 26378 26379 26380 26381 26382 26383 26384 26385 26386 26387 26388 26389 26390 26391 26392 26393 26394 26395 26396 26397 26398 26399 26400 26401 26402 26403 26404 26405 26406 26407 26408 26409 26410 26411 26412 26413 26414 26415 26416 26417 26418 26419 26420 26421 26422 26423 26424 26425 26426 26427 26428 26429 26430 26431 26432 26433 26434 26435 26436 26437 26438 26439 26440 26441 26442 26443 26444 26445 26446 26447 26448 26449 26450 26451 26452 26453 26454 26455 26456 26457 26458 26459 26460 26461 26462 26463 26464 26465 26466 26467 26468 26469 26470 26471 26472 26473 26474 26475 26476 26477 26478 26479 26480 26481 26482 26483 26484 26485 26486 26487 26488 26489 26490 26491 26492 26493 26494 26495 26496 26497 26498 26499 26500 26501 26502 26503 26504 26505 26506 26507 26508 26509 26510 26511 26512 26513 26514 26515 26516 26517 26518 26519 26520 26521 26522 26523 26524 26525 26526 26527 26528 26529 26530 26531 26532 26533 26534 26535 26536 26537 26538 26539 26540 26541 26542 26543 26544 26545 26546 26547 26548 26549 26550 26551 26552 26553 26554 26555 26556 26557 26558 26559 26560 26561 26562 26563 26564 26565 26566 26567 26568 26569 26570 26571 26572 26573 26574 26575 26576 26577 26578 26579 26580 26581 26582 26583 26584 26585 26586 26587 26588 26589 26590 26591 26592 26593 26594 26595 26596 26597 26598 26599 26600 26601 26602 26603 26604 26605 26606 26607 26608 26609 26610 26611 26612 26613 26614 26615 26616 26617 26618 26619 26620 26621 26622 26623 26624 26625 26626 26627 26628 26629 26630 26631 26632 26633 26634 26635 26636 26637 26638 26639 26640 26641 26642 26643 26644 26645 26646 26647 26648 26649 26650 26651 26652 26653 26654 26655 26656 26657 26658 26659 26660 26661 26662 26663 26664 26665 26666 26667 26668 26669 26670 26671 26672 26673 26674 26675 26676 26677 26678 26679 26680 26681 26682 26683 26684 26685 26686 26687 26688 26689 26690 26691 26692 26693 26694 26695 26696 26697 26698 26699 26700 26701 26702 26703 26704 26705 26706 26707 26708 26709 26710 26711 26712 26713 26714 26715 26716 26717 26718 26719 26720 26721 26722 26723 26724 26725 26726 26727 26728 26729 26730 26731 26732 26733 26734 26735 26736 26737 26738 26739 26740 26741 26742 26743 26744 26745 26746 26747 26748 26749 26750 26751 26752 26753 26754 26755 26756 26757 26758 26759 26760 26761 26762 26763 26764 26765 26766 26767 26768 26769 26770 26771 26772 26773 26774 26775 26776 26777 26778 26779 26780 26781 26782 26783 26784 26785 26786 26787 26788 26789 26790 26791 26792 26793 26794 26795 26796 26797 26798 26799 26800 26801 26802 26803 26804 26805 26806 26807 26808 26809 26810 26811 26812 26813 26814 26815 26816 26817 26818 26819 26820 26821 26822 26823 26824 26825 26826 26827 26828 26829 26830 26831 26832 26833 26834 26835 26836 26837 26838 26839 26840 26841 26842 26843 26844 26845 26846 26847 26848 26849 26850 26851 26852 26853 26854 26855 26856 26857 26858 26859 26860 26861 26862 26863 26864 26865 26866 26867 26868 26869 26870 26871 26872 26873 26874 26875 26876 26877 26878 26879 26880 26881 26882 26883 26884 26885 26886 26887 26888 26889 26890 26891 26892 26893 26894 26895 26896 26897 26898 26899 26900 26901 26902 26903 26904 26905 26906 26907 26908 26909 26910 26911 26912 26913 26914 26915 26916 26917 26918 26919 26920 26921 26922 26923 26924 26925 26926 26927 26928 26929 26930 26931 26932 26933 26934 26935 26936 26937 26938 26939 26940 26941 26942 26943 26944 26945 26946 26947 26948 26949 26950 26951 26952 26953 26954 26955 26956 26957 26958 26959 26960 26961 26962 26963 26964 26965 26966 26967 26968 26969 26970 26971 26972 26973 26974 26975 26976 26977 26978 26979 26980 26981 26982 26983 26984 26985 26986 26987 26988 26989 26990 26991 26992 26993 26994 26995 26996 26997 26998 26999 27000 27001 27002 27003 27004 27005 27006 27007 27008 27009 27010 27011 27012 27013 27014 27015 27016 27017 27018 27019 27020 27021 27022 27023 27024 27025 27026 27027 27028 27029 27030 27031 27032 27033 27034 27035 27036 27037 27038 27039 27040 27041 27042 27043 27044 27045 27046 27047 27048 27049 27050 27051 27052 27053 27054 27055 27056 27057 27058 27059 27060 27061 27062 27063 27064 27065 27066 27067 27068 27069 27070 27071 27072 27073 27074 27075 27076 27077 27078 27079 27080 27081 27082 27083 27084 27085 27086 27087 27088 27089 27090 27091 27092 27093 27094 27095 27096 27097 27098 27099 27100 27101 27102 27103 27104 27105 27106 27107 27108 27109 27110 27111 27112 27113 27114 27115 27116 27117 27118 27119 27120 27121 27122 27123 27124 27125 27126 27127 27128 27129 27130 27131 27132 27133 27134 27135 27136 27137 27138 27139 27140 27141 27142 27143 27144 27145 27146 27147 27148 27149 27150 27151 27152 27153 27154 27155 27156 27157 27158 27159 27160 27161 27162 27163 27164 27165 27166 27167 27168 27169 27170 27171 27172 27173 27174 27175 27176 27177 27178 27179 27180 27181 27182 27183 27184 27185 27186 27187 27188 27189 27190 27191 27192 27193 27194 27195 27196 27197 27198 27199 27200 27201 27202 27203 27204 27205 27206 27207 27208 27209 27210 27211 27212 27213 27214 27215 27216 27217 27218 27219 27220 27221 27222 27223 27224 27225 27226 27227 27228 27229 27230 27231 27232 27233 27234 27235 27236 27237 27238 27239 27240 27241 27242 27243 27244 27245 27246 27247 27248 27249 27250 27251 27252 27253 27254 27255 27256 27257 27258 27259 27260 27261 27262 27263 27264 27265 27266 27267 27268 27269 27270 27271 27272 27273 27274 27275 27276 27277 27278 27279 27280 27281 27282 27283 27284 27285 27286 27287 27288 27289 27290 27291 27292 27293 27294 27295 27296 27297 27298 27299 27300 27301 27302 27303 27304 27305 27306 27307 27308 27309 27310 27311 27312 27313 27314 27315 27316 27317 27318 27319 27320 27321 27322 27323 27324 27325 27326 27327 27328 27329 27330 27331 27332 27333 27334 27335 27336 27337 27338 27339 27340 27341 27342 27343 27344 27345 27346 27347 27348 27349 27350 27351 27352 27353 27354 27355 27356 27357 27358 27359 27360 27361 27362 27363 27364 27365 27366 27367 27368 27369 27370 27371 27372 27373 27374 27375 27376 27377 27378 27379 27380 27381 27382 27383 27384 27385 27386 27387 27388 27389 27390 27391 27392 27393 27394 27395 27396 27397 27398 27399 27400 27401 27402 27403 27404 27405 27406 27407 27408 27409 27410 27411 27412 27413 27414 27415 27416 27417 27418 27419 27420 27421 27422 27423 27424 27425 27426 27427 27428 27429 27430 27431 27432 27433 27434 27435 27436 27437 27438 27439 27440 27441 27442 27443 27444 27445 27446 27447 27448 27449 27450 27451 27452 27453 27454 27455 27456 27457 27458 27459 27460 27461 27462 27463 27464 27465 27466 27467 27468 27469 27470 27471 27472 27473 27474 27475 27476 27477 27478 27479 27480 27481 27482 27483 27484 27485 27486 27487 27488 27489 27490 27491 27492 27493 27494 27495 27496 27497 27498 27499 27500 27501 27502 27503 27504 27505 27506 27507 27508 27509 27510 27511 27512 27513 27514 27515 27516 27517 27518 27519 27520 27521 27522 27523 27524 27525 27526 27527 27528 27529 27530 27531 27532 27533 27534 27535 27536 27537 27538 27539 27540 27541 27542 27543 27544 27545 27546 27547 27548 27549 27550 27551 27552 27553 27554 27555 27556 27557 27558 27559 27560 27561 27562 27563 27564 27565 27566 27567 27568 27569 27570 27571 27572 27573 27574 27575 27576 27577 27578 27579 27580 27581 27582 27583 27584 27585 27586 27587 27588 27589 27590 27591 27592 27593 27594 27595 27596 27597 27598 27599 27600 27601 27602 27603 27604 27605 27606 27607 27608 27609 27610 27611 27612 27613 27614 27615 27616 27617 27618 27619 27620 27621 27622 27623 27624 27625 27626 27627 27628 27629 27630 27631 27632 27633 27634 27635 27636 27637 27638 27639 27640 27641 27642 27643 27644 27645 27646 27647 27648 27649 27650 27651 27652 27653 27654 27655 27656 27657 27658 27659 27660 27661 27662 27663 27664 27665 27666 27667 27668 27669 27670 27671 27672 27673 27674 27675 27676 27677 27678 27679 27680 27681 27682 27683 27684 27685 27686 27687 27688 27689 27690 27691 27692 27693 27694 27695 27696 27697 27698 27699 27700 27701 27702 27703 27704 27705 27706 27707 27708 27709 27710 27711 27712 27713 27714 27715 27716 27717 27718 27719 27720 27721 27722 27723 27724 27725 27726 27727 27728 27729 27730 27731 27732 27733 27734 27735 27736 27737 27738 27739 27740 27741 27742 27743 27744 27745 27746 27747 27748 27749 27750 27751 27752 27753 27754 27755 27756 27757 27758 27759 27760 27761 27762 27763 27764 27765 27766 27767 27768 27769 27770 27771 27772 27773 27774 27775 27776 27777 27778 27779 27780 27781 27782 27783 27784 27785 27786 27787 27788 27789 27790 27791 27792 27793 27794 27795 27796 27797 27798 27799 27800 27801 27802 27803 27804 27805 27806 27807 27808 27809 27810 27811 27812 27813 27814 27815 27816 27817 27818 27819 27820 27821 27822 27823 27824 27825 27826 27827 27828 27829 27830 27831 27832 27833 27834 27835 27836 27837 27838 27839 27840 27841 27842 27843 27844 27845 27846 27847 27848 27849 27850 27851 27852 27853 27854 27855 27856 27857 27858 27859 27860 27861 27862 27863 27864 27865 27866 27867 27868 27869 27870 27871 27872 27873 27874 27875 27876 27877 27878 27879 27880 27881 27882 27883 27884 27885 27886 27887 27888 27889 27890 27891 27892 27893 27894 27895 27896 27897 27898 27899 27900 27901 27902 27903 27904 27905 27906 27907 27908 27909 27910 27911 27912 27913 27914 27915 27916 27917 27918 27919 27920 27921 27922 27923 27924 27925 27926 27927 27928 27929 27930 27931 27932 27933 27934 27935 27936 27937 27938 27939 27940 27941 27942 27943 27944 27945 27946 27947 27948 27949 27950 27951 27952 27953 27954 27955 27956 27957 27958 27959 27960 27961 27962 27963 27964 27965 27966 27967 27968 27969 27970 27971 27972 27973 27974 27975 27976 27977 27978 27979 27980 27981 27982 27983 27984 27985 27986 27987 27988 27989 27990 27991 27992 27993 27994 27995 27996 27997 27998 27999 28000 28001 28002 28003 28004 28005 28006 28007 28008 28009 28010 28011 28012 28013 28014 28015 28016 28017 28018 28019 28020 28021 28022 28023 28024 28025 28026 28027 28028 28029 28030 28031 28032 28033 28034 28035 28036 28037 28038 28039 28040 28041 28042 28043 28044 28045 28046 28047 28048 28049 28050 28051 28052 28053 28054 28055 28056 28057 28058 28059 28060 28061 28062 28063 28064 28065 28066 28067 28068 28069 28070 28071 28072 28073 28074 28075 28076 28077 28078 28079 28080 28081 28082 28083 28084 28085 28086 28087 28088 28089 28090 28091 28092 28093 28094 28095 28096 28097 28098 28099 28100 28101 28102 28103 28104 28105 28106 28107 28108 28109 28110 28111 28112 28113 28114 28115 28116 28117 28118 28119 28120 28121 28122 28123 28124 28125 28126 28127 28128 28129 28130 28131 28132 28133 28134 28135 28136 28137 28138 28139 28140 28141 28142 28143 28144 28145 28146 28147 28148 28149 28150 28151 28152 28153 28154 28155 28156 28157 28158 28159 28160 28161 28162 28163 28164 28165 28166 28167 28168 28169 28170 28171 28172 28173 28174 28175 28176 28177 28178 28179 28180 28181 28182 28183 28184 28185 28186 28187 28188 28189 28190 28191 28192 28193 28194 28195 28196 28197 28198 28199 28200 28201 28202 28203 28204 28205 28206 28207 28208 28209 28210 28211 28212 28213 28214 28215 28216 28217 28218 28219 28220 28221 28222 28223 28224 28225 28226 28227 28228 28229 28230 28231 28232 28233 28234 28235 28236 28237 28238 28239 28240 28241 28242 28243 28244 28245 28246 28247 28248 28249 28250 28251 28252 28253 28254 28255 28256 28257 28258 28259 28260 28261 28262 28263 28264 28265 28266 28267 28268 28269 28270 28271 28272 28273 28274 28275 28276 28277 28278 28279 28280 28281 28282 28283 28284 28285 28286 28287 28288 28289 28290 28291 28292 28293 28294 28295 28296 28297 28298 28299 28300 28301 28302 28303 28304 28305 28306 28307 28308 28309 28310 28311 28312 28313 28314 28315 28316 28317 28318 28319 28320 28321 28322 28323 28324 28325 28326 28327 28328 28329 28330 28331 28332 28333 28334 28335 28336 28337 28338 28339 28340 28341 28342 28343 28344 28345 28346 28347 28348 28349 28350 28351 28352 28353 28354 28355 28356 28357 28358 28359 28360 28361 28362 28363 28364 28365 28366 28367 28368 28369 28370 28371 28372 28373 28374 28375 28376 28377 28378 28379 28380 28381 28382 28383 28384 28385 28386 28387 28388 28389 28390 28391 28392 28393 28394 28395 28396 28397 28398 28399 28400 28401 28402 28403 28404 28405 28406 28407 28408 28409 28410 28411 28412 28413 28414 28415 28416 28417 28418 28419 28420 28421 28422 28423 28424 28425 28426 28427 28428 28429 28430 28431 28432 28433 28434 28435 28436 28437 28438 28439 28440 28441 28442 28443 28444 28445 28446 28447 28448 28449 28450 28451 28452 28453 28454 28455 28456 28457 28458 28459 28460 28461 28462 28463 28464 28465 28466 28467 28468 28469 28470 28471 28472 28473 28474 28475 28476 28477 28478 28479 28480 28481 28482 28483 28484 28485 28486 28487 28488 28489 28490 28491 28492 28493 28494 28495 28496 28497 28498 28499 28500 28501 28502 28503 28504 28505 28506 28507 28508 28509 28510 28511 28512 28513 28514 28515 28516 28517 28518 28519 28520 28521 28522 28523 28524 28525 28526 28527 28528 28529 28530 28531 28532 28533 28534 28535 28536 28537 28538 28539 28540 28541 28542 28543 28544 28545 28546 28547 28548 28549 28550 28551 28552 28553 28554 28555 28556 28557 28558 28559 28560 28561 28562 28563 28564 28565 28566 28567 28568 28569 28570 28571 28572 28573 28574 28575 28576 28577 28578 28579 28580 28581 28582 28583 28584 28585 28586 28587 28588 28589 28590 28591 28592 28593 28594 28595 28596 28597 28598 28599 28600 28601 28602 28603 28604 28605 28606 28607 28608 28609 28610 28611 28612 28613 28614 28615 28616 28617 28618 28619 28620 28621 28622 28623 28624 28625 28626 28627 28628 28629 28630 28631 28632 28633 28634 28635 28636 28637 28638 28639 28640 28641 28642 28643 28644 28645 28646 28647 28648 28649 28650 28651 28652 28653 28654 28655 28656 28657 28658 28659 28660 28661 28662 28663 28664 28665 28666 28667 28668 28669 28670 28671 28672 28673 28674 28675 28676 28677 28678 28679 28680 28681 28682 28683 28684 28685 28686 28687 28688 28689 28690 28691 28692 28693 28694 28695 28696 28697 28698 28699 28700 28701 28702 28703 28704 28705 28706 28707 28708 28709 28710 28711 28712 28713 28714 28715 28716 28717 28718 28719 28720 28721 28722 28723 28724 28725 28726 28727 28728 28729 28730 28731 28732 28733 28734 28735 28736 28737 28738 28739 28740 28741 28742 28743 28744 28745 28746 28747 28748 28749 28750 28751 28752 28753 28754 28755 28756 28757 28758 28759 28760 28761 28762 28763 28764 28765 28766 28767 28768 28769 28770 28771 28772 28773 28774 28775 28776 28777 28778 28779 28780 28781 28782 28783 28784 28785 28786 28787 28788 28789 28790 28791 28792 28793 28794 28795 28796 28797 28798 28799 28800 28801 28802 28803 28804 28805 28806 28807 28808 28809 28810 28811 28812 28813 28814 28815 28816 28817 28818 28819 28820 28821 28822 28823 28824 28825 28826 28827 28828 28829 28830 28831 28832 28833 28834 28835 28836 28837 28838 28839 28840 28841 28842 28843 28844 28845 28846 28847 28848 28849 28850 28851 28852 28853 28854 28855 28856 28857 28858 28859 28860 28861 28862 28863 28864 28865 28866 28867 28868 28869 28870 28871 28872 28873 28874 28875 28876 28877 28878 28879 28880 28881 28882 28883 28884 28885 28886 28887 28888 28889 28890 28891 28892 28893 28894 28895 28896 28897 28898 28899 28900 28901 28902 28903 28904 28905 28906 28907 28908 28909 28910 28911 28912 28913 28914 28915 28916 28917 28918 28919 28920 28921 28922 28923 28924 28925 28926 28927 28928 28929 28930 28931 28932 28933 28934 28935 28936 28937 28938 28939 28940 28941 28942 28943 28944 28945 28946 28947 28948 28949 28950 28951 28952 28953 28954 28955 28956 28957 28958 28959 28960 28961 28962 28963 28964 28965 28966 28967 28968 28969 28970 28971 28972 28973 28974 28975 28976 28977 28978 28979 28980 28981 28982 28983 28984 28985 28986 28987 28988 28989 28990 28991 28992 28993 28994 28995 28996 28997 28998 28999 29000 29001 29002 29003 29004 29005 29006 29007 29008 29009 29010 29011 29012 29013 29014 29015 29016 29017 29018 29019 29020 29021 29022 29023 29024 29025 29026 29027 29028 29029 29030 29031 29032 29033 29034 29035 29036 29037 29038 29039 29040 29041 29042 29043 29044 29045 29046 29047 29048 29049 29050 29051 29052 29053 29054 29055 29056 29057 29058 29059 29060 29061 29062 29063 29064 29065 29066 29067 29068 29069 29070 29071 29072 29073 29074 29075 29076 29077 29078 29079 29080 29081 29082 29083 29084 29085 29086 29087 29088 29089 29090 29091 29092 29093 29094 29095 29096 29097 29098 29099 29100 29101 29102 29103 29104 29105 29106 29107 29108 29109 29110 29111 29112 29113 29114 29115 29116 29117 29118 29119 29120 29121 29122 29123 29124 29125 29126 29127 29128 29129 29130 29131 29132 29133 29134 29135 29136 29137 29138 29139 29140 29141 29142 29143 29144 29145 29146 29147 29148 29149 29150 29151 29152 29153 29154 29155 29156 29157 29158 29159 29160 29161 29162 29163 29164 29165 29166 29167 29168 29169 29170 29171 29172 29173 29174 29175 29176 29177 29178 29179 29180 29181 29182 29183 29184 29185 29186 29187 29188 29189 29190 29191 29192 29193 29194 29195 29196 29197 29198 29199 29200 29201 29202 29203 29204 29205 29206 29207 29208 29209 29210 29211 29212 29213 29214 29215 29216 29217 29218 29219 29220 29221 29222 29223 29224 29225 29226 29227 29228 29229 29230 29231 29232 29233 29234 29235 29236 29237 29238 29239 29240 29241 29242 29243 29244 29245 29246 29247 29248 29249 29250 29251 29252 29253 29254 29255 29256 29257 29258 29259 29260 29261 29262 29263 29264 29265 29266 29267 29268 29269 29270 29271 29272 29273 29274 29275 29276 29277 29278 29279 29280 29281 29282 29283 29284 29285 29286 29287 29288 29289 29290 29291 29292 29293 29294 29295 29296 29297 29298 29299 29300 29301 29302 29303 29304 29305 29306 29307 29308 29309 29310 29311 29312 29313 29314 29315 29316 29317 29318 29319 29320 29321 29322 29323 29324 29325 29326 29327 29328 29329 29330 29331 29332 29333 29334 29335 29336 29337 29338 29339 29340 29341 29342 29343 29344 29345 29346 29347 29348 29349 29350 29351 29352 29353 29354 29355 29356 29357 29358 29359 29360 29361 29362 29363 29364 29365 29366 29367 29368 29369 29370 29371 29372 29373 29374 29375 29376 29377 29378 29379 29380 29381 29382 29383 29384 29385 29386 29387 29388 29389 29390 29391 29392 29393 29394 29395 29396 29397 29398 29399 29400 29401 29402 29403 29404 29405 29406 29407 29408 29409 29410 29411 29412 29413 29414 29415 29416 29417 29418 29419 29420 29421 29422 29423 29424 29425 29426 29427 29428 29429 29430 29431 29432 29433 29434 29435 29436 29437 29438 29439 29440 29441 29442 29443 29444 29445 29446 29447 29448 29449 29450 29451 29452 29453 29454 29455 29456 29457 29458 29459 29460 29461 29462 29463 29464 29465 29466 29467 29468 29469 29470 29471 29472 29473 29474 29475 29476 29477 29478 29479 29480 29481 29482 29483 29484 29485 29486 29487 29488 29489 29490 29491 29492 29493 29494 29495 29496 29497 29498 29499 29500 29501 29502 29503 29504 29505 29506 29507 29508 29509 29510 29511 29512 29513 29514 29515 29516 29517 29518 29519 29520 29521 29522 29523 29524 29525 29526 29527 29528 29529 29530 29531 29532 29533 29534 29535 29536 29537 29538 29539 29540 29541 29542 29543 29544 29545 29546 29547 29548 29549 29550 29551 29552 29553 29554 29555 29556 29557 29558 29559 29560 29561 29562 29563 29564 29565 29566 29567 29568 29569 29570 29571 29572 29573 29574 29575 29576 29577 29578 29579 29580 29581 29582 29583 29584 29585 29586 29587 29588 29589 29590 29591 29592 29593 29594 29595 29596 29597 29598 29599 29600 29601 29602 29603 29604 29605 29606 29607 29608 29609 29610 29611 29612 29613 29614 29615 29616 29617 29618 29619 29620 29621 29622 29623 29624 29625 29626 29627 29628 29629 29630 29631 29632 29633 29634 29635 29636 29637 29638 29639 29640 29641 29642 29643 29644 29645 29646 29647 29648 29649 29650 29651 29652 29653 29654 29655 29656 29657 29658 29659 29660 29661 29662 29663 29664 29665 29666 29667 29668 29669 29670 29671 29672 29673 29674 29675 29676 29677 29678 29679 29680 29681 29682 29683 29684 29685 29686 29687 29688 29689 29690 29691 29692 29693 29694 29695 29696 29697 29698 29699 29700 29701 29702 29703 29704 29705 29706 29707 29708 29709 29710 29711 29712 29713 29714 29715 29716 29717 29718 29719 29720 29721 29722 29723 29724 29725 29726 29727 29728 29729 29730 29731 29732 29733 29734 29735 29736 29737 29738 29739 29740 29741 29742 29743 29744 29745 29746 29747 29748 29749 29750 29751 29752 29753 29754 29755 29756 29757 29758 29759 29760 29761 29762 29763 29764 29765 29766 29767 29768 29769 29770 29771 29772 29773 29774 29775 29776 29777 29778 29779 29780 29781 29782 29783 29784 29785 29786 29787 29788 29789 29790 29791 29792 29793 29794 29795 29796 29797 29798 29799 29800 29801 29802 29803 29804 29805 29806 29807 29808 29809 29810 29811 29812 29813 29814 29815 29816 29817 29818 29819 29820 29821 29822 29823 29824 29825 29826 29827 29828 29829 29830 29831 29832 29833 29834 29835 29836 29837 29838 29839 29840 29841 29842 29843 29844 29845 29846 29847 29848 29849 29850 29851 29852 29853 29854 29855 29856 29857 29858 29859 29860 29861 29862 29863 29864 29865 29866 29867 29868 29869 29870 29871 29872 29873 29874 29875 29876 29877 29878 29879 29880 29881 29882 29883 29884 29885 29886 29887 29888 29889 29890 29891 29892 29893 29894 29895 29896 29897 29898 29899 29900 29901 29902 29903 29904 29905 29906 29907 29908 29909 29910 29911 29912 29913 29914 29915 29916 29917 29918 29919 29920 29921 29922 29923 29924 29925 29926 29927 29928 29929 29930 29931 29932 29933 29934 29935 29936 29937 29938 29939 29940 29941 29942 29943 29944 29945 29946 29947 29948 29949 29950 29951 29952 29953 29954 29955 29956 29957 29958 29959 29960 29961 29962 29963 29964 29965 29966 29967 29968 29969 29970 29971 29972 29973 29974 29975 29976 29977 29978 29979 29980 29981 29982 29983 29984 29985 29986 29987 29988 29989 29990 29991 29992 29993 29994 29995 29996 29997 29998 29999 30000 30001 30002 30003 30004 30005 30006 30007 30008 30009 30010 30011 30012 30013 30014 30015 30016 30017 30018 30019 30020 30021 30022 30023 30024 30025 30026 30027 30028 30029 30030 30031 30032 30033 30034 30035 30036 30037 30038 30039 30040 30041 30042 30043 30044 30045 30046 30047 30048 30049 30050 30051 30052 30053 30054 30055 30056 30057 30058 30059 30060 30061 30062 30063 30064 30065 30066 30067 30068 30069 30070 30071 30072 30073 30074 30075 30076 30077 30078 30079 30080 30081 30082 30083 30084 30085 30086 30087 30088 30089 30090 30091 30092 30093 30094 30095 30096 30097 30098 30099 30100 30101 30102 30103 30104 30105 30106 30107 30108 30109 30110 30111 30112 30113 30114 30115 30116 30117 30118 30119 30120 30121 30122 30123 30124 30125 30126 30127 30128 30129 30130 30131 30132 30133 30134 30135 30136 30137 30138 30139 30140 30141 30142 30143 30144 30145 30146 30147 30148 30149 30150 30151 30152 30153 30154 30155 30156 30157 30158 30159 30160 30161 30162 30163 30164 30165 30166 30167 30168 30169 30170 30171 30172 30173 30174 30175 30176 30177 30178 30179 30180 30181 30182 30183 30184 30185 30186 30187 30188 30189 30190 30191 30192 30193 30194 30195 30196 30197 30198 30199 30200 30201 30202 30203 30204 30205 30206 30207 30208 30209 30210 30211 30212 30213 30214 30215 30216 30217 30218 30219 30220 30221 30222 30223 30224 30225 30226 30227 30228 30229 30230 30231 30232 30233 30234 30235 30236 30237 30238 30239 30240 30241 30242 30243 30244 30245 30246 30247 30248 30249 30250 30251 30252 30253 30254 30255 30256 30257 30258 30259 30260 30261 30262 30263 30264 30265 30266 30267 30268 30269 30270 30271 30272 30273 30274 30275 30276 30277 30278 30279 30280 30281 30282 30283 30284 30285 30286 30287 30288 30289 30290 30291 30292 30293 30294 30295 30296 30297 30298 30299 30300 30301 30302 30303 30304 30305 30306 30307 30308 30309 30310 30311 30312 30313 30314 30315 30316 30317 30318 30319 30320 30321 30322 30323 30324 30325 30326 30327 30328 30329 30330 30331 30332 30333 30334 30335 30336 30337 30338 30339 30340 30341 30342 30343 30344 30345 30346 30347 30348 30349 30350 30351 30352 30353 30354 30355 30356 30357 30358 30359 30360 30361 30362 30363 30364 30365 30366 30367 30368 30369 30370 30371 30372 30373 30374 30375 30376 30377 30378 30379 30380 30381 30382 30383 30384 30385 30386 30387 30388 30389 30390 30391 30392 30393 30394 30395 30396 30397 30398 30399 30400 30401 30402 30403 30404 30405 30406 30407 30408 30409 30410 30411 30412 30413 30414 30415 30416 30417 30418 30419 30420 30421 30422 30423 30424 30425 30426 30427 30428 30429 30430 30431 30432 30433 30434 30435 30436 30437 30438 30439 30440 30441 30442 30443 30444 30445 30446 30447 30448 30449 30450 30451 30452 30453 30454 30455 30456 30457 30458 30459 30460 30461 30462 30463 30464 30465 30466 30467 30468 30469 30470 30471 30472 30473 30474 30475 30476 30477 30478 30479 30480 30481 30482 30483 30484 30485 30486 30487 30488 30489 30490 30491 30492 30493 30494 30495 30496 30497 30498 30499 30500 30501 30502 30503 30504 30505 30506 30507 30508 30509 30510 30511 30512 30513 30514 30515 30516 30517 30518 30519 30520 30521 30522 30523 30524 30525 30526 30527 30528 30529 30530 30531 30532 30533 30534 30535 30536 30537 30538 30539 30540 30541 30542 30543 30544 30545 30546 30547 30548 30549 30550 30551 30552 30553 30554 30555 30556 30557 30558 30559 30560 30561 30562 30563 30564 30565 30566 30567 30568 30569 30570 30571 30572 30573 30574 30575 30576 30577 30578 30579 30580 30581 30582 30583 30584 30585 30586 30587 30588 30589 30590 30591 30592 30593 30594 30595 30596 30597 30598 30599 30600 30601 30602 30603 30604 30605 30606 30607 30608 30609 30610 30611 30612 30613 30614 30615 30616 30617 30618 30619 30620 30621 30622 30623 30624 30625 30626 30627 30628 30629 30630 30631 30632 30633 30634 30635 30636 30637 30638 30639 30640 30641 30642 30643 30644 30645 30646 30647 30648 30649 30650 30651 30652 30653 30654 30655 30656 30657 30658 30659 30660 30661 30662 30663 30664 30665 30666 30667 30668 30669 30670 30671 30672 30673 30674 30675 30676 30677 30678 30679 30680 30681 30682 30683 30684 30685 30686 30687 30688 30689 30690 30691 30692 30693 30694 30695 30696 30697 30698 30699 30700 30701 30702 30703 30704 30705 30706 30707 30708 30709 30710 30711 30712 30713 30714 30715 30716 30717 30718 30719 30720 30721 30722 30723 30724 30725 30726 30727 30728 30729 30730 30731 30732 30733 30734 30735 30736 30737 30738 30739 30740 30741 30742 30743 30744 30745 30746 30747 30748 30749 30750 30751 30752 30753 30754 30755 30756 30757 30758 30759 30760 30761 30762 30763 30764 30765 30766 30767 30768 30769 30770 30771 30772 30773 30774 30775 30776 30777 30778 30779 30780 30781 30782 30783 30784 30785 30786 30787 30788 30789 30790 30791 30792 30793 30794 30795 30796 30797 30798 30799 30800 30801 30802 30803 30804 30805 30806 30807 30808 30809 30810 30811 30812 30813 30814 30815 30816 30817 30818 30819 30820 30821 30822 30823 30824 30825 30826 30827 30828 30829 30830 30831 30832 30833 30834 30835 30836 30837 30838 30839 30840 30841 30842 30843 30844 30845 30846 30847 30848 30849 30850 30851 30852 30853 30854 30855 30856 30857 30858 30859 30860 30861 30862 30863 30864 30865 30866 30867 30868 30869 30870 30871 30872 30873 30874 30875 30876 30877 30878 30879 30880 30881 30882 30883 30884 30885 30886 30887 30888 30889 30890 30891 30892 30893 30894 30895 30896 30897 30898 30899 30900 30901 30902 30903 30904 30905 30906 30907 30908 30909 30910 30911 30912 30913 30914 30915 30916 30917 30918 30919 30920 30921 30922 30923 30924 30925 30926 30927 30928 30929 30930 30931 30932 30933 30934 30935 30936 30937 30938 30939 30940 30941 30942 30943 30944 30945 30946 30947 30948 30949 30950 30951 30952 30953 30954 30955 30956 30957 30958 30959 30960 30961 30962 30963 30964 30965 30966 30967 30968 30969 30970 30971 30972 30973 30974 30975 30976 30977 30978 30979 30980 30981 30982 30983 30984 30985 30986 30987 30988 30989 30990 30991 30992 30993 30994 30995 30996 30997 30998 30999 31000 31001 31002 31003 31004 31005 31006 31007 31008 31009 31010 31011 31012 31013 31014 31015 31016 31017 31018 31019 31020 31021 31022 31023 31024 31025 31026 31027 31028 31029 31030 31031 31032 31033 31034 31035 31036 31037 31038 31039 31040 31041 31042 31043 31044 31045 31046 31047 31048 31049 31050 31051 31052 31053 31054 31055 31056 31057 31058 31059 31060 31061 31062 31063 31064 31065 31066 31067 31068 31069 31070 31071 31072 31073 31074 31075 31076 31077 31078 31079 31080 31081 31082 31083 31084 31085 31086 31087 31088 31089 31090 31091 31092 31093 31094 31095 31096 31097 31098 31099 31100 31101 31102 31103 31104 31105 31106 31107 31108 31109 31110 31111 31112 31113 31114 31115 31116 31117 31118 31119 31120 31121 31122 31123 31124 31125 31126 31127 31128 31129 31130 31131 31132 31133 31134 31135 31136 31137 31138 31139 31140 31141 31142 31143 31144 31145 31146 31147 31148 31149 31150 31151 31152 31153 31154 31155 31156 31157 31158 31159 31160 31161 31162 31163 31164 31165 31166 31167 31168 31169 31170 31171 31172 31173 31174 31175 31176 31177 31178 31179 31180 31181 31182 31183 31184 31185 31186 31187 31188 31189 31190 31191 31192 31193 31194 31195 31196 31197 31198 31199 31200 31201 31202 31203 31204 31205 31206 31207 31208 31209 31210 31211 31212 31213 31214 31215 31216 31217 31218 31219 31220 31221 31222 31223 31224 31225 31226 31227 31228 31229 31230 31231 31232 31233 31234 31235 31236 31237 31238 31239 31240 31241 31242 31243 31244 31245 31246 31247 31248 31249 31250 31251 31252 31253 31254 31255 31256 31257 31258 31259 31260 31261 31262 31263 31264 31265 31266 31267 31268 31269 31270 31271 31272 31273 31274 31275 31276 31277 31278 31279 31280 31281 31282 31283 31284 31285 31286 31287 31288 31289 31290 31291 31292 31293 31294 31295 31296 31297 31298 31299 31300 31301 31302 31303 31304 31305 31306 31307 31308 31309 31310 31311 31312 31313 31314 31315 31316 31317 31318 31319 31320 31321 31322 31323 31324 31325 31326 31327 31328 31329 31330 31331 31332 31333 31334 31335 31336 31337 31338 31339 31340 31341 31342 31343 31344 31345 31346 31347 31348 31349 31350 31351 31352 31353 31354 31355 31356 31357 31358 31359 31360 31361 31362 31363 31364 31365 31366 31367 31368 31369 31370 31371 31372 31373 31374 31375 31376 31377 31378 31379 31380 31381 31382 31383 31384 31385 31386 31387 31388 31389 31390 31391 31392 31393 31394 31395 31396 31397 31398 31399 31400 31401 31402 31403 31404 31405 31406 31407 31408 31409 31410 31411 31412 31413 31414 31415 31416 31417 31418 31419 31420 31421 31422 31423 31424 31425 31426 31427 31428 31429 31430 31431 31432 31433 31434 31435 31436 31437 31438 31439 31440 31441 31442 31443 31444 31445 31446 31447 31448 31449 31450 31451 31452 31453 31454 31455 31456 31457 31458 31459 31460 31461 31462 31463 31464 31465 31466 31467 31468 31469 31470 31471 31472 31473 31474 31475 31476 31477 31478 31479 31480 31481 31482 31483 31484 31485 31486 31487 31488 31489 31490 31491 31492 31493 31494 31495 31496 31497 31498 31499 31500 31501 31502 31503 31504 31505 31506 31507 31508 31509 31510 31511 31512 31513 31514 31515 31516 31517 31518 31519 31520 31521 31522 31523 31524 31525 31526 31527 31528 31529 31530 31531 31532 31533 31534 31535 31536 31537 31538 31539 31540 31541 31542 31543 31544 31545 31546 31547 31548 31549 31550 31551 31552 31553 31554 31555 31556 31557 31558 31559 31560 31561 31562 31563 31564 31565 31566 31567 31568 31569 31570 31571 31572 31573 31574 31575 31576 31577 31578 31579 31580 31581 31582 31583 31584 31585 31586 31587 31588 31589 31590 31591 31592 31593 31594 31595 31596 31597 31598 31599 31600 31601 31602 31603 31604 31605 31606 31607 31608 31609 31610 31611 31612 31613 31614 31615 31616 31617 31618 31619 31620 31621 31622 31623 31624 31625 31626 31627 31628 31629 31630 31631 31632 31633 31634 31635 31636 31637 31638 31639 31640 31641 31642 31643 31644 31645 31646 31647 31648 31649 31650 31651 31652 31653 31654 31655 31656 31657 31658 31659 31660 31661 31662 31663 31664 31665 31666 31667 31668 31669 31670 31671 31672 31673 31674 31675 31676 31677 31678 31679 31680 31681 31682 31683 31684 31685 31686 31687 31688 31689 31690 31691 31692 31693 31694 31695 31696 31697 31698 31699 31700 31701 31702 31703 31704 31705 31706 31707 31708 31709 31710 31711 31712 31713 31714 31715 31716 31717 31718 31719 31720 31721 31722 31723 31724 31725 31726 31727 31728 31729 31730 31731 31732 31733 31734 31735 31736 31737 31738 31739 31740 31741 31742 31743 31744 31745 31746 31747 31748 31749 31750 31751 31752 31753 31754 31755 31756 31757 31758 31759 31760 31761 31762 31763 31764 31765 31766 31767 31768 31769 31770 31771 31772 31773 31774 31775 31776 31777 31778 31779 31780 31781 31782 31783 31784 31785 31786 31787 31788 31789 31790 31791 31792 31793 31794 31795 31796 31797 31798 31799 31800 31801 31802 31803 31804 31805 31806 31807 31808 31809 31810 31811 31812 31813 31814 31815 31816 31817 31818 31819 31820 31821 31822 31823 31824 31825 31826 31827 31828 31829 31830 31831 31832 31833 31834 31835 31836 31837 31838 31839 31840 31841 31842 31843 31844 31845 31846 31847 31848 31849 31850 31851 31852 31853 31854 31855 31856 31857 31858 31859 31860 31861 31862 31863 31864 31865 31866 31867 31868 31869 31870 31871 31872 31873 31874 31875 31876 31877 31878 31879 31880 31881 31882 31883 31884 31885 31886 31887 31888 31889 31890 31891 31892 31893 31894 31895 31896 31897 
</DataArray>
<DataArray type="UInt32" Name="offsets" format="ascii">
3 6 9 12 15 17 20 23 26 29 32 35 38 40 43 46 49 52 54 57 60 62 65 68 71 74 76 79 82 85 88 90 93 96 99 102 105 108 111 114 117 120 123 126 129 131 134 137 139 142 145 148 151 154 156 159 162 165 168 171 174 177 179 182 185 188 191 193 196 199 202 205 208 211 214 217 220 222 225 228 230 233 236 238 241 244 247 250 252 255 258 261 264 267 270 273 275 277 279 282 285 287 290 293 296 299 302 304 307 310 313 316 319 322 325 328 331 334 337 340 343 345 348 351 354 356 359 362 365 368 371 374 376 379 382 385 388 391 394 397 400 403 406 409 412 415 418 421 424 427 430 433 436 439 442 445 448 451 453 456 459 462 464 467 470 472 475 478 481 484 487 490 493 496 499 502 505 507 510 513 516 519 522 525 528 531 533 536 539 542 545 548 551 554 557 559 562 565 568 571 574 577 580 583 586 588 591 594 597 600 603 606 609 612 615 618 621 624 627 630 633 636 639 642 645 648 651 654 657 659 662 665 668 670 673 675 678 680 683 686 688 691 694 697 699 702 704 707 709 712 714 716 719 721 724 727 729 732 734 737 740 743 745 748 750 752 755 758 760 763 766 769 771 774 776 778 780 783 785 788 791 794 796 799 801 803 805 808 811 813 815 818 821 824 827 829 832 834 837 840 842 845 848 851 853 856 858 860 862 865 868 871 873 876 878 880 882 884 887 890 893 895 897 900 903 905 907 909 912 914 917 920 923 926 928 931 934 937 940 943 946 949 951 954 957 960 963 966 969 971 973 976 979 982 984 987 990 993 995 998 1000 1003 1005 1007 1010 1013 1016 1019 1021 1024 1027 1029 1032 1035 1038 1041 1043 1046 1048 1051 1054 1057 1060 1063 1065 1067 1070 1073 1076 1079 1082 1085 1088 1091 1093 1096 1099 1102 1104 1107 1110 1112 1115 1117 1120 1123 1126 1129 1132 1135 1138 1141 1144 1147 1150 1152 1155 1157 1160 1162 1165 1168 1171 1173 1176 1178 1181 1183 1186 1189 1192 1195 1198 1201 1203 1206 1208 1211 1214 1217 1219 1222 1225 1228 1230 1233 1235 1237 1240 1243 1246 1249 1251 1254 1257 1260 1263 1265 1267 1270 1273 1275 1278 1280 1283 1285 1287 1290 1293 1296 1298 1301 1304 1307 1310 1312 1315 1318 1321 1324 1327 1330 1333 1336 1339 1342 1345 1347 1350 1353 1356 1359 1361 1364 1367 1370 1372 1375 1377 1379 1381 1384 1387 1390 1392 1394 1397 1399 1402 1405 1407 1410 1413 1416 1419 1421 1424 1427 1430 1433 1436 1439 1442 1445 1448 1451 1454 1456 1458 1461 1464 1466 1469 1472 1475 1477 1480 1483 1486 1489 1492 1495 1497 1500 1503 1506 1508 1511 1514 1517 1519 1522 1525 1528 1531 1534 1537 1540 1543 1546 1549 1552 1554 1557 1560 1563 1565 1568 1571 1574 1577 1580 1583 1586 1588 1591 1594 1597 1600 1603 1605 1608 1611 1614 1617 1620 1623 1626 1629 1632 1635 1638 1641 1644 1647 1650 1653 1656 1659 1662 1664 1667 1670 1673 1676 1678 1681 1684 1686 1689 1692 1695 1698 1701 1704 1707 1709 1712 1715 1718 1721 1724 1727 1730 1733 1735 1738 1740 1743 1746 1748 1751 1754 1757 1759 1762 1765 1767 1770 1773 1776 1778 1781 1783 1786 1789 1791 1794 1796 1799 1802 1805 1808 1811 1814 1817 1820 1823 1826 1829 1832 1835 1838 1841 1844 1847 1850 1853 1856 1859 1862 1864 1867 1869 1872 1874 1877 1880 1883 1886 1889 1892 1895 1898 1901 1904 1907 1910 1913 1916 1919 1921 1924 1927 1930 1933 1936 1939 1942 1945 1948 1950 1953 1956 1959 1962 1965 1968 1971 1974 1977 1980 1983 1986 1989 1992 1995 1998 2001 2004 2007 2010 2013 2016 2019 2022 2025 2028 2031 2034 2037 2039 2042 2045 2047 2050 2053 2056 2058 2060 2063 2065 2068 2071 2074 2077 2080 2082 2085 2088 2091 2094 2097 2099 2102 2105 2108 2111 2114 2117 2120 2123 2126 2129 2132 2135 2138 2141 2144 2147 2150 2153 2156 2159 2162 2165 2168 2171 2174 2177 2180 2183 2186 2189 2192 2195 2198 2201 2204 2207 2210 2213 2216 2219 2222 2225 2228 2231 2234 2237 2240 2243 2246 2248 2251 2254 2257 2260 2263 2266 2269 2272 2275 2278 2281 2284 2287 2290 2293 2295 2298 2301 2304 2307 2309 2312 2315 2318 2321 2324 2327 2330 2333 2336 2339 2342 2345 2348 2351 2354 2357 2360 2363 2366 2369 2372 2375 2378 2381 2384 2387 2390 2392 2395 2398 2400 2403 2405 2407 2409 2411 2414 2417 2419 2422 2425 2428 2431 2434 2437 2440 2443 2446 2449 2452 2455 2458 2461 2464 2467 2470 2472 2475 2478 2480 2483 2485 2488 2491 2494 2497 2499 2502 2504 2507 2510 2513 2516 2518 2521 2524 2527 2529 2532 2535 2538 2541 2544 2546 2549 2551 2554 2557 2559 2561 2564 2566 2569 2572 2575 2578 2581 2584 2587 2590 2593 2596 2599 2601 2604 2607 2610 2612 2615 2618 2621 2623 2626 2629 2631 2633 2635 2638 2641 2644 2647 2650 2653 2656 2659 2662 2665 2668 2670 2673 2676 2679 2682 2685 2688 2691 2694 2696 2698 2700 2703 2706 2709 2712 2715 2718 2721 2724 2726 2728 2731 2734 2737 2739 2742 2745 2747 2750 2753 2756 2759 2762 2765 2768 2771 2774 2777 2780 2782 2785 2788 2791 2794 2797 2800 2803 2806 2808 2811 2814 2817 2820 2823 2826 2829 2832 2835 2838 2840 2843 2845 2847 2849 2852 2855 2858 2861 2864 2867 2870 2872 2874 2877 2879 2882 2885 2888 2891 2894 2896 2899 2901 2903 2906 2909 2912 2914 2917 2919 2922 2925 2928 2931 2933 2936 2939 2942 2945 2948 2951 2954 2957 2960 2963 2966 2969 2972 2975 2978 2981 2984 2986 2989 2992 2995 2997 3000 3003 3006 3009 3012 3014 3017 3020 3023 3026 3029 3032 3034 3037 3039 3042 3045 3048 3051 3054 3057 3060 3063 3065 3068 3071 3074 3076 3079 3082 3085 3088 3091 3094 3097 3100 3103 3106 3109 3112 3115 3118 3121 3124 3127 3130 3133 3136 3139 3142 3145 3148 3151 3153 3155 3157 3160 3163 3166 3169 3171 3174 3177 3180 3183 3185 3188 3191 3194 3197 3200 3203 3206 3208 3211 3214 3217 3220 3223 3226 3229 3232 3234 3237 3240 3243 3246 3249 3252 3255 3258 3261 3264 3267 3270 3272 3275 3278 3281 3284 3287 3290 3292 3295 3298 3301 3304 3307 3310 3313 3316 3318 3321 3324 3327 3329 3332 3335 3338 3341 3344 3347 3350 3353 3356 3359 3362 3365 3367 3370 3373 3376 3379 3382 3385 3388 3391 3394 3397 3400 3403 3406 3409 3412 3415 3418 3421 3424 3427 3430 3433 3436 3439 3442 3445 3448 3451 3454 3457 3460 3463 3466 3469 3472 3475 3478 3481 3484 3487 3490 3493 3496 3499 3502 3505 3508 3510 3513 3516 3519 3522 3525 3528 3531 3534 3537 3540 3543 3546 3549 3552 3555 3558 3561 3564 3567 3570 3573 3576 3579 3582 3584 3587 3590 3593 3596 3599 3602 3605 3608 3611 3614 3616 3619 3622 3624 3627 3630 3633 3636 3639 3642 3645 3648 3651 3653 3656 3658 3661 3664 3667 3670 3672 3675 3678 3680 3683 3685 3688 3691 3694 3697 3700 3702 3705 3708 3711 3714 3717 3720 3723 3726 3728 3731 3734 3737 3740 3743 3746 3749 3752 3755 3758 3761 3764 3767 3770 3772 3775 3777 3779 3782 3785 3788 3791 3794 3796 3799 3802 3805 3808 3811 3814 3817 3820 3823 3826 3829 3832 3835 3838 3841 3843 3846 3849 3852 3855 3858 3861 3864 3867 3870 3873 3876 3879 3882 3885 3888 3891 3893 3896 3899 3902 3905 3908 3910 3912 3915 3918 3920 3923 3926 3929 3932 3935 3938 3941 3944 3947 3950 3952 3955 3958 3961 3964 3967 3970 3973 3976 3979 3981 3984 3986 3989 3992 3995 3998 4001 4003 4006 4009 4012 4015 4017 4020 4023 4026 4028 4031 4034 4037 4039 4042 4045 4047 4050 4053 4056 4059 4062 4065 4068 4071 4074 4077 4080 4083 4086 4089 4092 4095 4097 4100 4103 4106 4109 4112 4115 4118 4120 4123 4126 4129 4132 4135 4138 4141 4144 4147 4150 4153 4156 4159 4162 4165 4168 4171 4174 4177 4180 4183 4186 4189 4192 4195 4198 4201 4203 4206 4209 4212 4215 4217 4220 4223 4226 4228 4231 4234 4237 4240 4243 4246 4249 4252 4255 4257 4260 4262 4265 4268 4271 4274 4277 4280 4283 4286 4289 4292 4295 4298 4301 4304 4307 4310 4313 4316 4318 4320 4323 4326 4329 4331 4334 4337 4339 4342 4345 4347 4350 4353 4356 4358 4361 4364 4366 4369 4372 4375 4378 4381 4384 4387 4390 4393 4396 4399 4402 4405 4408 4411 4414 4417 4420 4423 4426 4428 4431 4433 4436 4439 4442 4445 4448 4451 4454 4457 4460 4463 4466 4468 4471 4473 4476 4479 4482 4484 4487 4490 4493 4496 4499 4501 4504 4507 4510 4513 4516 4519 4521 4524 4527 4530 4533 4536 4539 4542 4545 4548 4551 4554 4556 4559 4562 4565 4568 4571 4574 4577 4580 4582 4585 4588 4591 4593 4596 4599 4601 4604 4607 4610 4613 4616 4618 4621 4624 4627 4630 4633 4636 4639 4642 4645 4647 4650 4653 4655 4658 4660 4663 4665 4667 4669 4672 4674 4677 4680 4683 4686 4689 4692 4694 4697 4700 4703 4706 4709 4712 4714 4717 4720 4723 4726 4729 4732 4735 4737 4740 4743 4746 4749 4751 4754 4757 4760 4763 4766 4768 4771 4773 4776 4779 4782 4785 4788 4791 4794 4797 4800 4803 4805 4808 4811 4814 4817 4820 4823 4826 4828 4831 4834 4837 4840 4843 4846 4849 4851 4854 4856 4859 4862 4865 4868 4871 4874 4877 4880 4882 4885 4888 4891 4893 4895 4898 4901 4904 4907 4910 4912 4914 4917 4919 4922 4925 4927 4930 4933 4935 4938 4941 4944 4947 4950 4953 4956 4959 4961 4964 4967 4970 4973 4976 4978 4981 4984 4987 4990 4992 4995 4998 5000 5003 5006 5009 5012 5015 5018 5021 5024 5027 5030 5033 5036 5039 5042 5045 5048 5051 5054 5057 5060 5063 5066 5069 5072 5075 5078 5081 5084 5087 5090 5093 5096 5099 5102 5105 5108 5111 5114 5117 5120 5123 5125 5128 5131 5133 5136 5139 5142 5145 5148 5150 5153 5156 5159 5162 5164 5167 5170 5173 5176 5179 5182 5185 5188 5191 5194 5197 5200 5203 5206 5209 5212 5215 5218 5221 5224 5227 5230 5233 5236 5238 5241 5244 5247 5249 5252 5255 5258 5261 5264 5267 5269 5272 5275 5278 5281 5284 5287 5290 5293 5296 5299 5302 5304 5307 5309 5311 5314 5317 5319 5322 5325 5328 5331 5334 5337 5340 5343 5346 5349 5352 5354 5357 5360 5362 5365 5368 5371 5374 5377 5380 5383 5386 5389 5392 5395 5398 5401 5404 5407 5409 5412 5415 5418 5421 5424 5427 5430 5432 5435 5437 5440 5443 5446 5449 5451 5454 5456 5459 5462 5465 5468 5471 5474 5477 5480 5483 5485 5488 5491 5494 5497 5500 5503 5506 5509 5512 5515 5518 5521 5524 5527 5530 5533 5536 5538 5541 5544 5547 5550 5553 5556 5559 5562 5565 5568 5571 5574 5577 5580 5583 5586 5589 5592 5595 5598 5601 5604 5607 5610 5613 5615 5617 5620 5623 5626 5629 5632 5635 5638 5641 5644 5647 5650 5652 5655 5658 5661 5664 5666 5669 5672 5675 5678 5680 5683 5686 5689 5692 5695 5698 5701 5704 5706 5709 5712 5715 5718 5721 5724 5727 5730 5733 5735 5738 5741 5744 5747 5750 5753 5756 5759 5762 5765 5768 5771 5774 5777 5780 5783 5786 5789 5792 5795 5797 5800 5803 5806 5809 5812 5815 5818 5821 5824 5827 5830 5833 5836 5839 5841 5844 5846 5849 5852 5855 5858 5861 5864 5867 5870 5872 5875 5878 5880 5883 5886 5889 5892 5895 5898 5901 5904 5907 5910 5913 5916 5919 5922 5925 5928 5931 5934 5937 5940 5943 5946 5949 5952 5955 5958 5961 5964 5967 5970 5973 5976 5979 5982 5985 5988 5990 5993 5996 5998 6001 6004 6007 6010 6012 6015 6017 6020 6023 6025 6028 6030 6033 6036 6039 6042 6045 6047 6050 6053 6056 6059 6062 6065 6068 6071 6074 6077 6080 6083 6085 6088 6091 6094 6096 6099 6102 6105 6108 6111 6114 6117 6120 6123 6125 6128 6131 6134 6137 6139 6141 6144 6147 6150 6153 6156 6159 6162 6165 6167 6170 6173 6176 6179 6182 6184 6187 6190 6193 6195 6198 6201 6204 6206 6209 6212 6215 6218 6220 6223 6226 6229 6232 6235 6238 6241 6244 6247 6250 6253 6256 6259 6262 6264 6267 6270 6273 6276 6279 6282 6284 6287 6289 6291 6294 6296 6299 6301 6304 6307 6310 6313 6315 6318 6321 6324 6327 6329 6332 6335 6338 6341 6344 6347 6350 6353 6356 6358 6361 6364 6367 6370 6373 6376 6379 6382 6385 6388 6391 6394 6397 6400 6402 6405 6408 6411 6413 6416 6419 6422 6424 6427 6429 6432 6435 6438 6441 6444 6447 6450 6453 6456 6459 6462 6465 6468 6471 6474 6477 6479 6482 6485 6488 6491 6494 6497 6499 6502 6505 6508 6511 6514 6517 6520 6523 6526 6529 6532 6535 6538 6541 6544 6547 6550 6553 6555 6558 6561 6564 6567 6570 6573 6576 6579 6582 6585 6588 6591 6594 6597 6600 6603 6606 6609 6612 6615 6618 6621 6624 6627 6630 6633 6636 6639 6642 6645 6648 6651 6654 6657 6659 6662 6665 6668 6671 6673 6676 6679 6682 6685 6688 6691 6694 6696 6699 6702 6705 6708 6711 6714 6717 6720 6723 6725 6728 6731 6733 6736 6739 6742 6745 6748 6750 6753 6756 6759 6761 6764 6767 6769 6772 6775 6778 6781 6784 6787 6790 6793 6796 6799 6802 6805 6808 6811 6814 6817 6820 6823 6826 6829 6831 6834 6837 6840 6843 6846 6849 6852 6855 6858 6861 6863 6865 6868 6870 6873 6876 6879 6882 6885 6887 6890 6893 6896 6899 6901 6904 6907 6910 6913 6916 6918 6921 6923 6926 6929 6931 6934 6937 6940 6943 6946 6949 6952 6955 6957 6960 6963 6966 6969 6972 6975 6977 6980 6983 6986 6989 6992 6995 6997 7000 7003 7006 7009 7011 7014 7017 7019 7022 7024 7027 7030 7032 7035 7038 7041 7044 7047 7050 7052 7055 7058 7061 7064 7066 7069 7072 7075 7078 7081 7084 7087 7090 7092 7094 7097 7100 7103 7106 7109 7112 7115 7118 7120 7123 7126 7129 7132 7135 7138 7140 7143 7146 7149 7152 7155 7158 7161 7163 7166 7169 7172 7174 7177 7180 7183 7186 7189 7192 7195 7198 7201 7204 7207 7210 7212 7215 7218 7221 7224 7226 7229 7232 7234 7237 7240 7243 7246 7248 7251 7254 7257 7259 7261 7264 7267 7270 7272 7275 7278 7281 7283 7286 7289 7292 7295 7298 7301 7304 7307 7310 7312 7315 7318 7321 7323 7326 7329 7332 7335 7338 7341 7344 7347 7350 7353 7356 7359 7361 7364 7366 7369 7372 7374 7377 7380 7382 7385 7388 7391 7394 7397 7400 7403 7405 7408 7411 7414 7417 7420 7422 7425 7427 7430 7433 7436 7438 7440 7443 7445 7447 7450 7452 7455 7458 7461 7464 7467 7470 7472 7475 7477 7480 7483 7486 7489 7492 7495 7498 7501 7504 7507 7510 7513 7516 7518 7521 7524 7526 7529 7531 7534 7537 7539 7542 7545 7548 7550 7552 7555 7558 7560 7563 7566 7569 7572 7575 7578 7581 7584 7587 7590 7593 7596 7599 7602 7605 7608 7611 7614 7617 7620 7623 7626 7629 7631 7633 7636 7638 7641 7643 7646 7649 7651 7653 7656 7659 7661 7664 7667 7669 7672 7675 7677 7680 7682 7685 7688 7691 7694 7696 7699 7702 7705 7708 7710 7713 7715 7717 7720 7722 7725 7728 7730 7732 7735 7738 7741 7743 7746 7749 7752 7755 7757 7759 7762 7765 7768 7771 7774 7776 7779 7782 7785 7788 7791 7794 7797 7800 7803 7806 7809 7811 7814 7816 7819 7821 7824 7827 7829 7832 7834 7837 7840 7843 7846 7849 7852 7855 7858 7860 7863 7866 7868 7871 7874 7877 7880 7882 7885 7888 7891 7894 7897 7900 7903 7906 7909 7912 7915 7918 7920 7923 7926 7929 7932 7935 7938 7941 7944 7947 7950 7953 7955 7958 7961 7964 7967 7970 7973 7975 7978 7980 7983 7986 7988 7991 7994 7997 8000 8003 8006 8009 8012 8015 8018 8021 8024 8027 8030 8033 8036 8039 8041 8043 8046 8049 8052 8054 8057 8060 8062 8065 8068 8071 8074 8077 8080 8083 8086 8089 8092 8095 8098 8101 8104 8107 8110 8113 8116 8119 8122 8125 8128 8131 8134 8137 8139 8141 8144 8147 8150 8153 8156 8159 8162 8165 8168 8171 8174 8176 8179 8182 8185 8188 8191 8194 8197 8200 8203 8206 8209 8212 8215 8218 8221 8224 8227 8230 8233 8236 8239 8242 8245 8248 8251 8254 8257 8260 8263 8266 8269 8272 8275 8277 8280 8283 8286 8289 8292 8294 8297 8300 8302 8305 8308 8310 8312 8315 8318 8321 8324 8327 8330 8333 8336 8339 8342 8345 8348 8351 8353 8356 8359 8361 8364 8367 8370 8373 8376 8379 8381 8384 8387 8389 8392 8395 8398 8401 8404 8407 8410 8413 8416 8419 8422 8425 8428 8430 8433 8436 8439 8442 8445 8448 8451 8453 8456 8459 8462 8465 8468 8471 8474 8477 8480 8483 8486 8489 8491 8494 8497 8499 8502 8505 8508 8511 8514 8517 8520 8523 8526 8529 8532 8535 8538 8541 8544 8547 8550 8553 8556 8559 8561 8564 8567 8569 8572 8574 8577 8580 8583 8585 8588 8591 8593 8596 8598 8601 8604 8607 8609 8612 8615 8618 8621 8623 8626 8629 8632 8635 8638 8641 8644 8646 8649 8652 8655 8657 8660 8663 8666 8669 8672 8675 8678 8681 8684 8687 8690 8693 8695 8698 8701 8704 8707 8710 8713 8716 8719 8721 8724 8727 8730 8733 8736 8739 8742 8745 8748 8751 8754 8756 8759 8762 8765 8768 8771 8774 8777 8780 8783 8786 8789 8792 8795 8798 8801 8804 8807 8810 8813 8815 8817 8820 8823 8826 8828 8831 8834 8837 8840 8843 8846 8849 8852 8855 8858 8861 8864 8866 8869 8872 8875 8878 8881 8884 8887 8890 8893 8895 8898 8901 8904 8907 8910 8913 8916 8919 8922 8925 8928 8931 8934 8937 8940 8943 8945 8948 8950 8953 8956 8959 8962 8965 8967 8970 8973 8976 8979 8981 8984 8987 8990 8992 8995 8998 9001 9003 9006 9009 9012 9015 9018 9021 9024 9027 9030 9032 9035 9038 9041 9043 9046 9049 9051 9054 9057 9060 9063 9066 9069 9071 9074 9077 9080 9083 9086 9089 9092 9095 9097 9100 9103 9106 9108 9111 9114 9117 9120 9123 9126 9129 9132 9135 9138 9141 9144 9147 9150 9153 9156 9159 9162 9165 9168 9171 9174 9177 9180 9183 9186 9189 9191 9194 9197 9200 9203 9206 9209 9212 9214 9217 9220 9223 9226 9229 9232 9235 9238 9241 9244 9247 9250 9253 9256 9259 9262 9265 9268 9271 9274 9277 9280 9283 9286 9289 9291 9294 9296 9299 9302 9305 9308 9311 9314 9316 9319 9322 9325 9327 9330 9333 9335 9338 9341 9344 9347 9350 9353 9356 9359 9362 9365 9368 9371 9373 9376 9379 9382 9385 9388 9390 9393 9396 9399 9402 9405 9408 9411 9414 9417 9420 9423 9426 9429 9431 9434 9437 9440 9442 9445 9448 9451 9454 9457 9460 9463 9466 9469 9472 9475 9478 9480 9482 9485 9488 9491 9494 9496 9499 9502 9505 9508 9511 9514 9517 9520 9523 9525 9527 9530 9533 9536 9539 9542 9544 9547 9550 9553 9556 9559 9561 9564 9567 9570 9573 9576 9578 9581 9583 9586 9589 9592 9595 9597 9600 9602 9605 9607 9609 9612 9615 9618 9621 9624 9627 9630 9632 9634 9637 9640 9643 9646 9649 9652 9654 9656 9658 9661 9663 9665 9668 9671 9674 9676 9679 9682 9685 9688 9691 9693 9695 9697 9700 9702 9705 9708 9711 9713 9716 9718 9720 9723 9726 9729 9732 9735 9738 9741 9743 9745 9748 9751 9753 9755 9757 9760 9763 9766 9769 9772 9775 9778 9781 9784 9787 9790 9793 9796 9799 9802 9805 9808 9811 9814 9817 9820 9823 9826 9829 9832 9835 9838 9841 9844 9847 9850 9853 9856 9859 9862 9865 9868 9871 9874 9877 9879 9882 9885 9888 9891 9894 9897 9900 9903 9906 9909 9911 9914 9917 9920 9923 9926 9929 9931 9934 9937 9939 9942 9945 9948 9951 9954 9957 9960 9963 9966 9969 9972 9975 9978 9980 9983 9985 9988 9991 9994 9997 9999 10002 10005 10008 10010 10013 10016 10018 10021 10024 10027 10029 10032 10035 10037 10040 10043 10046 10049 10052 10054 10057 10060 10063 10066 10069 10072 10075 10077 10080 10083 10086 10089 10092 10095 10098 10100 10103 10106 10108 10111 10114 10117 10120 10122 10125 10127 10130 10133 10136 10139 10142 10144 10147 10150 10153 10156 10158 10161 10164 10167 10170 10173 10176 10178 10180 10183 10186 10189 10192 10195 10197 10200 10203 10205 10208 10211 10214 10217 10220 10223 10226 10229 10232 10235 10237 10240 10243 10246 10249 10252 10255 10258 10261 10264 10267 10270 10273 10276 10279 10282 10285 10288 10291 10293 10296 10299 10302 10305 10308 10311 10313 10316 10319 10322 10325 10328 10331 10334 10336 10338 10341 10344 10347 10350 10352 10355 10358 10361 10364 10367 10370 10373 10375 10378 10381 10383 10386 10388 10390 10392 10395 10398 10401 10404 10407 10410 10412 10415 10418 10421 10424 10427 10429 10432 10435 10438 10441 10443 10446 10449 10452 10454 10457 10460 10463 10465 10468 10471 10474 10477 10480 10483 10486 10489 10492 10495 10498 10501 10504 10507 10510 10513 10516 10519 10522 10525 10528 10531 10534 10537 10540 10542 10545 10548 10551 10554 10557 10560 10563 10565 10568 10570 10573 10576 10579 10582 10585 10588 10590 10593 10596 10598 10601 10604 10607 10609 10612 10615 10617 10620 10623 10626 10629 10632 10634 10637 10640 10643 10645 10647 10650 10653 10656 10659 10662 10665 10668 10671 10674 10677 10680 10683 10685 10688 10691 10694 10697 10700 10703 10706 10709 10712 10714 10717 10720 10723 10726 10729 10731 10733 10736 10739 10742 10745 10748 10751 10754 10757 10760 10762 10765 10768 10771 10774 10777 10780 10783 10786 10788 10791 10794 10797 10800 10803 10806 10809 10812 10815 10818 10821 10824 10827 10830 10833 10836 10839 10842 10844 10847 10850 10853 10856 10858 10861 10863 10866 10868 10871 10874 10877 10880 10883 10886 10889 10892 10895 10898 10901 10904 10907 10910 10913 10916 10919 10921 10924 10927 10930 10933 10936 10938 10941 10944 10947 10949 10951 10954 10957 10960 10963 10966 10968 10971 10974 10977 10980 10982 10985 10988 10991 10994 10997 11000 11003 11006 11008 11011 11014 11017 11020 11023 11026 11029 11031 11034 11037 11040 11043 11046 11049 11052 11055 11058 11060 11063 11066 11069 11072 11075 11078 11081 11084 11087 11090 11093 11096 11099 11102 11105 11108 11111 11114 11116 11119 11122 11125 11128 11131 11134 11137 11140 11143 11146 11149 11152 11155 11157 11160 11163 11166 11169 11172 11175 11177 11180 11183 11185 11188 11191 11193 11196 11199 11202 11205 11208 11211 11214 11217 11220 11223 11226 11229 11232 11235 11238 11241 11244 11247 11250 11253 11256 11259 11262 11265 11268 11271 11273 11276 11278 11281 11283 11285 11288 11291 11294 11296 11299 11302 11305 11308 11311 11314 11317 11320 11323 11325 11327 11330 11332 11335 11338 11341 11344 11347 11350 11353 11356 11359 11362 11365 11368 11371 11374 11376 11379 11381 11383 11386 11388 11391 11394 11397 11400 11403 11406 11409 11412 11415 11417 11419 11422 11425 11428 11431 11434 11437 11440 11443 11446 11449 11452 11455 11458 11461 11464 11467 11470 11473 11476 11479 11482 11485 11487 11490 11493 11496 11499 11502 11504 11507 11510 11513 11516 11519 11521 11524 11527 11530 11532 11535 11538 11541 11544 11547 11550 11553 11556 11559 11561 11564 11567 11570 11573 11575 11578 11581 11584 11587 11590 11593 11595 11598 11601 11604 11607 11610 11613 11616 11618 11621 11624 11627 11630 11632 11635 11638 11641 11644 11647 11650 11653 11656 11659 11662 11664 11667 11670 11673 11676 11678 11681 11684 11687 11689 11692 11695 11698 11701 11704 11706 11709 11712 11715 11718 11721 11724 11727 11730 11733 11736 11739 11742 11745 11748 11750 11752 11755 11758 11760 11763 11766 11769 11772 11775 11778 11781 11783 11786 11789 11792 11795 11798 11801 11803 11806 11809 11812 11815 11818 11821 11824 11827 11830 11833 11836 11839 11842 11845 11848 11851 11854 11857 11860 11863 11866 11869 11872 11874 11877 11880 11883 11886 11889 11892 11895 11898 11900 11903 11906 11909 11912 11914 11917 11920 11923 11926 11929 11931 11934 11936 11939 11941 11944 11947 11950 11953 11956 11959 11962 11964 11967 11970 11973 11975 11978 11981 11984 11987 11990 11992 11995 11998 12001 12004 12007 12009 12012 12014 12017 12020 12022 12025 12027 12030 12033 12036 12039 12042 12044 12047 12050 12053 12055 12058 12061 12064 12067 12070 12073 12076 12079 12082 12085 12087 12090 12093 12096 12099 12102 12105 12108 12111 12114 12117 12120 12123 12126 12129 12132 12135 12138 12141 12144 12147 12150 12153 12155 12158 12161 12164 12167 12170 12173 12176 12179 12182 12185 12188 12191 12194 12197 12200 12203 12206 12209 12211 12214 12217 12220 12222 12225 12228 12231 12234 12237 12240 12242 12245 12248 12251 12253 12255 12258 12260 12263 12265 12267 12270 12272 12275 12278 12280 12283 12286 12288 12290 12293 12296 12299 12302 12305 12308 12311 12314 12316 12319 12321 12324 12327 12330 12333 12336 12339 12342 12345 12348 12351 12354 12357 12360 12363 12366 12369 12372 12375 12378 12381 12384 12387 12389 12392 12395 12398 12401 12404 12407 12410 12413 12415 12418 12421 12423 12426 12429 12431 12433 12436 12439 12441 12444 12447 12450 12453 12456 12459 12462 12465 12468 12471 12474 12477 12480 12483 12486 12489 12492 12495 12498 12501 12504 12507 12510 12513 12516 12519 12522 12525 12528 12531 12534 12537 12540 12543 12546 12549 12552 12555 12558 12560 12563 12565 12568 12571 12574 12577 12580 12583 12586 12589 12592 12595 12598 12601 12604 12607 12610 12613 12616 12619 12622 12625 12628 12631 12634 12637 12640 12643 12646 12649 12652 12655 12658 12661 12664 12667 12670 12673 12676 12679 12682 12685 12687 12690 12693 12695 12698 12701 12704 12707 12710 12712 12715 12717 12720 12723 12725 12728 12731 12734 12737 12740 12743 12745 12748 12751 12754 12757 12760 12763 12766 12769 12772 12775 12778 12780 12783 12786 12788 12790 12793 12795 12798 12801 12803 12806 12809 12812 12815 12817 12820 12823 12826 12829 12832 12835 12838 12841 12844 12846 12849 12851 12854 12857 12860 12863 12866 12869 12872 12874 12877 12879 12882 12885 12888 12891 12894 12897 12900 12903 12906 12908 12911 12913 12916 12919 12922 12925 12928 12931 12934 12937 12940 12943 12945 12948 12951 12954 12956 12959 12962 12964 12967 12970 12972 12975 12978 12981 12984 12986 12989 12992 12995 12997 13000 13003 13006 13009 13012 13015 13018 13021 13024 13027 13030 13033 13036 13039 13041 13044 13047 13050 13053 13056 13059 13061 13064 13066 13069 13071 13074 13077 13080 13082 13085 13088 13091 13094 13097 13100 13103 13106 13108 13111 13114 13117 13120 13123 13125 13128 13131 13133 13136 13139 13142 13145 13148 13151 13154 13157 13160 13162 13165 13168 13171 13173 13176 13179 13182 13185 13188 13191 13193 13196 13199 13202 13205 13208 13211 13214 13217 13220 13223 13226 13229 13232 13235 13238 13241 13244 13247 13250 13253 13256 13259 13262 13265 13268 13271 13274 13277 13280 13283 13286 13288 13291 13294 13297 13300 13303 13305 13308 13311 13313 13315 13318 13321 13324 13327 13329 13332 13335 13338 13341 13344 13346 13349 13352 13355 13358 13361 13364 13367 13370 13373 13376 13379 13382 13385 13388 13391 13394 13396 13399 13402 13405 13408 13411 13414 13417 13420 13422 13424 13427 13430 13433 13436 13439 13442 13444 13447 13450 13453 13456 13458 13461 13464 13467 13470 13473 13476 13479 13482 13485 13488 13491 13494 13497 13500 13503 13506 13509 13512 13515 13518 13521 13524 13527 13530 13532 13535 13538 13540 13543 13546 13549 13552 13555 13558 13561 13564 13567 13570 13573 13576 13579 13582 13585 13588 13591 13594 13597 13600 13603 13606 13609 13612 13615 13618 13621 13623 13626 13628 13631 13634 13637 13640 13643 13645 13648 13651 13654 13657 13660 13663 13666 13669 13672 13675 13678 13681 13684 13687 13690 13693 13696 13699 13702 13705 13707 13709 13712 13714 13717 13720 13723 13726 13729 13732 13735 13738 13741 13744 13747 13750 13753 13756 13759 13762 13764 13767 13770 13773 13775 13778 13781 13784 13787 13790 13793 13796 13799 13802 13805 13808 13811 13814 13816 13819 13822 13825 13828 13831 13834 13837 13840 13843 13846 13849 13852 13855 13858 13861 13864 13867 13870 13873 13876 13879 13882 13884 13887 13890 13893 13896 13899 13902 13905 13908 13911 13914 13917 13920 13923 13925 13928 13930 13933 13936 13938 13940 13943 13946 13949 13952 13955 13958 13961 13964 13967 13970 13973 13976 13979 13982 13985 13988 13991 13994 13997 14000 14002 14005 14008 14010 14013 14016 14019 14021 14024 14027 14030 14033 14036 14039 14041 14044 14047 14050 14052 14055 14058 14061 14064 14067 14070 14073 14076 14078 14081 14084 14086 14089 14092 14094 14097 14099 14102 14105 14108 14111 14113 14115 14118 14121 14123 14125 14128 14131 14133 14136 14139 14142 14145 14147 14150 14153 14155 14157 14160 14162 14165 14168 14171 14174 14177 14180 14183 14186 14189 14192 14195 14198 14201 14204 14207 14210 14213 14216 14219 14222 14224 14227 14230 14233 14236 14238 14241 14244 14247 14250 14252 14254 14257 14260 14263 14266 14269 14272 14275 14278 14281 14284 14287 14290 14292 14295 14298 14301 14303 14306 14309 14312 14315 14318 14321 14324 14326 14329 14332 14335 14337 14340 14343 14345 14347 14350 14353 14356 14358 14361 14364 14367 14369 14372 14375 14378 14381 14384 14387 14390 14393 14396 14399 14402 14405 14408 14411 14414 14417 14420 14423 14425 14428 14431 14434 14437 14440 14443 14446 14449 14452 14455 14458 14461 14464 14467 14470 14473 14476 14479 14481 14483 14486 14489 14492 14495 14498 14500 14502 14505 14507 14510 14513 14516 14519 14522 14525 14528 14531 14534 14536 14539 14542 14545 14547 14550 14553 14556 14559 14562 14565 14568 14571 14574 14577 14580 14583 14586 14589 14591 14594 14597 14600 14603 14606 14609 14612 14614 14617 14620 14622 14625 14628 14631 14634 14637 14640 14642 14645 14648 14651 14654 14656 14659 14662 14665 14668 14671 14674 14676 14679 14682 14685 14688 14691 14694 14697 14700 14702 14704 14707 14710 14713 14715 14717 14720 14723 14726 14729 14732 14734 14737 14740 14743 14746 14749 14752 14754 14757 14760 14763 14766 14768 14771 14774 14777 14780 14783 14785 14788 14791 14794 14797 14799 14802 14805 14808 14811 14814 14817 14820 14823 14826 14829 14832 14835 14838 14841 14844 14847 14850 14853 14856 14859 14862 14865 14868 14871 14874 14876 14879 14882 14885 14888 14890 14893 14895 14898 14900 14903 14906 14908 14911 14914 14916 14919 14922 14924 14927 14930 14933 14936 14939 14942 14944 14947 14950 14952 14955 14957 14959 14961 14964 14967 14969 14972 14974 14976 14979 14982 14985 14987 14990 14992 14995 14998 15001 15004 15007 15010 15012 15015 15018 15021 15023 15026 15029 15032 15035 15038 15041 15044 15046 15049 15052 15055 15057 15060 15062 15064 15067 15070 15073 15076 15079 15082 15085 15087 15090 15093 15096 15099 15102 15105 15108 15111 15113 15115 15118 15121 15124 15127 15129 15132 15135 15137 15140 15143 15146 15148 15151 15154 15157 15159 15161 15164 15167 15170 15173 15175 15178 15181 15184 15187 15190 15192 15194 15197 15200 15203 15206 15209 15212 15215 15218 15221 15224 15227 15230 15233 15236 15239 15242 15245 15248 15251 15254 15257 15260 15263 15266 15269 15272 15275 15278 15281 15284 15287 15289 15292 15295 15298 15300 15303 15306 15309 15312 15315 15318 15321 15324 15327 15330 15333 15336 15339 15342 15345 15347 15350 15352 15354 15357 15360 15362 15365 15368 15371 15374 15377 15380 15383 15386 15389 15392 15395 15398 15401 15404 15407 15410 15413 15416 15419 15422 15425 15428 15431 15433 15436 15439 15441 15443 15446 15449 15452 15455 15458 15461 15464 15466 15469 15472 15475 15477 15480 15483 15486 15489 15491 15493 15496 15499 15502 15505 15508 15511 15514 15516 15519 15522 15525 15528 15530 15533 15536 15539 15542 15544 15547 15550 15553 15556 15559 15562 15565 15568 15571 15574 15577 15580 15583 15586 15589 15592 15595 15598 15601 15603 15606 15609 15612 15615 15618 15621 15624 15627 15630 15633 15636 15639 15642 15645 15648 15651 15653 15656 15659 15662 15664 15667 15670 15673 15676 15679 15682 15685 15688 15691 15693 15696 15699 15702 15705 15708 15711 15714 15717 15720 15723 15726 15729 15732 15735 15738 15741 15744 15747 15750 15753 15756 15758 15761 15764 15767 15770 15773 15776 15779 15782 15785 15788 15791 15794 15797 15800 15803 15806 15809 15811 15814 15817 15820 15823 15826 15828 15831 15834 15837 15840 15843 15846 15849 15852 15855 15858 15861 15864 15867 15870 15873 15876 15879 15882 15885 15888 15891 15894 15897 15900 15903 15906 15909 15911 15914 15917 15919 15922 15925 15928 15930 15933 15936 15939 15942 15945 15948 15951 15954 15957 15960 15963 15966 15969 15972 15975 15977 15980 15982 15985 15988 15991 15994 15997 16000 16003 16006 16009 16011 16014 16017 16020 16023 16026 16029 16032 16035 16038 16040 16042 16045 16048 16051 16054 16057 16060 16063 16066 16069 16072 16075 16078 16081 16084 16087 16090 16093 16096 16099 16102 16105 16108 16111 16114 16117 16120 16123 16126 16129 16132 16135 16138 16141 16144 16147 16150 16153 16156 16159 16162 16165 16168 16171 16174 16177 16180 16183 16186 16189 16192 16195 16198 16201 16204 16207 16210 16213 16216 16219 16222 16225 16228 16231 16234 16237 16240 16243 16246 16249 16252 16255 16257 16260 16263 16266 16269 16272 16275 16277 16280 16283 16286 16289 16292 16295 16298 16301 16304 16306 16309 16311 16314 16317 16320 16323 16326 16329 16332 16335 16338 16341 16344 16347 16350 16353 16356 16359 16362 16365 16368 16371 16374 16377 16380 16383 16386 16389 16392 16395 16398 16401 16404 16407 16410 16413 16415 16418 16421 16424 16426 16428 16431 16434 16437 16440 16443 16446 16449 16452 16455 16458 16461 16464 16467 16470 16473 16476 16479 16482 16485 16488 16491 16494 16496 16498 16501 16504 16507 16510 16513 16516 16519 16522 16524 16527 16530 16533 16536 16539 16542 16544 16547 16550 16553 16556 16559 16561 16564 16567 16570 16573 16575 16578 16581 16584 16586 16589 16592 16595 16597 16600 16603 16605 16608 16611 16614 16617 16620 16623 16626 16629 16632 16635 16638 16641 16644 16646 16649 16652 16655 16658 16661 16664 16667 16670 16672 16675 16678 16681 16684 16687 16690 16693 16696 16699 16702 16705 16707 16710 16713 16716 16718 16721 16724 16727 16730 16732 16735 16738 16741 16744 16747 16750 16753 16756 16758 16761 16763 16766 16769 16771 16774 16777 16780 16783 16786 16788 16791 16794 16797 16800 16803 16806 16809 16812 16815 16818 16821 16824 16826 16829 16832 16835 16838 16841 16844 16847 16850 16853 16855 16858 16861 16864 16867 16870 16873 16875 16878 16881 16884 16887 16890 16893 16896 16898 16901 16904 16907 16910 16913 16915 16918 16921 16924 16927 16930 16933 16936 16939 16942 16945 16948 16951 16954 16957 16960 16963 16966 16969 16972 16975 16978 16981 16984 16987 16990 16993 16996 16999 17002 17005 17008 17011 17014 17017 17020 17023 17026 17029 17032 17035 17038 17041 17044 17047 17050 17053 17056 17058 17061 17063 17066 17069 17072 17075 17078 17081 17084 17087 17090 17093 17096 17099 17102 17105 17107 17110 17113 17116 17119 17122 17125 17128 17131 17134 17137 17140 17143 17146 17149 17152 17154 17157 17160 17162 17165 17167 17170 17173 17176 17179 17182 17184 17187 17190 17193 17196 17199 17202 17205 17208 17211 17214 17217 17220 17223 17226 17229 17232 17235 17238 17241 17244 17246 17249 17252 17255 17258 17261 17264 17267 17270 17273 17276 17279 17281 17284 17286 17289 17292 17294 17297 17299 17302 17305 17308 17311 17314 17317 17320 17322 17325 17327 17330 17333 17336 17339 17341 17344 17347 17350 17353 17355 17357 17360 17363 17365 17368 17371 17374 17377 17380 17383 17386 17389 17392 17395 17398 17401 17404 17407 17410 17413 17415 17418 17421 17424 17427 17430 17433 17436 17439 17442 17445 17448 17451 17454 17457 17459 17462 17464 17467 17470 17473 17476 17479 17482 17485 17487 17490 17492 17495 17498 17501 17504 17507 17510 17513 17516 17519 17521 17523 17526 17529 17532 17534 17537 17540 17543 17546 17548 17551 17553 17556 17559 17561 17564 17566 17568 17570 17573 17576 17578 17581 17584 17587 17589 17591 17593 17596 17599 17602 17605 17608 17611 17614 17617 17620 17623 17626 17628 17631 17634 17637 17640 17643 17646 17648 17651 17654 17657 17659 17662 17665 17668 17671 17674 17677 17680 17683 17685 17688 17691 17694 17696 17699 17702 17705 17708 17711 17714 17717 17720 17723 17726 17729 17732 17735 17738 17741 17744 17747 17750 17753 17756 17759 17762 17765 17768 17771 17774 17777 17780 17783 17786 17789 17792 17795 17798 17801 17804 17807 17810 17813 17816 17819 17822 17825 17828 17831 17834 17837 17840 17843 17846 17849 17852 17855 17858 17861 17864 17867 17870 17873 17876 17878 17881 17884 17887 17890 17893 17895 17898 17901 17904 17907 17909 17912 17915 17918 17920 17923 17926 17929 17932 17935 17938 17941 17944 17947 17950 17953 17956 17959 17962 17965 17968 17971 17974 17977 17980 17983 17986 17989 17992 17995 17998 18001 18004 18007 18010 18013 18016 18019 18022 18025 18028 18031 18034 18037 18040 18042 18045 18048 18050 18053 18056 18059 18062 18065 18068 18071 18073 18076 18079 18082 18085 18088 18091 18094 18097 18100 18103 18106 18108 18111 18114 18116 18119 18121 18124 18127 18130 18132 18135 18138 18141 18144 18147 18150 18153 18156 18158 18161 18164 18167 18170 18172 18175 18178 18181 18184 18186 18189 18191 18194 18197 18200 18203 18206 18209 18212 18215 18218 18221 18224 18227 18229 18232 18234 18237 18240 18243 18246 18249 18252 18255 18258 18261 18264 18267 18270 18273 18275 18278 18281 18284 18287 18290 18293 18296 18299 18302 18304 18307 18310 18313 18315 18318 18321 18324 18327 18330 18333 18336 18339 18342 18345 18348 18351 18354 18357 18360 18363 18366 18369 18372 18375 18378 18381 18384 18387 18390 18393 18396 18399 18402 18405 18408 18411 18414 18417 18420 18422 18425 18428 18430 18433 18436 18439 18442 18444 18447 18450 18453 18456 18459 18462 18465 18468 18471 18474 18477 18480 18483 18486 18489 18491 18494 18497 18500 18503 18506 18509 18512 18515 18518 18520 18523 18525 18528 18531 18534 18537 18540 18543 18546 18548 18551 18554 18557 18560 18563 18566 18569 18572 18575 18578 18581 18584 18587 18590 18592 18595 18598 18601 18604 18607 18610 18613 18616 18619 18622 18625 18627 18630 18633 18636 18639 18642 18645 18648 18651 18654 18657 18660 18663 18666 18669 18672 18675 18678 18681 18684 18687 18690 18693 18696 18698 18701 18703 18706 18709 18712 18715 18718 18721 18723 18726 18728 18731 18734 18737 18739 18742 18745 18748 18750 18753 18756 18759 18761 18764 18767 18769 18772 18775 18778 18781 18784 18787 18790 18792 18795 18798 18801 18804 18807 18810 18813 18815 18818 18821 18824 18827 18830 18833 18836 18839 18842 18845 18848 18851 18854 18856 18859 18862 18865 18868 18871 18874 18877 18880 18882 18885 18888 18891 18894 18897 18900 18903 18906 18909 18912 18915 18918 18921 18924 18927 18930 18933 18936 18939 18942 18944 18947 18950 18953 18956 18959 18962 18965 18968 18971 18974 18977 18980 18983 18986 18989 18992 18995 18998 19001 19004 19007 19010 19013 19016 19019 19022 19025 19028 19031 19034 19037 19040 19043 19046 19049 19052 19055 19058 19061 19064 19067 19070 19073 19076 19079 19082 19085 19088 19091 19094 19096 19099 19101 19104 19107 19110 19112 19115 19118 19120 19122 19125 19127 19130 19133 19136 19139 19142 19145 19148 19151 19154 19157 19160 19163 19166 19169 19172 19175 19178 19181 19184 19187 19190 19193 19196 19199 19202 19205 19208 19211 19214 19217 19220 19223 19226 19229 19232 19234 19237 19240 19243 19246 19248 19251 19254 19256 19259 19262 19265 19267 19270 19273 19276 19279 19281 19284 19286 19288 19291 19294 19297 19300 19302 19305 19308 19311 19313 19316 19319 19322 19324 19327 19330 19333 19336 19339 19342 19344 19347 19350 19353 19356 19359 19362 19365 19368 19371 19374 19377 19380 19383 19386 19389 19392 19395 19398 19401 19404 19406 19409 19412 19415 19418 19421 19424 19427 19430 19433 19436 19439 19442 19445 19448 19451 19454 19457 19460 19462 19465 19468 19470 19473 19476 19478 19481 19484 19487 19490 19493 19496 19499 19502 19505 19508 19511 19513 19516 19519 19522 19525 19527 19530 19533 19536 19539 19541 19544 19547 19550 19552 19555 19558 19561 19564 19567 19570 19573 19576 19579 19582 19585 19588 19591 19594 19597 19600 19603 19606 19609 19612 19615 19618 19621 19624 19627 19629 19632 19635 19638 19641 19644 19647 19650 19653 19655 19658 19661 19664 19666 19669 19672 19675 19678 19681 19684 19687 19690 19693 19696 19699 19702 19705 19708 19711 19714 19717 19720 19723 19726 19729 19732 19735 19738 19740 19743 19746 19749 19751 19754 19757 19760 19763 19766 19769 19772 19775 19777 19780 19783 19785 19788 19791 19794 19797 19799 19802 19805 19808 19811 19814 19817 19820 19822 19825 19827 19830 19833 19835 19838 19841 19843 19845 19848 19851 19854 19857 19860 19863 19866 19869 19872 19875 19878 19881 19884 19887 19890 19893 19896 19899 19902 19905 19908 19910 19913 19916 19919 19922 19924 19927 19930 19933 19936 19939 19942 19945 19948 19951 19954 19957 19960 19963 19965 19968 19971 19973 19976 19979 19982 19985 19988 19991 19994 19997 20000 20003 20006 20009 20012 20015 20018 20021 20024 20027 20030 20033 20036 20039 20042 20045 20048 20051 20054 20057 20060 20063 20066 20069 20072 20075 20078 20081 20084 20087 20090 20093 20096 20099 20102 20105 20108 20111 20114 20117 20120 20123 20126 20129 20132 20135 20138 20141 20144 20147 20150 20153 20156 20159 20162 20165 20168 20171 20174 20177 20180 20183 20186 20189 20192 20195 20198 20201 20204 20207 20210 20213 20216 20219 20222 20225 20228 20231 20234 20237 20240 20243 20246 20249 20252 20255 20258 20261 20264 20267 20270 20273 20276 20279 20282 20285 20288 20291 20294 20297 20300 20303 20306 20309 20312 20315 20318 20321 20324 20327 20330 20333 20336 20339 20342 20345 20348 20351 20354 20357 20359 20362 20365 20368 20371 20374 20377 20380 20382 20385 20388 20391 20394 20397 20400 20403 20406 20409 20411 20414 20416 20419 20422 20425 20427 20430 20433 20435 20438 20441 20444 20447 20450 20453 20456 20459 20462 20465 20468 20471 20474 20477 20480 20483 20486 20489 20492 20495 20498 20501 20504 20507 20510 20513 20516 20519 20522 20525 20528 20531 20534 20537 20540 20543 20546 20548 20551 20554 20556 20558 20561 20564 20566 20569 20572 20574 20577 20580 20583 20585 20588 20591 20594 20597 20600 20603 20606 20609 20612 20614 20617 20620 20623 20626 20629 20632 20634 20637 20640 20643 20646 20649 20652 20655 20658 20661 20664 20667 20670 20673 20676 20679 20682 20685 20688 20691 20694 20697 20700 20703 20706 20709 20712 20715 20718 20721 20724 20727 20729 20732 20735 20738 20741 20744 20747 20750 20753 20756 20759 20762 20765 20768 20771 20774 20777 20780 20783 20786 20789 20792 20795 20798 20801 20804 20807 20810 20813 20816 20819 20822 20825 20828 20831 20834 20837 20840 20843 20846 20849 20852 20855 20858 20861 20864 20867 20869 20872 20874 20877 20880 20883 20886 20888 20891 20894 20897 20900 20902 20905 20908 20911 20914 20916 20919 20922 20925 20928 20931 20934 20937 20940 20942 20945 20948 20950 20953 20955 20958 20961 20964 20967 20969 20972 20975 20977 20979 20982 20985 20988 20991 20994 20997 20999 21002 21005 21008 21011 21014 21017 21020 21023 21026 21029 21031 21033 21036 21039 21042 21045 21048 21050 21053 21056 21058 21061 21064 21067 21070 21072 21075 21078 21080 21083 21086 21089 21092 21095 21098 21101 21104 21107 21110 21113 21116 21119 21122 21125 21128 21131 21134 21137 21140 21143 21146 21149 21152 21155 21158 21161 21164 21167 21169 21172 21174 21177 21180 21183 21186 21189 21192 21195 21198 21201 21204 21207 21210 21213 21215 21218 21221 21224 21227 21229 21231 21234 21237 21240 21243 21246 21249 21252 21255 21258 21261 21264 21267 21270 21273 21276 21279 21282 21285 21288 21291 21294 21297 21300 21303 21306 21309 21312 21315 21318 21321 21324 21327 21330 21333 21336 21339 21342 21345 21348 21351 21354 21357 21359 21362 21365 21368 21370 21373 21376 21379 21382 21385 21388 21391 21394 21397 21400 21403 21406 21409 21412 21415 21418 21421 21424 21427 21430 21432 21435 21438 21440 21443 21446 21449 21452 21455 21458 21461 21464 21467 21469 21472 21475 21478 21481 21484 21486 21489 21492 21495 21498 21501 21503 21506 21508 21511 21514 21517 21520 21523 21526 21529 21532 21535 21538 21541 21544 21547 21549 21552 21555 21558 21560 21562 21565 21568 21571 21574 21577 21580 21583 21586 21588 21591 21594 21596 21599 21602 21604 21606 21609 21612 21615 21618 21621 21623 21626 21629 21632 21635 21638 21641 21644 21646 21649 21652 21654 21656 21659 21662 21665 21668 21671 21674 21676 21678 21681 21684 21687 21689 21692 21695 21698 21701 21704 21707 21710 21712 21715 21718 21721 21724 21727 21730 21733 21736 21739 21742 21745 21748 21751 21754 21757 21760 21763 21766 21769 21772 21775 21778 21781 21784 21787 21790 21792 21795 21798 21801 21804 21807 21810 21813 21815 21818 21821 21824 21827 21830 21833 21836 21839 21842 21845 21848 21850 21853 21856 21859 21862 21865 21868 21871 21874 21876 21879 21882 21885 21888 21891 21894 21897 21900 21903 21906 21909 21912 21915 21918 21921 21924 21926 21929 21932 21935 21937 21940 21943 21946 21949 21952 21954 21957 21960 21963 21966 21969 21972 21975 21978 21981 21984 21987 21990 21993 21996 21998 22001 22004 22007 22010 22012 22015 22018 22020 22023 22026 22029 22032 22035 22037 22040 22043 22046 22049 22052 22055 22058 22061 22064 22067 22070 22073 22076 22079 22081 22084 22086 22089 22092 22095 22097 22100 22102 22105 22107 22110 22113 22116 22119 22122 22125 22127 22129 22132 22135 22138 22141 22144 22147 22149 22152 22154 22157 22160 22163 22166 22169 22172 22175 22178 22181 22184 22187 22190 22193 22196 22199 22202 22205 22207 22210 22213 22216 22218 22220 22223 22226 22229 22232 22235 22237 22240 22243 22245 22247 22250 22253 22256 22259 22262 22265 22268 22271 22274 22277 22280 22283 22286 22289 22292 22295 22298 22301 22304 22307 22310 22313 22316 22319 22322 22325 22328 22331 22334 22337 22340 22343 22346 22349 22352 22355 22358 22361 22364 22367 22370 22373 22376 22379 22381 22384 22387 22389 22391 22393 22396 22399 22402 22405 22408 22411 22413 22416 22419 22422 22425 22428 22431 22434 22437 22440 22442 22445 22448 22451 22453 22456 22459 22462 22465 22468 22471 22474 22477 22480 22483 22486 22489 22492 22495 22498 22501 22504 22507 22510 22513 22515 22518 22521 22524 22527 22529 22532 22535 22538 22541 22544 22547 22550 22553 22556 22559 22562 22565 22568 22571 22574 22577 22580 22583 22586 22589 22592 22595 22598 22601 22604 22607 22610 22613 22616 22619 22622 22625 22628 22631 22633 22636 22638 22641 22644 22647 22650 22653 22656 22659 22662 22664 22667 22670 22673 22675 22678 22680 22683 22686 22689 22692 22695 22698 22701 22704 22706 22709 22712 22715 22718 22720 22723 22726 22729 22732 22734 22737 22740 22743 22746 22749 22752 22755 22757 22760 22763 22766 22769 22771 22774 22777 22780 22783 22786 22789 22792 22795 22798 22801 22804 22807 22810 22813 22816 22819 22822 22825 22828 22831 22834 22837 22840 22843 22846 22849 22852 22855 22858 22861 22864 22867 22870 22873 22876 22879 22882 22885 22888 22891 22894 22897 22900 22903 22906 22909 22911 22914 22917 22920 22923 22925 22927 22930 22933 22935 22937 22940 22943 22946 22949 22952 22955 22958 22961 22964 22967 22970 22973 22976 22979 22982 22985 22988 22991 22994 22996 22999 23002 23005 23007 23009 23012 23015 23018 23021 23024 23027 23030 23033 23036 23039 23042 23045 23048 23051 23054 23057 23060 23063 23066 23069 23072 23075 23078 23081 23084 23087 23090 23092 23095 23098 23101 23104 23107 23110 23113 23115 23118 23121 23124 23127 23130 23133 23136 23139 23142 23145 23148 23151 23154 23157 23160 23162 23165 23168 23171 23174 23177 23180 23183 23186 23188 23191 23193 23195 23198 23201 23204 23207 23210 23213 23216 23219 23222 23225 23228 23231 23233 23236 23239 23242 23245 23248 23251 23254 23257 23260 23263 23266 23269 23272 23275 23278 23281 23284 23287 23289 23292 23295 23298 23300 23303 23306 23309 23312 23315 23318 23321 23324 23326 23329 23332 23335 23338 23341 23344 23347 23350 23353 23356 23359 23362 23365 23368 23371 23373 23376 23379 23382 23384 23387 23390 23393 23396 23399 23402 23405 23408 23411 23414 23417 23420 23423 23426 23429 23432 23435 23438 23441 23444 23447 23450 23453 23456 23459 23462 23465 23468 23471 23474 23477 23480 23483 23485 23488 23490 23493 23496 23499 23502 23505 23508 23511 23514 23516 23519 23522 23525 23528 23531 23534 23537 23540 23543 23545 23548 23551 23553 23556 23559 23562 23565 23568 23570 23573 23576 23579 23582 23584 23587 23590 23593 23596 23598 23601 23604 23607 23609 23612 23614 23617 23620 23622 23625 23628 23631 23634 23637 23640 23643 23646 23649 23652 23655 23658 23661 23664 23666 23669 23672 23674 23677 23679 23682 23685 23688 23690 23693 23696 23698 23701 23704 23707 23710 23712 23715 23717 23720 23723 23726 23729 23732 23735 23737 23740 23742 23745 23748 23751 23754 23757 23759 23762 23765 23768 23771 23773 23776 23779 23782 23785 23788 23791 23793 23796 23799 23802 23805 23808 23811 23814 23817 23820 23823 23826 23829 23832 23835 23838 23841 23844 23847 23850 23853 23856 23859 23862 23865 23868 23871 23874 23877 23880 23883 23886 23889 23892 23894 23896 23899 23902 23905 23908 23911 23914 23917 23920 23923 23926 23928 23931 23934 23936 23938 23941 23943 23946 23949 23952 23955 23958 23961 23964 23966 23969 23972 23975 23978 23981 23984 23987 23990 23993 23996 23999 24002 24004 24007 24010 24013 24016 24018 24021 24024 24027 24030 24033 24036 24039 24042 24045 24048 24051 24054 24056 24059 24062 24065 24068 24071 24074 24077 24080 24083 24086 24089 24092 24095 24098 24101 24104 24107 24109 24112 24115 24118 24121 24124 24126 24129 24132 24135 24137 24140 24143 24146 24149 24152 24155 24157 24160 24162 24165 24168 24171 24173 24176 24179 24182 24185 24188 24191 24194 24197 24200 24202 24205 24208 24210 24213 24216 24219 24222 24225 24228 24231 24233 24236 24239 24242 24245 24248 24251 24254 24257 24260 24263 24266 24269 24272 24274 24277 24280 24282 24285 24288 24291 24294 24297 24300 24302 24305 24308 24311 24314 24317 24320 24322 24325 24328 24331 24334 24337 24340 24343 24345 24348 24351 24354 24357 24360 24363 24366 24369 24372 24375 24378 24381 24384 24387 24390 24393 24396 24399 24402 24405 24408 24411 24413 24416 24419 24422 24425 24428 24431 24434 24437 24440 24443 24445 24448 24451 24454 24457 24459 24461 24464 24467 24470 24473 24475 24478 24481 24484 24487 24490 24493 24496 24499 24502 24504 24507 24510 24513 24516 24519 24522 24525 24528 24531 24534 24537 24539 24542 24545 24548 24550 24553 24556 24559 24561 24564 24567 24570 24573 24576 24579 24582 24585 24588 24591 24594 24597 24599 24602 24605 24608 24611 24614 24616 24619 24622 24624 24627 24630 24633 24636 24639 24642 24645 24648 24651 24654 24657 24660 24663 24666 24668 24671 24674 24677 24680 24683 24686 24689 24691 24694 24697 24700 24702 24705 24708 24711 24714 24717 24719 24722 24725 24728 24731 24734 24737 24740 24743 24746 24748 24751 24754 24757 24760 24763 24766 24769 24772 24774 24777 24780 24783 24786 24789 24791 24794 24797 24800 24803 24806 24809 24812 24814 24817 24820 24823 24826 24829 24832 24835 24838 24841 24844 24847 24850 24853 24856 24859 24862 24865 24868 24871 24874 24877 24880 24883 24886 24889 24892 24895 24898 24901 24904 24907 24910 24913 24916 24919 24922 24925 24928 24931 24934 24937 24940 24943 24946 24949 24952 24955 24958 24960 24963 24966 24969 24972 24975 24978 24981 24983 24986 24989 24992 24995 24998 25001 25004 25007 25010 25013 25016 25019 25022 25025 25028 25031 25034 25037 25040 25043 25046 25049 25051 25053 25056 25059 25061 25063 25066 25069 25072 25075 25078 25081 25084 25086 25089 25092 25095 25098 25101 25104 25107 25110 25113 25116 25119 25122 25125 25128 25130 25133 25136 25139 25142 25145 25148 25151 25154 25156 25159 25162 25164 25167 25170 25173 25175 25178 25181 25184 25187 25190 25193 25196 25199 25202 25205 25208 25211 25214 25217 25220 25223 25226 25229 25232 25235 25238 25241 25244 25247 25250 25253 25256 25259 25261 25264 25267 25270 25273 25276 25279 25282 25285 25287 25290 25293 25296 25299 25302 25305 25307 25309 25312 25315 25318 25321 25323 25326 25329 25331 25334 25337 25339 25342 25345 25348 25351 25354 25357 25359 25362 25365 25368 25371 25374 25377 25380 25383 25385 25388 25391 25394 25397 25400 25403 25406 25409 25412 25415 25418 25420 25423 25426 25428 25431 25434 25437 25440 25443 25446 25449 25451 25454 25457 25460 25462 25465 25467 25470 25472 25475 25478 25481 25484 25487 25490 25493 25496 25499 25502 25505 25508 25511 25514 25517 25520 25523 25525 25528 25530 25533 25536 25539 25542 25545 25548 25551 25554 25557 25560 25562 25565 25568 25571 25574 25577 25580 25583 25585 25588 25591 25594 25596 25599 25601 25603 25606 25609 25611 25614 25617 25620 25623 25625 25628 25631 25634 25636 25639 25642 25645 25647 25650 25652 25654 25657 25660 25663 25666 25669 25672 25674 25677 25680 25683 25686 25689 25692 25695 25698 25700 25702 25704 25707 25709 25712 25715 25717 25719 25722 25725 25727 25730 25733 25736 25739 25742 25745 25748 25751 25754 25757 25760 25762 25765 25768 25771 25774 25777 25780 25783 25786 25789 25792 25795 25798 25801 25803 25805 25808 25811 25814 25817 25819 25822 25825 25828 25830 25833 25836 25839 25842 25845 25847 25849 25852 25855 25858 25860 25863 25866 25869 25872 25875 25878 25881 25884 25887 25890 25893 25896 25899 25902 25905 25907 25910 25913 25916 25918 25921 25924 25927 25929 25932 25935 25938 25941 25944 25947 25949 25952 25955 25958 25961 25964 25966 25969 25972 25975 25978 25981 25984 25987 25990 25992 25995 25998 26001 26004 26007 26010 26013 26016 26019 26021 26024 26027 26030 26033 26035 26038 26040 26043 26046 26048 26051 26053 26056 26059 26062 26065 26068 26071 26073 26076 26078 26080 26083 26086 26089 26092 26095 26098 26101 26104 26106 26109 26111 26114 26116 26119 26121 26124 26127 26130 26133 26136 26139 26142 26145 26148 26151 26154 26156 26159 26162 26165 26167 26170 26173 26176 26179 26182 26185 26188 26191 26193 26196 26199 26202 26205 26208 26211 26214 26217 26220 26222 26225 26228 26231 26234 26236 26239 26242 26244 26247 26250 26253 26256 26259 26262 26265 26268 26271 26273 26276 26279 26282 26284 26287 26290 26293 26296 26299 26302 26305 26308 26311 26314 26317 26320 26323 26326 26329 26332 26335 26338 26341 26343 26346 26349 26352 26355 26358 26361 26364 26367 26370 26373 26375 26378 26381 26384 26387 26390 26393 26396 26399 26402 26405 26408 26411 26414 26417 26420 26423 26426 26429 26432 26435 26438 26441 26444 26447 26450 26453 26456 26459 26462 26465 26468 26471 26474 26477 26480 26483 26486 26489 26492 26495 26498 26501 26504 26507 26510 26512 26514 26517 26520 26523 26526 26529 26532 26535 26538 26541 26544 26547 26550 26553 26555 26557 26560 26563 26566 26568 26571 26574 26576 26579 26582 26585 26587 26590 26593 26596 26598 26601 26604 26607 26610 26613 26616 26619 26622 26624 26627 26630 26632 26635 26637 26639 26642 26645 26648 26651 26654 26657 26659 26662 26664 26666 26668 26671 26674 26676 26679 26682 26684 26686 26689 26692 26695 26698 26701 26704 26707 26710 26713 26716 26719 26722 26725 26728 26731 26734 26737 26740 26743 26746 26749 26751 26754 26757 26760 26763 26766 26769 26772 26775 26778 26780 26783 26786 26789 26792 26795 26798 26801 26803 26805 26808 26811 26814 26817 26820 26823 26826 26829 26832 26835 26838 26841 26844 26847 26850 26853 26856 26859 26862 26865 26868 26871 26874 26876 26879 26881 26884 26887 26890 26893 26896 26899 26902 26904 26907 26910 26913 26915 26917 26920 26923 26925 26928 26931 26934 26937 26939 26942 26945 26948 26950 26953 26956 26959 26961 26964 26967 26970 26973 26976 26979 26982 26985 26988 26990 26992 26995 26998 27001 27004 27007 27009 27012 27015 27017 27019 27021 27024 27027 27030 27033 27036 27038 27041 27044 27047 27050 27053 27056 27059 27062 27065 27067 27070 27072 27075 27078 27081 27084 27087 27090 27093 27096 27099 27102 27105 27108 27111 27114 27117 27120 27123 27126 27129 27132 27135 27138 27141 27144 27146 27149 27152 27155 27158 27160 27162 27165 27168 27171 27173 27176 27179 27182 27185 27188 27191 27194 27197 27200 27203 27206 27209 27212 27215 27218 27221 27223 27226 27229 27232 27234 27237 27240 27242 27245 27248 27251 27254 27257 27260 27263 27266 27269 27272 27275 27278 27281 27283 27286 27289 27291 27294 27297 27300 27302 27305 27307 27310 27312 27315 27317 27319 27321 27324 27327 27330 27333 27336 27339 27342 27345 27347 27350 27353 27356 27359 27362 27365 27368 27371 27373 27376 27379 27381 27384 27387 27390 27393 27396 27399 27402 27405 27408 27411 27414 27417 27420 27423 27426 27429 27432 27435 27438 27441 27444 27446 27449 27452 27455 27458 27461 27464 27467 27470 27473 27476 27478 27481 27483 27486 27489 27491 27494 27496 27499 27501 27504 27507 27509 27512 27514 27517 27520 27522 27525 27528 27531 27533 27536 27539 27542 27545 27548 27551 27554 27557 27560 27563 27566 27569 27572 27575 27578 27581 27584 27587 27590 27593 27596 27599 27602 27605 27608 27611 27614 27617 27620 27623 27626 27629 27632 27635 27638 27641 27644 27647 27650 27653 27656 27659 27662 27665 27668 27671 27674 27677 27680 27683 27686 27689 27692 27695 27698 27701 27704 27707 27710 27713 27716 27718 27721 27724 27726 27729 27732 27735 27738 27741 27744 27746 27748 27751 27754 27757 27760 27763 27766 27769 27772 27775 27778 27781 27784 27787 27790 27793 27796 27799 27802 27804 27807 27810 27813 27815 27818 27821 27824 27827 27830 27833 27836 27839 27842 27845 27848 27851 27854 27857 27860 27863 27865 27868 27871 27874 27877 27880 27883 27886 27888 27891 27894 27897 27900 27903 27906 27909 27912 27914 27917 27919 27922 27925 27928 27931 27934 27937 27940 27943 27946 27949 27952 27955 27958 27961 27964 27967 27969 27972 27975 27978 27981 27984 27987 27990 27992 27995 27998 28001 28004 28006 28009 28012 28015 28018 28021 28024 28027 28029 28032 28035 28037 28039 28042 28045 28047 28050 28053 28056 28059 28062 28065 28067 28070 28073 28076 28079 28082 28085 28088 28091 28094 28096 28099 28102 28104 28107 28110 28112 28115 28118 28120 28123 28126 28129 28132 28135 28137 28140 28143 28146 28149 28152 28155 28158 28161 28163 28166 28169 28172 28175 28178 28181 28184 28186 28189 28192 28195 28198 28201 28204 28207 28210 28213 28216 28219 28222 28224 28227 28230 28233 28236 28239 28242 28245 28247 28249 28252 28254 28257 28259 28262 28265 28268 28271 28274 28277 28280 28283 28286 28289 28292 28295 28298 28301 28304 28306 28309 28311 28314 28317 28320 28323 28326 28329 28332 28335 28337 28340 28342 28345 28347 28350 28352 28355 28357 28360 28363 28365 28368 28371 28374 28377 28380 28382 28385 28388 28391 28394 28397 28400 28403 28406 28408 28411 28414 28417 28420 28423 28425 28428 28431 28433 28436 28438 28440 28443 28446 28449 28452 28455 28458 28461 28464 28466 28469 28472 28475 28478 28481 28484 28487 28490 28493 28496 28499 28502 28505 28507 28510 28513 28516 28519 28522 28525 28528 28530 28533 28536 28539 28541 28544 28547 28550 28553 28556 28559 28562 28565 28568 28571 28574 28577 28580 28583 28586 28589 28592 28594 28597 28600 28603 28606 28609 28612 28615 28617 28620 28623 28625 28628 28631 28634 28637 28640 28643 28646 28649 28652 28655 28658 28661 28664 28667 28670 28672 28675 28678 28681 28684 28686 28689 28692 28695 28698 28701 28704 28707 28710 28713 28716 28719 28722 28725 28728 28731 28734 28737 28740 28743 28746 28749 28752 28755 28758 28761 28763 28766 28769 28772 28775 28778 28781 28783 28786 28789 28792 28795 28798 28801 28804 28807 28810 28812 28814 28817 28820 28823 28825 28828 28830 28833 28836 28839 28842 28845 28848 28851 28854 28857 28860 28863 28866 28869 28872 28875 28877 28880 28883 28886 28889 28892 28895 28898 28901 28904 28907 28910 28913 28915 28917 28920 28923 28926 28929 28932 28935 28938 28941 28943 28946 28949 28951 28954 28957 28959 28961 28964 28967 28970 28973 28976 28979 28982 28984 28987 28990 28993 28996 28999 29002 29005 29008 29011 29013 29016 29019 29022 29024 29027 29030 29033 29036 29039 29041 29044 29047 29050 29053 29056 29059 29062 29065 29068 29071 29074 29077 29079 29082 29085 29088 29090 29093 29096 29099 29101 29104 29107 29110 29113 29116 29119 29122 29125 29128 29131 29134 29137 29140 29143 29146 29149 29152 29155 29158 29161 29164 29167 29170 29173 29176 29179 29182 29185 29188 29191 29194 29197 29199 29202 29205 29208 29211 29214 29217 29220 29223 29226 29229 29232 29235 29238 29241 29244 29247 29250 29253 29256 29259 29262 29265 29268 29271 29273 29276 29278 29281 29284 29286 29289 29292 29295 29298 29301 29304 29307 29310 29313 29315 29318 29321 29324 29327 29330 29333 29336 29339 29342 29345 29348 29351 29354 29357 29359 29362 29365 29368 29371 29373 29376 29379 29382 29384 29387 29390 29393 29396 29399 29402 29405 29408 29411 29414 29417 29420 29423 29426 29429 29432 29435 29438 29441 29444 29447 29450 29453 29456 29459 29462 29465 29468 29471 29474 29477 29480 29483 29486 29489 29492 29495 29498 29501 29504 29507 29510 29513 29516 29519 29522 29525 29528 29531 29534 29537 29540 29543 29546 29549 29552 29555 29558 29561 29564 29567 29570 29573 29576 29579 29582 29585 29588 29591 29594 29597 29600 29603 29606 29609 29612 29615 29618 29621 29624 29627 29630 29633 29636 29639 29642 29645 29648 29651 29654 29657 29660 29663 29666 29669 29672 29675 29678 29681 29684 29687 29690 29693 29696 29699 29702 29705 29708 29711 29714 29717 29720 29723 29726 29729 29732 29735 29738 29741 29744 29747 29750 29753 29756 29759 29762 29765 29768 29771 29774 29777 29780 29783 29786 29789 29792 29795 29798 29801 29804 29807 29810 29813 29816 29819 29822 29825 29828 29831 29834 29837 29840 29843 29846 29849 29852 29855 29858 29861 29864 29867 29870 29873 29876 29879 29882 29885 29888 29891 29894 29897 29900 29903 29906 29909 29912 29915 29918 29921 29924 29927 29930 29933 29936 29939 29942 29945 29948 29951 29953 29956 29959 29962 29965 29968 29971 29974 29977 29980 29983 29986 29989 29992 29995 29998 30001 30003 30006 30009 30012 30015 30018 30021 30024 30027 30029 30032 30035 30038 30041 30043 30046 30049 30052 30055 30058 30061 30064 30067 30070 30073 30076 30079 30082 30085 30088 30091 30094 30097 30100 30103 30106 30109 30111 30114 30117 30120 30123 30126 30129 30132 30135 30138 30141 30144 30147 30150 30152 30154 30157 30160 30163 30166 30169 30171 30174 30176 30179 30182 30185 30188 30191 30194 30197 30200 30203 30206 30209 30211 30214 30217 30220 30223 30226 30229 30232 30234 30237 30240 30243 30246 30249 30252 30255 30258 30261 30264 30267 30270 30273 30276 30279 30281 30283 30286 30289 30292 30295 30298 30301 30304 30307 30310 30313 30316 30319 30321 30324 30327 30330 30333 30336 30339 30342 30345 30348 30351 30354 30357 30360 30363 30366 30369 30371 30374 30377 30380 30383 30386 30389 30392 30394 30397 30400 30403 30406 30409 30412 30415 30418 30421 30424 30426 30428 30431 30434 30437 30440 30443 30446 30449 30452 30455 30458 30461 30464 30467 30470 30473 30476 30479 30482 30485 30488 30491 30494 30497 30500 30503 30506 30509 30512 30515 30518 30520 30523 30526 30529 30532 30535 30537 30540 30543 30546 30549 30552 30555 30558 30561 30564 30567 30569 30572 30575 30578 30581 30583 30586 30589 30592 30595 30598 30601 30604 30607 30610 30613 30615 30618 30620 30623 30626 30629 30632 30635 30638 30641 30644 30647 30650 30653 30656 30659 30662 30665 30668 30671 30674 30677 30680 30683 30686 30689 30692 30695 30698 30701 30704 30707 30710 30713 30715 30718 30721 30724 30727 30730 30732 30735 30738 30741 30744 30747 30750 30753 30756 30759 30762 30765 30768 30771 30774 30777 30780 30783 30786 30788 30791 30794 30796 30799 30802 30805 30807 30810 30813 30816 30819 30822 30824 30827 30830 30833 30836 30839 30842 30845 30848 30851 30854 30856 30859 30862 30865 30868 30871 30874 30876 30879 30882 30885 30888 30891 30893 30895 30898 30901 30903 30906 30909 30911 30914 30917 30920 30923 30926 30929 30932 30935 30938 30941 30943 30946 30949 30951 30954 30957 30959 30962 30965 30967 30970 30973 30975 30978 30981 30983 30986 30989 30992 30995 30998 31001 31003 31006 31009 31012 31015 31018 31021 31024 31027 31030 31033 31036 31038 31041 31044 31047 31050 31053 31056 31059 31061 31064 31067 31070 31073 31075 31078 31081 31084 31086 31089 31092 31095 31098 31101 31104 31107 31110 31113 31116 31119 31121 31124 31127 31130 31133 31136 31139 31142 31145 31148 31151 31154 31157 31160 31163 31166 31169 31172 31175 31178 31181 31184 31187 31190 31193 31195 31198 31201 31204 31207 31210 31212 31215 31218 31221 31224 31227 31230 31233 31236 31239 31242 31245 31248 31251 31254 31256 31259 31262 31264 31267 31269 31272 31275 31278 31281 31283 31286 31288 31290 31293 31295 31298 31301 31304 31307 31310 31313 31316 31318 31321 31323 31326 31329 31332 31335 31338 31341 31343 31346 31349 31352 31355 31358 31361 31363 31366 31369 31372 31375 31377 31380 31383 31386 31389 31392 31394 31397 31400 31402 31405 31408 31411 31414 31416 31419 31422 31425 31428 31430 31433 31436 31439 31442 31445 31448 31450 31453 31456 31459 31462 31465 31468 31471 31474 31477 31479 31482 31485 31488 31491 31494 31497 31499 31502 31505 31508 31511 31513 31516 31519 31522 31525 31528 31531 31534 31537 31540 31543 31546 31549 31552 31555 31558 31561 31563 31566 31569 31572 31574 31577 31580 31582 31585 31588 31591 31594 31597 31600 31603 31606 31609 31612 31615 31618 31621 31624 31627 31630 31632 31635 31637 31640 31643 31646 31649 31652 31655 31658 31661 31664 31667 31670 31673 31676 31679 31682 31685 31688 31691 31694 31697 31700 31703 31706 31709 31712 31715 31717 31720 31723 31725 31728 31731 31734 31737 31740 31743 31746 31749 31752 31755 31757 31760 31763 31766 31769 31771 31774 31777 31780 31783 31785 31788 31791 31794 31797 31800 31803 31806 31809 31812 31814 31817 31820 31823 31826 31829 31832 31835 31838 31841 31844 31847 31850 31853 31856 31859 31862 31865 31868 31871 31874 31877 31880 31883 31886 31889 31892 31895 31898 
</DataArray>
<DataArray type="UInt32" Name="types" format="ascii">
5 5 5 5 5 3 5 5 5 5 5 5 5 3 5 5 5 5 3 5 5 3 5 5 5 5 3 5 5 5 5 3 5 5 5 5 5 5 5 5 5 5 5 5 5 3 5 5 3 5 5 5 5 5 3 5 5 5 5 5 5 5 3 5 5 5 5 3 5 5 5 5 5 5 5 5 5 3 5 5 3 5 5 3 5 5 5 5 3 5 5 5 5 5 5 5 3 3 3 5 5 3 5 5 5 5 5 3 5 5 5 5 5 5 5 5 5 5 5 5 5 3 5 5 5 3 5 5 5 5 5 5 3 5 5 5 5 5 5 5 5 5 5 5 5 5 5 5 5 5 5 5 5 5 5 5 5 5 3 5 5 5 3 5 5 3 5 5 5 5 5 5 5 5 5 5 5 3 5 5 5 5 5 5 5 5 3 5 5 5 5 5 5 5 5 3 5 5 5 5 5 5 5 5 5 3 5 5 5 5 5 5 5 5 5 5 5 5 5 5 5 5 5 5 5 5 5 5 5 3 5 5 5 3 5 3 5 3 5 5 3 5 5 5 3 5 3 5 3 5 3 3 5 3 5 5 3 5 3 5 5 5 3 5 3 3 5 5 3 5 5 5 3 5 3 3 3 5 3 5 5 5 3 5 3 3 3 5 5 3 3 5 5 5 5 3 5 3 5 5 3 5 5 5 3 5 3 3 3 5 5 5 3 5 3 3 3 3 5 5 5 3 3 5 5 3 3 3 5 3 5 5 5 5 3 5 5 5 5 5 5 5 3 5 5 5 5 5 5 3 3 5 5 5 3 5 5 5 3 5 3 5 3 3 5 5 5 5 3 5 5 3 5 5 5 5 3 5 3 5 5 5 5 5 3 3 5 5 5 5 5 5 5 5 3 5 5 5 3 5 5 3 5 3 5 5 5 5 5 5 5 5 5 5 5 3 5 3 5 3 5 5 5 3 5 3 5 3 5 5 5 5 5 5 3 5 3 5 5 5 3 5 5 5 3 5 3 3 5 5 5 5 3 5 5 5 5 3 3 5 5 3 5 3 5 3 3 5 5 5 3 5 5 5 5 3 5 5 5 5 5 5 5 5 5 5 5 3 5 5 5 5 3 5 5 5 3 5 3 3 3 5 5 5 3 3 5 3 5 5 3 5 5 5 5 3 5 5 5 5 5 5 5 5 5 5 5 3 3 5 5 3 5 5 5 3 5 5 5 5 5 5 3 5 5 5 3 5 5 5 3 5 5 5 5 5 5 5 5 5 5 5 3 5 5 5 3 5 5 5 5 5 5 5 3 5 5 5 5 5 3 5 5 5 5 5 5 5 5 5 5 5 5 5 5 5 5 5 5 5 3 5 5 5 5 3 5 5 3 5 5 5 5 5 5 5 3 5 5 5 5 5 5 5 5 3 5 3 5 5 3 5 5 5 3 5 5 3 5 5 5 3 5 3 5 5 3 5 3 5 5 5 5 5 5 5 5 5 5 5 5 5 5 5 5 5 5 5 5 5 5 3 5 3 5 3 5 5 5 5 5 5 5 5 5 5 5 5 5 5 5 3 5 5 5 5 5 5 5 5 5 3 5 5 5 5 5 5 5 5 5 5 5 5 5 5 5 5 5 5 5 5 5 5 5 5 5 5 5 5 5 3 5 5 3 5 5 5 3 3 5 3 5 5 5 5 5 3 5 5 5 5 5 3 5 5 5 5 5 5 5 5 5 5 5 5 5 5 5 5 5 5 5 5 5 5 5 5 5 5 5 5 5 5 5 5 5 5 5 5 5 5 5 5 5 5 5 5 5 5 5 5 5 3 5 5 5 5 5 5 5 5 5 5 5 5 5 5 5 3 5 5 5 5 3 5 5 5 5 5 5 5 5 5 5 5 5 5 5 5 5 5 5 5 5 5 5 5 5 5 5 5 3 5 5 3 5 3 3 3 3 5 5 3 5 5 5 5 5 5 5 5 5 5 5 5 5 5 5 5 5 3 5 5 3 5 3 5 5 5 5 3 5 3 5 5 5 5 3 5 5 5 3 5 5 5 5 5 3 5 3 5 5 3 3 5 3 5 5 5 5 5 5 5 5 5 5 5 3 5 5 5 3 5 5 5 3 5 5 3 3 3 5 5 5 5 5 5 5 5 5 5 5 3 5 5 5 5 5 5 5 5 3 3 3 5 5 5 5 5 5 5 5 3 3 5 5 5 3 5 5 3 5 5 5 5 5 5 5 5 5 5 5 3 5 5 5 5 5 5 5 5 3 5 5 5 5 5 5 5 5 5 5 3 5 3 3 3 5 5 5 5 5 5 5 3 3 5 3 5 5 5 5 5 3 5 3 3 5 5 5 3 5 3 5 5 5 5 3 5 5 5 5 5 5 5 5 5 5 5 5 5 5 5 5 5 3 5 5 5 3 5 5 5 5 5 3 5 5 5 5 5 5 3 5 3 5 5 5 5 5 5 5 5 3 5 5 5 3 5 5 5 5 5 5 5 5 5 5 5 5 5 5 5 5 5 5 5 5 5 5 5 5 5 3 3 3 5 5 5 5 3 5 5 5 5 3 5 5 5 5 5 5 5 3 5 5 5 5 5 5 5 5 3 5 5 5 5 5 5 5 5 5 5 5 5 3 5 5 5 5 5 5 3 5 5 5 5 5 5 5 5 3 5 5 5 3 5 5 5 5 5 5 5 5 5 5 5 5 3 5 5 5 5 5 5 5 5 5 5 5 5 5 5 5 5 5 5 5 5 5 5 5 5 5 5 5 5 5 5 5 5 5 5 5 5 5 5 5 5 5 5 5 5 5 5 5 3 5 5 5 5 5 5 5 5 5 5 5 5 5 5 5 5 5 5 5 5 5 5 5 5 3 5 5 5 5 5 5 5 5 5 5 3 5 5 3 5 5 5 5 5 5 5 5 5 3 5 3 5 5 5 5 3 5 5 3 5 3 5 5 5 5 5 3 5 5 5 5 5 5 5 5 3 5 5 5 5 5 5 5 5 5 5 5 5 5 5 3 5 3 3 5 5 5 5 5 3 5 5 5 5 5 5 5 5 5 5 5 5 5 5 5 3 5 5 5 5 5 5 5 5 5 5 5 5 5 5 5 5 3 5 5 5 5 5 3 3 5 5 3 5 5 5 5 5 5 5 5 5 5 3 5 5 5 5 5 5 5 5 5 3 5 3 5 5 5 5 5 3 5 5 5 5 3 5 5 5 3 5 5 5 3 5 5 3 5 5 5 5 5 5 5 5 5 5 5 5 5 5 5 5 3 5 5 5 5 5 5 5 3 5 5 5 5 5 5 5 5 5 5 5 5 5 5 5 5 5 5 5 5 5 5 5 5 5 5 5 3 5 5 5 5 3 5 5 5 3 5 5 5 5 5 5 5 5 5 3 5 3 5 5 5 5 5 5 5 5 5 5 5 5 5 5 5 5 5 5 3 3 5 5 5 3 5 5 3 5 5 3 5 5 5 3 5 5 3 5 5 5 5 5 5 5 5 5 5 5 5 5 5 5 5 5 5 5 5 3 5 3 5 5 5 5 5 5 5 5 5 5 5 3 5 3 5 5 5 3 5 5 5 5 5 3 5 5 5 5 5 5 3 5 5 5 5 5 5 5 5 5 5 5 3 5 5 5 5 5 5 5 5 3 5 5 5 3 5 5 3 5 5 5 5 5 3 5 5 5 5 5 5 5 5 5 3 5 5 3 5 3 5 3 3 3 5 3 5 5 5 5 5 5 3 5 5 5 5 5 5 3 5 5 5 5 5 5 5 3 5 5 5 5 3 5 5 5 5 5 3 5 3 5 5 5 5 5 5 5 5 5 5 3 5 5 5 5 5 5 5 3 5 5 5 5 5 5 5 3 5 3 5 5 5 5 5 5 5 5 3 5 5 5 3 3 5 5 5 5 5 3 3 5 3 5 5 3 5 5 3 5 5 5 5 5 5 5 5 3 5 5 5 5 5 3 5 5 5 5 3 5 5 3 5 5 5 5 5 5 5 5 5 5 5 5 5 5 5 5 5 5 5 5 5 5 5 5 5 5 5 5 5 5 5 5 5 5 5 5 5 5 5 5 5 3 5 5 3 5 5 5 5 5 3 5 5 5 5 3 5 5 5 5 5 5 5 5 5 5 5 5 5 5 5 5 5 5 5 5 5 5 5 5 3 5 5 5 3 5 5 5 5 5 5 3 5 5 5 5 5 5 5 5 5 5 5 3 5 3 3 5 5 3 5 5 5 5 5 5 5 5 5 5 5 3 5 5 3 5 5 5 5 5 5 5 5 5 5 5 5 5 5 5 3 5 5 5 5 5 5 5 3 5 3 5 5 5 5 3 5 3 5 5 5 5 5 5 5 5 5 3 5 5 5 5 5 5 5 5 5 5 5 5 5 5 5 5 5 3 5 5 5 5 5 5 5 5 5 5 5 5 5 5 5 5 5 5 5 5 5 5 5 5 5 3 3 5 5 5 5 5 5 5 5 5 5 5 3 5 5 5 5 3 5 5 5 5 3 5 5 5 5 5 5 5 5 3 5 5 5 5 5 5 5 5 5 3 5 5 5 5 5 5 5 5 5 5 5 5 5 5 5 5 5 5 5 5 3 5 5 5 5 5 5 5 5 5 5 5 5 5 5 3 5 3 5 5 5 5 5 5 5 5 3 5 5 3 5 5 5 5 5 5 5 5 5 5 5 5 5 5 5 5 5 5 5 5 5 5 5 5 5 5 5 5 5 5 5 5 5 5 5 5 3 5 5 3 5 5 5 5 3 5 3 5 5 3 5 3 5 5 5 5 5 3 5 5 5 5 5 5 5 5 5 5 5 5 3 5 5 5 3 5 5 5 5 5 5 5 5 5 3 5 5 5 5 3 3 5 5 5 5 5 5 5 5 3 5 5 5 5 5 3 5 5 5 3 5 5 5 3 5 5 5 5 3 5 5 5 5 5 5 5 5 5 5 5 5 5 5 3 5 5 5 5 5 5 3 5 3 3 5 3 5 3 5 5 5 5 3 5 5 5 5 3 5 5 5 5 5 5 5 5 5 3 5 5 5 5 5 5 5 5 5 5 5 5 5 5 3 5 5 5 3 5 5 5 3 5 3 5 5 5 5 5 5 5 5 5 5 5 5 5 5 5 5 3 5 5 5 5 5 5 3 5 5 5 5 5 5 5 5 5 5 5 5 5 5 5 5 5 5 3 5 5 5 5 5 5 5 5 5 5 5 5 5 5 5 5 5 5 5 5 5 5 5 5 5 5 5 5 5 5 5 5 5 5 3 5 5 5 5 3 5 5 5 5 5 5 5 3 5 5 5 5 5 5 5 5 5 3 5 5 3 5 5 5 5 5 3 5 5 5 3 5 5 3 5 5 5 5 5 5 5 5 5 5 5 5 5 5 5 5 5 5 5 5 3 5 5 5 5 5 5 5 5 5 5 3 3 5 3 5 5 5 5 5 3 5 5 5 5 3 5 5 5 5 5 3 5 3 5 5 3 5 5 5 5 5 5 5 5 3 5 5 5 5 5 5 3 5 5 5 5 5 5 3 5 5 5 5 3 5 5 3 5 3 5 5 3 5 5 5 5 5 5 3 5 5 5 5 3 5 5 5 5 5 5 5 5 3 3 5 5 5 5 5 5 5 5 3 5 5 5 5 5 5 3 5 5 5 5 5 5 5 3 5 5 5 3 5 5 5 5 5 5 5 5 5 5 5 5 3 5 5 5 5 3 5 5 3 5 5 5 5 3 5 5 5 3 3 5 5 5 3 5 5 5 3 5 5 5 5 5 5 5 5 5 3 5 5 5 3 5 5 5 5 5 5 5 5 5 5 5 5 3 5 3 5 5 3 5 5 3 5 5 5 5 5 5 5 3 5 5 5 5 5 3 5 3 5 5 5 3 3 5 3 3 5 3 5 5 5 5 5 5 3 5 3 5 5 5 5 5 5 5 5 5 5 5 5 5 3 5 5 3 5 3 5 5 3 5 5 5 3 3 5 5 3 5 5 5 5 5 5 5 5 5 5 5 5 5 5 5 5 5 5 5 5 5 5 5 3 3 5 3 5 3 5 5 3 3 5 5 3 5 5 3 5 5 3 5 3 5 5 5 5 3 5 5 5 5 3 5 3 3 5 3 5 5 3 3 5 5 5 3 5 5 5 5 3 3 5 5 5 5 5 3 5 5 5 5 5 5 5 5 5 5 5 3 5 3 5 3 5 5 3 5 3 5 5 5 5 5 5 5 5 3 5 5 3 5 5 5 5 3 5 5 5 5 5 5 5 5 5 5 5 5 3 5 5 5 5 5 5 5 5 5 5 5 3 5 5 5 5 5 5 3 5 3 5 5 3 5 5 5 5 5 5 5 5 5 5 5 5 5 5 5 5 5 3 3 5 5 5 3 5 5 3 5 5 5 5 5 5 5 5 5 5 5 5 5 5 5 5 5 5 5 5 5 5 5 5 5 3 3 5 5 5 5 5 5 5 5 5 5 5 3 5 5 5 5 5 5 5 5 5 5 5 5 5 5 5 5 5 5 5 5 5 5 5 5 5 5 5 5 5 5 5 5 5 3 5 5 5 5 5 3 5 5 3 5 5 3 3 5 5 5 5 5 5 5 5 5 5 5 5 5 3 5 5 3 5 5 5 5 5 5 3 5 5 3 5 5 5 5 5 5 5 5 5 5 5 5 5 3 5 5 5 5 5 5 5 3 5 5 5 5 5 5 5 5 5 5 5 5 3 5 5 3 5 5 5 5 5 5 5 5 5 5 5 5 5 5 5 5 5 5 5 5 3 5 5 3 5 3 5 5 5 3 5 5 3 5 3 5 5 5 3 5 5 5 5 3 5 5 5 5 5 5 5 3 5 5 5 3 5 5 5 5 5 5 5 5 5 5 5 5 3 5 5 5 5 5 5 5 5 3 5 5 5 5 5 5 5 5 5 5 5 3 5 5 5 5 5 5 5 5 5 5 5 5 5 5 5 5 5 5 5 3 3 5 5 5 3 5 5 5 5 5 5 5 5 5 5 5 5 3 5 5 5 5 5 5 5 5 5 3 5 5 5 5 5 5 5 5 5 5 5 5 5 5 5 5 3 5 3 5 5 5 5 5 3 5 5 5 5 3 5 5 5 3 5 5 5 3 5 5 5 5 5 5 5 5 5 3 5 5 5 3 5 5 3 5 5 5 5 5 5 3 5 5 5 5 5 5 5 5 3 5 5 5 3 5 5 5 5 5 5 5 5 5 5 5 5 5 5 5 5 5 5 5 5 5 5 5 5 5 5 5 3 5 5 5 5 5 5 5 3 5 5 5 5 5 5 5 5 5 5 5 5 5 5 5 5 5 5 5 5 5 5 5 5 5 3 5 3 5 5 5 5 5 5 3 5 5 5 3 5 5 3 5 5 5 5 5 5 5 5 5 5 5 5 3 5 5 5 5 5 3 5 5 5 5 5 5 5 5 5 5 5 5 5 3 5 5 5 3 5 5 5 5 5 5 5 5 5 5 5 5 3 3 5 5 5 5 3 5 5 5 5 5 5 5 5 5 3 3 5 5 5 5 5 3 5 5 5 5 5 3 5 5 5 5 5 3 5 3 5 5 5 5 3 5 3 5 3 3 5 5 5 5 5 5 5 3 3 5 5 5 5 5 5 3 3 3 5 3 3 5 5 5 3 5 5 5 5 5 3 3 3 5 3 5 5 5 3 5 3 3 5 5 5 5 5 5 5 3 3 5 5 3 3 3 5 5 5 5 5 5 5 5 5 5 5 5 5 5 5 5 5 5 5 5 5 5 5 5 5 5 5 5 5 5 5 5 5 5 5 5 5 5 5 5 3 5 5 5 5 5 5 5 5 5 5 3 5 5 5 5 5 5 3 5 5 3 5 5 5 5 5 5 5 5 5 5 5 5 5 3 5 3 5 5 5 5 3 5 5 5 3 5 5 3 5 5 5 3 5 5 3 5 5 5 5 5 3 5 5 5 5 5 5 5 3 5 5 5 5 5 5 5 3 5 5 3 5 5 5 5 3 5 3 5 5 5 5 5 3 5 5 5 5 3 5 5 5 5 5 5 3 3 5 5 5 5 5 3 5 5 3 5 5 5 5 5 5 5 5 5 5 3 5 5 5 5 5 5 5 5 5 5 5 5 5 5 5 5 5 5 3 5 5 5 5 5 5 3 5 5 5 5 5 5 5 3 3 5 5 5 5 3 5 5 5 5 5 5 5 3 5 5 3 5 3 3 3 5 5 5 5 5 5 3 5 5 5 5 5 3 5 5 5 5 3 5 5 5 3 5 5 5 3 5 5 5 5 5 5 5 5 5 5 5 5 5 5 5 5 5 5 5 5 5 5 5 5 5 3 5 5 5 5 5 5 5 3 5 3 5 5 5 5 5 5 3 5 5 3 5 5 5 3 5 5 3 5 5 5 5 5 3 5 5 5 3 3 5 5 5 5 5 5 5 5 5 5 5 5 3 5 5 5 5 5 5 5 5 5 3 5 5 5 5 5 3 3 5 5 5 5 5 5 5 5 5 3 5 5 5 5 5 5 5 5 3 5 5 5 5 5 5 5 5 5 5 5 5 5 5 5 5 5 5 3 5 5 5 5 3 5 3 5 3 5 5 5 5 5 5 5 5 5 5 5 5 5 5 5 5 5 3 5 5 5 5 5 3 5 5 5 3 3 5 5 5 5 5 3 5 5 5 5 3 5 5 5 5 5 5 5 5 3 5 5 5 5 5 5 5 3 5 5 5 5 5 5 5 5 5 3 5 5 5 5 5 5 5 5 5 5 5 5 5 5 5 5 5 5 3 5 5 5 5 5 5 5 5 5 5 5 5 5 3 5 5 5 5 5 5 3 5 5 3 5 5 3 5 5 5 5 5 5 5 5 5 5 5 5 5 5 5 5 5 5 5 5 5 5 5 5 5 5 3 5 3 5 3 3 5 5 5 3 5 5 5 5 5 5 5 5 5 3 3 5 3 5 5 5 5 5 5 5 5 5 5 5 5 5 5 3 5 3 3 5 3 5 5 5 5 5 5 5 5 5 3 3 5 5 5 5 5 5 5 5 5 5 5 5 5 5 5 5 5 5 5 5 5 5 3 5 5 5 5 5 3 5 5 5 5 5 3 5 5 5 3 5 5 5 5 5 5 5 5 5 3 5 5 5 5 3 5 5 5 5 5 5 3 5 5 5 5 5 5 5 3 5 5 5 5 3 5 5 5 5 5 5 5 5 5 5 3 5 5 5 5 3 5 5 5 3 5 5 5 5 5 3 5 5 5 5 5 5 5 5 5 5 5 5 5 5 3 3 5 5 3 5 5 5 5 5 5 5 3 5 5 5 5 5 5 3 5 5 5 5 5 5 5 5 5 5 5 5 5 5 5 5 5 5 5 5 5 5 5 3 5 5 5 5 5 5 5 5 3 5 5 5 5 3 5 5 5 5 5 3 5 3 5 3 5 5 5 5 5 5 5 3 5 5 5 3 5 5 5 5 5 3 5 5 5 5 5 3 5 3 5 5 3 5 3 5 5 5 5 5 3 5 5 5 3 5 5 5 5 5 5 5 5 5 5 3 5 5 5 5 5 5 5 5 5 5 5 5 5 5 5 5 5 5 5 5 5 5 3 5 5 5 5 5 5 5 5 5 5 5 5 5 5 5 5 5 5 3 5 5 5 3 5 5 5 5 5 5 3 5 5 5 3 3 5 3 5 3 3 5 3 5 5 3 5 5 3 3 5 5 5 5 5 5 5 5 3 5 3 5 5 5 5 5 5 5 5 5 5 5 5 5 5 5 5 5 5 5 5 5 5 3 5 5 5 5 5 5 5 5 3 5 5 3 5 5 3 3 5 5 3 5 5 5 5 5 5 5 5 5 5 5 5 5 5 5 5 5 5 5 5 5 5 5 5 5 5 5 5 5 5 5 5 5 5 5 5 5 5 5 3 5 3 5 5 5 5 5 5 5 5 5 5 5 5 5 5 5 5 5 5 5 5 5 5 5 5 5 5 5 5 5 5 5 5 5 5 5 5 5 5 5 5 3 5 5 3 5 5 5 5 5 3 5 3 5 5 3 5 5 5 5 5 5 3 5 5 5 5 5 5 5 5 5 5 5 3 5 5 3 3 5 3 5 5 3 5 5 5 5 3 5 5 5 5 5 5 5 5 5 3 5 3 5 5 5 5 5 5 5 3 5 3 5 5 5 5 5 5 5 5 5 3 5 3 5 5 5 5 5 5 5 5 5 5 3 5 5 5 3 5 5 3 5 5 3 5 5 5 5 3 5 5 5 3 5 5 5 5 5 5 5 5 5 5 5 5 5 5 3 5 5 5 5 5 5 3 5 3 5 3 5 5 5 3 5 5 5 5 5 5 5 5 3 5 5 5 5 5 3 5 5 3 5 5 5 5 5 5 5 5 5 3 5 5 5 3 5 5 5 5 5 5 3 5 5 5 5 5 5 5 5 5 5 5 5 5 5 5 5 5 5 5 5 5 5 5 5 5 5 5 5 5 5 5 3 5 5 5 5 5 3 5 5 3 3 5 5 5 5 3 5 5 5 5 5 3 5 5 5 5 5 5 5 5 5 5 5 5 5 5 5 5 3 5 5 5 5 5 5 5 5 3 3 5 5 5 5 5 5 3 5 5 5 5 3 5 5 5 5 5 5 5 5 5 5 5 5 5 5 5 5 5 5 5 5 5 5 5 5 3 5 5 3 5 5 5 5 5 5 5 5 5 5 5 5 5 5 5 5 5 5 5 5 5 5 5 5 5 5 5 3 5 3 5 5 5 5 5 3 5 5 5 5 5 5 5 5 5 5 5 5 5 5 5 5 5 5 5 5 3 3 5 3 5 5 5 5 5 5 5 5 5 5 5 5 5 5 5 5 3 5 5 5 3 5 5 5 5 5 5 5 5 5 5 5 5 5 3 5 5 5 5 5 5 5 5 5 5 5 5 5 5 5 5 5 5 5 5 5 5 3 5 5 5 5 5 5 5 5 5 5 5 5 5 3 5 3 5 5 3 3 5 5 5 5 5 5 5 5 5 5 5 5 5 5 5 5 5 5 5 5 3 5 5 3 5 5 5 3 5 5 5 5 5 5 3 5 5 5 3 5 5 5 5 5 5 5 5 3 5 5 3 5 5 3 5 3 5 5 5 5 3 3 5 5 3 3 5 5 3 5 5 5 5 3 5 5 3 3 5 3 5 5 5 5 5 5 5 5 5 5 5 5 5 5 5 5 5 5 5 5 3 5 5 5 5 3 5 5 5 5 3 3 5 5 5 5 5 5 5 5 5 5 5 5 3 5 5 5 3 5 5 5 5 5 5 5 3 5 5 5 3 5 5 3 3 5 5 5 3 5 5 5 3 5 5 5 5 5 5 5 5 5 5 5 5 5 5 5 5 5 5 3 5 5 5 5 5 5 5 5 5 5 5 5 5 5 5 5 5 5 3 3 5 5 5 5 5 3 3 5 3 5 5 5 5 5 5 5 5 5 3 5 5 5 3 5 5 5 5 5 5 5 5 5 5 5 5 5 5 3 5 5 5 5 5 5 5 3 5 5 3 5 5 5 5 5 5 3 5 5 5 5 3 5 5 5 5 5 5 3 5 5 5 5 5 5 5 5 3 3 5 5 5 3 3 5 5 5 5 5 3 5 5 5 5 5 5 3 5 5 5 5 3 5 5 5 5 5 3 5 5 5 5 3 5 5 5 5 5 5 5 5 5 5 5 5 5 5 5 5 5 5 5 5 5 5 5 5 5 3 5 5 5 5 3 5 3 5 3 5 5 3 5 5 3 5 5 3 5 5 5 5 5 5 3 5 5 3 5 3 3 3 5 5 3 5 3 3 5 5 5 3 5 3 5 5 5 5 5 5 3 5 5 5 3 5 5 5 5 5 5 5 3 5 5 5 3 5 3 3 5 5 5 5 5 5 5 3 5 5 5 5 5 5 5 5 3 3 5 5 5 5 3 5 5 3 5 5 5 3 5 5 5 3 3 5 5 5 5 3 5 5 5 5 5 3 3 5 5 5 5 5 5 5 5 5 5 5 5 5 5 5 5 5 5 5 5 5 5 5 5 5 5 5 5 5 5 5 3 5 5 5 3 5 5 5 5 5 5 5 5 5 5 5 5 5 5 5 3 5 3 3 5 5 3 5 5 5 5 5 5 5 5 5 5 5 5 5 5 5 5 5 5 5 5 5 5 5 3 5 5 3 3 5 5 5 5 5 5 5 3 5 5 5 3 5 5 5 5 3 3 5 5 5 5 5 5 5 3 5 5 5 5 3 5 5 5 5 3 5 5 5 5 5 5 5 5 5 5 5 5 5 5 5 5 5 5 5 3 5 5 5 5 5 5 5 5 5 5 5 5 5 5 5 5 3 5 5 5 3 5 5 5 5 5 5 5 5 5 3 5 5 5 5 5 5 5 5 5 5 5 5 5 5 5 5 5 5 5 5 5 3 5 5 5 5 5 5 5 5 5 5 5 5 5 5 5 5 5 3 5 5 5 5 5 3 5 5 5 5 5 5 5 5 5 5 5 5 5 5 5 5 5 5 5 5 5 5 5 5 5 5 5 3 5 5 3 5 5 5 3 5 5 5 5 5 5 5 5 5 5 5 5 5 5 5 3 5 3 5 5 5 5 5 5 5 5 5 3 5 5 5 5 5 5 5 5 5 3 3 5 5 5 5 5 5 5 5 5 5 5 5 5 5 5 5 5 5 5 5 5 5 5 5 5 5 5 5 5 5 5 5 5 5 5 5 5 5 5 5 5 5 5 5 5 5 5 5 5 5 5 5 5 5 5 5 5 5 5 5 5 5 5 5 5 5 5 5 5 5 5 3 5 5 5 5 5 5 3 5 5 5 5 5 5 5 5 5 3 5 3 5 5 5 5 5 5 5 5 5 5 5 5 5 5 5 5 5 5 5 5 5 5 5 5 5 5 5 5 5 5 5 5 5 5 3 5 5 5 3 3 5 5 5 5 5 5 5 5 5 5 5 5 5 5 5 5 5 5 5 5 5 5 3 3 5 5 5 5 5 5 5 5 3 5 5 5 5 5 5 3 5 5 5 5 5 3 5 5 5 5 3 5 5 5 3 5 5 5 3 5 5 3 5 5 5 5 5 5 5 5 5 5 5 5 5 3 5 5 5 5 5 5 5 5 3 5 5 5 5 5 5 5 5 5 5 5 3 5 5 5 3 5 5 5 5 3 5 5 5 5 5 5 5 5 3 5 3 5 5 3 5 5 5 5 5 3 5 5 5 5 5 5 5 5 5 5 5 5 3 5 5 5 5 5 5 5 5 5 3 5 5 5 5 5 5 3 5 5 5 5 5 5 5 3 5 5 5 5 5 3 5 5 5 5 5 5 5 5 5 5 5 5 5 5 5 5 5 5 5 5 5 5 5 5 5 5 5 5 5 5 5 5 5 5 5 5 5 5 5 5 5 5 5 5 5 5 5 3 5 3 5 5 5 5 5 5 5 5 5 5 5 5 5 5 3 5 5 5 5 5 5 5 5 5 5 5 5 5 5 5 3 5 5 3 5 3 5 5 5 5 5 3 5 5 5 5 5 5 5 5 5 5 5 5 5 5 5 5 5 5 5 5 3 5 5 5 5 5 5 5 5 5 5 5 3 5 3 5 5 3 5 3 5 5 5 5 5 5 5 3 5 3 5 5 5 5 3 5 5 5 5 3 3 5 5 3 5 5 5 5 5 5 5 5 5 5 5 5 5 5 5 5 3 5 5 5 5 5 5 5 5 5 5 5 5 5 5 3 5 3 5 5 5 5 5 5 5 3 5 3 5 5 5 5 5 5 5 5 5 3 3 5 5 5 3 5 5 5 5 3 5 3 5 5 3 5 3 3 3 5 5 3 5 5 5 3 3 3 5 5 5 5 5 5 5 5 5 5 5 3 5 5 5 5 5 5 3 5 5 5 3 5 5 5 5 5 5 5 5 3 5 5 5 3 5 5 5 5 5 5 5 5 5 5 5 5 5 5 5 5 5 5 5 5 5 5 5 5 5 5 5 5 5 5 5 5 5 5 5 5 5 5 5 5 5 5 5 5 5 5 5 5 5 5 5 5 5 5 5 5 5 5 5 5 3 5 5 5 5 5 3 5 5 5 5 3 5 5 5 3 5 5 5 5 5 5 5 5 5 5 5 5 5 5 5 5 5 5 5 5 5 5 5 5 5 5 5 5 5 5 5 5 5 5 5 5 5 5 5 5 3 5 5 3 5 5 5 5 5 5 5 3 5 5 5 5 5 5 5 5 5 5 5 3 5 5 3 5 3 5 5 5 3 5 5 5 5 5 5 5 5 3 5 5 5 5 3 5 5 5 5 3 5 3 5 5 5 5 5 5 5 5 5 5 5 5 3 5 3 5 5 5 5 5 5 5 5 5 5 5 5 5 3 5 5 5 5 5 5 5 5 5 3 5 5 5 3 5 5 5 5 5 5 5 5 5 5 5 5 5 5 5 5 5 5 5 5 5 5 5 5 5 5 5 5 5 5 5 5 5 5 5 3 5 5 3 5 5 5 5 3 5 5 5 5 5 5 5 5 5 5 5 5 5 5 5 3 5 5 5 5 5 5 5 5 5 3 5 3 5 5 5 5 5 5 5 3 5 5 5 5 5 5 5 5 5 5 5 5 5 5 3 5 5 5 5 5 5 5 5 5 5 5 3 5 5 5 5 5 5 5 5 5 5 5 5 5 5 5 5 5 5 5 5 5 5 5 3 5 3 5 5 5 5 5 5 3 5 3 5 5 5 3 5 5 5 3 5 5 5 3 5 5 3 5 5 5 5 5 5 5 3 5 5 5 5 5 5 5 3 5 5 5 5 5 5 5 5 5 5 5 5 5 3 5 5 5 5 5 5 5 5 3 5 5 5 5 5 5 5 5 5 5 5 5 5 5 5 5 5 5 5 5 3 5 5 5 5 5 5 5 5 5 5 5 5 5 5 5 5 5 5 5 5 5 5 5 5 5 5 5 5 5 5 5 5 5 5 5 5 5 5 5 5 5 5 5 5 5 5 5 5 5 5 3 5 3 5 5 5 3 5 5 3 3 5 3 5 5 5 5 5 5 5 5 5 5 5 5 5 5 5 5 5 5 5 5 5 5 5 5 5 5 5 5 5 5 5 5 5 5 5 3 5 5 5 5 3 5 5 3 5 5 5 3 5 5 5 5 3 5 3 3 5 5 5 5 3 5 5 5 3 5 5 5 3 5 5 5 5 5 5 3 5 5 5 5 5 5 5 5 5 5 5 5 5 5 5 5 5 5 5 5 3 5 5 5 5 5 5 5 5 5 5 5 5 5 5 5 5 5 5 3 5 5 3 5 5 3 5 5 5 5 5 5 5 5 5 5 5 3 5 5 5 5 3 5 5 5 5 3 5 5 5 3 5 5 5 5 5 5 5 5 5 5 5 5 5 5 5 5 5 5 5 5 5 5 5 5 5 3 5 5 5 5 5 5 5 5 3 5 5 5 3 5 5 5 5 5 5 5 5 5 5 5 5 5 5 5 5 5 5 5 5 5 5 5 5 3 5 5 5 3 5 5 5 5 5 5 5 5 3 5 5 3 5 5 5 5 3 5 5 5 5 5 5 5 3 5 3 5 5 3 5 5 3 3 5 5 5 5 5 5 5 5 5 5 5 5 5 5 5 5 5 5 5 5 5 3 5 5 5 5 3 5 5 5 5 5 5 5 5 5 5 5 5 5 3 5 5 3 5 5 5 5 5 5 5 5 5 5 5 5 5 5 5 5 5 5 5 5 5 5 5 5 5 5 5 5 5 5 5 5 5 5 5 5 5 5 5 5 5 5 5 5 5 5 5 5 5 5 5 5 5 5 5 5 5 5 5 5 5 5 5 5 5 5 5 5 5 5 5 5 5 5 5 5 5 5 5 5 5 5 5 5 5 5 5 5 5 5 5 5 5 5 5 5 5 5 5 5 5 5 5 5 5 5 5 5 5 5 5 5 5 5 5 5 5 5 5 5 5 5 5 5 5 5 5 5 3 5 5 5 5 5 5 5 3 5 5 5 5 5 5 5 5 5 3 5 3 5 5 5 3 5 5 3 5 5 5 5 5 5 5 5 5 5 5 5 5 5 5 5 5 5 5 5 5 5 5 5 5 5 5 5 5 5 5 5 5 5 5 5 5 3 5 5 3 3 5 5 3 5 5 3 5 5 5 3 5 5 5 5 5 5 5 5 5 3 5 5 5 5 5 5 3 5 5 5 5 5 5 5 5 5 5 5 5 5 5 5 5 5 5 5 5 5 5 5 5 5 5 5 5 5 5 5 3 5 5 5 5 5 5 5 5 5 5 5 5 5 5 5 5 5 5 5 5 5 5 5 5 5 5 5 5 5 5 5 5 5 5 5 5 5 5 5 5 5 5 5 5 5 5 3 5 3 5 5 5 5 3 5 5 5 5 3 5 5 5 5 3 5 5 5 5 5 5 5 5 3 5 5 3 5 3 5 5 5 5 3 5 5 3 3 5 5 5 5 5 5 3 5 5 5 5 5 5 5 5 5 5 3 3 5 5 5 5 5 3 5 5 3 5 5 5 5 3 5 5 3 5 5 5 5 5 5 5 5 5 5 5 5 5 5 5 5 5 5 5 5 5 5 5 5 5 5 5 5 5 3 5 3 5 5 5 5 5 5 5 5 5 5 5 5 5 3 5 5 5 5 3 3 5 5 5 5 5 5 5 5 5 5 5 5 5 5 5 5 5 5 5 5 5 5 5 5 5 5 5 5 5 5 5 5 5 5 5 5 5 5 5 5 5 5 3 5 5 5 3 5 5 5 5 5 5 5 5 5 5 5 5 5 5 5 5 5 5 5 5 3 5 5 3 5 5 5 5 5 5 5 5 5 3 5 5 5 5 5 3 5 5 5 5 5 3 5 3 5 5 5 5 5 5 5 5 5 5 5 5 5 3 5 5 5 3 3 5 5 5 5 5 5 5 5 3 5 5 3 5 5 3 3 5 5 5 5 5 3 5 5 5 5 5 5 5 3 5 5 3 3 5 5 5 5 5 5 3 3 5 5 5 3 5 5 5 5 5 5 5 3 5 5 5 5 5 5 5 5 5 5 5 5 5 5 5 5 5 5 5 5 5 5 5 5 5 5 3 5 5 5 5 5 5 5 3 5 5 5 5 5 5 5 5 5 5 5 3 5 5 5 5 5 5 5 5 3 5 5 5 5 5 5 5 5 5 5 5 5 5 5 5 5 3 5 5 5 3 5 5 5 5 5 3 5 5 5 5 5 5 5 5 5 5 5 5 5 5 3 5 5 5 5 3 5 5 3 5 5 5 5 5 3 5 5 5 5 5 5 5 5 5 5 5 5 5 5 3 5 3 5 5 5 3 5 3 5 3 5 5 5 5 5 5 3 3 5 5 5 5 5 5 3 5 3 5 5 5 5 5 5 5 5 5 5 5 5 5 5 5 5 5 3 5 5 5 3 3 5 5 5 5 5 3 5 5 3 3 5 5 5 5 5 5 5 5 5 5 5 5 5 5 5 5 5 5 5 5 5 5 5 5 5 5 5 5 5 5 5 5 5 5 5 5 5 5 5 5 5 5 5 5 3 5 5 3 3 3 5 5 5 5 5 5 3 5 5 5 5 5 5 5 5 5 3 5 5 5 3 5 5 5 5 5 5 5 5 5 5 5 5 5 5 5 5 5 5 5 5 3 5 5 5 5 3 5 5 5 5 5 5 5 5 5 5 5 5 5 5 5 5 5 5 5 5 5 5 5 5 5 5 5 5 5 5 5 5 5 5 3 5 3 5 5 5 5 5 5 5 5 3 5 5 5 3 5 3 5 5 5 5 5 5 5 5 3 5 5 5 5 3 5 5 5 5 3 5 5 5 5 5 5 5 3 5 5 5 5 3 5 5 5 5 5 5 5 5 5 5 5 5 5 5 5 5 5 5 5 5 5 5 5 5 5 5 5 5 5 5 5 5 5 5 5 5 5 5 5 5 5 5 5 5 5 5 3 5 5 5 5 3 3 5 5 3 3 5 5 5 5 5 5 5 5 5 5 5 5 5 5 5 5 5 5 5 3 5 5 5 3 3 5 5 5 5 5 5 5 5 5 5 5 5 5 5 5 5 5 5 5 5 5 5 5 5 5 5 5 3 5 5 5 5 5 5 5 3 5 5 5 5 5 5 5 5 5 5 5 5 5 5 5 3 5 5 5 5 5 5 5 5 3 5 3 3 5 5 5 5 5 5 5 5 5 5 5 5 3 5 5 5 5 5 5 5 5 5 5 5 5 5 5 5 5 5 5 3 5 5 5 3 5 5 5 5 5 5 5 5 3 5 5 5 5 5 5 5 5 5 5 5 5 5 5 5 3 5 5 5 3 5 5 5 5 5 5 5 5 5 5 5 5 5 5 5 5 5 5 5 5 5 5 5 5 5 5 5 5 5 5 5 5 5 3 5 3 5 5 5 5 5 5 5 5 3 5 5 5 5 5 5 5 5 5 3 5 5 3 5 5 5 5 5 3 5 5 5 5 3 5 5 5 5 3 5 5 5 3 5 3 5 5 3 5 5 5 5 5 5 5 5 5 5 5 5 5 5 3 5 5 3 5 3 5 5 5 3 5 5 3 5 5 5 5 3 5 3 5 5 5 5 5 5 3 5 3 5 5 5 5 5 3 5 5 5 5 3 5 5 5 5 5 5 3 5 5 5 5 5 5 5 5 5 5 5 5 5 5 5 5 5 5 5 5 5 5 5 5 5 5 5 5 5 5 5 5 5 3 3 5 5 5 5 5 5 5 5 5 5 3 5 5 3 3 5 3 5 5 5 5 5 5 5 3 5 5 5 5 5 5 5 5 5 5 5 5 3 5 5 5 5 3 5 5 5 5 5 5 5 5 5 5 5 5 3 5 5 5 5 5 5 5 5 5 5 5 5 5 5 5 5 5 3 5 5 5 5 5 3 5 5 5 3 5 5 5 5 5 5 3 5 3 5 5 5 3 5 5 5 5 5 5 5 5 5 3 5 5 3 5 5 5 5 5 5 5 3 5 5 5 5 5 5 5 5 5 5 5 5 5 3 5 5 3 5 5 5 5 5 5 3 5 5 5 5 5 5 3 5 5 5 5 5 5 5 3 5 5 5 5 5 5 5 5 5 5 5 5 5 5 5 5 5 5 5 5 5 5 3 5 5 5 5 5 5 5 5 5 5 3 5 5 5 5 3 3 5 5 5 5 3 5 5 5 5 5 5 5 5 5 3 5 5 5 5 5 5 5 5 5 5 5 3 5 5 5 3 5 5 5 3 5 5 5 5 5 5 5 5 5 5 5 5 3 5 5 5 5 5 3 5 5 3 5 5 5 5 5 5 5 5 5 5 5 5 5 5 3 5 5 5 5 5 5 5 3 5 5 5 3 5 5 5 5 5 3 5 5 5 5 5 5 5 5 5 3 5 5 5 5 5 5 5 5 3 5 5 5 5 5 3 5 5 5 5 5 5 5 3 5 5 5 5 5 5 5 5 5 5 5 5 5 5 5 5 5 5 5 5 5 5 5 5 5 5 5 5 5 5 5 5 5 5 5 5 5 5 5 5 5 5 5 5 5 5 5 5 3 5 5 5 5 5 5 5 3 5 5 5 5 5 5 5 5 5 5 5 5 5 5 5 5 5 5 5 5 5 5 3 3 5 5 3 3 5 5 5 5 5 5 5 3 5 5 5 5 5 5 5 5 5 5 5 5 5 5 3 5 5 5 5 5 5 5 5 3 5 5 3 5 5 5 3 5 5 5 5 5 5 5 5 5 5 5 5 5 5 5 5 5 5 5 5 5 5 5 5 5 5 5 5 3 5 5 5 5 5 5 5 5 3 5 5 5 5 5 5 3 3 5 5 5 5 3 5 5 3 5 5 3 5 5 5 5 5 5 3 5 5 5 5 5 5 5 5 3 5 5 5 5 5 5 5 5 5 5 5 3 5 5 3 5 5 5 5 5 5 5 3 5 5 5 3 5 3 5 3 5 5 5 5 5 5 5 5 5 5 5 5 5 5 5 5 5 3 5 3 5 5 5 5 5 5 5 5 5 5 3 5 5 5 5 5 5 5 3 5 5 5 3 5 3 3 5 5 3 5 5 5 5 3 5 5 5 3 5 5 5 3 5 3 3 5 5 5 5 5 5 3 5 5 5 5 5 5 5 5 3 3 3 5 3 5 5 3 3 5 5 3 5 5 5 5 5 5 5 5 5 5 5 3 5 5 5 5 5 5 5 5 5 5 5 5 5 3 3 5 5 5 5 3 5 5 5 3 5 5 5 5 5 3 3 5 5 5 3 5 5 5 5 5 5 5 5 5 5 5 5 5 5 5 3 5 5 5 3 5 5 5 3 5 5 5 5 5 5 3 5 5 5 5 5 3 5 5 5 5 5 5 5 5 3 5 5 5 5 5 5 5 5 5 3 5 5 5 5 3 5 3 5 5 3 5 3 5 5 5 5 5 5 3 5 3 3 5 5 5 5 5 5 5 5 3 5 3 5 3 5 3 5 5 5 5 5 5 5 5 5 5 5 3 5 5 5 3 5 5 5 5 5 5 5 5 3 5 5 5 5 5 5 5 5 5 3 5 5 5 5 3 5 5 3 5 5 5 5 5 5 5 5 5 3 5 5 5 3 5 5 5 5 5 5 5 5 5 5 5 5 5 5 5 5 5 5 5 3 5 5 5 5 5 5 5 5 5 5 3 5 5 5 5 5 5 5 5 5 5 5 5 5 5 5 5 5 5 5 5 5 5 5 5 5 5 5 5 5 5 5 5 5 5 5 5 5 5 5 5 5 5 5 5 5 3 3 5 5 5 5 5 5 5 5 5 5 5 5 5 3 3 5 5 5 3 5 5 3 5 5 5 3 5 5 5 3 5 5 5 5 5 5 5 5 3 5 5 3 5 3 3 5 5 5 5 5 5 3 5 3 3 3 5 5 3 5 5 3 3 5 5 5 5 5 5 5 5 5 5 5 5 5 5 5 5 5 5 5 5 5 3 5 5 5 5 5 5 5 5 5 3 5 5 5 5 5 5 5 3 3 5 5 5 5 5 5 5 5 5 5 5 5 5 5 5 5 5 5 5 5 5 5 5 3 5 3 5 5 5 5 5 5 5 3 5 5 5 3 3 5 5 3 5 5 5 5 3 5 5 5 3 5 5 5 3 5 5 5 5 5 5 5 5 5 3 3 5 5 5 5 5 3 5 5 3 3 3 5 5 5 5 5 3 5 5 5 5 5 5 5 5 5 3 5 3 5 5 5 5 5 5 5 5 5 5 5 5 5 5 5 5 5 5 5 5 5 5 5 5 3 5 5 5 5 3 3 5 5 5 3 5 5 5 5 5 5 5 5 5 5 5 5 5 5 5 5 3 5 5 5 3 5 5 3 5 5 5 5 5 5 5 5 5 5 5 5 5 3 5 5 3 5 5 5 3 5 3 5 3 5 3 3 3 5 5 5 5 5 5 5 5 3 5 5 5 5 5 5 5 5 3 5 5 3 5 5 5 5 5 5 5 5 5 5 5 5 5 5 5 5 5 5 5 5 5 3 5 5 5 5 5 5 5 5 5 5 3 5 3 5 5 3 5 3 5 3 5 5 3 5 3 5 5 3 5 5 5 3 5 5 5 5 5 5 5 5 5 5 5 5 5 5 5 5 5 5 5 5 5 5 5 5 5 5 5 5 5 5 5 5 5 5 5 5 5 5 5 5 5 5 5 5 5 5 5 5 5 5 5 5 5 5 5 5 5 5 5 5 5 3 5 5 3 5 5 5 5 5 5 3 3 5 5 5 5 5 5 5 5 5 5 5 5 5 5 5 5 5 5 3 5 5 5 3 5 5 5 5 5 5 5 5 5 5 5 5 5 5 5 5 3 5 5 5 5 5 5 5 3 5 5 5 5 5 5 5 5 3 5 3 5 5 5 5 5 5 5 5 5 5 5 5 5 5 5 5 3 5 5 5 5 5 5 5 3 5 5 5 5 3 5 5 5 5 5 5 5 3 5 5 3 3 5 5 3 5 5 5 5 5 5 3 5 5 5 5 5 5 5 5 5 3 5 5 3 5 5 3 5 5 3 5 5 5 5 5 3 5 5 5 5 5 5 5 5 3 5 5 5 5 5 5 5 3 5 5 5 5 5 5 5 5 5 5 5 5 3 5 5 5 5 5 5 5 3 3 5 3 5 3 5 5 5 5 5 5 5 5 5 5 5 5 5 5 5 3 5 3 5 5 5 5 5 5 5 5 3 5 3 5 3 5 3 5 3 5 5 3 5 5 5 5 5 3 5 5 5 5 5 5 5 5 3 5 5 5 5 5 3 5 5 3 5 3 3 5 5 5 5 5 5 5 5 3 5 5 5 5 5 5 5 5 5 5 5 5 5 3 5 5 5 5 5 5 5 3 5 5 5 3 5 5 5 5 5 5 5 5 5 5 5 5 5 5 5 5 5 3 5 5 5 5 5 5 5 3 5 5 3 5 5 5 5 5 5 5 5 5 5 5 5 5 5 5 3 5 5 5 5 3 5 5 5 5 5 5 5 5 5 5 5 5 5 5 5 5 5 5 5 5 5 5 5 5 5 3 5 5 5 5 5 5 3 5 5 5 5 5 5 5 5 5 3 3 5 5 5 3 5 3 5 5 5 5 5 5 5 5 5 5 5 5 5 5 5 3 5 5 5 5 5 5 5 5 5 5 5 5 3 3 5 5 5 5 5 5 5 5 3 5 5 3 5 5 3 3 5 5 5 5 5 5 5 3 5 5 5 5 5 5 5 5 5 3 5 5 5 3 5 5 5 5 5 3 5 5 5 5 5 5 5 5 5 5 5 5 3 5 5 5 3 5 5 5 3 5 5 5 5 5 5 5 5 5 5 5 5 5 5 5 5 5 5 5 5 5 5 5 5 5 5 5 5 5 5 5 5 3 5 5 5 5 5 5 5 5 5 5 5 5 5 5 5 5 5 5 5 5 5 5 5 5 3 5 3 5 5 3 5 5 5 5 5 5 5 5 5 3 5 5 5 5 5 5 5 5 5 5 5 5 5 5 3 5 5 5 5 3 5 5 5 3 5 5 5 5 5 5 5 5 5 5 5 5 5 5 5 5 5 5 5 5 5 5 5 5 5 5 5 5 5 5 5 5 5 5 5 5 5 5 5 5 5 5 5 5 5 5 5 5 5 5 5 5 5 5 5 5 5 5 5 5 5 5 5 5 5 5 5 5 5 5 5 5 5 5 5 5 5 5 5 5 5 5 5 5 5 5 5 5 5 5 5 5 5 5 5 5 5 5 5 5 5 5 5 5 5 5 5 5 5 5 5 5 5 5 5 5 5 5 5 5 5 5 5 5 5 5 5 5 5 5 5 5 5 5 5 5 5 5 5 5 5 5 5 5 5 5 5 5 5 5 5 5 5 5 5 5 5 5 5 5 5 5 5 5 5 5 5 5 5 5 5 5 5 5 5 5 5 5 5 5 5 5 5 5 5 5 5 5 5 3 5 5 5 5 5 5 5 5 5 5 5 5 5 5 5 5 3 5 5 5 5 5 5 5 5 3 5 5 5 5 3 5 5 5 5 5 5 5 5 5 5 5 5 5 5 5 5 5 5 5 5 5 5 3 5 5 5 5 5 5 5 5 5 5 5 5 5 3 3 5 5 5 5 5 3 5 3 5 5 5 5 5 5 5 5 5 5 5 3 5 5 5 5 5 5 5 3 5 5 5 5 5 5 5 5 5 5 5 5 5 5 5 3 3 5 5 5 5 5 5 5 5 5 5 5 5 3 5 5 5 5 5 5 5 5 5 5 5 5 5 5 5 5 3 5 5 5 5 5 5 5 3 5 5 5 5 5 5 5 5 5 5 3 3 5 5 5 5 5 5 5 5 5 5 5 5 5 5 5 5 5 5 5 5 5 5 5 5 5 5 5 5 5 5 3 5 5 5 5 5 3 5 5 5 5 5 5 5 5 5 5 3 5 5 5 5 3 5 5 5 5 5 5 5 5 5 5 3 5 3 5 5 5 5 5 5 5 5 5 5 5 5 5 5 5 5 5 5 5 5 5 5 5 5 5 5 5 5 5 5 5 3 5 5 5 5 5 3 5 5 5 5 5 5 5 5 5 5 5 5 5 5 5 5 5 5 3 5 5 3 5 5 5 3 5 5 5 5 5 3 5 5 5 5 5 5 5 5 5 5 3 5 5 5 5 5 5 3 5 5 5 5 5 3 3 5 5 3 5 5 3 5 5 5 5 5 5 5 5 5 5 3 5 5 3 5 5 3 5 5 3 5 5 3 5 5 3 5 5 5 5 5 5 3 5 5 5 5 5 5 5 5 5 5 5 3 5 5 5 5 5 5 5 3 5 5 5 5 3 5 5 5 3 5 5 5 5 5 5 5 5 5 5 5 3 5 5 5 5 5 5 5 5 5 5 5 5 5 5 5 5 5 5 5 5 5 5 5 5 3 5 5 5 5 5 3 5 5 5 5 5 5 5 5 5 5 5 5 5 5 3 5 5 3 5 3 5 5 5 5 3 5 3 3 5 3 5 5 5 5 5 5 5 3 5 3 5 5 5 5 5 5 3 5 5 5 5 5 5 3 5 5 5 5 3 5 5 5 5 5 3 5 5 3 5 5 5 5 3 5 5 5 5 3 5 5 5 5 5 5 3 5 5 5 5 5 5 5 5 5 3 5 5 5 5 5 5 3 5 5 5 5 3 5 5 5 5 5 5 5 5 5 5 5 5 5 5 5 5 3 5 5 5 3 5 5 3 5 5 5 5 5 5 5 5 5 5 5 5 5 5 5 5 3 5 3 5 5 5 5 5 5 5 5 5 5 5 5 5 5 5 5 5 5 5 5 5 5 5 5 5 5 3 5 5 3 5 5 5 5 5 5 5 5 5 5 3 5 5 5 5 3 5 5 5 5 3 5 5 5 5 5 5 5 5 5 3 5 5 5 5 5 5 5 5 5 5 5 5 5 5 5 5 5 5 5 5 5 5 5 5 5 5 5 5 
</DataArray>
</Cells>
<PointData Scalars="" Vectors="displacement," Tensors="">
<DataArray type="Float64" Name="displacement" NumberOfComponents="3" format="ascii">
-0.034997102006871166 -2.6042926074362894e-07 0 -0.034105868196297136 -0.00016999321339418393 0 -0.034997644311652955 -7.3022196367543186e-07 0 -0.034997102006871166 -2.6042926074362894e-07 0 -0.033457698712475732 -0.00010905035755398884 0 -0.034105868196297136 -0.00016999321339418393 0 -0.034997102006871166 -2.6042926074362894e-07 0 -0.033457698712475732 -0.00010905035755398884 0 -0.031404200709067555 -2.2792889733456184e-07 0 -0.033457698712475732 -0.00010905035755398884 0 -0.031404200709067555 -2.2792889733456184e-07 0 -0.032814200177592012 0.00011379633160053974 0 -0.031404200709067555 -2.2792889733456184e-07 0 -0.032814200177592012 0.00011379633160053974 0 -0.03119226119073306 -6.6625042400969366e-05 0 -0.033108065187899119 0.00025569207597174882 0 -0.033254507614154008 0.00025883186151904615 0 -0.032814200177592012 0.00011379633160053974 0 -0.032086459046259862 0.00044730287331853842 0 -0.032022500758071018 0.00014509853540545071 0 -0.032814200177592012 0.00011379633160053974 0 -0.032022500758071018 0.00014509853540545071 0 -0.032134130935043852 4.5074280053035106e-06 0 -0.033457698712475732 -0.00010905035755398884 0 -0.032814200177592012 0.00011379633160053974 0 -0.034105868196297136 -0.00016999321339418393 0 -0.032814200177592012 0.00011379633160053974 0 -0.034105868196297136 -0.00016999321339418393 0 -0.034441087510076802 0.00029075324689642961 0 -0.034105868196297136 -0.00016999321339418393 0 -0.034888199527328523 -2.0637438514517286e-05 0 -0.034441087510076802 0.00029075324689642961 0 -0.034105868196297136 -0.00016999321339418393 0 -0.034997644311652955 -7.3022196367543186e-07 0 -0.034888199527328523 -2.0637438514517286e-05 0 -0.034999997649002496 2.142209397941945e-10 0 -0.034997128299493946 -5.2231291103253326e-07 0 -0.034999996247931313 -7.1607387238141045e-10 0 -0.034998812668184151 4.7823197184167575e-07 0 -0.034413075695844224 0.00015543168300046579 0 -0.034999996247931313 -7.1607387238141045e-10 0 -0.034996631329311863 -1.052198012955917e-06 0 -0.034998414450380114 -1.8777751019234373e-06 0 -0.034999996247931313 -7.1607387238141045e-10 0 -0.034999994725287482 -3.0404579913001766e-09 0 -0.034998414450380114 -1.8777751019234373e-06 0 -0.034997128299493946 -5.2231291103253326e-07 0 -0.034999996247931313 -7.1607387238141045e-10 0 -0.034996631329311863 -1.052198012955917e-06 0 -0.034997128299493946 -5.2231291103253326e-07 0 -0.034996631329311863 -1.052198012955917e-06 0 -0.034993087623784912 -6.1307193511473437e-07 0 -0.034413075695844224 0.00015543168300046579 0 -0.033505974741780041 0.00018968071523277029 0 -0.034996631329311863 -1.052198012955917e-06 0 -0.034995707313844576 -1.0355224748171031e-06 0 -0.034993087623784912 -6.1307193511473437e-07 0 -0.034996631329311863 -1.052198012955917e-06 0 -0.034995707313844576 -1.0355224748171031e-06 0 -0.034998414450380114 -1.8777751019234373e-06 0 -0.034007666524202534 9.1735495703712969e-05 0 -0.033505974741780041 0.00018968071523277029 0 -0.033089655979713389 0.00020443128388052486 0 -0.032927768798506771 0.00041097255957488579 0 -0.032690012148087519 0.00031473222042017757 0 -0.033089655979713389 0.00020443128388052486 0 -0.032927768798506771 0.00041097255957488579 0 -0.033147621267105111 0.00046355626293226857 0 -0.032927768798506771 0.00041097255957488579 0 -0.032690012148087519 0.00031473222042017757 0 -0.032887575892141245 0.00065680359421022017 0 -0.031647955281630814 0.00054504783678673062 0 -0.031474645569590558 0.00026645982754234989 0 -0.031810116211238589 0.00031871277046204878 0 -0.033505974741780041 0.00018968071523277029 0 -0.032532260527402213 0.00036040552683344509 0 -0.031474645569590558 0.00026645982754234989 0 -0.031810116211238589 0.00031871277046204878 0 -0.031709903774324963 0.00014731671139892405 0 -0.032887575892141245 0.00065680359421022017 0 -0.033147621267105111 0.00046355626293226857 0 -0.033213480275495116 0.00067354264839019284 0 -0.032927768798506771 0.00041097255957488579 0 -0.032887575892141245 0.00065680359421022017 0 -0.033147621267105111 0.00046355626293226857 0 -0.031647955281630814 0.00054504783678673062 0 -0.032086459046259862 0.00044730287331853842 0 -0.031810116211238589 0.00031871277046204878 0 -0.033505974741780041 0.00018968071523277029 0 -0.033254507614154008 0.00025883186151904615 0 -0.034888199527328523 -2.0637438514517286e-05 0 -0.035012250505092046 0.0002565717312084958 0 -0.034441087510076802 0.00029075324689642961 0 -0.031810116211238589 0.00031871277046204878 0 -0.032022500758071018 0.00014509853540545071 0 -0.03187296522267366 0.00016477026068674683 0 -0.031810116211238589 0.00031871277046204878 0 -0.03187296522267366 0.00016477026068674683 0 -0.031709903774324963 0.00014731671139892405 0 -0.032086459046259862 0.00044730287331853842 0 -0.031810116211238589 0.00031871277046204878 0 -0.032022500758071018 0.00014509853540545071 0 -0.032022500758071018 0.00014509853540545071 0 -0.032017984465895433 6.1884611464599161e-05 0 -0.032134130935043852 4.5074280053035106e-06 0 -0.032017984465895433 6.1884611464599161e-05 0 -0.032029527072817934 7.2083242655864485e-05 0 -0.032134130935043852 4.5074280053035106e-06 0 -0.032017984465895433 6.1884611464599161e-05 0 -0.031967891445363099 6.3992611039490171e-05 0 -0.031978919448886547 5.9992044833496213e-05 0 -0.032017984465895433 6.1884611464599161e-05 0 -0.031949400574057756 9.4018205193362796e-05 0 -0.031967891445363099 6.3992611039490171e-05 0 -0.032022500758071018 0.00014509853540545071 0 -0.032017984465895433 6.1884611464599161e-05 0 -0.031949400574057756 9.4018205193362796e-05 0 -0.032022500758071018 0.00014509853540545071 0 -0.03187296522267366 0.00016477026068674683 0 -0.031949400574057756 9.4018205193362796e-05 0 -0.03187296522267366 0.00016477026068674683 0 -0.031949400574057756 9.4018205193362796e-05 0 -0.031872599487133758 7.3778343980199383e-05 0 -0.03187296522267366 0.00016477026068674683 0 -0.031872599487133758 7.3778343980199383e-05 0 -0.031709903774324963 0.00014731671139892405 0 -0.031872599487133758 7.3778343980199383e-05 0 -0.031709903774324963 0.00014731671139892405 0 -0.031706002293958958 -1.0670111633742348e-05 0 -0.028719339245256284 0.00073042044369929591 0 -0.028615206511245921 0.00077762678861869922 0 -0.031872599487133758 7.3778343980199383e-05 0 -0.031922974975112532 5.0000544865917246e-05 0 -0.031872346263171578 -3.1848449880801507e-05 0 -0.031872599487133758 7.3778343980199383e-05 0 -0.031835507263180789 -8.7326874429065706e-05 0 -0.031706002293958958 -1.0670111633742348e-05 0 -0.028715793603577778 0.00081547105916050322 0 -0.028615206511245921 0.00077762678861869922 0 -0.031922974975112532 5.0000544865917246e-05 0 -0.031978919448886547 5.9992044833496213e-05 0 -0.031955921088030102 6.2524823045357941e-05 0 -0.031949400574057756 9.4018205193362796e-05 0 -0.031967891445363099 6.3992611039490171e-05 0 -0.031922974975112532 5.0000544865917246e-05 0 -0.031949400574057756 9.4018205193362796e-05 0 -0.031872599487133758 7.3778343980199383e-05 0 -0.031922974975112532 5.0000544865917246e-05 0 -0.031967891445363099 6.3992611039490171e-05 0 -0.031922974975112532 5.0000544865917246e-05 0 -0.031978919448886547 5.9992044833496213e-05 0 -0.031978919448886547 5.9992044833496213e-05 0 -0.031955921088030102 6.2524823045357941e-05 0 -0.031980679904696233 6.2596857286067149e-05 0 -0.028615206511245921 0.00077762678861869922 0 -0.02784726142947436 0.0005654464494348518 0 -0.031955921088030102 6.2524823045357941e-05 0 -0.031980679904696233 6.2596857286067149e-05 0 -0.031955897363543179 6.1151586402689371e-05 0 -0.031980679904696233 6.2596857286067149e-05 0 -0.032029527072817934 7.2083242655864485e-05 0 -0.031990767938392992 6.5965865226606734e-05 0 -0.032029527072817934 7.2083242655864485e-05 0 -0.031990767938392992 6.5965865226606734e-05 0 -0.032051622480115519 0.00013224143717280654 0 -0.031978919448886547 5.9992044833496213e-05 0 -0.031980679904696233 6.2596857286067149e-05 0 -0.032029527072817934 7.2083242655864485e-05 0 -0.032017984465895433 6.1884611464599161e-05 0 -0.031978919448886547 5.9992044833496213e-05 0 -0.032029527072817934 7.2083242655864485e-05 0 -0.031474645569590558 0.00026645982754234989 0 -0.031266333866328377 -3.3961571514415148e-05 0 -0.031530148362252153 9.7477101276203066e-06 0 -0.032887575892141245 0.00065680359421022017 0 -0.033083968897887887 0.00097644786593557441 0 -0.033213480275495116 0.00067354264839019284 0 -0.032532260527402213 0.00036040552683344509 0 -0.031794453071997159 0.00064162510030805369 0 -0.031266333866328377 -3.3961571514415148e-05 0 -0.031530148362252153 9.7477101276203066e-06 0 -0.03142121263544316 -0.00014097400981882699 0 -0.031474645569590558 0.00026645982754234989 0 -0.031530148362252153 9.7477101276203066e-06 0 -0.031709903774324963 0.00014731671139892405 0 -0.031530148362252153 9.7477101276203066e-06 0 -0.031709903774324963 0.00014731671139892405 0 -0.031706002293958958 -1.0670111633742348e-05 0 -0.031835507263180789 -8.7326874429065706e-05 0 -0.031595850117986359 -0.00019767898357369418 0 -0.031606250908048063 -0.00046227727615718737 0 -0.028615206511245921 0.00077762678861869922 0 -0.027946054551482705 0.00080176137252042023 0 -0.031530148362252153 9.7477101276203066e-06 0 -0.031706002293958958 -1.0670111633742348e-05 0 -0.031595850117986359 -0.00019767898357369418 0 -0.031835507263180789 -8.7326874429065706e-05 0 -0.031706002293958958 -1.0670111633742348e-05 0 -0.031595850117986359 -0.00019767898357369418 0 -0.031530148362252153 9.7477101276203066e-06 0 -0.031595850117986359 -0.00019767898357369418 0 -0.03142121263544316 -0.00014097400981882699 0 -0.031595850117986359 -0.00019767898357369418 0 -0.03142121263544316 -0.00014097400981882699 0 -0.031293497110523587 -0.00034369183858395724 0 -0.031266333866328377 -3.3961571514415148e-05 0 -0.031293497110523587 -0.00034369183858395724 0 -0.031073310829449745 -0.00034638467087821337 0 -0.031266333866328377 -3.3961571514415148e-05 0 -0.03142121263544316 -0.00014097400981882699 0 -0.031293497110523587 -0.00034369183858395724 0 -0.031293497110523587 -0.00034369183858395724 0 -0.031352681939609092 -0.00057220224580228267 0 -0.031606250908048063 -0.00046227727615718737 0 -0.031293497110523587 -0.00034369183858395724 0 -0.031352681939609092 -0.00057220224580228267 0 -0.0311457730428777 -0.00060058825618290203 0 -0.031595850117986359 -0.00019767898357369418 0 -0.031293497110523587 -0.00034369183858395724 0 -0.031606250908048063 -0.00046227727615718737 0 -0.027946054551482705 0.00080176137252042023 0 -0.026211258489009223 0.00086911639908013956 0 -0.027294294566358703 0.00070839425156179938 0 -0.027392024513334477 0.00033747945747815156 0 -0.027080333249572153 0.0003424946629182788 0 -0.027294294566358703 0.00070839425156179938 0 -0.027392024513334477 0.00033747945747815156 0 -0.027450547080262674 0.00070592293221944009 0 -0.026242102334362732 0.00028846356648620677 0 -0.026211258489009223 0.00086911639908013956 0 -0.031361607082393779 -0.00088608618500694673 0 -0.0311457730428777 -0.00060058825618290203 0 -0.031026810933431379 -0.00088783894222177289 0 -0.031352681939609092 -0.00057220224580228267 0 -0.031361607082393779 -0.00088608618500694673 0 -0.0311457730428777 -0.00060058825618290203 0 -0.026211258489009223 0.00086911639908013956 0 -0.027643875417584368 0.00071297927012975405 0 -0.031352681939609092 -0.00057220224580228267 0 -0.031606250908048063 -0.00046227727615718737 0 -0.031361607082393779 -0.00088608618500694673 0 -0.027511323313725529 0.0010737132801777376 0 -0.027294294566358703 0.00070839425156179938 0 -0.027450547080262674 0.00070592293221944009 0 -0.031980679904696233 6.2596857286067149e-05 0 -0.031990767938392992 6.5965865226606734e-05 0 -0.031955897363543179 6.1151586402689371e-05 0 -0.031931167987399242 3.2430035641654687e-05 0 -0.031990767938392992 6.5965865226606734e-05 0 -0.031955897363543179 6.1151586402689371e-05 0 -0.026242102334362732 0.00028846356648620677 0 -0.02784726142947436 0.0005654464494348518 0 -0.031931167987399242 3.2430035641654687e-05 0 -0.031990767938392992 6.5965865226606734e-05 0 -0.031990707310687296 3.7446435097877642e-05 0 -0.031990767938392992 6.5965865226606734e-05 0 -0.032024820891664009 7.2642334014618508e-05 0 -0.031990707310687296 3.7446435097877642e-05 0 -0.032024820891664009 7.2642334014618508e-05 0 -0.032029965181634229 4.9037046683358234e-05 0 -0.031990707310687296 3.7446435097877642e-05 0 -0.031990767938392992 6.5965865226606734e-05 0 -0.032024820891664009 7.2642334014618508e-05 0 -0.032051622480115519 0.00013224143717280654 0 -0.032024820891664009 7.2642334014618508e-05 0 -0.032046081645870444 9.9742444396930287e-05 0 -0.032051622480115519 0.00013224143717280654 0 -0.031629590472538702 0.00057939134757141908 0 -0.029685136055863297 0.00071448083682986493 0 -0.031035883013684117 0.00019363629977192873 0 -0.023869932503918074 0.0015615566769687651 0 -0.024062229992128155 0.00081283219189044081 0 -0.02495009017391913 0.0010060102363020679 0 -0.02826465786087862 -0.00058403186194154314 0 -0.027397107736156018 -6.3854802170383424e-05 0 -0.02826465786087862 -0.00058403186194154314 0 -0.028273969154971306 -0.00058074289917121565 0 -0.02826465786087862 -0.00058403186194154314 0 -0.027486983404197293 0.00014510351075142512 0 -0.032024820891664009 7.2642334014618508e-05 0 -0.032046081645870444 9.9742444396930287e-05 0 -0.03203638407046043 6.8976275412240782e-05 0 -0.032024820891664009 7.2642334014618508e-05 0 -0.03203638407046043 6.8976275412240782e-05 0 -0.032029965181634229 4.9037046683358234e-05 0 -0.027486983404197293 0.00014510351075142512 0 -0.026623474436792745 0.00072818065813652242 0 -0.024062229992128155 0.00081283219189044081 0 -0.024572950662186094 0.00053335957542019106 0 -0.024258446280956157 3.206954692380136e-05 0 -0.024572950662186094 0.00053335957542019106 0 -0.02495009017391913 0.0010060102363020679 0 -0.024864767710618459 6.3383064551319272e-06 0 -0.02495009017391913 0.0010060102363020679 0 -0.025538229477386126 -0.00012618935412350265 0 -0.024864767710618459 6.3383064551319272e-06 0 -0.024572950662186094 0.00053335957542019106 0 -0.024864767710618459 6.3383064551319272e-06 0 -0.024258446280956157 3.206954692380136e-05 0 -0.024062229992128155 0.00081283219189044081 0 -0.024572950662186094 0.00053335957542019106 0 -0.02495009017391913 0.0010060102363020679 0 -0.026667550402329682 1.4918137481262734e-07 0 -0.027397107736156018 -6.3854802170383424e-05 0 -0.026663337786316157 1.7464857823762334e-06 0 -0.02495009017391913 0.0010060102363020679 0 -0.025538229477386126 -0.00012618935412350265 0 -0.02666972783825847 2.8029191559031798e-06 0 -0.029685136055863297 0.00071448083682986493 0 -0.028698731399351973 -5.3119723193788105e-07 0 -0.029685136055863297 0.00071448083682986493 0 -0.031035883013684117 0.00019363629977192873 0 -0.028698731399351973 -5.3119723193788105e-07 0 -0.031035883013684117 0.00019363629977192873 0 -0.028698731399351973 -5.3119723193788105e-07 0 -0.03119226119073306 -6.6625042400969366e-05 0 -0.031404200709067555 -2.2792889733456184e-07 0 -0.028698731399351973 -5.3119723193788105e-07 0 -0.03119226119073306 -6.6625042400969366e-05 0 -0.031035883013684117 0.00019363629977192873 0 -0.03119226119073306 -6.6625042400969366e-05 0 -0.031889111797444615 2.0947422029410887e-05 0 -0.032814200177592012 0.00011379633160053974 0 -0.03119226119073306 -6.6625042400969366e-05 0 -0.031889111797444615 2.0947422029410887e-05 0 -0.032814200177592012 0.00011379633160053974 0 -0.031889111797444615 2.0947422029410887e-05 0 -0.032134130935043852 4.5074280053035106e-06 0 -0.031889111797444615 2.0947422029410887e-05 0 -0.032134130935043852 4.5074280053035106e-06 0 -0.03187425419657549 0.00011740527910202097 0 -0.032134130935043852 4.5074280053035106e-06 0 -0.032051622480115519 0.00013224143717280654 0 -0.03187425419657549 0.00011740527910202097 0 -0.032029527072817934 7.2083242655864485e-05 0 -0.032134130935043852 4.5074280053035106e-06 0 -0.032051622480115519 0.00013224143717280654 0 -0.031670623739138141 0.00054306145435507706 0 -0.032051622480115519 0.00013224143717280654 0 -0.031687236409522486 0.00044736817874831825 0 -0.032051622480115519 0.00013224143717280654 0 -0.031687236409522486 0.00044736817874831825 0 -0.03187425419657549 0.00011740527910202097 0 -0.02826465786087862 -0.00058403186194154314 0 -0.029180035537226309 -0.00081003474471424454 0 -0.031035883013684117 0.00019363629977192873 0 -0.031687236409522486 0.00044736817874831825 0 -0.03187425419657549 0.00011740527910202097 0 -0.031629590472538702 0.00057939134757141908 0 -0.031035883013684117 0.00019363629977192873 0 -0.031687236409522486 0.00044736817874831825 0 -0.031035883013684117 0.00019363629977192873 0 -0.031889111797444615 2.0947422029410887e-05 0 -0.03187425419657549 0.00011740527910202097 0 -0.032260125890082932 0.00025869114498563756 0 -0.030728781144843575 0.00092194840171377673 0 -0.034765957129935375 -0.00039697834645663051 0 -0.034818277572017962 -0.0016765480307784377 0 -0.034139513058623269 -0.00064580522674608518 0 -0.034919542436851546 0.00016193988306213171 0 -0.034966682773472306 0.00012408279268889526 0 -0.034971297592131516 0.00021759495814193503 0 -0.034919542436851546 0.00016193988306213171 0 -0.034910203677432569 0.00024151509700336368 0 -0.034971297592131516 0.00021759495814193503 0 -0.034919542436851546 0.00016193988306213171 0 -0.034861582806780748 0.00022791965927361068 0 -0.034910203677432569 0.00024151509700336368 0 -0.034919542436851546 0.00016193988306213171 0 -0.034933723599026717 8.3436184030808556e-05 0 -0.03492697209793752 7.6841541077852518e-05 0 -0.034919542436851546 0.00016193988306213171 0 -0.034933723599026717 8.3436184030808556e-05 0 -0.034966682773472306 0.00012408279268889526 0 -0.032260125890082932 0.00025869114498563756 0 -0.032718666169857143 0.00021902085165136865 0 -0.034933723599026717 8.3436184030808556e-05 0 -0.034966682773472306 0.00012408279268889526 0 -0.034889209733906766 6.5003028054974591e-05 0 -0.034765957129935375 -0.00039697834645663051 0 -0.034889209733906766 6.5003028054974591e-05 0 -0.034210973655011662 4.7463719493287231e-05 0 -0.034889209733906766 6.5003028054974591e-05 0 -0.034999910213764453 1.2452362117287007e-07 0 -0.034953189136979888 4.1424394439544247e-05 0 -0.034889209733906766 6.5003028054974591e-05 0 -0.034999910213764453 1.2452362117287007e-07 0 -0.034698858640336616 7.7055239302464373e-05 0 -0.034999910213764453 1.2452362117287007e-07 0 -0.034953189136979888 4.1424394439544247e-05 0 -0.034999905748191409 -8.2671077506591018e-09 0 -0.034933723599026717 8.3436184030808556e-05 0 -0.034889209733906766 6.5003028054974591e-05 0 -0.034953189136979888 4.1424394439544247e-05 0 -0.034933723599026717 8.3436184030808556e-05 0 -0.034953189136979888 4.1424394439544247e-05 0 -0.03492697209793752 7.6841541077852518e-05 0 -0.03492697209793752 7.6841541077852518e-05 0 -0.034949000595546481 1.0201080903992443e-05 0 -0.034898407446723123 5.7688548853385674e-05 0 -0.034953189136979888 4.1424394439544247e-05 0 -0.03492697209793752 7.6841541077852518e-05 0 -0.034949000595546481 1.0201080903992443e-05 0 -0.034999905748191409 -8.2671077506591018e-09 0 -0.034949000595546481 1.0201080903992443e-05 0 -0.034999889958189555 1.1247761792029797e-08 0 -0.034953189136979888 4.1424394439544247e-05 0 -0.034999905748191409 -8.2671077506591018e-09 0 -0.034949000595546481 1.0201080903992443e-05 0 -0.034949000595546481 1.0201080903992443e-05 0 -0.034999889958189555 1.1247761792029797e-08 0 -0.034920531415642428 -1.6317998980382028e-05 0 -0.034920531415642428 -1.6317998980382028e-05 0 -0.034898407446723123 5.7688548853385674e-05 0 -0.034767574939083008 4.9568822184394098e-05 0 -0.034949000595546481 1.0201080903992443e-05 0 -0.034920531415642428 -1.6317998980382028e-05 0 -0.034898407446723123 5.7688548853385674e-05 0 -0.034898407446723123 5.7688548853385674e-05 0 -0.034807023154805342 0.00013682815250345604 0 -0.034767574939083008 4.9568822184394098e-05 0 -0.034807023154805342 0.00013682815250345604 0 -0.034801016692455493 0.00021549312807521556 0 -0.034727197595690276 0.00020566159998525307 0 -0.034807023154805342 0.00013682815250345604 0 -0.034879461254287258 0.00014489168614762433 0 -0.034801016692455493 0.00021549312807521556 0 -0.034898407446723123 5.7688548853385674e-05 0 -0.034807023154805342 0.00013682815250345604 0 -0.034879461254287258 0.00014489168614762433 0 -0.034919542436851546 0.00016193988306213171 0 -0.03492697209793752 7.6841541077852518e-05 0 -0.034879461254287258 0.00014489168614762433 0 -0.03492697209793752 7.6841541077852518e-05 0 -0.034898407446723123 5.7688548853385674e-05 0 -0.034879461254287258 0.00014489168614762433 0 -0.034919542436851546 0.00016193988306213171 0 -0.034879461254287258 0.00014489168614762433 0 -0.034861582806780748 0.00022791965927361068 0 -0.034879461254287258 0.00014489168614762433 0 -0.034861582806780748 0.00022791965927361068 0 -0.034801016692455493 0.00021549312807521556 0 -0.034861582806780748 0.00022791965927361068 0 -0.034801016692455493 0.00021549312807521556 0 -0.034783733027688571 0.00029188114738887928 0 -0.034801016692455493 0.00021549312807521556 0 -0.034693420288243994 0.00027740879097597931 0 -0.034783733027688571 0.00029188114738887928 0 -0.034801016692455493 0.00021549312807521556 0 -0.034727197595690276 0.00020566159998525307 0 -0.034693420288243994 0.00027740879097597931 0 -0.032607041537428119 0.0010957924599268006 0 -0.032849067729596997 0.00099930724335418322 0 -0.034624874014907214 0.00031486693485139672 0 -0.034531431298109705 0.00032275244110636778 0 -0.034595429740116791 0.00019940237105311315 0 -0.034727197595690276 0.00020566159998525307 0 -0.034693420288243994 0.00027740879097597931 0 -0.034595429740116791 0.00019940237105311315 0 -0.034308459576058437 0.0011119905306164123 0 -0.034214425709175156 0.00075802478723744596 0 -0.034552166993076401 0.00011095263749759444 0 -0.032458207487076826 0.00097081994494531128 0 -0.032958153517551797 0.0010021460226302351 0 -0.034308459576058437 0.0011119905306164123 0 -0.034214425709175156 0.00075802478723744596 0 -0.033852720474331528 0.00071743549708236105 0 -0.034214425709175156 0.00075802478723744596 0 -0.034552166993076401 0.00011095263749759444 0 -0.034307650078301541 0.00027378581234448744 0 -0.032458207487076826 0.00097081994494531128 0 -0.033166904969807239 0.0002952451446956614 0 -0.034531431298109705 0.00032275244110636778 0 -0.034552166993076401 0.00011095263749759444 0 -0.034595429740116791 0.00019940237105311315 0 -0.034214425709175156 0.00075802478723744596 0 -0.034158844518425373 0.00045190696344768379 0 -0.033978145818958666 0.00050477223098782502 0 -0.034214425709175156 0.00075802478723744596 0 -0.034158844518425373 0.00045190696344768379 0 -0.034307650078301541 0.00027378581234448744 0 -0.034158844518425373 0.00045190696344768379 0 -0.034087398588518683 0.00025532483183284726 0 -0.033978145818958666 0.00050477223098782502 0 -0.034158844518425373 0.00045190696344768379 0 -0.034087398588518683 0.00025532483183284726 0 -0.034307650078301541 0.00027378581234448744 0 -0.034552166993076401 0.00011095263749759444 0 -0.034697504537320234 0.00014631852211644591 0 -0.034767574939083008 4.9568822184394098e-05 0 -0.034552166993076401 0.00011095263749759444 0 -0.034595429740116791 0.00019940237105311315 0 -0.034697504537320234 0.00014631852211644591 0 -0.034807023154805342 0.00013682815250345604 0 -0.034727197595690276 0.00020566159998525307 0 -0.034697504537320234 0.00014631852211644591 0 -0.034727197595690276 0.00020566159998525307 0 -0.034595429740116791 0.00019940237105311315 0 -0.034697504537320234 0.00014631852211644591 0 -0.034807023154805342 0.00013682815250345604 0 -0.034697504537320234 0.00014631852211644591 0 -0.034767574939083008 4.9568822184394098e-05 0 -0.034920531415642428 -1.6317998980382028e-05 0 -0.034767574939083008 4.9568822184394098e-05 0 -0.034531866366061849 -0.00011495604483569064 0 -0.03473218074887751 -4.1758655623560354e-05 0 -0.03462500992840141 -2.775552402857461e-05 0 -0.034920531415642428 -1.6317998980382028e-05 0 -0.034980029275049465 -4.0479971904123003e-06 0 -0.035000497615609014 -1.7204642159942087e-05 0 -0.034552166993076401 0.00011095263749759444 0 -0.034767574939083008 4.9568822184394098e-05 0 -0.034531866366061849 -0.00011495604483569064 0 -0.034999889958189555 1.1247761792029797e-08 0 -0.035000019450277295 -5.3517902843356914e-09 0 -0.034995042908784933 -2.2715536581167989e-06 0 -0.034999889958189555 1.1247761792029797e-08 0 -0.034980029275049465 -4.0479971904123003e-06 0 -0.034995042908784933 -2.2715536581167989e-06 0 -0.034999889958189555 1.1247761792029797e-08 0 -0.034920531415642428 -1.6317998980382028e-05 0 -0.034980029275049465 -4.0479971904123003e-06 0 -0.034980029275049465 -4.0479971904123003e-06 0 -0.034995042908784933 -2.2715536581167989e-06 0 -0.035000497615609014 -1.7204642159942087e-05 0 -0.034995042908784933 -2.2715536581167989e-06 0 -0.035000497615609014 -1.7204642159942087e-05 0 -0.035000850882461527 -4.2138140399363678e-06 0 -0.035000019450277295 -5.3517902843356914e-09 0 -0.034995042908784933 -2.2715536581167989e-06 0 -0.035000850882461527 -4.2138140399363678e-06 0 -0.03462500992840141 -2.775552402857461e-05 0 -0.034347414837823359 2.2580934252651841e-05 0 -0.035000497615609014 -1.7204642159942087e-05 0 -0.034999185386653947 -3.9918371165243058e-06 0 -0.035000850882461527 -4.2138140399363678e-06 0 -0.034087398588518683 0.00025532483183284726 0 -0.034531866366061849 -0.00011495604483569064 0 -0.033709421523655317 8.3810171048834716e-06 0 -0.034552166993076401 0.00011095263749759444 0 -0.034307650078301541 0.00027378581234448744 0 -0.034531866366061849 -0.00011495604483569064 0 -0.034087398588518683 0.00025532483183284726 0 -0.034307650078301541 0.00027378581234448744 0 -0.034531866366061849 -0.00011495604483569064 0 -0.034999185386653947 -3.9918371165243058e-06 0 -0.035000850882461527 -4.2138140399363678e-06 0 -0.034998414450380114 -1.8777751019234373e-06 0 -0.035000019450277295 -5.3517902843356914e-09 0 -0.035000850882461527 -4.2138140399363678e-06 0 -0.034999994725287482 -3.0404579913001766e-09 0 -0.035000850882461527 -4.2138140399363678e-06 0 -0.034999994725287482 -3.0404579913001766e-09 0 -0.034998414450380114 -1.8777751019234373e-06 0 -0.034995707313844576 -1.0355224748171031e-06 0 -0.034999185386653947 -3.9918371165243058e-06 0 -0.034998414450380114 -1.8777751019234373e-06 0 -0.034007666524202534 9.1735495703712969e-05 0 -0.034347414837823359 2.2580934252651841e-05 0 -0.033089655979713389 0.00020443128388052486 0 -0.033147621267105111 0.00046355626293226857 0 -0.033415881947953953 0.00031644856155040615 0 -0.033089655979713389 0.00020443128388052486 0 -0.033709421523655317 8.3810171048834716e-06 0 -0.033415881947953953 0.00031644856155040615 0 -0.033147621267105111 0.00046355626293226857 0 -0.033415881947953953 0.00031644856155040615 0 -0.033363719956785616 0.00050700224463002836 0 -0.033709421523655317 8.3810171048834716e-06 0 -0.033415881947953953 0.00031644856155040615 0 -0.033787232032479395 0.00036344142124764331 0 -0.034087398588518683 0.00025532483183284726 0 -0.033709421523655317 8.3810171048834716e-06 0 -0.033787232032479395 0.00036344142124764331 0 -0.034087398588518683 0.00025532483183284726 0 -0.033787232032479395 0.00036344142124764331 0 -0.033978145818958666 0.00050477223098782502 0 -0.033787232032479395 0.00036344142124764331 0 -0.033978145818958666 0.00050477223098782502 0 -0.033852720474331528 0.00071743549708236105 0 -0.033415881947953953 0.00031644856155040615 0 -0.033568897851155084 0.00053407693607843533 0 -0.033363719956785616 0.00050700224463002836 0 -0.033415881947953953 0.00031644856155040615 0 -0.033787232032479395 0.00036344142124764331 0 -0.033852720474331528 0.00071743549708236105 0 -0.03302813286500457 0.00093871521034802493 0 -0.032958153517551797 0.0010021460226302351 0 -0.033568897851155084 0.00053407693607843533 0 -0.033437781989437955 0.0006164254656657722 0 -0.033363719956785616 0.00050700224463002836 0 -0.034214425709175156 0.00075802478723744596 0 -0.033978145818958666 0.00050477223098782502 0 -0.033852720474331528 0.00071743549708236105 0 -0.033568897851155084 0.00053407693607843533 0 -0.033585554550651778 0.00063122151204344026 0 -0.033437781989437955 0.0006164254656657722 0 -0.033734185595717919 0.00069738810919980118 0 -0.033568897851155084 0.00053407693607843533 0 -0.033585554550651778 0.00063122151204344026 0 -0.033585554550651778 0.00063122151204344026 0 -0.033485866471317488 0.00072396573839383178 0 -0.03352895967872959 0.00084172127082061238 0 -0.033585554550651778 0.00063122151204344026 0 -0.033485866471317488 0.00072396573839383178 0 -0.033437781989437955 0.0006164254656657722 0 -0.033485866471317488 0.00072396573839383178 0 -0.033437781989437955 0.0006164254656657722 0 -0.03334225996567531 0.00082096451093484129 0 -0.033437781989437955 0.0006164254656657722 0 -0.033213480275495116 0.00067354264839019284 0 -0.03334225996567531 0.00082096451093484129 0 -0.033147621267105111 0.00046355626293226857 0 -0.033213480275495116 0.00067354264839019284 0 -0.033363719956785616 0.00050700224463002836 0 -0.033437781989437955 0.0006164254656657722 0 -0.033213480275495116 0.00067354264839019284 0 -0.033363719956785616 0.00050700224463002836 0 -0.033083968897887887 0.00097644786593557441 0 -0.033213480275495116 0.00067354264839019284 0 -0.03334225996567531 0.00082096451093484129 0 -0.033083968897887887 0.00097644786593557441 0 -0.03334225996567531 0.00082096451093484129 0 -0.033311439694238922 0.0010421179821479786 0 -0.03334225996567531 0.00082096451093484129 0 -0.03345678281922905 0.00098688317734719252 0 -0.033311439694238922 0.0010421179821479786 0 -0.033585554550651778 0.00063122151204344026 0 -0.03352895967872959 0.00084172127082061238 0 -0.033704351668754677 0.0009491858830114185 0 -0.033485866471317488 0.00072396573839383178 0 -0.03334225996567531 0.00082096451093484129 0 -0.03352895967872959 0.00084172127082061238 0 -0.03352895967872959 0.00084172127082061238 0 -0.033585336841543953 0.00097718533404191261 0 -0.03345678281922905 0.00098688317734719252 0 -0.03352895967872959 0.00084172127082061238 0 -0.033585336841543953 0.00097718533404191261 0 -0.033704351668754677 0.0009491858830114185 0 -0.03334225996567531 0.00082096451093484129 0 -0.03352895967872959 0.00084172127082061238 0 -0.03345678281922905 0.00098688317734719252 0 -0.03345678281922905 0.00098688317734719252 0 -0.033428869399772368 0.0011375802312582513 0 -0.033311439694238922 0.0010421179821479786 0 -0.033428869399772368 0.0011375802312582513 0 -0.033254364995018416 0.0012727625839908695 0 -0.033609387840025519 0.0012780250614591771 0 -0.03345678281922905 0.00098688317734719252 0 -0.033558158409325946 0.0010660534369527053 0 -0.033428869399772368 0.0011375802312582513 0 -0.033585336841543953 0.00097718533404191261 0 -0.03345678281922905 0.00098688317734719252 0 -0.033558158409325946 0.0010660534369527053 0 -0.033585336841543953 0.00097718533404191261 0 -0.033558158409325946 0.0010660534369527053 0 -0.033681128803455362 0.0010436081485516828 0 -0.031591206684216055 0.0012333056965505356 0 -0.031401685531178822 0.0012639090331800066 0 -0.033558158409325946 0.0010660534369527053 0 -0.033428869399772368 0.0011375802312582513 0 -0.033609387840025519 0.0012780250614591771 0 -0.033558158409325946 0.0010660534369527053 0 -0.033609387840025519 0.0012780250614591771 0 -0.033664078821156761 0.0010464853025055198 0 -0.033083968897887887 0.00097644786593557441 0 -0.033311439694238922 0.0010421179821479786 0 -0.033254364995018416 0.0012727625839908695 0 -0.031794453071997159 0.00064162510030805369 0 -0.03087626510769198 0.00096337808818378306 0 -0.033428869399772368 0.0011375802312582513 0 -0.033311439694238922 0.0010421179821479786 0 -0.033254364995018416 0.0012727625839908695 0 -0.030954145928726366 0.00086842658818891657 0 -0.03087626510769198 0.00096337808818378306 0 -0.031293497110523587 -0.00034369183858395724 0 -0.031003562556386772 -0.00033962084610869142 0 -0.0311457730428777 -0.00060058825618290203 0 -0.03087626510769198 0.00096337808818378306 0 -0.029550341855884538 0.00075849953583710043 0 -0.031003562556386772 -0.00033962084610869142 0 -0.0311457730428777 -0.00060058825618290203 0 -0.030841935888080461 -0.00060993527363301743 0 -0.0311457730428777 -0.00060058825618290203 0 -0.030841935888080461 -0.00060993527363301743 0 -0.031026810933431379 -0.00088783894222177289 0 -0.027643875417584368 0.00071297927012975405 0 -0.028162162010577051 0.00080778669674055079 0 -0.030841935888080461 -0.00060993527363301743 0 -0.031026810933431379 -0.00088783894222177289 0 -0.030679380367377836 -0.00088244216949522731 0 -0.029551900194392165 0.00093907649187977742 0 -0.029481027288241191 0.00083967379523787553 0 -0.029441679494530925 0.0010336816368254511 0 -0.028880812228675126 0.0013298994365459904 0 -0.028950883257788128 0.0010500043672689147 0 -0.029014399204305236 0.0012011853522980263 0 -0.028138255074071753 0.00086564874567789736 0 -0.030401668285410206 0.0010423358088822994 0 -0.028030935634179504 0.00078980920022618572 0 -0.027794037478367371 0.00079284439547218128 0 -0.028044530996098212 0.00073181558639482248 0 -0.028138255074071753 0.00086564874567789736 0 -0.027739047380548758 0.0012045868928156917 0 -0.027989716949176898 0.00074687663838828163 0 -0.027779729948017858 0.00074994103517975522 0 -0.027927430162304468 0.0010140591153253277 0 -0.028138255074071753 0.00086564874567789736 0 -0.028162162010577051 0.00080778669674055079 0 -0.029551900194392165 0.00093907649187977742 0 -0.029481027288241191 0.00083967379523787553 0 -0.029492586210053504 0.00083950614476058856 0 -0.029550341855884538 0.00075849953583710043 0 -0.028162162010577051 0.00080778669674055079 0 -0.03087626510769198 0.00096337808818378306 0 -0.030401668285410206 0.0010423358088822994 0 -0.029610752242369115 0.0010387673006335614 0 -0.029551900194392165 0.00093907649187977742 0 -0.029441679494530925 0.0010336816368254511 0 -0.030401668285410206 0.0010423358088822994 0 -0.029938096657917426 0.0013382982599546461 0 -0.029097815586127142 0.0010546511525790069 0 -0.029014399204305236 0.0012011853522980263 0 -0.029174893600319041 0.0012428681555446428 0 -0.028950883257788128 0.0010500043672689147 0 -0.029097815586127142 0.0010546511525790069 0 -0.029014399204305236 0.0012011853522980263 0 -0.027739047380548758 0.0012045868928156917 0 -0.027546495401560483 0.0019724049151956585 0 -0.029014399204305236 0.0012011853522980263 0 -0.028966960781707331 0.001328858436936067 0 -0.029174893600319041 0.0012428681555446428 0 -0.027739047380548758 0.0012045868928156917 0 -0.028303059978632399 0.0016838843789479642 0 -0.028880812228675126 0.0013298994365459904 0 -0.029014399204305236 0.0012011853522980263 0 -0.028966960781707331 0.001328858436936067 0 -0.027889345940897325 0.0017757069750912234 0 -0.027906954019195112 0.0017764105268002507 0 -0.027904753880124599 0.0017702926638628875 0 -0.028070999288499428 0.0023309064479598417 0 -0.028100155348220898 0.002397259666669537 0 -0.027929147827661174 0.0023962986957093693 0 -0.027546495401560483 0.0019724049151956585 0 -0.028303059978632399 0.0016838843789479642 0 -0.029185352191502277 0.0014885372982602085 0 -0.029200664748303812 0.0015292189911206024 0 -0.029249357749265063 0.0014904082262274124 0 -0.029938096657917426 0.0013382982599546461 0 -0.028303059978632399 0.0016838843789479642 0 -0.029938096657917426 0.0013382982599546461 0 -0.029775455947053858 0.0017182835820296366 0 -0.030683825782299765 0.0014469918641766017 0 -0.03065292412820525 0.0014742761252161283 0 -0.03060327624780056 0.001445030615980121 0 -0.03065292412820525 0.0014742761252161283 0 -0.030705494906711785 0.0014933711360305831 0 -0.030649064156445648 0.0015036490384396062 0 -0.031303757129478478 0.0013080415842392588 0 -0.031709292728748853 0.0013530367467532599 0 -0.03065292412820525 0.0014742761252161283 0 -0.030649064156445648 0.0015036490384396062 0 -0.030622778982227185 0.0014824357837488339 0 -0.030615701211331416 0.0013743682954422958 0 -0.030752090901062606 0.0010718947724532137 0 -0.030684617256455163 0.0010843982281044274 0 -0.030615701211331416 0.0013743682954422958 0 -0.030882424915292073 0.0013816439313095578 0 -0.030752090901062606 0.0010718947724532137 0 -0.029938096657917426 0.0013382982599546461 0 -0.031303757129478478 0.0013080415842392588 0 -0.030683825782299765 0.0014469918641766017 0 -0.03065292412820525 0.0014742761252161283 0 -0.030705494906711785 0.0014933711360305831 0 -0.030401668285410206 0.0010423358088822994 0 -0.031401685531178822 0.0012639090331800066 0 -0.031401685531178822 0.0012639090331800066 0 -0.031630196630048867 0.0012543235930565417 0 -0.031303757129478478 0.0013080415842392588 0 -0.031630196630048867 0.0012543235930565417 0 -0.031748942527423225 0.0014647272831086286 0 -0.031540475640217759 0.001503533607167591 0 -0.031619999398314592 0.0011627017670781433 0 -0.031303757129478478 0.0013080415842392588 0 -0.031401685531178822 0.0012639090331800066 0 -0.033734185595717919 0.00069738810919980118 0 -0.033585554550651778 0.00063122151204344026 0 -0.033681407975599785 0.00089243153222231446 0 -0.03200216770287527 0.0012038840328725915 0 -0.032034652672452986 0.0010592133189635479 0 -0.031812815647096489 0.0010451800031986952 0 -0.032012387540795689 0.0010082130934473408 0 -0.032034652672452986 0.0010592133189635479 0 -0.031812815647096489 0.0010451800031986952 0 -0.031993010841576137 0.0012587178909610342 0 -0.031630196630048867 0.0012543235930565417 0 -0.033585336841543953 0.00097718533404191261 0 -0.033681128803455362 0.0010436081485516828 0 -0.033704351668754677 0.0009491858830114185 0 -0.032458207487076826 0.00097081994494531128 0 -0.031630196630048867 0.0012543235930565417 0 -0.032458207487076826 0.00097081994494531128 0 -0.031709292728748853 0.0013530367467532599 0 -0.032607041537428119 0.0010957924599268006 0 -0.031763002357837369 0.0013031166879052464 0 -0.034624874014907214 0.00031486693485139672 0 -0.034531431298109705 0.00032275244110636778 0 -0.034628138338091752 0.00040992250027295605 0 -0.034624874014907214 0.00031486693485139672 0 -0.034628138338091752 0.00040992250027295605 0 -0.034652474982958641 0.00040535342572010604 0 -0.031709292728748853 0.0013530367467532599 0 -0.031763002357837369 0.0013031166879052464 0 -0.031763002357837369 0.0013031166879052464 0 -0.031576344071867171 0.0011275309567033956 0 -0.034693420288243994 0.00027740879097597931 0 -0.034735513032360471 0.00036819034195588398 0 -0.034783733027688571 0.00029188114738887928 0 -0.030833509891046322 0.001371105283883349 0 -0.030902921057653202 0.001357647960307534 0 -0.030848742451813856 0.0014066325578398241 0 -0.034735513032360471 0.00036819034195588398 0 -0.034783733027688571 0.00029188114738887928 0 -0.034849156894830528 0.00034756416172999801 0 -0.034861582806780748 0.00022791965927361068 0 -0.034783733027688571 0.00029188114738887928 0 -0.034849156894830528 0.00034756416172999801 0 -0.031576344071867171 0.0011275309567033956 0 -0.031684504353085265 0.00096348462623004766 0 -0.030011701719762564 0.0018375646538557784 0 -0.029901761368222007 0.0017360215338242638 0 -0.029811088641894402 0.0018735128716783449 0 -0.031853465203779047 0.00083475645261129412 0 -0.031576344071867171 0.0011275309567033956 0 -0.034861582806780748 0.00022791965927361068 0 -0.034850463002568541 0.00026457468787476399 0 -0.034910203677432569 0.00024151509700336368 0 -0.030011701719762564 0.0018375646538557784 0 -0.029901761368222007 0.0017360215338242638 0 -0.030028454980257836 0.0016300379121243064 0 -0.031576344071867171 0.0011275309567033956 0 -0.030196376596083548 0.0015229397389082437 0 -0.029901761368222007 0.0017360215338242638 0 -0.029911811430934115 0.0016376224106767233 0 -0.030028454980257836 0.0016300379121243064 0 -0.030357644808091305 0.001673557518343857 0 -0.030210989692944359 0.0013659989170598733 0 -0.030106727916744909 0.0014643151940822567 0 -0.030902921057653202 0.001357647960307534 0 -0.030848742451813856 0.0014066325578398241 0 -0.030891901198845863 0.001444986042286084 0 -0.030984266205225781 0.0014329861992298082 0 -0.030196376596083548 0.0015229397389082437 0 -0.03065292412820525 0.0014742761252161283 0 -0.030622778982227185 0.0014824357837488339 0 -0.03060327624780056 0.001445030615980121 0 -0.030984266205225781 0.0014329861992298082 0 -0.029775455947053858 0.0017182835820296366 0 -0.031709292728748853 0.0013530367467532599 0 -0.030984266205225781 0.0014329861992298082 0 -0.031763002357837369 0.0013031166879052464 0 -0.030984266205225781 0.0014329861992298082 0 -0.031400894464120754 0.0016424658674773435 0 -0.031330133001325582 0.0016554166910910508 0 -0.031273106025555657 0.0015348540542804009 0 -0.029200664748303812 0.0015292189911206024 0 -0.029249357749265063 0.0014904082262274124 0 -0.029256592315115088 0.0015069544471112228 0 -0.030210989692944359 0.0013659989170598733 0 -0.03011584686149741 0.0013635022800902645 0 -0.030106727916744909 0.0014643151940822567 0 -0.029775455947053858 0.0017182835820296366 0 -0.029699310806598832 0.0018037586771731142 0 -0.029315404674179805 0.0017546118146485835 0 -0.029356820113869676 0.0018445272739801967 0 -0.02936603789904178 0.0017559881621963208 0 -0.029775455947053858 0.0017182835820296366 0 -0.029195199536471195 0.0018854005031870486 0 -0.029195199536471195 0.0018854005031870486 0 -0.029699310806598832 0.0018037586771731142 0 -0.027546495401560483 0.0019724049151956585 0 -0.027508041465055279 0.0030827433619154175 0 -0.028303059978632399 0.0016838843789479642 0 -0.029195199536471195 0.0018854005031870486 0 -0.028100155348220898 0.002397259666669537 0 -0.027898958737174216 0.0024808825093202095 0 -0.027929147827661174 0.0023962986957093693 0 -0.028070999288499428 0.0023309064479598417 0 -0.027929147827661174 0.0023962986957093693 0 -0.02791107602581628 0.0023347474006949285 0 -0.027898958737174216 0.0024808825093202095 0 -0.027929147827661174 0.0023962986957093693 0 -0.027908272927404189 0.0023560926082437572 0 -0.029195199536471195 0.0018854005031870486 0 -0.027628639712371561 0.0030435515469520859 0 -0.02762516617304098 0.003021409978247059 0 -0.027628639712371561 0.0030435515469520859 0 -0.027929147827661174 0.0023962986957093693 0 -0.027909166234943803 0.002356123518581651 0 -0.02791107602581628 0.0023347474006949285 0 -0.027560818166057158 0.0032656702662452455 0 -0.027575922552039119 0.0031074116291156841 0 -0.02748505479468194 0.0031087511998486193 0 -0.027628639712371561 0.0030435515469520859 0 -0.027498787679107 0.0031681221260837951 0 -0.027628639712371561 0.0030435515469520859 0 -0.027508041465055279 0.0030827433619154175 0 -0.027508041465055279 0.0030827433619154175 0 -0.027498787679107 0.0031681221260837951 0 -0.028029093661017836 0.0027686284698791204 0 -0.027873835449636043 0.0029110548068039528 0 -0.027776146113863795 0.002893450455888472 0 -0.027498787679107 0.0031681221260837951 0 -0.026612626978912264 0.0042952318863471771 0 -0.028029093661017836 0.0027686284698791204 0 -0.027776146113863795 0.002893450455888472 0 -0.027684916991601215 0.0027766035639068989 0 -0.028048281600728683 0.0028075312214868131 0 -0.028029093661017836 0.0027686284698791204 0 -0.027957138304306055 0.0028889167705574989 0 -0.028029093661017836 0.0027686284698791204 0 -0.027957138304306055 0.0028889167705574989 0 -0.027873835449636043 0.0029110548068039528 0 -0.028031100641095701 0.0030354824080127941 0 -0.028048281600728683 0.0028075312214868131 0 -0.027957138304306055 0.0028889167705574989 0 -0.029195199536471195 0.0018854005031870486 0 -0.029162502337966866 0.0019815561186126442 0 -0.028025993310653398 0.0030352788517326399 0 -0.027957138304306055 0.0028889167705574989 0 -0.027909177234886666 0.0030020347791690099 0 -0.027957138304306055 0.0028889167705574989 0 -0.027873835449636043 0.0029110548068039528 0 -0.027909177234886666 0.0030020347791690099 0 -0.027873835449636043 0.0029110548068039528 0 -0.027821285366491505 0.002978352547706628 0 -0.027909177234886666 0.0030020347791690099 0 -0.027821285366491505 0.002978352547706628 0 -0.027735027367778071 0.0030363186771305375 0 -0.027776146113863795 0.002893450455888472 0 -0.027873835449636043 0.0029110548068039528 0 -0.027821285366491505 0.002978352547706628 0 -0.027776146113863795 0.002893450455888472 0 -0.027842330817260855 0.0030591602903352788 0 -0.028015776082090649 0.0031438819354715876 0 -0.027731648948485486 0.0031350064444971154 0 -0.027821285366491505 0.002978352547706628 0 -0.027842330817260855 0.0030591602903352788 0 -0.027735027367778071 0.0030363186771305375 0 -0.029699310806598832 0.0018037586771731142 0 -0.028683386955341228 0.002318576830141081 0 -0.030032871887390639 0.0015862110423568961 0 -0.029992783567154284 0.0016010567712084426 0 -0.029842186410632125 0.001581649791329649 0 -0.027821285366491505 0.002978352547706628 0 -0.027842330817260855 0.0030591602903352788 0 -0.027909177234886666 0.0030020347791690099 0 -0.027842330817260855 0.0030591602903352788 0 -0.027909177234886666 0.0030020347791690099 0 -0.028015776082090649 0.0031438819354715876 0 -0.028025993310653398 0.0030352788517326399 0 -0.027909177234886666 0.0030020347791690099 0 -0.028015776082090649 0.0031438819354715876 0 -0.029911811430934115 0.0016376224106767233 0 -0.029992783567154284 0.0016010567712084426 0 -0.030028454980257836 0.0016300379121243064 0 -0.030032871887390639 0.0015862110423568961 0 -0.029992783567154284 0.0016010567712084426 0 -0.030029182399610128 0.0016316204477296579 0 -0.029699310806598832 0.0018037586771731142 0 -0.030196376596083548 0.0015229397389082437 0 -0.030193122347116342 0.0015222800506615934 0 -0.030196376596083548 0.0015229397389082437 0 -0.029911811430934115 0.0016376224106767233 0 -0.029992783567154284 0.0016010567712084426 0 -0.029842186410632125 0.001581649791329649 0 -0.027735027367778071 0.0030363186771305375 0 -0.027629155586658138 0.0028094704236689728 0 -0.027473214399295759 0.0031241283461684514 0 -0.027731648948485486 0.0031350064444971154 0 -0.027735027367778071 0.0030363186771305375 0 -0.027473214399295759 0.0031241283461684514 0 -0.028683386955341228 0.002318576830141081 0 -0.027520597947560288 0.0028186929488779738 0 -0.029842186410632125 0.001581649791329649 0 -0.029651677412693554 0.0015778175946322887 0 -0.029768748922082255 0.0017023307656265304 0 -0.027842330817260855 0.0030591602903352788 0 -0.027731648948485486 0.0031350064444971154 0 -0.027735027367778071 0.0030363186771305375 0 -0.027735027367778071 0.0030363186771305375 0 -0.027629155586658138 0.0028094704236689728 0 -0.027686204584479932 0.0028092633449831221 0 -0.026685585527765222 0.0038646003039989429 0 -0.026612626978912264 0.0042952318863471771 0 -0.027735027367778071 0.0030363186771305375 0 -0.027776146113863795 0.002893450455888472 0 -0.027684916991601215 0.0027766035639068989 0 -0.026491608280867461 0.0044520829730279416 0 -0.026612626978912264 0.0042952318863471771 0 -0.023596135866231729 0.0055973616184861073 0 -0.02451801745131868 0.0050027084910315607 0 -0.024418557088098376 0.0039148580670118928 0 -0.026491608280867461 0.0044520829730279416 0 -0.025865979047610912 0.0051000086537635655 0 -0.026491608280867461 0.0044520829730279416 0 -0.027520597947560288 0.0028186929488779738 0 -0.023596135866231729 0.0055973616184861073 0 -0.02451801745131868 0.0050027084910315607 0 -0.025483619337725503 0.0055875582561326154 0 -0.02451801745131868 0.0050027084910315607 0 -0.025054680859116042 0.0044013282284851929 0 -0.025483619337725503 0.0055875582561326154 0 -0.02451801745131868 0.0050027084910315607 0 -0.025054680859116042 0.0044013282284851929 0 -0.024418557088098376 0.0039148580670118928 0 -0.024441757698073368 0.0037391206327531236 0 -0.025175552138122732 0.0035163035541321119 0 -0.026325074876778255 0.003734222410186532 0 -0.027520597947560288 0.0028186929488779738 0 -0.026743683205967705 0.0030992821349097024 0 -0.025054680859116042 0.0044013282284851929 0 -0.024418557088098376 0.0039148580670118928 0 -0.025708035960490833 0.003880203979795647 0 -0.024441757698073368 0.0037391206327531236 0 -0.025175552138122732 0.0035163035541321119 0 -0.025095974933076561 0.0023968835681486855 0 -0.027520597947560288 0.0028186929488779738 0 -0.028325821197013476 0.0019803253939583141 0 -0.029651677412693554 0.0015778175946322887 0 -0.029590417838373833 0.0017067681544594082 0 -0.029768748922082255 0.0017023307656265304 0 -0.029590417838373833 0.0017067681544594082 0 -0.029768748922082255 0.0017023307656265304 0 -0.0296954740659316 0.0017976608925311481 0 -0.024959832259013222 0.0024806157577409497 0 -0.025112179977461978 0.002137114518714353 0 -0.024643200490706157 7.0206885917925877e-05 0 -0.025175552138122732 0.0035163035541321119 0 -0.025002071105220326 0.0024426809329552448 0 -0.025590890389118916 0.0029594252269943737 0 -0.028182791766309861 0.0021406505935184783 0 -0.028325821197013476 0.0019803253939583141 0 -0.025002071105220326 0.0024426809329552448 0 -0.025112179977461978 0.002137114518714353 0 -0.025688514654512055 0.0021979943315874237 0 -0.028325821197013476 0.0019803253939583141 0 -0.02830299217553359 0.0019997727952007355 0 -0.029901761368222007 0.0017360215338242638 0 -0.029768748922082255 0.0017023307656265304 0 -0.029811088641894402 0.0018735128716783449 0 -0.029911811430934115 0.0016376224106767233 0 -0.029842186410632125 0.001581649791329649 0 -0.029768748922082255 0.0017023307656265304 0 -0.029901761368222007 0.0017360215338242638 0 -0.029911811430934115 0.0016376224106767233 0 -0.029768748922082255 0.0017023307656265304 0 -0.029768748922082255 0.0017023307656265304 0 -0.029811088641894402 0.0018735128716783449 0 -0.0296954740659316 0.0017976608925311481 0 -0.029811088641894402 0.0018735128716783449 0 -0.0296954740659316 0.0017976608925311481 0 -0.029612174407135001 0.0019077495880307888 0 -0.028325821197013476 0.0019803253939583141 0 -0.030728781144843575 0.00092194840171377673 0 -0.031684504353085265 0.00096348462623004766 0 -0.030728781144843575 0.00092194840171377673 0 -0.029590417838373833 0.0017067681544594082 0 -0.0296954740659316 0.0017976608925311481 0 -0.029612174407135001 0.0019077495880307888 0 -0.025112179977461978 0.002137114518714353 0 -0.024643200490706157 7.0206885917925877e-05 0 -0.02537552393170146 0.0013788151985118734 0 -0.025352570306744166 0.0070478782721941817 0 -0.025093745734486236 0.0072395140604030652 0 -0.025625487652353493 0.0068095149681728414 0 -0.025352570306744166 0.0070478782721941817 0 -0.025234793338835684 0.007207351499430339 0 -0.025247033473628038 0.0070505473735821026 0 -0.025352570306744166 0.0070478782721941817 0 -0.02540059503607647 0.0069311917442669239 0 -0.025247033473628038 0.0070505473735821026 0 -0.02540059503607647 0.0069311917442669239 0 -0.025366823755018808 0.0067323403861057228 0 -0.025247033473628038 0.0070505473735821026 0 -0.025352570306744166 0.0070478782721941817 0 -0.02540059503607647 0.0069311917442669239 0 -0.025625487652353493 0.0068095149681728414 0 -0.026283862206451986 0.0078199169001605985 0 -0.026642860665019832 0.0072704563365877471 0 -0.026270649822106792 0.0069304192475886546 0 -0.026045289797072109 0.0065572884714227685 0 -0.0259070559014873 0.0066900223797661026 0 -0.025749027032096115 0.0070339841498335319 0 -0.025625487652353493 0.0068095149681728414 0 -0.025682312147080662 0.0066922362011571099 0 -0.026283862206451986 0.0078199169001605985 0 -0.026270649822106792 0.0069304192475886546 0 -0.025682312147080662 0.0066922362011571099 0 -0.025731624712654073 0.0070306383902375078 0 -0.025749027032096115 0.0070339841498335319 0 -0.025625487652353493 0.0068095149681728414 0 -0.02670773734302154 0.0050464710636651906 0 -0.026694654648806465 0.006053272311267361 0 -0.025731624712654073 0.0070306383902375078 0 -0.025699545096331506 0.0070906026068821787 0 -0.025625487652353493 0.0068095149681728414 0 -0.025740490736102146 0.0070308631850349232 0 -0.025699545096331506 0.0070906026068821787 0 -0.025740112234000363 0.0070947323782440926 0 -0.02670773734302154 0.0050464710636651906 0 -0.026891585627774481 0.004820223378337686 0 -0.025731624712654073 0.0070306383902375078 0 -0.025740490736102146 0.0070308631850349232 0 -0.025699545096331506 0.0070906026068821787 0 -0.026700178530191115 0.0050507314901776044 0 -0.02670773734302154 0.0050464710636651906 0 -0.025093745734486236 0.0072395140604030652 0 -0.025206573417661027 0.0071885864101692599 0 -0.025173753686923813 0.00716323784767666 0 -0.025352570306744166 0.0070478782721941817 0 -0.025093745734486236 0.0072395140604030652 0 -0.025206573417661027 0.0071885864101692599 0 -0.025352570306744166 0.0070478782721941817 0 -0.025206573417661027 0.0071885864101692599 0 -0.025234793338835684 0.007207351499430339 0 -0.025206573417661027 0.0071885864101692599 0 -0.025234793338835684 0.007207351499430339 0 -0.025173753686923813 0.00716323784767666 0 -0.025234793338835684 0.007207351499430339 0 -0.025173753686923813 0.00716323784767666 0 -0.02527935124985696 0.007246247892380985 0 -0.025093745734486236 0.0072395140604030652 0 -0.025173753686923813 0.00716323784767666 0 -0.025026064413989756 0.0068937095257126744 0 -0.025173753686923813 0.00716323784767666 0 -0.025199952972219029 0.0068860798551798686 0 -0.02527935124985696 0.007246247892380985 0 -0.025173753686923813 0.00716323784767666 0 -0.025026064413989756 0.0068937095257126744 0 -0.025199952972219029 0.0068860798551798686 0 -0.024772842448610853 0.0064339196225414071 0 -0.024993513116648387 0.0066077148445650921 0 -0.025284822848422046 0.0062326774686041093 0 -0.025199952972219029 0.0068860798551798686 0 -0.024993513116648387 0.0066077148445650921 0 -0.025284822848422046 0.0062326774686041093 0 -0.025026064413989756 0.0068937095257126744 0 -0.025199952972219029 0.0068860798551798686 0 -0.024993513116648387 0.0066077148445650921 0 -0.026484407964283779 0.0048441680373700231 0 -0.026891585627774481 0.004820223378337686 0 -0.026543467134919972 0.0044397070964741128 0 -0.026816689369925893 0.0044358246449802165 0 -0.026742375324596279 0.0040346885757116197 0 -0.026612626978912264 0.0042952318863471771 0 -0.026484407964283779 0.0048441680373700231 0 -0.024772842448610853 0.0064339196225414071 0 -0.024993513116648387 0.0066077148445650921 0 -0.024706869761926299 0.006576206525124341 0 -0.026491608280867461 0.0044520829730279416 0 -0.026484407964283779 0.0048441680373700231 0 -0.025026064413989756 0.0068937095257126744 0 -0.024993513116648387 0.0066077148445650921 0 -0.024706869761926299 0.006576206525124341 0 -0.025093745734486236 0.0072395140604030652 0 -0.025026064413989756 0.0068937095257126744 0 -0.024706869761926299 0.006576206525124341 0 -0.025699545096331506 0.0070906026068821787 0 -0.025726478821068759 0.0071081992437301532 0 -0.025740112234000363 0.0070947323782440926 0 -0.026045289797072109 0.0065572884714227685 0 -0.026484407964283779 0.0048441680373700231 0 -0.026773668313510881 0.004068125954151275 0 -0.026606615580940803 0.0039767433090304657 0 -0.026724845386050813 0.004164866609609197 0 -0.026891585627774481 0.004820223378337686 0 -0.026912819525676587 0.0047343518115056963 0 -0.026996328590155341 0.0039938515182233311 0 -0.027164472367099398 0.0040401650790925624 0 -0.027090701843308366 0.0041956348124906201 0 -0.027498787679107 0.0031681221260837951 0 -0.026891585627774481 0.004820223378337686 0 -0.026996328590155341 0.0039938515182233311 0 -0.027155879325170062 0.0039942704556156063 0 -0.027164472367099398 0.0040401650790925624 0 -0.026642141397523307 0.0037831854288456666 0 -0.026773668313510881 0.004068125954151275 0 -0.026606615580940803 0.0039767433090304657 0 -0.02662679807132675 0.0037832822860624673 0 -0.026642141397523307 0.0037831854288456666 0 -0.026606615580940803 0.0039767433090304657 0 -0.026924068115269942 0.0026571864637853207 0 -0.027106508275871525 0.002656138859525598 0 -0.027042044595952056 0.0027386157579954796 0 -0.026924068115269942 0.0026571864637853207 0 -0.027042044595952056 0.0027386157579954796 0 -0.026996562495884304 0.0028334652974323772 0 -0.027106508275871525 0.002656138859525598 0 -0.027042044595952056 0.0027386157579954796 0 -0.027088465946455351 0.0028327646772547017 0 -0.027508041465055279 0.0030827433619154175 0 -0.026825352226542341 0.003314458930792161 0 -0.027042044595952056 0.0027386157579954796 0 -0.026996562495884304 0.0028334652974323772 0 -0.027088465946455351 0.0028327646772547017 0 -0.026667072454761531 0.0024794535520015005 0 -0.02614502471705972 0.0034272935266995938 0 -0.02522545826375986 0.0018641219894393903 0 -0.025381218508696408 0.0022216035340167201 0 -0.025179428000796124 0.0021122451281202627 0 -0.026606615580940803 0.0039767433090304657 0 -0.026589382609162809 0.0041667902092759838 0 -0.026724845386050813 0.004164866609609197 0 -0.026996562495884304 0.0028334652974323772 0 -0.027088465946455351 0.0028327646772547017 0 -0.027069227868176841 0.0030121532535016698 0 -0.026825352226542341 0.003314458930792161 0 -0.02614502471705972 0.0034272935266995938 0 -0.025207193134331896 0.0022776506721311567 0 -0.025381218508696408 0.0022216035340167201 0 -0.025179428000796124 0.0021122451281202627 0 -0.025207193134331896 0.0022776506721311567 0 -0.025381218508696408 0.0022216035340167201 0 -0.025357654153065186 0.0024724076194228652 0 -0.025207193134331896 0.0022776506721311567 0 -0.02524122370165973 0.0024943558617598668 0 -0.025357654153065186 0.0024724076194228652 0 -0.02614502471705972 0.0034272935266995938 0 -0.025512927971084207 0.0037240403032672135 0 -0.025504752451620611 0.003443601238324343 0 -0.025774052434747913 0.0040717839819898217 0 -0.025839915365426808 0.0033805396311069888 0 -0.025978101925907545 0.0041672216115458726 0 -0.02614502471705972 0.0034272935266995938 0 -0.02670773734302154 0.0050464710636651906 0 -0.025978101925907545 0.0041672216115458726 0 -0.026847327483527566 0.0042406950389685663 0 -0.026639538705118065 0.0042794978507301913 0 -0.026724845386050813 0.004164866609609197 0 -0.026847327483527566 0.0042406950389685663 0 -0.026767915409932359 0.004078407845523031 0 -0.026724845386050813 0.004164866609609197 0 -0.026639538705118065 0.0042794978507301913 0 -0.026589382609162809 0.0041667902092759838 0 -0.026724845386050813 0.004164866609609197 0 -0.027220119313116093 0.007631183714785778 0 -0.026642860665019832 0.0072704563365877471 0 -0.026946430000896898 0.0069878491248914314 0 -0.025978101925907545 0.0041672216115458726 0 -0.026276257085815633 0.0050147460795762783 0 -0.026283862206451986 0.0078199169001605985 0 -0.027220119313116093 0.007631183714785778 0 -0.026642860665019832 0.0072704563365877471 0 -0.026642860665019832 0.0072704563365877471 0 -0.026946430000896898 0.0069878491248914314 0 -0.026594596181730698 0.0068154013219709911 0 -0.026642860665019832 0.0072704563365877471 0 -0.026594596181730698 0.0068154013219709911 0 -0.026270649822106792 0.0069304192475886546 0 -0.021360914115638594 0.0029434595255362888 0 -0.021349233152103009 0.0029282647762704636 0 -0.021320046950160272 0.0029576401140781719 0 -0.025256402793155261 0.0038236504312182582 0 -0.024752398705144243 0.0034110553845540237 0 -0.024752398705144243 0.0034110553845540237 0 -0.025512927971084207 0.0037240403032672135 0 -0.025207020967273109 0.0029529869425970316 0 -0.026308256340172458 0.0042373804705173887 0 -0.025061777283057675 0.0044716259235116733 0 -0.026016270428291115 0.0041912544342684347 0 -0.026137286157550309 0.0044687452827221726 0 -0.025890260996450774 0.0043443807251279994 0 -0.025978101925907545 0.0041672216115458726 0 -0.025512927971084207 0.0037240403032672135 0 -0.026016270428291115 0.0041912544342684347 0 -0.025890260996450774 0.0043443807251279994 0 -0.0259029112303725 0.0042124573922907608 0 -0.025256402793155261 0.0038236504312182582 0 -0.025512927971084207 0.0037240403032672135 0 -0.021349233152103009 0.0029282647762704636 0 -0.021320046950160272 0.0029576401140781719 0 -0.0212860292912322 0.0029356221680960025 0 -0.024752398705144243 0.0034110553845540237 0 -0.022553870270664227 0.0028409672362611051 0 -0.022553870270664227 0.0028409672362611051 0 -0.019288608858154643 0.0024813551353102081 0 -0.024809064866106813 0.0025124915085533543 0 -0.024561544032480398 0.002104067881244173 0 -0.024406254790103381 0.0025855669659670955 0 -0.024809064866106813 0.0025124915085533543 0 -0.024904134486916085 0.0020863960352832133 0 -0.024561544032480398 0.002104067881244173 0 -0.025207193134331896 0.0022776506721311567 0 -0.02524122370165973 0.0024943558617598668 0 -0.024904134486916085 0.0020863960352832133 0 -0.024752398705144243 0.0034110553845540237 0 -0.024616441308728094 0.0028967347722849623 0 -0.025192579877580508 0.002440881400540254 0 -0.024809064866106813 0.0025124915085533543 0 -0.024904134486916085 0.0020863960352832133 0 -0.025207193134331896 0.0022776506721311567 0 -0.025179428000796124 0.0021122451281202627 0 -0.024904134486916085 0.0020863960352832133 0 -0.02522545826375986 0.0018641219894393903 0 -0.025179428000796124 0.0021122451281202627 0 -0.024904134486916085 0.0020863960352832133 0 -0.02522545826375986 0.0018641219894393903 0 -0.024904134486916085 0.0020863960352832133 0 -0.024797687971396302 0.0019007250520961835 0 -0.027546495401560483 0.0019724049151956585 0 -0.026667072454761531 0.0024794535520015005 0 -0.025081782276670451 0.0015239361920001155 0 -0.02522545826375986 0.0018641219894393903 0 -0.024862924378621351 0.0016935984160284833 0 -0.02522545826375986 0.0018641219894393903 0 -0.024862924378621351 0.0016935984160284833 0 -0.024797687971396302 0.0019007250520961835 0 -0.024649853428523587 0.0015322417773878424 0 -0.025081782276670451 0.0015239361920001155 0 -0.024862924378621351 0.0016935984160284833 0 -0.024649853428523587 0.0015322417773878424 0 -0.024627079501175479 0.0016627992477718091 0 -0.024862924378621351 0.0016935984160284833 0 -0.024862924378621351 0.0016935984160284833 0 -0.024612066934747798 0.0018030003542013151 0 -0.024797687971396302 0.0019007250520961835 0 -0.024627079501175479 0.0016627992477718091 0 -0.024862924378621351 0.0016935984160284833 0 -0.024612066934747798 0.0018030003542013151 0 -0.024904134486916085 0.0020863960352832133 0 -0.024797687971396302 0.0019007250520961835 0 -0.024561544032480398 0.002104067881244173 0 -0.024612066934747798 0.0018030003542013151 0 -0.024797687971396302 0.0019007250520961835 0 -0.024561544032480398 0.002104067881244173 0 -0.024612066934747798 0.0018030003542013151 0 -0.024561544032480398 0.002104067881244173 0 -0.024468267518835712 0.001837842204796907 0 -0.024561544032480398 0.002104067881244173 0 -0.024320633027362711 0.0019190353417509703 0 -0.024192447122467362 0.0021987047492610613 0 -0.024561544032480398 0.002104067881244173 0 -0.024320633027362711 0.0019190353417509703 0 -0.024468267518835712 0.001837842204796907 0 -0.027375235116555971 0.00085629058166419338 0 -0.027695637075358052 0.00096132016950354563 0 -0.024612066934747798 0.0018030003542013151 0 -0.024468267518835712 0.001837842204796907 0 -0.024466388990693696 0.0016422587905879657 0 -0.025853467329232108 0.00037443708716458602 0 -0.026660839675996643 0.00036005666868770811 0 -0.026695107950413355 0.00053098171799490694 0 -0.024320633027362711 0.0019190353417509703 0 -0.024468267518835712 0.001837842204796907 0 -0.024466388990693696 0.0016422587905879657 0 -0.024649853428523587 0.0015322417773878424 0 -0.024627079501175479 0.0016627992477718091 0 -0.024489037011007801 0.001601207739685803 0 -0.027739047380548758 0.0012045868928156917 0 -0.027695637075358052 0.00096132016950354563 0 -0.027794037478367371 0.00079284439547218128 0 -0.028044530996098212 0.00073181558639482248 0 -0.028055481180323548 0.00068506732713953696 0 -0.026660839675996643 0.00036005666868770811 0 -0.026713256432564225 0.00045424539014033241 0 -0.026695107950413355 0.00053098171799490694 0 -0.024627079501175479 0.0016627992477718091 0 -0.024612066934747798 0.0018030003542013151 0 -0.024489037011007801 0.001601207739685803 0 -0.028162162010577051 0.00080778669674055079 0 -0.027977656286799137 0.00084218078514095073 0 -0.024612066934747798 0.0018030003542013151 0 -0.024466388990693696 0.0016422587905879657 0 -0.02447801463440874 0.0015976316738431228 0 -0.028138255074071753 0.00086564874567789736 0 -0.027977656286799137 0.00084218078514095073 0 -0.027977656286799137 0.00084218078514095073 0 -0.027695637075358052 0.00096132016950354563 0 -0.027685568790177806 0.00097263593504601144 0 -0.027695637075358052 0.00096132016950354563 0 -0.025853467329232108 0.00037443708716458602 0 -0.026695107950413355 0.00053098171799490694 0 -0.025427468338637595 0.0010571460421523787 0 -0.024320633027362711 0.0019190353417509703 0 -0.024466388990693696 0.0016422587905879657 0 -0.023970577701806703 0.0018052609406634024 0 -0.024466388990693696 0.0016422587905879657 0 -0.024477800097289035 0.0015982263274839392 0 -0.023970577701806703 0.0018052609406634024 0 -0.027695637075358052 0.00096132016950354563 0 -0.023275993938345809 0.00091486441557490786 0 -0.020853585512979094 0.0017556007052678213 0 -0.023275993938345809 0.00091486441557490786 0 -0.024320633027362711 0.0019190353417509703 0 -0.024192447122467362 0.0021987047492610613 0 -0.023970577701806703 0.0018052609406634024 0 -0.020853585512979094 0.0017556007052678213 0 -0.019288608858154643 0.0024813551353102081 0 -0.014824295556561989 0.0025889929169749032 0 -0.014657909077764314 0.0022684340815072586 0 -0.014938174459130624 0.0024180716249731157 0 -0.024561544032480398 0.002104067881244173 0 -0.024192447122467362 0.0021987047492610613 0 -0.024406254790103381 0.0025855669659670955 0 -0.019288608858154643 0.0024813551353102081 0 -0.016055213707295787 0.0025574398307313139 0 -0.014657909077764314 0.0022684340815072586 0 -0.014934299897180425 0.0022074247268008208 0 -0.014938174459130624 0.0024180716249731157 0 -0.014203530239328256 0.0020382904900506302 0 -0.013907657985815789 0.0016615601612159445 0 -0.014373657488137187 0.0015054759943905485 0 -0.01374240289341049 0.0021004461557024129 0 -0.014203530239328256 0.0020382904900506302 0 -0.013907657985815789 0.0016615601612159445 0 -0.01374240289341049 0.0021004461557024129 0 -0.013907657985815789 0.0016615601612159445 0 -0.013441033076291924 0.0015170214462659126 0 -0.019288608858154643 0.0024813551353102081 0 -0.018297811580256899 0.0019382785880640463 0 -0.013907657985815789 0.0016615601612159445 0 -0.014008500288823507 0.0011442932295827849 0 -0.013441033076291924 0.0015170214462659126 0 -0.013907657985815789 0.0016615601612159445 0 -0.014008500288823507 0.0011442932295827849 0 -0.014373657488137187 0.0015054759943905485 0 -0.014008500288823507 0.0011442932295827849 0 -0.013957107387089898 0.00073528854752339366 0 -0.013644441437116185 0.00091584675291102129 0 -0.014008500288823507 0.0011442932295827849 0 -0.013957107387089898 0.00073528854752339366 0 -0.01415488696560605 0.00072784451245584702 0 -0.013957107387089898 0.00073528854752339366 0 -0.014083930151925286 0.00055618777933653322 0 -0.013988100221063175 0.0005178238882377371 0 -0.013957107387089898 0.00073528854752339366 0 -0.01415488696560605 0.00072784451245584702 0 -0.014083930151925286 0.00055618777933653322 0 -0.013957107387089898 0.00073528854752339366 0 -0.013644441437116185 0.00091584675291102129 0 -0.013846628950481155 0.00053299597196750353 0 -0.013644441437116185 0.00091584675291102129 0 -0.013846628950481155 0.00053299597196750353 0 -0.01344546048410562 0.00057812611435991931 0 -0.014008500288823507 0.0011442932295827849 0 -0.013644441437116185 0.00091584675291102129 0 -0.013441033076291924 0.0015170214462659126 0 -0.02129274760489985 0.0030489185796372144 0 -0.021308004012346053 0.0030345060610653608 0 -0.021260769432281511 0.0030011116932959869 0 -0.013644441437116185 0.00091584675291102129 0 -0.013164325814597972 0.00097396934237463123 0 -0.013441033076291924 0.0015170214462659126 0 -0.018359103367154347 0.0017774133941471069 0 -0.018297811580256899 0.0019382785880640463 0 -0.018359103367154347 0.0017774133941471069 0 -0.015793617593422626 0.0018741634111919298 0 -0.013644441437116185 0.00091584675291102129 0 -0.013164325814597972 0.00097396934237463123 0 -0.01344546048410562 0.00057812611435991931 0 -0.017084825694196875 0.001563460900626677 0 -0.016794612801462414 0.0019691305173114471 0 -0.017111280793961813 0.0020703169623411395 0 -0.018359103367154347 0.0017774133941471069 0 -0.021023128245891556 0.0031627153839820406 0 -0.021301541322745959 0.0030437000431739174 0 -0.021328297205735328 0.0030441087086827867 0 -0.021326350928019426 0.0030752161521639407 0 -0.017084825694196875 0.001563460900626677 0 -0.017111280793961813 0.0020703169623411395 0 -0.017372254326305934 0.0020628348901349865 0 -0.021301541322745959 0.0030437000431739174 0 -0.021308004012346053 0.0030345060610653608 0 -0.021328297205735328 0.0030441087086827867 0 -0.018359103367154347 0.0017774133941471069 0 -0.018488693565026467 0.0017709898790023485 0 -0.021308004012346053 0.0030345060610653608 0 -0.021308395824898699 0.0029992071131016008 0 -0.021344048438144206 0.0029999562314205275 0 -0.021308004012346053 0.0030345060610653608 0 -0.021308395824898699 0.0029992071131016008 0 -0.021260769432281511 0.0030011116932959869 0 -0.021320046950160272 0.0029576401140781719 0 -0.0212860292912322 0.0029356221680960025 0 -0.021260769432281511 0.0030011116932959869 0 -0.0212860292912322 0.0029356221680960025 0 -0.021221636025291965 0.0029441889575970649 0 -0.021260769432281511 0.0030011116932959869 0 -0.021320046950160272 0.0029576401140781719 0 -0.021308395824898699 0.0029992071131016008 0 -0.021260769432281511 0.0030011116932959869 0 -0.021320046950160272 0.0029576401140781719 0 -0.021308395824898699 0.0029992071131016008 0 -0.021344048438144206 0.0029999562314205275 0 -0.025256402793155261 0.0038236504312182582 0 -0.024161612784239457 0.0040394366585492138 0 -0.021360914115638594 0.0029434595255362888 0 -0.021320046950160272 0.0029576401140781719 0 -0.021344048438144206 0.0029999562314205275 0 -0.027283133386362676 0.0065391922366429224 0 -0.027013667881518832 0.0060324183887545983 0 -0.0273968500911487 0.0055575152711338409 0 -0.027013667881518832 0.0060324183887545983 0 -0.026922461262168872 0.0056902552974837858 0 -0.0273968500911487 0.0055575152711338409 0 -0.025256402793155261 0.0038236504312182582 0 -0.026291714330225834 0.0051818009420976311 0 -0.027283133386362676 0.0065391922366429224 0 -0.027013667881518832 0.0060324183887545983 0 -0.026514035131209191 0.0057087326782923669 0 -0.026137286157550309 0.0044687452827221726 0 -0.025890260996450774 0.0043443807251279994 0 -0.02625835572382676 0.004747140098275429 0 -0.026946430000896898 0.0069878491248914314 0 -0.026594596181730698 0.0068154013219709911 0 -0.026678207515706674 0.0063316203467774336 0 -0.026276257085815633 0.0050147460795762783 0 -0.026291714330225834 0.0051818009420976311 0 -0.026594596181730698 0.0068154013219709911 0 -0.026678207515706674 0.0063316203467774336 0 -0.026432337791873775 0.006554058195189446 0 -0.027013667881518832 0.0060324183887545983 0 -0.026804843738790218 0.0057459840219486174 0 -0.026922461262168872 0.0056902552974837858 0 -0.027013667881518832 0.0060324183887545983 0 -0.026514035131209191 0.0057087326782923669 0 -0.026804843738790218 0.0057459840219486174 0 -0.026804843738790218 0.0057459840219486174 0 -0.026922461262168872 0.0056902552974837858 0 -0.026738808582388474 0.0055665121547897435 0 -0.026514035131209191 0.0057087326782923669 0 -0.026804843738790218 0.0057459840219486174 0 -0.026738808582388474 0.0055665121547897435 0 -0.026738808582388474 0.0055665121547897435 0 -0.026897130420513872 0.0054233373273335226 0 -0.026531648712578917 0.0051967426202646936 0 -0.026922461262168872 0.0056902552974837858 0 -0.026738808582388474 0.0055665121547897435 0 -0.026897130420513872 0.0054233373273335226 0 -0.026514035131209191 0.0057087326782923669 0 -0.026738808582388474 0.0055665121547897435 0 -0.026531648712578917 0.0051967426202646936 0 -0.026897130420513872 0.0054233373273335226 0 -0.026531648712578917 0.0051967426202646936 0 -0.026925333449999835 0.0049438378522736236 0 -0.026897130420513872 0.0054233373273335226 0 -0.0273968500911487 0.0055575152711338409 0 -0.026925333449999835 0.0049438378522736236 0 -0.0273968500911487 0.0055575152711338409 0 -0.027547593988385216 0.004510002860441396 0 -0.026925333449999835 0.0049438378522736236 0 -0.024161612784239457 0.0040394366585492138 0 -0.022996149824036732 0.0036267927513434634 0 -0.026922461262168872 0.0056902552974837858 0 -0.026897130420513872 0.0054233373273335226 0 -0.0273968500911487 0.0055575152711338409 0 -0.021308004012346053 0.0030345060610653608 0 -0.021344048438144206 0.0029999562314205275 0 -0.021328297205735328 0.0030441087086827867 0 -0.027547593988385216 0.004510002860441396 0 -0.026868716960566256 0.0041168551456025057 0 -0.026925333449999835 0.0049438378522736236 0 -0.022996149824036732 0.0036267927513434634 0 -0.021023128245891556 0.0031627153839820406 0 -0.027547593988385216 0.004510002860441396 0 -0.026868716960566256 0.0041168551456025057 0 -0.027699709080197948 0.0033826140732130675 0 -0.026868716960566256 0.0041168551456025057 0 -0.026425596088454097 0.0045788557658410492 0 -0.026070043542238824 0.0038077355064346824 0 -0.026868716960566256 0.0041168551456025057 0 -0.026070043542238824 0.0038077355064346824 0 -0.026952230820453674 0.0033367705607119714 0 -0.026868716960566256 0.0041168551456025057 0 -0.026425596088454097 0.0045788557658410492 0 -0.026925333449999835 0.0049438378522736236 0 -0.026531648712578917 0.0051967426202646936 0 -0.026425596088454097 0.0045788557658410492 0 -0.026925333449999835 0.0049438378522736236 0 -0.026425596088454097 0.0045788557658410492 0 -0.025729264223188591 0.004811355040237433 0 -0.026070043542238824 0.0038077355064346824 0 -0.026531648712578917 0.0051967426202646936 0 -0.026425596088454097 0.0045788557658410492 0 -0.025729264223188591 0.004811355040237433 0 -0.02587507174969781 0.0049006625051415884 0 -0.025434855247862931 0.0044461364913563825 0 -0.025729264223188591 0.004811355040237433 0 -0.026070043542238824 0.0038077355064346824 0 -0.024887261096201985 0.0039782098189393147 0 -0.025949692717222233 0.0052839372680646536 0 -0.024669587078000776 0.0050910357324354689 0 -0.024887261096201985 0.0039782098189393147 0 -0.025949692717222233 0.0052839372680646536 0 -0.025247146202911384 0.0059871758343261411 0 -0.024669587078000776 0.0050910357324354689 0 -0.025949692717222233 0.0052839372680646536 0 -0.025247146202911384 0.0059871758343261411 0 -0.0257049065669635 0.0061661981781369361 0 -0.026514035131209191 0.0057087326782923669 0 -0.026531648712578917 0.0051967426202646936 0 -0.025729264223188591 0.004811355040237433 0 -0.026291714330225834 0.0051818009420976311 0 -0.02587507174969781 0.0049006625051415884 0 -0.025949692717222233 0.0052839372680646536 0 -0.0257049065669635 0.0061661981781369361 0 -0.026160165537192831 0.0063760295616815408 0 -0.026678207515706674 0.0063316203467774336 0 -0.025949692717222233 0.0052839372680646536 0 -0.026160165537192831 0.0063760295616815408 0 -0.0257049065669635 0.0061661981781369361 0 -0.026160165537192831 0.0063760295616815408 0 -0.025891693381059459 0.0064724143842350111 0 -0.025891693381059459 0.0064724143842350111 0 -0.026205318198272789 0.0065802917725824748 0 -0.02601766658093661 0.0066663448561647479 0 -0.026160165537192831 0.0063760295616815408 0 -0.025891693381059459 0.0064724143842350111 0 -0.026205318198272789 0.0065802917725824748 0 -0.025891693381059459 0.0064724143842350111 0 -0.02601766658093661 0.0066663448561647479 0 -0.025682312147080662 0.0066922362011571099 0 -0.026678207515706674 0.0063316203467774336 0 -0.026160165537192831 0.0063760295616815408 0 -0.026432337791873775 0.006554058195189446 0 -0.026160165537192831 0.0063760295616815408 0 -0.026205318198272789 0.0065802917725824748 0 -0.026432337791873775 0.006554058195189446 0 -0.026594596181730698 0.0068154013219709911 0 -0.026432337791873775 0.006554058195189446 0 -0.026270649822106792 0.0069304192475886546 0 -0.026205318198272789 0.0065802917725824748 0 -0.026432337791873775 0.006554058195189446 0 -0.026270649822106792 0.0069304192475886546 0 -0.026205318198272789 0.0065802917725824748 0 -0.026270649822106792 0.0069304192475886546 0 -0.02601766658093661 0.0066663448561647479 0 -0.026270649822106792 0.0069304192475886546 0 -0.02601766658093661 0.0066663448561647479 0 -0.025682312147080662 0.0066922362011571099 0 -0.02540059503607647 0.0069311917442669239 0 -0.025625487652353493 0.0068095149681728414 0 -0.025366823755018808 0.0067323403861057228 0 -0.025247146202911384 0.0059871758343261411 0 -0.0257049065669635 0.0061661981781369361 0 -0.025366823755018808 0.0067323403861057228 0 -0.025625487652353493 0.0068095149681728414 0 -0.025682312147080662 0.0066922362011571099 0 -0.025366823755018808 0.0067323403861057228 0 -0.0257049065669635 0.0061661981781369361 0 -0.025891693381059459 0.0064724143842350111 0 -0.025682312147080662 0.0066922362011571099 0 -0.0257049065669635 0.0061661981781369361 0 -0.025682312147080662 0.0066922362011571099 0 -0.025366823755018808 0.0067323403861057228 0 -0.024187841331395909 -0.00010305042271616995 0 -0.024373549104842851 -1.447853678021657e-05 0 -0.024398964227694563 -0.00028132008240619992 0 -0.024187841331395909 -0.00010305042271616995 0 -0.024373549104842851 -1.447853678021657e-05 0 -0.024035080299213044 0.00026258176063908342 0 -0.020795574760673334 0.0011586623355347735 0 -0.020917951401703373 0.00134651420329408 0 -0.024373549104842851 -1.447853678021657e-05 0 -0.024398964227694563 -0.00028132008240619992 0 -0.02462972225167654 -0.0001412983903981597 0 -0.016755430811002777 0.0026718831749811367 0 -0.016663043903404756 0.0021468685134084053 0 -0.015990440849065885 0.0022294775542283049 0 -0.016755430811002777 0.0026718831749811367 0 -0.016663043903404756 0.0021468685134084053 0 -0.017259366974578336 0.0018126122308116603 0 -0.016663043903404756 0.0021468685134084053 0 -0.017259366974578336 0.0018126122308116603 0 -0.016859302337232349 0.0013435566763764675 0 -0.020795574760673334 0.0011586623355347735 0 -0.021229484657899506 0.00069264624771866871 0 -0.016755430811002777 0.0026718831749811367 0 -0.017259366974578336 0.0018126122308116603 0 -0.018597304137782125 0.0020774172700053035 0 -0.024035080299213044 0.00026258176063908342 0 -0.023410010302046955 -3.8139883775849766e-05 0 -0.023956108747417697 -1.3364084677105862e-05 0 -0.021229484657899506 0.00069264624771866871 0 -0.021723826467076292 1.0933767456246949e-06 0 -0.023410010302046955 -3.8139883775849766e-05 0 -0.023371086486598278 -4.9410123687305231e-07 0 -0.021726842468373204 1.3297464068153526e-06 0 -0.024035080299213044 0.00026258176063908342 0 -0.023410010302046955 -3.8139883775849766e-05 0 -0.021726842468373204 1.3297464068153526e-06 0 -0.023410010302046955 -3.8139883775849766e-05 0 -0.024168865405444384 -0.00018435983515366957 0 -0.023371086486598278 -4.9410123687305231e-07 0 -0.024187841331395909 -0.00010305042271616995 0 -0.023956108747417697 -1.3364084677105862e-05 0 -0.024114791597230987 -0.00027894993779342805 0 -0.024168865405444384 -0.00018435983515366957 0 -0.023956108747417697 -1.3364084677105862e-05 0 -0.024577111647835173 -0.00025936109087673208 0 -0.023410010302046955 -3.8139883775849766e-05 0 -0.024168865405444384 -0.00018435983515366957 0 -0.023956108747417697 -1.3364084677105862e-05 0 -0.024187841331395909 -0.00010305042271616995 0 -0.024035080299213044 0.00026258176063908342 0 -0.023956108747417697 -1.3364084677105862e-05 0 -0.025415719803469804 0.00012797184042086132 0 -0.025721426045973637 0.00020011949304777057 0 -0.024168865405444384 -0.00018435983515366957 0 -0.024577111647835173 -0.00025936109087673208 0 -0.024860789917089971 -0.00018407821847962481 0 -0.024168865405444384 -0.00018435983515366957 0 -0.025019341694224886 -1.0300768684117872e-06 0 -0.024860789917089971 -0.00018407821847962481 0 -0.024168865405444384 -0.00018435983515366957 0 -0.023371086486598278 -4.9410123687305231e-07 0 -0.025019341694224886 -1.0300768684117872e-06 0 -0.026663337786316157 1.7464857823762334e-06 0 -0.025019341694224886 -1.0300768684117872e-06 0 -0.025538229477386126 -0.00012618935412350265 0 -0.025019341694224886 -1.0300768684117872e-06 0 -0.024860789917089971 -0.00018407821847962481 0 -0.025538229477386126 -0.00012618935412350265 0 -0.024577111647835173 -0.00025936109087673208 0 -0.024860789917089971 -0.00018407821847962481 0 -0.024864767710618459 6.3383064551319272e-06 0 -0.024577111647835173 -0.00025936109087673208 0 -0.024864767710618459 6.3383064551319272e-06 0 -0.024677695335870477 1.5617638106274586e-05 0 -0.024860789917089971 -0.00018407821847962481 0 -0.025538229477386126 -0.00012618935412350265 0 -0.024864767710618459 6.3383064551319272e-06 0 -0.02626130137513516 0.00069375107704293089 0 -0.026623474436792745 0.00072818065813652242 0 -0.024114791597230987 -0.00027894993779342805 0 -0.02420215932084804 -0.00052083539697091999 0 -0.024398964227694563 -0.00028132008240619992 0 -0.025721426045973637 0.00020011949304777057 0 -0.026623474436792745 0.00072818065813652242 0 -0.024187841331395909 -0.00010305042271616995 0 -0.024114791597230987 -0.00027894993779342805 0 -0.024398964227694563 -0.00028132008240619992 0 -0.02420215932084804 -0.00052083539697091999 0 -0.024398964227694563 -0.00028132008240619992 0 -0.024542155443616986 -0.00051546949671430647 0 -0.026623474436792745 0.00072818065813652242 0 -0.027785009006238249 0.00027822176756996835 0 -0.024398964227694563 -0.00028132008240619992 0 -0.024542155443616986 -0.00051546949671430647 0 -0.024701979599040129 -0.00036006201277256786 0 -0.024864899506944677 -0.00051318805603149057 0 -0.024542155443616986 -0.00051546949671430647 0 -0.024701979599040129 -0.00036006201277256786 0 -0.024864899506944677 -0.00051318805603149057 0 -0.024701979599040129 -0.00036006201277256786 0 -0.024893740550361976 -0.00025386643757611981 0 -0.026242102334362732 0.00028846356648620677 0 -0.027785009006238249 0.00027822176756996835 0 -0.024701979599040129 -0.00036006201277256786 0 -0.024893740550361976 -0.00025386643757611981 0 -0.02462972225167654 -0.0001412983903981597 0 -0.015334014806479076 0.0027673247142842097 0 -0.015344531375682329 0.0028208436165162469 0 -0.015842040042502059 0.0027774681274854518 0 -0.022911867287302334 0.00094378672635184711 0 -0.020917951401703373 0.00134651420329408 0 -0.024398964227694563 -0.00028132008240619992 0 -0.024701979599040129 -0.00036006201277256786 0 -0.02462972225167654 -0.0001412983903981597 0 -0.024832720201111051 0.00056330208680453059 0 -0.024888220534896071 0.00066752099257352034 0 -0.024715461006907774 0.0007390146712571064 0 -0.025049256671988089 0.00039024289327923558 0 -0.025853467329232108 0.00037443708716458602 0 -0.025427468338637595 0.0010571460421523787 0 -0.026211258489009223 0.00086911639908013956 0 -0.023275993938345809 0.00091486441557490786 0 -0.024696821091191049 0.00056524323522386881 0 -0.024832720201111051 0.00056330208680453059 0 -0.024715461006907774 0.0007390146712571064 0 -0.026242102334362732 0.00028846356648620677 0 -0.022911867287302334 0.00094378672635184711 0 -0.015346672722048949 0.0028021274814908821 0 -0.015101841207571454 0.0027075775511133647 0 -0.015219903111974218 0.0026688061562935039 0 -0.015334014806479076 0.0027673247142842097 0 -0.015346672722048949 0.0028021274814908821 0 -0.015219903111974218 0.0026688061562935039 0 -0.022885127585143959 0.00095870285669903059 0 -0.022911867287302334 0.00094378672635184711 0 -0.014824295556561989 0.0025889929169749032 0 -0.015017000330921917 0.0029093852494578463 0 -0.015101841207571454 0.0027075775511133647 0 -0.023275993938345809 0.00091486441557490786 0 -0.022911867287302334 0.00094378672635184711 0 -0.015017000330921917 0.0029093852494578463 0 -0.015346672722048949 0.0028021274814908821 0 -0.015101841207571454 0.0027075775511133647 0 -0.014824295556561989 0.0025889929169749032 0 -0.014938174459130624 0.0024180716249731157 0 -0.015101841207571454 0.0027075775511133647 0 -0.014938174459130624 0.0024180716249731157 0 -0.015101841207571454 0.0027075775511133647 0 -0.015129732613860823 0.0024364056278443447 0 -0.015101841207571454 0.0027075775511133647 0 -0.015129732613860823 0.0024364056278443447 0 -0.015219903111974218 0.0026688061562935039 0 -0.015334014806479076 0.0027673247142842097 0 -0.015283250970696188 0.0025359175419350671 0 -0.015492986001956938 0.0024554222748136827 0 -0.015129732613860823 0.0024364056278443447 0 -0.015219903111974218 0.0026688061562935039 0 -0.015283250970696188 0.0025359175419350671 0 -0.015129732613860823 0.0024364056278443447 0 -0.015283250970696188 0.0025359175419350671 0 -0.015272696456792077 0.0023346366653763779 0 -0.015334014806479076 0.0027673247142842097 0 -0.015219903111974218 0.0026688061562935039 0 -0.015283250970696188 0.0025359175419350671 0 -0.015283250970696188 0.0025359175419350671 0 -0.015272696456792077 0.0023346366653763779 0 -0.015492986001956938 0.0024554222748136827 0 -0.015129732613860823 0.0024364056278443447 0 -0.015272696456792077 0.0023346366653763779 0 -0.015208865220050711 0.0021095712688562456 0 -0.015272696456792077 0.0023346366653763779 0 -0.015471310831052156 0.0019168164996834658 0 -0.015208865220050711 0.0021095712688562456 0 -0.014934299897180425 0.0022074247268008208 0 -0.015129732613860823 0.0024364056278443447 0 -0.015208865220050711 0.0021095712688562456 0 -0.014934299897180425 0.0022074247268008208 0 -0.014938174459130624 0.0024180716249731157 0 -0.015129732613860823 0.0024364056278443447 0 -0.015842040042502059 0.0027774681274854518 0 -0.015492986001956938 0.0024554222748136827 0 -0.015990440849065885 0.0022294775542283049 0 -0.016755430811002777 0.0026718831749811367 0 -0.015842040042502059 0.0027774681274854518 0 -0.015990440849065885 0.0022294775542283049 0 -0.015334014806479076 0.0027673247142842097 0 -0.015842040042502059 0.0027774681274854518 0 -0.015492986001956938 0.0024554222748136827 0 -0.015492986001956938 0.0024554222748136827 0 -0.015990440849065885 0.0022294775542283049 0 -0.015471310831052156 0.0019168164996834658 0 -0.015272696456792077 0.0023346366653763779 0 -0.015492986001956938 0.0024554222748136827 0 -0.015471310831052156 0.0019168164996834658 0 -0.015990440849065885 0.0022294775542283049 0 -0.015471310831052156 0.0019168164996834658 0 -0.016062293613792151 0.0015758446485903636 0 -0.015471310831052156 0.0019168164996834658 0 -0.015290453729451235 0.0013661354994207603 0 -0.014889958727942756 0.0015887262589503195 0 -0.015471310831052156 0.0019168164996834658 0 -0.015290453729451235 0.0013661354994207603 0 -0.016062293613792151 0.0015758446485903636 0 -0.015290453729451235 0.0013661354994207603 0 -0.016062293613792151 0.0015758446485903636 0 -0.015560522568291628 0.00096862371502633865 0 -0.016078223446842455 0.0013020284074059735 0 -0.015706483661137281 0.00070640337644159435 0 -0.016229802883594276 0.00081928847789410606 0 -0.015797083258668736 0.00032787489137827162 0 -0.01654070661269819 0.0003241566485433368 0 -0.016055213707295787 0.0025574398307313139 0 -0.015423104260673752 0.0024211150518280503 0 -0.014203530239328256 0.0020382904900506302 0 -0.014726179677187836 0.0020049389535151895 0 -0.014373657488137187 0.0015054759943905485 0 -0.015420063234273369 0.0023439662624297488 0 -0.015423104260673752 0.0024211150518280503 0 -0.015471310831052156 0.0019168164996834658 0 -0.014726179677187836 0.0020049389535151895 0 -0.014889958727942756 0.0015887262589503195 0 -0.014726179677187836 0.0020049389535151895 0 -0.014889958727942756 0.0015887262589503195 0 -0.014373657488137187 0.0015054759943905485 0 -0.015290453729451235 0.0013661354994207603 0 -0.014889958727942756 0.0015887262589503195 0 -0.014703100106643541 0.0012202951454300041 0 -0.014889958727942756 0.0015887262589503195 0 -0.014373657488137187 0.0015054759943905485 0 -0.014703100106643541 0.0012202951454300041 0 -0.014008500288823507 0.0011442932295827849 0 -0.014373657488137187 0.0015054759943905485 0 -0.014334749238370716 0.00095900273131175121 0 -0.014373657488137187 0.0015054759943905485 0 -0.014334749238370716 0.00095900273131175121 0 -0.014703100106643541 0.0012202951454300041 0 -0.014008500288823507 0.0011442932295827849 0 -0.014334749238370716 0.00095900273131175121 0 -0.01415488696560605 0.00072784451245584702 0 -0.015290453729451235 0.0013661354994207603 0 -0.014703100106643541 0.0012202951454300041 0 -0.01476649922361503 0.0007993857276414149 0 -0.014334749238370716 0.00095900273131175121 0 -0.014703100106643541 0.0012202951454300041 0 -0.01476649922361503 0.0007993857276414149 0 -0.01476649922361503 0.0007993857276414149 0 -0.014262108863534047 0.00056023209979972623 0 -0.014465151350282387 0.00040330184759902873 0 -0.01476649922361503 0.0007993857276414149 0 -0.015075279610651889 0.00033449164080932365 0 -0.014465151350282387 0.00040330184759902873 0 -0.014334749238370716 0.00095900273131175121 0 -0.01476649922361503 0.0007993857276414149 0 -0.014262108863534047 0.00056023209979972623 0 -0.014334749238370716 0.00095900273131175121 0 -0.014262108863534047 0.00056023209979972623 0 -0.01415488696560605 0.00072784451245584702 0 -0.014262108863534047 0.00056023209979972623 0 -0.01415488696560605 0.00072784451245584702 0 -0.014083930151925286 0.00055618777933653322 0 -0.015290453729451235 0.0013661354994207603 0 -0.01476649922361503 0.0007993857276414149 0 -0.015560522568291628 0.00096862371502633865 0 -0.015706483661137281 0.00070640337644159435 0 -0.015500516737331958 0.0004174405295443432 0 -0.01476649922361503 0.0007993857276414149 0 -0.015560522568291628 0.00096862371502633865 0 -0.015075279610651889 0.00033449164080932365 0 -0.015797083258668736 0.00032787489137827162 0 -0.016258804043600954 1.336409905606422e-05 0 -0.015075279610651889 0.00033449164080932365 0 -0.016258804043600954 1.336409905606422e-05 0 -0.017441350887084595 4.3163528851508972e-05 0 -0.017057072598008219 -0.00017119732020378387 0 -0.016258804043600954 1.336409905606422e-05 0 -0.017441350887084595 4.3163528851508972e-05 0 -0.01654070661269819 0.0003241566485433368 0 -0.015797083258668736 0.00032787489137827162 0 -0.016258804043600954 1.336409905606422e-05 0 -0.01654070661269819 0.0003241566485433368 0 -0.016229802883594276 0.00081928847789410606 0 -0.01654070661269819 0.0003241566485433368 0 -0.017472688789841422 0.00082994705940428698 0 -0.017441350887084595 4.3163528851508972e-05 0 -0.01654070661269819 0.0003241566485433368 0 -0.017472688789841422 0.00082994705940428698 0 -0.017259366974578336 0.0018126122308116603 0 -0.017472688789841422 0.00082994705940428698 0 -0.016859302337232349 0.0013435566763764675 0 -0.017259366974578336 0.0018126122308116603 0 -0.018597304137782125 0.0020774172700053035 0 -0.017472688789841422 0.00082994705940428698 0 -0.016318094885112079 0.0017386877898673161 0 -0.016078223446842455 0.0013020284074059735 0 -0.016663043903404756 0.0021468685134084053 0 -0.015990440849065885 0.0022294775542283049 0 -0.016062293613792151 0.0015758446485903636 0 -0.016663043903404756 0.0021468685134084053 0 -0.016229802883594276 0.00081928847789410606 0 -0.016859302337232349 0.0013435566763764675 0 -0.016229802883594276 0.00081928847789410606 0 -0.017472688789841422 0.00082994705940428698 0 -0.016859302337232349 0.0013435566763764675 0 -0.018597304137782125 0.0020774172700053035 0 -0.021719745764359685 4.7393995741640731e-06 0 -0.019041620660486057 0.00016183096835779221 0 -0.018597304137782125 0.0020774172700053035 0 -0.017472688789841422 0.00082994705940428698 0 -0.019041620660486057 0.00016183096835779221 0 -0.017441350887084595 4.3163528851508972e-05 0 -0.017472688789841422 0.00082994705940428698 0 -0.019041620660486057 0.00016183096835779221 0 -0.019041620660486057 0.00016183096835779221 0 -0.019773739569657639 -1.3130730310443528e-06 0 -0.018192982310552375 -9.9595743665235076e-05 0 -0.021719745764359685 4.7393995741640731e-06 0 -0.019041620660486057 0.00016183096835779221 0 -0.019773739569657639 -1.3130730310443528e-06 0 -0.019773739569657639 -1.3130730310443528e-06 0 -0.018192982310552375 -9.9595743665235076e-05 0 -0.017822861674050675 -1.9513012669304867e-07 0 -0.017441350887084595 4.3163528851508972e-05 0 -0.019041620660486057 0.00016183096835779221 0 -0.018192982310552375 -9.9595743665235076e-05 0 -0.017441350887084595 4.3163528851508972e-05 0 -0.018192982310552375 -9.9595743665235076e-05 0 -0.017057072598008219 -0.00017119732020378387 0 -0.018192982310552375 -9.9595743665235076e-05 0 -0.017057072598008219 -0.00017119732020378387 0 -0.017822861674050675 -1.9513012669304867e-07 0 -0.017822861674050675 -1.9513012669304867e-07 0 -0.016232181771974531 -0.00025126621344224493 0 -0.01587341658272913 -4.4644445152148199e-07 0 -0.017057072598008219 -0.00017119732020378387 0 -0.017822861674050675 -1.9513012669304867e-07 0 -0.016232181771974531 -0.00025126621344224493 0 -0.017057072598008219 -0.00017119732020378387 0 -0.016232181771974531 -0.00025126621344224493 0 -0.016202867880999464 -0.00029495107655260491 0 -0.016232181771974531 -0.00025126621344224493 0 -0.016202867880999464 -0.00029495107655260491 0 -0.015356570419766956 -0.00036912347272817725 0 -0.016232181771974531 -0.00025126621344224493 0 -0.01587341658272913 -4.4644445152148199e-07 0 -0.015356570419766956 -0.00036912347272817725 0 -0.016258804043600954 1.336409905606422e-05 0 -0.016202867880999464 -0.00029495107655260491 0 -0.015677571881105336 -0.00010718149606727549 0 -0.016258804043600954 1.336409905606422e-05 0 -0.017057072598008219 -0.00017119732020378387 0 -0.016202867880999464 -0.00029495107655260491 0 -0.016202867880999464 -0.00029495107655260491 0 -0.015822241214807485 -0.00038756636180531742 0 -0.015356570419766956 -0.00036912347272817725 0 -0.016202867880999464 -0.00029495107655260491 0 -0.015822241214807485 -0.00038756636180531742 0 -0.015677571881105336 -0.00010718149606727549 0 -0.015822241214807485 -0.00038756636180531742 0 -0.015727203018669266 -0.000266780813518565 0 -0.015382816178138923 -0.00055445363853787221 0 -0.015822241214807485 -0.00038756636180531742 0 -0.015727203018669266 -0.000266780813518565 0 -0.015356570419766956 -0.00036912347272817725 0 -0.015727203018669266 -0.000266780813518565 0 -0.015356570419766956 -0.00036912347272817725 0 -0.015008001616752625 0.00021385118854036925 0 -0.01587341658272913 -4.4644445152148199e-07 0 -0.015356570419766956 -0.00036912347272817725 0 -0.013923318705953869 -1.2133939439850155e-06 0 -0.015356570419766956 -0.00036912347272817725 0 -0.013856238179444577 2.6695014496422306e-05 0 -0.015008001616752625 0.00021385118854036925 0 -0.015356570419766956 -0.00036912347272817725 0 -0.013923318705953869 -1.2133939439850155e-06 0 -0.013856238179444577 2.6695014496422306e-05 0 -0.013923318705953869 -1.2133939439850155e-06 0 -0.013856238179444577 2.6695014496422306e-05 0 -0.011975898841100566 2.7006809231025331e-06 0 -0.013856238179444577 2.6695014496422306e-05 0 -0.011975898841100566 2.7006809231025331e-06 0 -0.013172871580381912 0.00091050615145471623 0 -0.011972402142806806 3.3138988425431106e-07 0 -0.011872997174138105 4.9613823514626657e-05 0 -0.011970891807626491 3.3646868041676016e-10 0 -0.011546654384952726 -6.007699552494279e-07 0 -0.011135441302044424 -2.0045759840043913e-09 0 -0.0099758095800806558 0.00075723690567262706 0 -0.011130640041334428 1.4586332071418568e-06 0 -0.0098793383484718934 0.00013554392711355686 0 -0.011872997174138105 4.9613823514626657e-05 0 -0.011135847367582765 1.0318322877603357e-06 0 -0.014564799065886603 0.00073994416657945669 0 -0.01423198652246163 0.00074669831571637845 0 -0.014178725619023096 0.00099170117778662917 0 -0.014564799065886603 0.00073994416657945669 0 -0.01423198652246163 0.00074669831571637845 0 -0.014235841972579337 0.00048384380077304056 0 -0.0099758095800806558 0.00075723690567262706 0 -0.0098793383484718934 0.00013554392711355686 0 -0.0088772641152978695 3.9286510514169597e-05 0 -0.011872997174138105 4.9613823514626657e-05 0 -0.011596256537032036 0.00025046390822891241 0 -0.011872997174138105 4.9613823514626657e-05 0 -0.013730318310993783 -2.2784076743371953e-05 0 -0.013856238179444577 2.6695014496422306e-05 0 -0.013172871580381912 0.00091050615145471623 0 -0.015008001616752625 0.00021385118854036925 0 -0.014256925549071542 9.031260858065878e-05 0 -0.013730318310993783 -2.2784076743371953e-05 0 -0.013674266564730602 0.0012054582058805825 0 -0.014178725619023096 0.00099170117778662917 0 -0.01394577417214049 0.00076749580934679291 0 -0.013674266564730602 0.0012054582058805825 0 -0.01394577417214049 0.00076749580934679291 0 -0.013568429079156572 0.00098138820430557563 0 -0.01394577417214049 0.00076749580934679291 0 -0.013657798948673111 0.00064340801461781124 0 -0.013568429079156572 0.00098138820430557563 0 -0.01423198652246163 0.00074669831571637845 0 -0.01394577417214049 0.00076749580934679291 0 -0.014235841972579337 0.00048384380077304056 0 -0.01423198652246163 0.00074669831571637845 0 -0.014178725619023096 0.00099170117778662917 0 -0.01394577417214049 0.00076749580934679291 0 -0.011119447106245564 0.00030389227115694688 0 -0.011596256537032036 0.00025046390822891241 0 -0.0089954889241996849 -8.0880375962708633e-06 0 -0.0088216043374384299 -5.7805363353672921e-05 0 -0.0088772641152978695 3.9286510514169597e-05 0 -0.01394577417214049 0.00076749580934679291 0 -0.013975688858739971 0.00018224244886912361 0 -0.014235841972579337 0.00048384380077304056 0 -0.013975688858739971 0.00018224244886912361 0 -0.013653039005665266 0.00015409978982918083 0 -0.013657798948673111 0.00064340801461781124 0 -0.01394577417214049 0.00076749580934679291 0 -0.013975688858739971 0.00018224244886912361 0 -0.013657798948673111 0.00064340801461781124 0 -0.013975688858739971 0.00018224244886912361 0 -0.013653039005665266 0.00015409978982918083 0 -0.013663161866248004 -0.00035639465002550462 0 -0.011119447106245564 0.00030389227115694688 0 -0.010191493740790225 0.00029969006060988015 0 -0.0089954889241996849 -8.0880375962708633e-06 0 -0.0088216043374384299 -5.7805363353672921e-05 0 -0.0089557139212209716 0.00014868502647153361 0 -0.0088216043374384299 -5.7805363353672921e-05 0 -0.0083099290980808323 0.00013110517366067819 0 -0.0093946148413580708 -6.1033909444802516e-05 0 -0.0088216043374384299 -5.7805363353672921e-05 0 -0.0083099290980808323 0.00013110517366067819 0 -0.0089557139212209716 0.00014868502647153361 0 -0.0090675177354264721 -2.4426804072561918e-07 0 -0.0083099290980808323 0.00013110517366067819 0 -0.0093946148413580708 -6.1033909444802516e-05 0 -0.011130640041334428 1.4586332071418568e-06 0 -0.0090675177354264721 -2.4426804072561918e-07 0 -0.0093946148413580708 -6.1033909444802516e-05 0 -0.011130640041334428 1.4586332071418568e-06 0 -0.0093946148413580708 -6.1033909444802516e-05 0 -0.0098793383484718934 0.00013554392711355686 0 -0.0093946148413580708 -6.1033909444802516e-05 0 -0.0098793383484718934 0.00013554392711355686 0 -0.0088772641152978695 3.9286510514169597e-05 0 -0.0088216043374384299 -5.7805363353672921e-05 0 -0.0093946148413580708 -6.1033909444802516e-05 0 -0.0088772641152978695 3.9286510514169597e-05 0 -0.01300443611734207 0.00070237739720183307 0 -0.01247821113604799 0.00075498957940028618 0 -0.012737251511036314 0.00018424146498032502 0 -0.01247821113604799 0.00075498957940028618 0 -0.012208796380708486 2.0998633335882055e-05 0 -0.012737251511036314 0.00018424146498032502 0 -0.01300443611734207 0.00070237739720183307 0 -0.012737251511036314 0.00018424146498032502 0 -0.013110945042601196 0.00018074928045658131 0 -0.01247821113604799 0.00075498957940028618 0 -0.012208796380708486 2.0998633335882055e-05 0 -0.011281962538973995 0.00019290536138555806 0 -0.01247821113604799 0.00075498957940028618 0 -0.01202972933334388 0.0012782501863594397 0 -0.011281962538973995 0.00019290536138555806 0 -0.012208796380708486 2.0998633335882055e-05 0 -0.011819457275877928 -0.00059546627826269458 0 -0.011281962538973995 0.00019290536138555806 0 -0.012208796380708486 2.0998633335882055e-05 0 -0.011819457275877928 -0.00059546627826269458 0 -0.012531556321571042 -0.00042531642062014805 0 -0.012208796380708486 2.0998633335882055e-05 0 -0.012531556321571042 -0.00042531642062014805 0 -0.012737251511036314 0.00018424146498032502 0 -0.012737251511036314 0.00018424146498032502 0 -0.012886308767503726 -0.00026541829071525852 0 -0.013110945042601196 0.00018074928045658131 0 -0.012531556321571042 -0.00042531642062014805 0 -0.012737251511036314 0.00018424146498032502 0 -0.012886308767503726 -0.00026541829071525852 0 -0.012531556321571042 -0.00042531642062014805 0 -0.012886308767503726 -0.00026541829071525852 0 -0.012843627921385506 -0.00061320620476414827 0 -0.012886308767503726 -0.00026541829071525852 0 -0.013198724486771469 -0.00021366046344216354 0 -0.013053864427825601 -0.000537102030961822 0 -0.013198724486771469 -0.00021366046344216354 0 -0.013292408356314723 -0.00045345399883050511 0 -0.013053864427825601 -0.000537102030961822 0 -0.013198724486771469 -0.00021366046344216354 0 -0.013374369121142853 9.300923569106667e-05 0 -0.013438828185327906 -0.00018452395570715989 0 -0.013198724486771469 -0.00021366046344216354 0 -0.013438828185327906 -0.00018452395570715989 0 -0.013292408356314723 -0.00045345399883050511 0 -0.013198724486771469 -0.00021366046344216354 0 -0.013374369121142853 9.300923569106667e-05 0 -0.013110945042601196 0.00018074928045658131 0 -0.012886308767503726 -0.00026541829071525852 0 -0.013198724486771469 -0.00021366046344216354 0 -0.013110945042601196 0.00018074928045658131 0 -0.013438828185327906 -0.00018452395570715989 0 -0.013653039005665266 0.00015409978982918083 0 -0.013663161866248004 -0.00035639465002550462 0 -0.013374369121142853 9.300923569106667e-05 0 -0.013438828185327906 -0.00018452395570715989 0 -0.013653039005665266 0.00015409978982918083 0 -0.013653039005665266 0.00015409978982918083 0 -0.013364331923522028 0.00048765289014079537 0 -0.013657798948673111 0.00064340801461781124 0 -0.013374369121142853 9.300923569106667e-05 0 -0.013653039005665266 0.00015409978982918083 0 -0.013364331923522028 0.00048765289014079537 0 -0.01300443611734207 0.00070237739720183307 0 -0.013110945042601196 0.00018074928045658131 0 -0.013364331923522028 0.00048765289014079537 0 -0.013374369121142853 9.300923569106667e-05 0 -0.013110945042601196 0.00018074928045658131 0 -0.013364331923522028 0.00048765289014079537 0 -0.01300443611734207 0.00070237739720183307 0 -0.013364331923522028 0.00048765289014079537 0 -0.013292261761899078 0.0010284911007528998 0 -0.013364331923522028 0.00048765289014079537 0 -0.013292261761899078 0.0010284911007528998 0 -0.013657798948673111 0.00064340801461781124 0 -0.013292261761899078 0.0010284911007528998 0 -0.013657798948673111 0.00064340801461781124 0 -0.013568429079156572 0.00098138820430557563 0 -0.013674266564730602 0.0012054582058805825 0 -0.013568429079156572 0.00098138820430557563 0 -0.01336753858948277 0.0011568438249931754 0 -0.013292261761899078 0.0010284911007528998 0 -0.013568429079156572 0.00098138820430557563 0 -0.01336753858948277 0.0011568438249931754 0 -0.013292261761899078 0.0010284911007528998 0 -0.01321136151206162 0.0012825970516478504 0 -0.01336753858948277 0.0011568438249931754 0 -0.01321136151206162 0.0012825970516478504 0 -0.012828691878587452 0.0012392476115611999 0 -0.012983710550651961 0.0014282352086068912 0 -0.013292261761899078 0.0010284911007528998 0 -0.01321136151206162 0.0012825970516478504 0 -0.012828691878587452 0.0012392476115611999 0 -0.01321136151206162 0.0012825970516478504 0 -0.012983710550651961 0.0014282352086068912 0 -0.013291826174600539 0.0012484371552168784 0 -0.01300443611734207 0.00070237739720183307 0 -0.013292261761899078 0.0010284911007528998 0 -0.012828691878587452 0.0012392476115611999 0 -0.01300443611734207 0.00070237739720183307 0 -0.01247821113604799 0.00075498957940028618 0 -0.012828691878587452 0.0012392476115611999 0 -0.01202972933334388 0.0012782501863594397 0 -0.012569618140048484 0.0015246159738401596 0 -0.011669507132210176 0.0018147390573955429 0 -0.012828691878587452 0.0012392476115611999 0 -0.01202972933334388 0.0012782501863594397 0 -0.012569618140048484 0.0015246159738401596 0 -0.01247821113604799 0.00075498957940028618 0 -0.012828691878587452 0.0012392476115611999 0 -0.01202972933334388 0.0012782501863594397 0 -0.012569618140048484 0.0015246159738401596 0 -0.011669507132210176 0.0018147390573955429 0 -0.012630783232019552 0.0014854804503706058 0 -0.012828691878587452 0.0012392476115611999 0 -0.012569618140048484 0.0015246159738401596 0 -0.012983710550651961 0.0014282352086068912 0 -0.012569618140048484 0.0015246159738401596 0 -0.012983710550651961 0.0014282352086068912 0 -0.013077822693940986 0.0015247870968307148 0 -0.012569618140048484 0.0015246159738401596 0 -0.013077822693940986 0.0015247870968307148 0 -0.012630783232019552 0.0014854804503706058 0 -0.012948695276237439 0.0018399477284409009 0 -0.012823067769418954 0.0020220685440958909 0 -0.013077822693940986 0.0015247870968307148 0 -0.012491694374330481 0.0023642740819197127 0 -0.012630783232019552 0.0014854804503706058 0 -0.013077822693940986 0.0015247870968307148 0 -0.013479908025879195 0.0010999479021892554 0 -0.013976949465003942 0.00096693020444069144 0 -0.013479908025879195 0.0010999479021892554 0 -0.013731667944621958 0.00080164997172438995 0 -0.013976949465003942 0.00096693020444069144 0 -0.013479908025879195 0.0010999479021892554 0 -0.013291826174600539 0.0012484371552168784 0 -0.013648422153000776 0.00085797633262044539 0 -0.013077822693940986 0.0015247870968307148 0 -0.013479908025879195 0.0010999479021892554 0 -0.013291826174600539 0.0012484371552168784 0 -0.012983710550651961 0.0014282352086068912 0 -0.013077822693940986 0.0015247870968307148 0 -0.013291826174600539 0.0012484371552168784 0 -0.01321136151206162 0.0012825970516478504 0 -0.013291826174600539 0.0012484371552168784 0 -0.013499027111905964 0.00105198672897019 0 -0.013291826174600539 0.0012484371552168784 0 -0.013648422153000776 0.00085797633262044539 0 -0.013499027111905964 0.00105198672897019 0 -0.013648422153000776 0.00085797633262044539 0 -0.013862170856915178 0.00058036943101420562 0 -0.014153230646638544 0.000192837002439894 0 -0.013648422153000776 0.00085797633262044539 0 -0.013499027111905964 0.00105198672897019 0 -0.014153230646638544 0.000192837002439894 0 -0.013862170856915178 0.00058036943101420562 0 -0.013731667944621958 0.00080164997172438995 0 -0.01394841620849511 0.00061017709840531997 0 -0.013862170856915178 0.00058036943101420562 0 -0.013994771010790837 0.0004355026776358939 0 -0.01394841620849511 0.00061017709840531997 0 -0.013731667944621958 0.00080164997172438995 0 -0.013976949465003942 0.00096693020444069144 0 -0.01394841620849511 0.00061017709840531997 0 -0.013648422153000776 0.00085797633262044539 0 -0.013862170856915178 0.00058036943101420562 0 -0.013731667944621958 0.00080164997172438995 0 -0.013479908025879195 0.0010999479021892554 0 -0.013648422153000776 0.00085797633262044539 0 -0.013731667944621958 0.00080164997172438995 0 -0.014256925549071542 9.031260858065878e-05 0 -0.014295054400651028 0.00015811577049845683 0 -0.013674266564730602 0.0012054582058805825 0 -0.01336753858948277 0.0011568438249931754 0 -0.013289720972425544 0.0010170278732732794 0 -0.01336753858948277 0.0011568438249931754 0 -0.013499027111905964 0.00105198672897019 0 -0.013289720972425544 0.0010170278732732794 0 -0.01321136151206162 0.0012825970516478504 0 -0.01336753858948277 0.0011568438249931754 0 -0.013499027111905964 0.00105198672897019 0 -0.013499027111905964 0.00105198672897019 0 -0.013289720972425544 0.0010170278732732794 0 -0.014153230646638544 0.000192837002439894 0 -0.014295054400651028 0.00015811577049845683 0 -0.014261968628657324 0.00017874804767305003 0 -0.015822241214807485 -0.00038756636180531742 0 -0.015382816178138923 -0.00055445363853787221 0 -0.015677571881105336 -0.00010718149606727549 0 -0.015382816178138923 -0.00055445363853787221 0 -0.015677571881105336 -0.00010718149606727549 0 -0.014153230646638544 0.000192837002439894 0 -0.015677571881105336 -0.00010718149606727549 0 -0.015075279610651889 0.00033449164080932365 0 -0.014153230646638544 0.000192837002439894 0 -0.016258804043600954 1.336409905606422e-05 0 -0.015677571881105336 -0.00010718149606727549 0 -0.015075279610651889 0.00033449164080932365 0 -0.013994771010790837 0.0004355026776358939 0 -0.014148698988049107 0.00037992308238603598 0 -0.014030158382865036 0.00043250274431732807 0 -0.013994771010790837 0.0004355026776358939 0 -0.014028396728057503 0.00049035567567211422 0 -0.01394841620849511 0.00061017709840531997 0 -0.013994771010790837 0.0004355026776358939 0 -0.014030158382865036 0.00043250274431732807 0 -0.014028396728057503 0.00049035567567211422 0 -0.014153230646638544 0.000192837002439894 0 -0.014465151350282387 0.00040330184759902873 0 -0.014148698988049107 0.00037992308238603598 0 -0.013862170856915178 0.00058036943101420562 0 -0.013994771010790837 0.0004355026776358939 0 -0.014153230646638544 0.000192837002439894 0 -0.013994771010790837 0.0004355026776358939 0 -0.014153230646638544 0.000192837002439894 0 -0.014148698988049107 0.00037992308238603598 0 -0.015075279610651889 0.00033449164080932365 0 -0.014153230646638544 0.000192837002439894 0 -0.014465151350282387 0.00040330184759902873 0 -0.014262108863534047 0.00056023209979972623 0 -0.014465151350282387 0.00040330184759902873 0 -0.014148698988049107 0.00037992308238603598 0 -0.014262108863534047 0.00056023209979972623 0 -0.014148698988049107 0.00037992308238603598 0 -0.014105163827521802 0.00045247056723369655 0 -0.014148698988049107 0.00037992308238603598 0 -0.014105163827521802 0.00045247056723369655 0 -0.014030158382865036 0.00043250274431732807 0 -0.014262108863534047 0.00056023209979972623 0 -0.014105163827521802 0.00045247056723369655 0 -0.014083930151925286 0.00055618777933653322 0 -0.014083930151925286 0.00055618777933653322 0 -0.013988100221063175 0.0005178238882377371 0 -0.014034025606358483 0.00044910998303088217 0 -0.014105163827521802 0.00045247056723369655 0 -0.014083930151925286 0.00055618777933653322 0 -0.014034025606358483 0.00044910998303088217 0 -0.013957107387089898 0.00073528854752339366 0 -0.013988100221063175 0.0005178238882377371 0 -0.013846628950481155 0.00053299597196750353 0 -0.013988100221063175 0.0005178238882377371 0 -0.013954614079158099 0.0004795564139340934 0 -0.013846628950481155 0.00053299597196750353 0 -0.013988100221063175 0.0005178238882377371 0 -0.013954614079158099 0.0004795564139340934 0 -0.013995671479356294 0.00045306150891276685 0 -0.013954614079158099 0.0004795564139340934 0 -0.013995671479356294 0.00045306150891276685 0 -0.013982617845133327 0.00042180359604794153 0 -0.013988100221063175 0.0005178238882377371 0 -0.013995671479356294 0.00045306150891276685 0 -0.014034025606358483 0.00044910998303088217 0 -0.013995671479356294 0.00045306150891276685 0 -0.014034025606358483 0.00044910998303088217 0 -0.014009174284328201 0.0004352506910814188 0 -0.013995671479356294 0.00045306150891276685 0 -0.014009174284328201 0.0004352506910814188 0 -0.013982617845133327 0.00042180359604794153 0 -0.014105163827521802 0.00045247056723369655 0 -0.014034025606358483 0.00044910998303088217 0 -0.014030158382865036 0.00043250274431732807 0 -0.014009174284328201 0.0004352506910814188 0 -0.014028396728057503 0.00049035567567211422 0 -0.014134463743813613 0.00057707548561465084 0 -0.014030158382865036 0.00043250274431732807 0 -0.014009174284328201 0.0004352506910814188 0 -0.014028396728057503 0.00049035567567211422 0 -0.013001073435010687 0.0018338697693362506 0 -0.012753324002184646 0.0021947025221799527 0 -0.014034025606358483 0.00044910998303088217 0 -0.014030158382865036 0.00043250274431732807 0 -0.014009174284328201 0.0004352506910814188 0 -0.014009174284328201 0.0004352506910814188 0 -0.013982617845133327 0.00042180359604794153 0 -0.014134463743813613 0.00057707548561465084 0 -0.013324830569387368 0.0024754593990637909 0 -0.011886894910590039 0.0029201054042014758 0 -0.01278653762028354 0.0023374728268986391 0 -0.012903121051656041 0.0024769290407100526 0 -0.012971140256149748 0.0020717374473509503 0 -0.013324830569387368 0.0024754593990637909 0 -0.013610270257298914 0.0027714273061131443 0 -0.013324830569387368 0.0024754593990637909 0 -0.012753324002184646 0.0021947025221799527 0 -0.013324830569387368 0.0024754593990637909 0 -0.013001073435010687 0.0018338697693362506 0 -0.013324830569387368 0.0024754593990637909 0 -0.015793617593422626 0.0018741634111919298 0 -0.013739230376297869 0.00016834827505042053 0 -0.013878436116023173 0.00033344675234190025 0 -0.013846628950481155 0.00053299597196750353 0 -0.013739230376297869 0.00016834827505042053 0 -0.013846628950481155 0.00053299597196750353 0 -0.01344546048410562 0.00057812611435991931 0 -0.013001073435010687 0.0018338697693362506 0 -0.013055232090369143 0.0016498599691227918 0 -0.013954614079158099 0.0004795564139340934 0 -0.013982617845133327 0.00042180359604794153 0 -0.013846628950481155 0.00053299597196750353 0 -0.016487540303282183 0.0023926680844468498 0 -0.016794612801462414 0.0019691305173114471 0 -0.01687388080797271 0.0023181021603881956 0 -0.016794612801462414 0.0019691305173114471 0 -0.017111280793961813 0.0020703169623411395 0 -0.01687388080797271 0.0023181021603881956 0 -0.017217336937913122 0.0022406920314679973 0 -0.017335559013126698 0.0024158255349473719 0 -0.017372254326305934 0.0020628348901349865 0 -0.017111280793961813 0.0020703169623411395 0 -0.017075272378313612 0.0022656540360880637 0 -0.017217336937913122 0.0022406920314679973 0 -0.017111280793961813 0.0020703169623411395 0 -0.017075272378313612 0.0022656540360880637 0 -0.01687388080797271 0.0023181021603881956 0 -0.017111280793961813 0.0020703169623411395 0 -0.017217336937913122 0.0022406920314679973 0 -0.017372254326305934 0.0020628348901349865 0 -0.017335559013126698 0.0024158255349473719 0 -0.017195753947672802 0.0026007529173883159 0 -0.01739953838019807 0.0027725252101782625 0 -0.017217336937913122 0.0022406920314679973 0 -0.017335559013126698 0.0024158255349473719 0 -0.017127381462449937 0.0024086454746631877 0 -0.017075272378313612 0.0022656540360880637 0 -0.017127381462449937 0.0024086454746631877 0 -0.01687388080797271 0.0023181021603881956 0 -0.017075272378313612 0.0022656540360880637 0 -0.017217336937913122 0.0022406920314679973 0 -0.017127381462449937 0.0024086454746631877 0 -0.017127381462449937 0.0024086454746631877 0 -0.017195753947672802 0.0026007529173883159 0 -0.016994900591175616 0.0025428469962122655 0 -0.017335559013126698 0.0024158255349473719 0 -0.017127381462449937 0.0024086454746631877 0 -0.017195753947672802 0.0026007529173883159 0 -0.016487540303282183 0.0023926680844468498 0 -0.01687388080797271 0.0023181021603881956 0 -0.016758893664754783 0.0025895029132614561 0 -0.013269061575170712 0.0028341495937624483 0 -0.01289378755881466 0.0025530380197667838 0 -0.012780215154217536 0.0022397450536598045 0 -0.017127381462449937 0.0024086454746631877 0 -0.01687388080797271 0.0023181021603881956 0 -0.016994900591175616 0.0025428469962122655 0 -0.01687388080797271 0.0023181021603881956 0 -0.016994900591175616 0.0025428469962122655 0 -0.016758893664754783 0.0025895029132614561 0 -0.013610270257298914 0.0027714273061131443 0 -0.013239503898899869 0.0028094124036394802 0 -0.016994900591175616 0.0025428469962122655 0 -0.016758893664754783 0.0025895029132614561 0 -0.017019375622569714 0.0027978517353207028 0 -0.01289378755881466 0.0025530380197667838 0 -0.012780215154217536 0.0022397450536598045 0 -0.012530993137789211 0.0022541493461723208 0 -0.011886894910590039 0.0029201054042014758 0 -0.013239503898899869 0.0028094124036394802 0 -0.015619000107577828 0.0032987477406277057 0 -0.015091535852315111 0.0033276437488970133 0 -0.014940206706498224 0.0027239623533282715 0 -0.013239503898899869 0.0028094124036394802 0 -0.016578512652578203 0.0026337597213369084 0 -0.0089577540499495567 0.0059630297165999104 0 -0.0081813290370245945 0.00601472721086551 0 -0.0074525535850887377 0.0043738994495373402 0 -0.017195753947672802 0.0026007529173883159 0 -0.017019375622569714 0.0027978517353207028 0 -0.01739953838019807 0.0027725252101782625 0 -0.017195753947672802 0.0026007529173883159 0 -0.016994900591175616 0.0025428469962122655 0 -0.017019375622569714 0.0027978517353207028 0 -0.010865779763600243 0.0031178350485599042 0 -0.010416559328663876 0.002631895056595261 0 -0.010313826873875265 0.0025753340016529498 0 -0.013239503898899869 0.0028094124036394802 0 -0.011475732908809601 0.0025286537324140982 0 -0.0081813290370245945 0.00601472721086551 0 -0.0074525535850887377 0.0043738994495373402 0 -0.0061391524092664811 0.0043898530020620007 0 -0.011886894910590039 0.0029201054042014758 0 -0.0095749926718375657 0.0027194453630654831 0 -0.010394805617745874 0.0026277198586836287 0 -0.010633468003062608 0.0024105653978289416 0 -0.010368862272385248 0.0023296134418029158 0 -0.010416559328663876 0.002631895056595261 0 -0.010313826873875265 0.0025753340016529498 0 -0.0099799587622124777 0.0021456107556854648 0 -0.010793819651205089 0.0030935976960355213 0 -0.010864869603243815 0.0026347730494354535 0 -0.011261941169922986 0.0026643582243767255 0 -0.010793819651205089 0.0030935976960355213 0 -0.010394805617745874 0.0026277198586836287 0 -0.010864869603243815 0.0026347730494354535 0 -0.011886894910590039 0.0029201054042014758 0 -0.011101971918482339 0.0024658596284125888 0 -0.010394805617745874 0.0026277198586836287 0 -0.010864869603243815 0.0026347730494354535 0 -0.010633468003062608 0.0024105653978289416 0 -0.010864869603243815 0.0026347730494354535 0 -0.011107252980136508 0.0022387585653632141 0 -0.010633468003062608 0.0024105653978289416 0 -0.010864869603243815 0.0026347730494354535 0 -0.011261941169922986 0.0026643582243767255 0 -0.011107252980136508 0.0022387585653632141 0 -0.012493460287803789 0.0023430108563341255 0 -0.011532992768510908 0.0024503088144722969 0 -0.011261941169922986 0.0026643582243767255 0 -0.011630963447076464 0.0030376926979710432 0 -0.011744978466277657 0.0023362683527096365 0 -0.012491694374330481 0.0023642740819197127 0 -0.012261103023680026 0.0014305675298701029 0 -0.012630783232019552 0.0014854804503706058 0 -0.012491694374330481 0.0023642740819197127 0 -0.012051900837692949 0.0027337172357017681 0 -0.012261103023680026 0.0014305675298701029 0 -0.012491694374330481 0.0023642740819197127 0 -0.012051900837692949 0.0027337172357017681 0 -0.012234828784004479 0.0027352499683019507 0 -0.01260323400347229 0.002507946694824824 0 -0.012482262645489722 0.002506759428140071 0 -0.012641589715319711 0.0022757889243895991 0 -0.012493460287803789 0.0023430108563341255 0 -0.012646646132993026 0.0022654231112807992 0 -0.013976949465003942 0.00096693020444069144 0 -0.014095506237616367 0.00074357861207460536 0 -0.01394841620849511 0.00061017709840531997 0 -0.012823067769418954 0.0020220685440958909 0 -0.012646646132993026 0.0022654231112807992 0 -0.014095506237616367 0.00074357861207460536 0 -0.01394841620849511 0.00061017709840531997 0 -0.014134463743813613 0.00057707548561465084 0 -0.014028396728057503 0.00049035567567211422 0 -0.01394841620849511 0.00061017709840531997 0 -0.014134463743813613 0.00057707548561465084 0 -0.012493460287803789 0.0023430108563341255 0 -0.012753324002184646 0.0021947025221799527 0 -0.012646646132993026 0.0022654231112807992 0 -0.012753324002184646 0.0021947025221799527 0 -0.010793819651205089 0.0030935976960355213 0 -0.011261941169922986 0.0026643582243767255 0 -0.011630963447076464 0.0030376926979710432 0 -0.011886894910590039 0.0029201054042014758 0 -0.012493460287803789 0.0023430108563341255 0 -0.012631869528399032 0.00256518515900703 0 -0.012740838836920811 0.002557625539983112 0 -0.012737059475010823 0.0025819067780692121 0 -0.012697584253089755 0.0026397111938800269 0 -0.012631869528399032 0.00256518515900703 0 -0.012737059475010823 0.0025819067780692121 0 -0.025397474986691562 0.0028653861487356893 0 -0.025155654188752329 0.0018143203482275912 0 -0.024136533753238425 0.0025673702304831653 0 -0.025397474986691562 0.0028653861487356893 0 -0.026069940120815677 0.0018560864435549038 0 -0.025155654188752329 0.0018143203482275912 0 -0.026070043542238824 0.0038077355064346824 0 -0.025397474986691562 0.0028653861487356893 0 -0.024887261096201985 0.0039782098189393147 0 -0.026070043542238824 0.0038077355064346824 0 -0.025397474986691562 0.0028653861487356893 0 -0.026441590334626581 0.0027331816071569431 0 -0.025397474986691562 0.0028653861487356893 0 -0.026441590334626581 0.0027331816071569431 0 -0.026069940120815677 0.0018560864435549038 0 -0.026441590334626581 0.0027331816071569431 0 -0.026903567811189757 0.0018410920205026644 0 -0.026069940120815677 0.0018560864435549038 0 -0.026441590334626581 0.0027331816071569431 0 -0.026952230820453674 0.0033367705607119714 0 -0.027313871905899768 0.0026248376398448226 0 -0.026441590334626581 0.0027331816071569431 0 -0.027313871905899768 0.0026248376398448226 0 -0.026903567811189757 0.0018410920205026644 0 -0.026070043542238824 0.0038077355064346824 0 -0.026441590334626581 0.0027331816071569431 0 -0.026952230820453674 0.0033367705607119714 0 -0.021023128245891556 0.0031627153839820406 0 -0.020976583173516486 0.0028781217347163186 0 -0.026952230820453674 0.0033367705607119714 0 -0.027699709080197948 0.0033826140732130675 0 -0.027313871905899768 0.0026248376398448226 0 -0.026868716960566256 0.0041168551456025057 0 -0.026952230820453674 0.0033367705607119714 0 -0.027699709080197948 0.0033826140732130675 0 -0.017335559013126698 0.0024158255349473719 0 -0.017372254326305934 0.0020628348901349865 0 -0.017575789122967655 0.002402756131196373 0 -0.020976583173516486 0.0028781217347163186 0 -0.020306108603361222 0.0023378096947141553 0 -0.017335559013126698 0.0024158255349473719 0 -0.017575789122967655 0.002402756131196373 0 -0.01739953838019807 0.0027725252101782625 0 -0.017575789122967655 0.002402756131196373 0 -0.01739953838019807 0.0027725252101782625 0 -0.017781703778498911 0.0027468944509987997 0 -0.015091535852315111 0.0033276437488970133 0 -0.014940206706498224 0.0027239623533282715 0 -0.014553974949587628 0.0033641112938662013 0 -0.016578512652578203 0.0026337597213369084 0 -0.020306108603361222 0.0023378096947141553 0 -0.014940206706498224 0.0027239623533282715 0 -0.014204226409023572 0.0027638361349203435 0 -0.014553974949587628 0.0033641112938662013 0 -0.026671362769082153 0.00053353733985957023 0 -0.027271491411572011 0.001643095879317038 0 -0.026211965319224019 0.0017155924910329196 0 -0.018710210736117137 0.0022608884199306332 0 -0.020306108603361222 0.0023378096947141553 0 -0.020306108603361222 0.0023378096947141553 0 -0.023843796710872098 0.0020592980507462169 0 -0.023843796710872098 0.0020592980507462169 0 -0.024470109020951866 0.0020013433698470029 0 -0.026671362769082153 0.00053353733985957023 0 -0.026211965319224019 0.0017155924910329196 0 -0.025413765464089095 0.00067811025649322076 0 -0.026671362769082153 0.00053353733985957023 0 -0.025413765464089095 0.00067811025649322076 0 -0.026041086940640935 -0.00062484555156003306 0 -0.025413765464089095 0.00067811025649322076 0 -0.024322675816637045 0.0012396961112162291 0 -0.024509558549719545 0.00017051908101024121 0 -0.025413765464089095 0.00067811025649322076 0 -0.025050555906894888 -0.00015615248897894718 0 -0.024509558549719545 0.00017051908101024121 0 -0.025413765464089095 0.00067811025649322076 0 -0.025155654188752329 0.0018143203482275912 0 -0.024322675816637045 0.0012396961112162291 0 -0.026211965319224019 0.0017155924910329196 0 -0.025413765464089095 0.00067811025649322076 0 -0.025155654188752329 0.0018143203482275912 0 -0.025358825336452999 -0.0018139907116657946 0 -0.025190692749200695 -0.0014316650931177404 0 -0.026041086940640935 -0.00062484555156003306 0 -0.024775662908199398 -0.0017052505858906363 0 -0.025190692749200695 -0.0014316650931177404 0 -0.025051449775687216 -0.0020909565264678217 0 -0.024775662908199398 -0.0017052505858906363 0 -0.025190692749200695 -0.0014316650931177404 0 -0.024734582463931828 -0.0012079058445199277 0 -0.024775662908199398 -0.0017052505858906363 0 -0.024734582463931828 -0.0012079058445199277 0 -0.024318508660554312 -0.001663022138987714 0 -0.025358825336452999 -0.0018139907116657946 0 -0.025190692749200695 -0.0014316650931177404 0 -0.025011473802963986 -0.002074383294959277 0 -0.012189464350440942 0.0010616167772381142 0 -0.011639862076893564 0.0011756035006366876 0 -0.025190692749200695 -0.0014316650931177404 0 -0.025247215601329139 -0.00076768310509211591 0 -0.026041086940640935 -0.00062484555156003306 0 -0.025190692749200695 -0.0014316650931177404 0 -0.024734582463931828 -0.0012079058445199277 0 -0.025247215601329139 -0.00076768310509211591 0 -0.024734582463931828 -0.0012079058445199277 0 -0.024668772087579189 -0.00058531135754555873 0 -0.025247215601329139 -0.00076768310509211591 0 -0.025413765464089095 0.00067811025649322076 0 -0.025050555906894888 -0.00015615248897894718 0 -0.026041086940640935 -0.00062484555156003306 0 -0.024668772087579189 -0.00058531135754555873 0 -0.025050555906894888 -0.00015615248897894718 0 -0.025247215601329139 -0.00076768310509211591 0 -0.025050555906894888 -0.00015615248897894718 0 -0.025247215601329139 -0.00076768310509211591 0 -0.026041086940640935 -0.00062484555156003306 0 -0.024668772087579189 -0.00058531135754555873 0 -0.025050555906894888 -0.00015615248897894718 0 -0.024509558549719545 0.00017051908101024121 0 -0.014204226409023572 0.0027638361349203435 0 -0.013840436025463679 0.0021393361535579579 0 -0.01422764602265599 0.0021188413200905506 0 -0.018710210736117137 0.0022608884199306332 0 -0.016239507332019031 0.0020255541524957042 0 -0.011841987054191977 0.0013414787401844742 0 -0.010566351662530097 0.0016935503091276712 0 -0.011841987054191977 0.0013414787401844742 0 -0.016239507332019031 0.0020255541524957042 0 -0.01347856937226116 0.001489063597741044 0 -0.013840436025463679 0.0021393361535579579 0 -0.01422764602265599 0.0021188413200905506 0 -0.0030128942497563865 0.0016243965918229996 0 -0.0039108384353802803 0.0017956849190350745 0 -0.0042704532594595905 0.0028226311555698291 0 -0.0039108384353802803 0.0017956849190350745 0 -0.004905364795507538 0.0019362681237253844 0 -0.0039750975527322466 0.001202819264511301 0 -0.0044875306788542037 0.0020670077447821193 0 -0.0052896112958971606 0.0019276551188064492 0 -0.0045213905339777554 0.0013405292788732106 0 -0.004905364795507538 0.0019362681237253844 0 -0.0042704532594595905 0.0028226311555698291 0 -0.0051541072198549301 0.0027546689172279555 0 -0.0039108384353802803 0.0017956849190350745 0 -0.004905364795507538 0.0019362681237253844 0 -0.0042704532594595905 0.0028226311555698291 0 -0.014940206706498224 0.0027239623533282715 0 -0.014204226409023572 0.0027638361349203435 0 -0.01422764602265599 0.0021188413200905506 0 -0.0061391524092664811 0.0043898530020620007 0 -0.0042704532594595905 0.0028226311555698291 0 -0.0051541072198549301 0.0027546689172279555 0 -0.011475732908809601 0.0025286537324140982 0 -0.010566351662530097 0.0016935503091276712 0 -0.0072211668010395422 0.0020148752500913076 0 -0.0074753021396147179 0.0020151313131971786 0 -0.0074525535850887377 0.0043738994495373402 0 -0.0061391524092664811 0.0043898530020620007 0 -0.0059940073126668707 0.0028605029539610452 0 -0.0061391524092664811 0.0043898530020620007 0 -0.0051541072198549301 0.0027546689172279555 0 -0.0059940073126668707 0.0028605029539610452 0 -0.010313826873875265 0.0025753340016529498 0 -0.0097876636102334543 0.0020294731784422457 0 -0.0099799587622124777 0.0021456107556854648 0 -0.0095749926718375657 0.0027194453630654831 0 -0.0074753021396147179 0.0020151313131971786 0 -0.0052272265318259511 0.0030799657882837916 0 -0.0052896112958971606 0.0019276551188064492 0 -0.006128685765826666 0.0024037626649663205 0 -0.0044875306788542037 0.0020670077447821193 0 -0.0052272265318259511 0.0030799657882837916 0 -0.0052896112958971606 0.0019276551188064492 0 -0.0062886668433333025 0.0015306201271811949 0 -0.0074753021396147179 0.0020151313131971786 0 -0.004905364795507538 0.0019362681237253844 0 -0.0051541072198549301 0.0027546689172279555 0 -0.0058577992367879299 0.0028521947599761703 0 -0.0050853336463498131 0.00094831644408441046 0 -0.0061198512326076076 0.0014353380084054926 0 -0.0058054369062741848 0.00019186196007349031 0 -0.0052896112958971606 0.0019276551188064492 0 -0.0050853336463498131 0.00094831644408441046 0 -0.0061198512326076076 0.0014353380084054926 0 -0.0052896112958971606 0.0019276551188064492 0 -0.0050853336463498131 0.00094831644408441046 0 -0.0045213905339777554 0.0013405292788732106 0 -0.0050853336463498131 0.00094831644408441046 0 -0.004886331048999033 0.00017096084767819478 0 -0.0058054369062741848 0.00019186196007349031 0 -0.004886331048999033 0.00017096084767819478 0 -0.0058054369062741848 0.00019186196007349031 0 -0.0051700627851023907 -0.00051191591190728042 0 -0.004886331048999033 0.00017096084767819478 0 -0.0041639749757052371 0.0005412729577330415 0 -0.0043244637876183201 -0.00041205369117906424 0 -0.0050853336463498131 0.00094831644408441046 0 -0.004886331048999033 0.00017096084767819478 0 -0.0041639749757052371 0.0005412729577330415 0 -0.0041639749757052371 0.0005412729577330415 0 -0.0045213905339777554 0.0013405292788732106 0 -0.0039750975527322466 0.001202819264511301 0 -0.0050853336463498131 0.00094831644408441046 0 -0.0041639749757052371 0.0005412729577330415 0 -0.0045213905339777554 0.0013405292788732106 0 -0.0044875306788542037 0.0020670077447821193 0 -0.0045213905339777554 0.0013405292788732106 0 -0.0039750975527322466 0.001202819264511301 0 -0.0062886668433333025 0.0015306201271811949 0 -0.0058408375413521963 0.0012896525087635821 0 -0.0030128942497563865 0.0016243965918229996 0 -0.0039108384353802803 0.0017956849190350745 0 -0.0035321719861124219 0.0012496741789766574 0 -0.0039108384353802803 0.0017956849190350745 0 -0.0039750975527322466 0.001202819264511301 0 -0.0035321719861124219 0.0012496741789766574 0 -0.0030128942497563865 0.0016243965918229996 0 -0.0035321719861124219 0.0012496741789766574 0 -0.0031283066225505987 0.0010774069081149636 0 -0.0035321719861124219 0.0012496741789766574 0 -0.0033728863622377748 0.00071913518235367088 0 -0.0031283066225505987 0.0010774069081149636 0 -0.0035321719861124219 0.0012496741789766574 0 -0.0037364428187288933 0.00079645750032315745 0 -0.0033728863622377748 0.00071913518235367088 0 -0.0039750975527322466 0.001202819264511301 0 -0.0035321719861124219 0.0012496741789766574 0 -0.0037364428187288933 0.00079645750032315745 0 -0.0041639749757052371 0.0005412729577330415 0 -0.0039750975527322466 0.001202819264511301 0 -0.0037364428187288933 0.00079645750032315745 0 -0.0041639749757052371 0.0005412729577330415 0 -0.0037364428187288933 0.00079645750032315745 0 -0.0034912374224598747 0.00038138329251077467 0 -0.0034982835146615088 0.00028603815255512247 0 -0.0031912816426284507 2.1112813542773249e-05 0 -0.0041639749757052371 0.0005412729577330415 0 -0.0034912374224598747 0.00038138329251077467 0 -0.0035042605066565235 -0.00021173464849156965 0 -0.0034912374224598747 0.00038138329251077467 0 -0.0031720140971410278 0.0004368957202338009 0 -0.0031463976113038552 0.00013315825067267527 0 -0.0034912374224598747 0.00038138329251077467 0 -0.0031463976113038552 0.00013315825067267527 0 -0.0035042605066565235 -0.00021173464849156965 0 -0.0034912374224598747 0.00038138329251077467 0 -0.0033728863622377748 0.00071913518235367088 0 -0.0031720140971410278 0.0004368957202338009 0 -0.0037364428187288933 0.00079645750032315745 0 -0.0034912374224598747 0.00038138329251077467 0 -0.0033728863622377748 0.00071913518235367088 0 -0.0033728863622377748 0.00071913518235367088 0 -0.002986702031328948 0.00065381349255523591 0 -0.0031720140971410278 0.0004368957202338009 0 -0.002986702031328948 0.00065381349255523591 0 -0.0031720140971410278 0.0004368957202338009 0 -0.002874191545311626 0.00031874490264937753 0 -0.0031463976113038552 0.00013315825067267527 0 -0.002874191545311626 0.00031874490264937753 0 -0.0029627682991912453 -0.00014280212119093658 0 -0.0031720140971410278 0.0004368957202338009 0 -0.0031463976113038552 0.00013315825067267527 0 -0.002874191545311626 0.00031874490264937753 0 -0.002874191545311626 0.00031874490264937753 0 -0.0027382162526224962 0.00037321324757117456 0 -0.0029627682991912453 -0.00014280212119093658 0 -0.0074759778086268261 0.0012226443549882286 0 -0.0075805515871578159 0.0011995158223453979 0 -0.0089210018236152867 0.00056721059815229783 0 -0.0090415174958644925 0.001110206063909962 0 -0.008762518699696395 0.00062893274033820851 0 -0.0075805515871578159 0.0011995158223453979 0 -0.0099446609199637867 0.0010280927518659013 0 -0.0075805515871578159 0.0011995158223453979 0 -0.0077677199300650694 0.0010993883407019863 0 -0.0099446609199637867 0.0010280927518659013 0 -0.0077677199300650694 0.0010993883407019863 0 -0.002986702031328948 0.00065381349255523591 0 -0.0026962617447148958 0.00038547127872084498 0 -0.0027733040000415925 0.0010203776707132723 0 -0.002986702031328948 0.00065381349255523591 0 -0.002874191545311626 0.00031874490264937753 0 -0.0026962617447148958 0.00038547127872084498 0 -0.01045983032272671 0.0005258881052657273 0 -0.010612026631371636 0.0012371326497146746 0 -0.0088092560230734925 -0.0002325606976532251 0 -0.0033728863622377748 0.00071913518235367088 0 -0.002986702031328948 0.00065381349255523591 0 -0.0031283066225505987 0.0010774069081149636 0 -0.002986702031328948 0.00065381349255523591 0 -0.0027733040000415925 0.0010203776707132723 0 -0.0031283066225505987 0.0010774069081149636 0 -0.010879246803282467 0.0015913913467599508 0 -0.010664453513729357 0.0012186534331970222 0 -0.010717855851628004 0.0014613026828543573 0 -0.0030128942497563865 0.0016243965918229996 0 -0.0027733040000415925 0.0010203776707132723 0 -0.0031283066225505987 0.0010774069081149636 0 -0.011841987054191977 0.0013414787401844742 0 -0.0099446609199637867 0.0010280927518659013 0 -0.011841987054191977 0.0013414787401844742 0 -0.011639862076893564 0.0011756035006366876 0 -0.024775662908199398 -0.0017052505858906363 0 -0.025051449775687216 -0.0020909565264678217 0 -0.024387011959153267 -0.0021329030546361335 0 -0.0099446609199637867 0.0010280927518659013 0 -0.011639862076893564 0.0011756035006366876 0 -0.010126751414916303 0.0026951418797654396 0 -0.0088686343694751729 0.0016588855114088139 0 -0.010543564642996687 0.0011962697237917499 0 -0.010126751414916303 0.0026951418797654396 0 -0.0088686343694751729 0.0016588855114088139 0 -0.0087803541659867406 0.0038102026923481445 0 -0.010126751414916303 0.0026951418797654396 0 -0.011669507132210176 0.0018147390573955429 0 -0.010543564642996687 0.0011962697237917499 0 -0.01202972933334388 0.0012782501863594397 0 -0.011669507132210176 0.0018147390573955429 0 -0.010543564642996687 0.0011962697237917499 0 -0.010126751414916303 0.0026951418797654396 0 -0.011669507132210176 0.0018147390573955429 0 -0.011204721455050195 0.0042960528366387547 0 -0.011593520982060032 0.002211927367205698 0 -0.011532992768510908 0.0024503088144722969 0 -0.011669507132210176 0.0018147390573955429 0 -0.012572105239938161 0.0015136922688424904 0 -0.012630783232019552 0.0014854804503706058 0 -0.011532992768510908 0.0024503088144722969 0 -0.011592256394337176 0.0024394321311837766 0 -0.011532992768510908 0.0024503088144722969 0 -0.010114364246165934 0.0024977475540909257 0 -0.011261941169922986 0.0026643582243767255 0 -0.011744978466277657 0.0023362683527096365 0 -0.011107252980136508 0.0022387585653632141 0 -0.010126751414916303 0.0026951418797654396 0 -0.011204721455050195 0.0042960528366387547 0 -0.0087803541659867406 0.0038102026923481445 0 -0.0087803541659867406 0.0038102026923481445 0 -0.0068390636431670381 0.0034715087398385696 0 -0.0072874703641713969 0.0021679054865105293 0 -0.010114364246165934 0.0024977475540909257 0 -0.0087766034203537544 0.0023436433838671523 0 -0.011107252980136508 0.0022387585653632141 0 -0.010633468003062608 0.0024105653978289416 0 -0.010462051007732114 0.002133410412173904 0 -0.0074753021396147179 0.0020151313131971786 0 -0.0087766034203537544 0.0023436433838671523 0 -0.0097876636102334543 0.0020294731784422457 0 -0.0099799587622124777 0.0021456107556854648 0 -0.010462051007732114 0.002133410412173904 0 -0.0052272265318259511 0.0030799657882837916 0 -0.0068390636431670381 0.0034715087398385696 0 -0.006128685765826666 0.0024037626649663205 0 -0.010394805617745874 0.0026277198586836287 0 -0.0099799587622124777 0.0021456107556854648 0 -0.010368862272385248 0.0023296134418029158 0 -0.0099799587622124777 0.0021456107556854648 0 -0.010368862272385248 0.0023296134418029158 0 -0.010462051007732114 0.002133410412173904 0 -0.011101971918482339 0.0024658596284125888 0 -0.010814417589864249 0.0022687841019631344 0 -0.010633468003062608 0.0024105653978289416 0 -0.010368862272385248 0.0023296134418029158 0 -0.010462051007732114 0.002133410412173904 0 -0.0068390636431670381 0.0034715087398385696 0 -0.006128685765826666 0.0024037626649663205 0 -0.0072874703641713969 0.0021679054865105293 0 -0.006128685765826666 0.0024037626649663205 0 -0.0072874703641713969 0.0021679054865105293 0 -0.0061198512326076076 0.0014353380084054926 0 -0.0052896112958971606 0.0019276551188064492 0 -0.006128685765826666 0.0024037626649663205 0 -0.0061198512326076076 0.0014353380084054926 0 -0.0088686343694751729 0.0016588855114088139 0 -0.0087803541659867406 0.0038102026923481445 0 -0.0072874703641713969 0.0021679054865105293 0 -0.0088686343694751729 0.0016588855114088139 0 -0.0072874703641713969 0.0021679054865105293 0 -0.0073551618594654344 0.00087131620147708904 0 -0.0073551618594654344 0.00087131620147708904 0 -0.0061198512326076076 0.0014353380084054926 0 -0.0058054369062741848 0.00019186196007349031 0 -0.0072874703641713969 0.0021679054865105293 0 -0.0073551618594654344 0.00087131620147708904 0 -0.0061198512326076076 0.0014353380084054926 0 -0.0073551618594654344 0.00087131620147708904 0 -0.0058054369062741848 0.00019186196007349031 0 -0.0073286078535223101 -0.00042752781636680535 0 -0.0073551618594654344 0.00087131620147708904 0 -0.0073286078535223101 -0.00042752781636680535 0 -0.009272336408019102 0.0003868367375021693 0 -0.0073286078535223101 -0.00042752781636680535 0 -0.009272336408019102 0.0003868367375021693 0 -0.010055749433330187 -0.0012710862040340156 0 -0.0088686343694751729 0.0016588855114088139 0 -0.009272336408019102 0.0003868367375021693 0 -0.010543564642996687 0.0011962697237917499 0 -0.0088686343694751729 0.0016588855114088139 0 -0.0073551618594654344 0.00087131620147708904 0 -0.009272336408019102 0.0003868367375021693 0 -0.009272336408019102 0.0003868367375021693 0 -0.010543564642996687 0.0011962697237917499 0 -0.011281962538973995 0.00019290536138555806 0 -0.01202972933334388 0.0012782501863594397 0 -0.010543564642996687 0.0011962697237917499 0 -0.011281962538973995 0.00019290536138555806 0 -0.011819457275877928 -0.00059546627826269458 0 -0.011281962538973995 0.00019290536138555806 0 -0.010055749433330187 -0.0012710862040340156 0 -0.009272336408019102 0.0003868367375021693 0 -0.011281962538973995 0.00019290536138555806 0 -0.010055749433330187 -0.0012710862040340156 0 -0.0087317172247773269 -0.00085161629858279209 0 -0.0090595486870060291 -0.00094756348943307329 0 -0.0077719125006237826 -0.00062515511072482662 0 -0.0079460827564190404 -0.00100734051203812 0 -0.0084923571313749342 -0.00084554541146173931 0 -0.011819457275877928 -0.00059546627826269458 0 -0.010055749433330187 -0.0012710862040340156 0 -0.011815987099027305 -0.0013073734546668989 0 -0.0079460827564190404 -0.00100734051203812 0 -0.0076793179333226637 -0.0014559920211366173 0 -0.008431117972425262 -0.0012021629028920919 0 -0.0052825211429603416 -0.0011717359859750216 0 -0.0057576857999891004 -0.00094593059543777254 0 -0.0027007953432132453 -0.0010270069144402607 0 -0.0024480013511271421 -0.00084335307220851231 0 -0.0024837155463530197 -0.00061227527178702779 0 -0.0076793179333226637 -0.0014559920211366173 0 -0.0073104329205969498 -0.00091300311191799344 0 -0.006424782604009715 -0.0017640693131117976 0 -0.0079460827564190404 -0.00100734051203812 0 -0.0076793179333226637 -0.0014559920211366173 0 -0.0073104329205969498 -0.00091300311191799344 0 -0.0077719125006237826 -0.00062515511072482662 0 -0.0079460827564190404 -0.00100734051203812 0 -0.0073104329205969498 -0.00091300311191799344 0 -0.0073286078535223101 -0.00042752781636680535 0 -0.0077719125006237826 -0.00062515511072482662 0 -0.0073104329205969498 -0.00091300311191799344 0 -0.0082430853191856283 -0.00071186807967098037 0 -0.0087317172247773269 -0.00085161629858279209 0 -0.0073286078535223101 -0.00042752781636680535 0 -0.0073104329205969498 -0.00091300311191799344 0 -0.0062881831483668753 -0.00080071616206854113 0 -0.0058054369062741848 0.00019186196007349031 0 -0.0073286078535223101 -0.00042752781636680535 0 -0.0062881831483668753 -0.00080071616206854113 0 -0.0058054369062741848 0.00019186196007349031 0 -0.0062881831483668753 -0.00080071616206854113 0 -0.0051700627851023907 -0.00051191591190728042 0 -0.0062881831483668753 -0.00080071616206854113 0 -0.0052543398586325828 -0.0010726521250969813 0 -0.0051700627851023907 -0.00051191591190728042 0 -0.0062881831483668753 -0.00080071616206854113 0 -0.0052543398586325828 -0.0010726521250969813 0 -0.006424782604009715 -0.0017640693131117976 0 -0.0073104329205969498 -0.00091300311191799344 0 -0.0062881831483668753 -0.00080071616206854113 0 -0.006424782604009715 -0.0017640693131117976 0 -0.0052825211429603416 -0.0011717359859750216 0 -0.0049775461209699877 -0.0013237714441795448 0 -0.0027007953432132453 -0.0010270069144402607 0 -0.00319440055911703 -0.0013825264719079344 0 -0.0029810990345028217 -0.00096461459293681903 0 -0.0049775461209699877 -0.0013237714441795448 0 -0.0047974832600085364 -0.0013749355934593219 0 -0.00319440055911703 -0.0013825264719079344 0 -0.0029810990345028217 -0.00096461459293681903 0 -0.0042348803559554421 -0.0014571020762175508 0 -0.0052543398586325828 -0.0010726521250969813 0 -0.006424782604009715 -0.0017640693131117976 0 -0.0042348803559554421 -0.0014571020762175508 0 -0.0029810990345028217 -0.00096461459293681903 0 -0.0042348803559554421 -0.0014571020762175508 0 -0.003314890268742592 -0.00086206807482568668 0 -0.0029810990345028217 -0.00096461459293681903 0 -0.0026253458881821167 -0.00075904384234113797 0 -0.0026440301315329442 -0.00068898548230926005 0 -0.0026253458881821167 -0.00075904384234113797 0 -0.0026440301315329442 -0.00068898548230926005 0 -0.0025121162634300859 -0.00055228943953103339 0 -0.0026253458881821167 -0.00075904384234113797 0 -0.0025121162634300859 -0.00055228943953103339 0 -0.0024837155463530197 -0.00061227527178702779 0 -0.0027007953432132453 -0.0010270069144402607 0 -0.0026253458881821167 -0.00075904384234113797 0 -0.0024837155463530197 -0.00061227527178702779 0 -0.0027007953432132453 -0.0010270069144402607 0 -0.0029810990345028217 -0.00096461459293681903 0 -0.0026253458881821167 -0.00075904384234113797 0 -0.0026273276083358887 -0.00017888778074760575 0 -0.0031912816426284507 2.1112813542773249e-05 0 -0.0029666793068741323 -0.00090459737572901175 0 -0.0029627682991912453 -0.00014280212119093658 0 -0.0025996552935316146 -0.00046925062025511755 0 -0.0027382162526224962 0.00037321324757117456 0 -0.0029627682991912453 -0.00014280212119093658 0 -0.0025996552935316146 -0.00046925062025511755 0 -0.0029666793068741323 -0.00090459737572901175 0 -0.0029627682991912453 -0.00014280212119093658 0 -0.0035042605066565235 -0.00021173464849156965 0 -0.0075805515871578159 0.0011995158223453979 0 -0.0044615157583158963 0.00026873085501071366 0 -0.0031463976113038552 0.00013315825067267527 0 -0.0029627682991912453 -0.00014280212119093658 0 -0.0035042605066565235 -0.00021173464849156965 0 -0.0033687512313812125 -0.00088032152702958175 0 -0.0036091996065940233 -0.00041560740741565424 0 -0.003604604611941961 -0.0010247735580431506 0 -0.0036091996065940233 -0.00041560740741565424 0 -0.0039453469761321948 -0.0010018526661348004 0 -0.003604604611941961 -0.0010247735580431506 0 -0.0039453469761321948 -0.0010018526661348004 0 -0.004496357166266945 -0.00092447603461120499 0 -0.0042348803559554421 -0.0014571020762175508 0 -0.0039453469761321948 -0.0010018526661348004 0 -0.0043244637876183201 -0.00041205369117906424 0 -0.004496357166266945 -0.00092447603461120499 0 -0.0041639749757052371 0.0005412729577330415 0 -0.0036091996065940233 -0.00041560740741565424 0 -0.0043244637876183201 -0.00041205369117906424 0 -0.0036091996065940233 -0.00041560740741565424 0 -0.0039453469761321948 -0.0010018526661348004 0 -0.0043244637876183201 -0.00041205369117906424 0 -0.0043244637876183201 -0.00041205369117906424 0 -0.0051700627851023907 -0.00051191591190728042 0 -0.004496357166266945 -0.00092447603461120499 0 -0.004886331048999033 0.00017096084767819478 0 -0.0043244637876183201 -0.00041205369117906424 0 -0.0051700627851023907 -0.00051191591190728042 0 -0.0052543398586325828 -0.0010726521250969813 0 -0.004496357166266945 -0.00092447603461120499 0 -0.0042348803559554421 -0.0014571020762175508 0 -0.0052543398586325828 -0.0010726521250969813 0 -0.0051700627851023907 -0.00051191591190728042 0 -0.004496357166266945 -0.00092447603461120499 0 -0.0042348803559554421 -0.0014571020762175508 0 -0.0038477880542404385 -0.0010966714465303286 0 -0.0038699301293436818 -0.0011969775452801224 0 -0.0042348803559554421 -0.0014571020762175508 0 -0.0038477880542404385 -0.0010966714465303286 0 -0.003314890268742592 -0.00086206807482568668 0 -0.0038477880542404385 -0.0010966714465303286 0 -0.0038699301293436818 -0.0011969775452801224 0 -0.0036614527501070441 -0.001024784376135726 0 -0.0038699301293436818 -0.0011969775452801224 0 -0.0035598745289738467 -0.0011172532501331433 0 -0.0036614527501070441 -0.001024784376135726 0 -0.0039453469761321948 -0.0010018526661348004 0 -0.0042348803559554421 -0.0014571020762175508 0 -0.0038699301293436818 -0.0011969775452801224 0 -0.0039453469761321948 -0.0010018526661348004 0 -0.0038699301293436818 -0.0011969775452801224 0 -0.003604604611941961 -0.0010247735580431506 0 -0.0038699301293436818 -0.0011969775452801224 0 -0.003604604611941961 -0.0010247735580431506 0 -0.0035598745289738467 -0.0011172532501331433 0 -0.003604604611941961 -0.0010247735580431506 0 -0.0035598745289738467 -0.0011172532501331433 0 -0.0034171593510412424 -0.0010582244440202504 0 -0.0035598745289738467 -0.0011172532501331433 0 -0.0033332782151413365 -0.0011122160646268677 0 -0.0033215984376636252 -0.0010712547778514514 0 -0.0035598745289738467 -0.0011172532501331433 0 -0.0033332782151413365 -0.0011122160646268677 0 -0.0034171593510412424 -0.0010582244440202504 0 -0.0033332782151413365 -0.0011122160646268677 0 -0.0034171593510412424 -0.0010582244440202504 0 -0.0032645418892972614 -0.0010705158708791585 0 -0.0033332782151413365 -0.0011122160646268677 0 -0.0032465884753792697 -0.0011351052927969613 0 -0.0032645418892972614 -0.0010705158708791585 0 -0.0033687512313812125 -0.00088032152702958175 0 -0.0034171593510412424 -0.0010582244440202504 0 -0.0032645418892972614 -0.0010705158708791585 0 -0.0033687512313812125 -0.00088032152702958175 0 -0.003604604611941961 -0.0010247735580431506 0 -0.0034171593510412424 -0.0010582244440202504 0 -0.0026273276083358887 -0.00017888778074760575 0 -0.002058355089776033 0.00035542293463718745 0 -0.00052701017560638909 0.0020338528929262486 0 -0.0011535150672952832 0.0013403412659345692 0 -0.0011133611239549745 0.00096247835259525606 0 -0.0013775428024878492 0.00096949587331044589 0 0.00088679204032652691 0.0031969684072752128 0 0.0010407261995163944 0.0034058587502548534 0 0.0011222351207860375 0.0038422390177935504 0 -0.0010174948847383434 0.0016384522233345228 0 -0.00089858592838455112 0.0021791433238758239 0 -0.0011393167899389561 0.0013324635778612811 0 -0.002925593607980091 -0.0010476716285788936 0 -0.0030917917503330925 -0.0011173047359078212 0 -0.0032465884753792697 -0.0011351052927969613 0 0.00088679204032652691 0.0031969684072752128 0 0.0010407261995163944 0.0034058587502548534 0 0.00096873878737616722 0.0028968110523237191 0 -0.00080928353822577476 0.0018551340989140731 0 -0.00052701017560638909 0.0020338528929262486 0 -0.002925593607980091 -0.0010476716285788936 0 -0.0027967993821354288 -0.0011678825645173095 0 -0.0021188398537449172 -0.00056246520411199765 0 -0.0027967993821354288 -0.0011678825645173095 0 -0.0030917917503330925 -0.0011173047359078212 0 -0.0031281113292869933 -0.001078504156729331 0 -0.002925593607980091 -0.0010476716285788936 0 -0.0027967993821354288 -0.0011678825645173095 0 -0.0030917917503330925 -0.0011173047359078212 0 -0.0032326172046881862 -0.0011055505683822164 0 -0.0030917917503330925 -0.0011173047359078212 0 -0.0032465884753792697 -0.0011351052927969613 0 -0.00080928353822577476 0.0018551340989140731 0 -0.0013775428024878492 0.00096949587331044589 0 -0.0033332782151413365 -0.0011122160646268677 0 -0.0032326172046881862 -0.0011055505683822164 0 -0.0032465884753792697 -0.0011351052927969613 0 -0.0033332782151413365 -0.0011122160646268677 0 -0.0032326172046881862 -0.0011055505683822164 0 -0.0033215984376636252 -0.0010712547778514514 0 -0.0032326172046881862 -0.0011055505683822164 0 -0.0030917917503330925 -0.0011173047359078212 0 -0.0033215984376636252 -0.0010712547778514514 0 -0.0030917917503330925 -0.0011173047359078212 0 -0.0033215984376636252 -0.0010712547778514514 0 -0.0031281113292869933 -0.001078504156729331 0 -0.0033215984376636252 -0.0010712547778514514 0 -0.0033373087303059388 -0.0010296012169511424 0 -0.0031281113292869933 -0.001078504156729331 0 -0.0033215984376636252 -0.0010712547778514514 0 -0.0033373087303059388 -0.0010296012169511424 0 -0.0036614527501070441 -0.001024784376135726 0 -0.0035598745289738467 -0.0011172532501331433 0 -0.0033215984376636252 -0.0010712547778514514 0 -0.0036614527501070441 -0.001024784376135726 0 -0.0026181914073407034 -0.00078038310902639669 0 -0.002457951318416756 -0.00067448847229767276 0 -0.0027967993821354288 -0.0011678825645173095 0 -0.0010298927997141512 -0.00061218326884610139 0 -0.0021188398537449172 -0.00056246520411199765 0 -0.0027967993821354288 -0.0011678825645173095 0 -0.0033373087303059388 -0.0010296012169511424 0 -0.003677339285853514 -0.00099370279564028408 0 -0.0027967993821354288 -0.0011678825645173095 0 -0.0033373087303059388 -0.0010296012169511424 0 -0.0031281113292869933 -0.001078504156729331 0 -0.0033373087303059388 -0.0010296012169511424 0 -0.003677339285853514 -0.00099370279564028408 0 -0.0036614527501070441 -0.001024784376135726 0 -0.003677339285853514 -0.00099370279564028408 0 -0.0036614527501070441 -0.001024784376135726 0 -0.0036471218453404254 -0.00087158541520875391 0 -0.0038477880542404385 -0.0010966714465303286 0 -0.0036471218453404254 -0.00087158541520875391 0 -0.003314890268742592 -0.00086206807482568668 0 -0.0038477880542404385 -0.0010966714465303286 0 -0.0036614527501070441 -0.001024784376135726 0 -0.0036471218453404254 -0.00087158541520875391 0 -0.003677339285853514 -0.00099370279564028408 0 -0.0036471218453404254 -0.00087158541520875391 0 -0.0033723071007277696 -0.00045963408069243841 0 -0.002457951318416756 -0.00067448847229767276 0 -0.002329625882116812 -0.00050089149352552096 0 -0.0010298927997141512 -0.00061218326884610139 0 -0.0010180475344316289 -0.00029857122813295363 0 -0.0012847246880066969 -8.3422065285479837e-05 0 -0.0010180475344316289 -0.00029857122813295363 0 -0.0011603430292668154 -0.00032286270994060656 0 -0.0012847246880066969 -8.3422065285479837e-05 0 -0.0010180475344316289 -0.00029857122813295363 0 -0.0011603430292668154 -0.00032286270994060656 0 -0.0009651811688620596 -0.00015058355918448014 0 -0.0011603430292668154 -0.00032286270994060656 0 -0.0009651811688620596 -0.00015058355918448014 0 -0.00097115401534864749 -0.00027664069539549329 0 -0.0010180475344316289 -0.00029857122813295363 0 -0.0009651811688620596 -0.00015058355918448014 0 -0.0012815475074918169 -0.00021229054216114688 0 -0.0009651811688620596 -0.00015058355918448014 0 -0.00096262530590308427 3.6059111283470159e-05 0 -0.0007088224299959205 -6.2134555815893309e-05 0 -0.0009651811688620596 -0.00015058355918448014 0 -0.0012815475074918169 -0.00021229054216114688 0 -0.00096262530590308427 3.6059111283470159e-05 0 -0.0010298927997141512 -0.00061218326884610139 0 -0.0010180475344316289 -0.00029857122813295363 0 -0.0012815475074918169 -0.00021229054216114688 0 -0.0010298927997141512 -0.00061218326884610139 0 -0.0021188398537449172 -0.00056246520411199765 0 -0.0012815475074918169 -0.00021229054216114688 0 -0.0021188398537449172 -0.00056246520411199765 0 -0.0016198623323893466 -0.00020296651264453637 0 -0.00178208827201703 -8.5193445511009081e-06 0 -0.0021188398537449172 -0.00056246520411199765 0 -0.0016198623323893466 -0.00020296651264453637 0 -0.0012815475074918169 -0.00021229054216114688 0 -0.0012815475074918169 -0.00021229054216114688 0 -0.0014022566969519492 -9.7066589699646111e-05 0 -0.00096262530590308427 3.6059111283470159e-05 0 -0.00095740150510446669 0.00077708981588768729 0 -0.00092475295567660907 0.00054018814207729051 0 -0.00096262530590308427 3.6059111283470159e-05 0 -0.00178208827201703 -8.5193445511009081e-06 0 -0.00033531828487177594 0.00023122038666647613 0 -0.0016198623323893466 -0.00020296651264453637 0 -0.0012815475074918169 -0.00021229054216114688 0 -0.0014022566969519492 -9.7066589699646111e-05 0 -0.0014022566969519492 -9.7066589699646111e-05 0 -0.00096262530590308427 3.6059111283470159e-05 0 -0.00178208827201703 -8.5193445511009081e-06 0 -0.0016198623323893466 -0.00020296651264453637 0 -0.0014022566969519492 -9.7066589699646111e-05 0 -0.00178208827201703 -8.5193445511009081e-06 0 0.0010256154167849097 0.0029098168058881704 0 0.0011988517149990982 0.0021316881366621951 0 0.0006630772700369844 0.00093831235539161507 0 0.00043418775098179503 0.0023220578961773083 0 0.00085969202129425608 0.0023685901327447694 0 0.0006630772700369844 0.00093831235539161507 0 2.078310006809701e-06 0.0023543358228351611 0 5.5132977940589145e-05 0.0020653501544193801 0 0.0013968509902929952 0.0017361226947981468 0 0.0011988517149990982 0.0021316881366621951 0 0.0006630772700369844 0.00093831235539161507 0 0.001565663321177618 0.002364789841588538 0 0.0019166511044797227 0.0027260612960055613 0 0.0019502522249628829 0.0019895774734395859 0 0.0013968509902929952 0.0017361226947981468 0 0.001565663321177618 0.002364789841588538 0 0.0019502522249628829 0.0019895774734395859 0 0.0013968509902929952 0.0017361226947981468 0 0.0011988517149990982 0.0021316881366621951 0 0.001565663321177618 0.002364789841588538 0 0.0011988517149990982 0.0021316881366621951 0 0.001565663321177618 0.002364789841588538 0 0.0013978147713037633 0.002580259859053993 0 0.001565663321177618 0.002364789841588538 0 0.0013978147713037633 0.002580259859053993 0 0.0019166511044797227 0.0027260612960055613 0 0.0010256154167849097 0.0029098168058881704 0 0.0013978147713037633 0.002580259859053993 0 0.0019166511044797227 0.0027260612960055613 0 0.0010256154167849097 0.0029098168058881704 0 0.0011988517149990982 0.0021316881366621951 0 0.0013978147713037633 0.002580259859053993 0 2.078310006809701e-06 0.0023543358228351611 0 -0.00052701017560638909 0.0020338528929262486 0 0.00088679204032652691 0.0031969684072752128 0 0.00043418775098179503 0.0023220578961773083 0 0.00096873878737616722 0.0028968110523237191 0 -0.0010622804565800211 0.0018806919000536881 0 -0.0011093619865705244 0.0017068559249674346 0 -0.0013187449924115817 0.0017316755001121216 0 -0.002925593607980091 -0.0010476716285788936 0 -0.0021188398537449172 -0.00056246520411199765 0 -0.00178208827201703 -8.5193445511009081e-06 0 -0.0011133611239549745 0.00096247835259525606 0 -0.00095740150510446669 0.00077708981588768729 0 0.00043418775098179503 0.0023220578961773083 0 0.00085969202129425608 0.0023685901327447694 0 0.00096873878737616722 0.0028968110523237191 0 -0.0024701322635696781 -0.00049336786134606466 0 -0.0027728959462137766 -0.00063801057465084411 0 -0.0023247094225511216 -0.00024950436880660825 0 -0.0024701322635696781 -0.00049336786134606466 0 -0.0023247094225511216 -0.00024950436880660825 0 -0.0023854075138313134 -0.00045127158648030117 0 -0.0024701322635696781 -0.00049336786134606466 0 -0.0023854075138313134 -0.00045127158648030117 0 -0.0024988333276754196 -0.00048328701699229103 0 -0.0025121162634300859 -0.00055228943953103339 0 -0.0024701322635696781 -0.00049336786134606466 0 -0.0024988333276754196 -0.00048328701699229103 0 -0.0026440301315329442 -0.00068898548230926005 0 -0.0025121162634300859 -0.00055228943953103339 0 -0.0024701322635696781 -0.00049336786134606466 0 -0.0026440301315329442 -0.00068898548230926005 0 -0.0024701322635696781 -0.00049336786134606466 0 -0.0027728959462137766 -0.00063801057465084411 0 -0.0029810990345028217 -0.00096461459293681903 0 -0.0026440301315329442 -0.00068898548230926005 0 -0.0027728959462137766 -0.00063801057465084411 0 -0.0029810990345028217 -0.00096461459293681903 0 -0.0027728959462137766 -0.00063801057465084411 0 -0.003314890268742592 -0.00086206807482568668 0 -0.0027728959462137766 -0.00063801057465084411 0 -0.003314890268742592 -0.00086206807482568668 0 -0.0033723071007277696 -0.00045963408069243841 0 -0.0036471218453404254 -0.00087158541520875391 0 -0.003314890268742592 -0.00086206807482568668 0 -0.0033723071007277696 -0.00045963408069243841 0 -0.0027728959462137766 -0.00063801057465084411 0 -0.0033723071007277696 -0.00045963408069243841 0 -0.0023247094225511216 -0.00024950436880660825 0 -0.002329625882116812 -0.00050089149352552096 0 -0.0022924268705808415 -0.00043518610311544024 0 -0.0012847246880066969 -8.3422065285479837e-05 0 -0.0017282097683231771 -0.00055833181123490457 0 -0.0023247094225511216 -0.00024950436880660825 0 -0.0011603430292668154 -0.00032286270994060656 0 -0.0012847246880066969 -8.3422065285479837e-05 0 -0.0017282097683231771 -0.00055833181123490457 0 -0.0011603430292668154 -0.00032286270994060656 0 -0.0017282097683231771 -0.00055833181123490457 0 -0.0011513526546864739 -0.00054780791312119452 0 -0.0017282097683231771 -0.00055833181123490457 0 -0.002165156945967619 -0.00061862997093745456 0 -0.0023247094225511216 -0.00024950436880660825 0 -0.002165156945967619 -0.00061862997093745456 0 -0.0023247094225511216 -0.00024950436880660825 0 -0.0023854075138313134 -0.00045127158648030117 0 -0.002165156945967619 -0.00061862997093745456 0 -0.0023854075138313134 -0.00045127158648030117 0 -0.0023698906308937894 -0.00065098586575804281 0 -0.0023698906308937894 -0.00065098586575804281 0 -0.002688841435966734 -0.00062376022584396452 0 -0.0025726425841501471 -0.00051949904855671126 0 -0.0023698906308937894 -0.00065098586575804281 0 -0.002688841435966734 -0.00062376022584396452 0 -0.0023776783365548277 -0.00085402374703927439 0 -0.002688841435966734 -0.00062376022584396452 0 -0.0025726425841501471 -0.00051949904855671126 0 -0.0028139085928055372 -0.00053090029017317667 0 -0.0023854075138313134 -0.00045127158648030117 0 -0.0023698906308937894 -0.00065098586575804281 0 -0.0025726425841501471 -0.00051949904855671126 0 -0.0025726425841501471 -0.00051949904855671126 0 -0.0026602481356511241 -0.00047525589049390914 0 -0.0024988333276754196 -0.00048328701699229103 0 -0.0023854075138313134 -0.00045127158648030117 0 -0.0025726425841501471 -0.00051949904855671126 0 -0.0024988333276754196 -0.00048328701699229103 0 -0.0025726425841501471 -0.00051949904855671126 0 -0.0026602481356511241 -0.00047525589049390914 0 -0.0028139085928055372 -0.00053090029017317667 0 -0.0026602481356511241 -0.00047525589049390914 0 -0.002592843339522199 -0.00046025473320571804 0 -0.0027711791419608258 -0.00038360794715473843 0 -0.0026602481356511241 -0.00047525589049390914 0 -0.0024988333276754196 -0.00048328701699229103 0 -0.002592843339522199 -0.00046025473320571804 0 -0.0025121162634300859 -0.00055228943953103339 0 -0.0024988333276754196 -0.00048328701699229103 0 -0.002592843339522199 -0.00046025473320571804 0 -0.0031084122358124699 -0.0004473061677117327 0 -0.0031110346457909736 -0.00052110750527282145 0 -0.0034135777677273692 -0.00043163960953992124 0 -0.0031084122358124699 -0.0004473061677117327 0 -0.0029119397100343097 -0.00046977817165532278 0 -0.0030028094627697309 -0.0003260018785770345 0 -0.0031084122358124699 -0.0004473061677117327 0 -0.0034135777677273692 -0.00043163960953992124 0 -0.0033189619796340766 -0.00013360462285401893 0 -0.0029119397100343097 -0.00046977817165532278 0 -0.0027711791419608258 -0.00038360794715473843 0 -0.0030028094627697309 -0.0003260018785770345 0 -0.0026602481356511241 -0.00047525589049390914 0 -0.0029119397100343097 -0.00046977817165532278 0 -0.0027711791419608258 -0.00038360794715473843 0 -0.0026602481356511241 -0.00047525589049390914 0 -0.0029119397100343097 -0.00046977817165532278 0 -0.0028139085928055372 -0.00053090029017317667 0 -0.0029119397100343097 -0.00046977817165532278 0 -0.0031110346457909736 -0.00052110750527282145 0 -0.0028139085928055372 -0.00053090029017317667 0 -0.0031084122358124699 -0.0004473061677117327 0 -0.0029119397100343097 -0.00046977817165532278 0 -0.0031110346457909736 -0.00052110750527282145 0 -0.0031110346457909736 -0.00052110750527282145 0 -0.0029526507663519964 -0.00057028821114084402 0 -0.0030671963643432447 -0.00053209188845487049 0 -0.0031110346457909736 -0.00052110750527282145 0 -0.0029526507663519964 -0.00057028821114084402 0 -0.0028139085928055372 -0.00053090029017317667 0 -0.002688841435966734 -0.00062376022584396452 0 -0.0029526507663519964 -0.00057028821114084402 0 -0.0028139085928055372 -0.00053090029017317667 0 -0.002688841435966734 -0.00062376022584396452 0 -0.0029526507663519964 -0.00057028821114084402 0 -0.0029090345072420544 -0.00070830156908260585 0 -0.0029526507663519964 -0.00057028821114084402 0 -0.0030133690500929351 -0.00053766666824232672 0 -0.0029090345072420544 -0.00070830156908260585 0 -0.0030133690500929351 -0.00053766666824232672 0 -0.0027301806821599275 -0.00047853735438368073 0 -0.0029741817084263274 -0.00045248941086292591 0 -0.0027301806821599275 -0.00047853735438368073 0 -0.0029741817084263274 -0.00045248941086292591 0 -0.0028114562357539168 -0.00036323293288645435 0 -0.0030133690500929351 -0.00053766666824232672 0 -0.0029741817084263274 -0.00045248941086292591 0 -0.0031959990920999637 -0.0004925754646015806 0 -0.0029741817084263274 -0.00045248941086292591 0 -0.003232082626034099 -0.00040813004729865532 0 -0.0030601826046959091 -0.00030141176109349505 0 -0.0029741817084263274 -0.00045248941086292591 0 -0.003232082626034099 -0.00040813004729865532 0 -0.0031959990920999637 -0.0004925754646015806 0 -0.0031110346457909736 -0.00052110750527282145 0 -0.0031959990920999637 -0.0004925754646015806 0 -0.0030671963643432447 -0.00053209188845487049 0 -0.0029526507663519964 -0.00057028821114084402 0 -0.0030133690500929351 -0.00053766666824232672 0 -0.0030671963643432447 -0.00053209188845487049 0 -0.0030133690500929351 -0.00053766666824232672 0 -0.0031959990920999637 -0.0004925754646015806 0 -0.0030671963643432447 -0.00053209188845487049 0 -0.00080410407344280645 5.2383810375500315e-07 0 -0.00048863109658613048 1.427408191546782e-05 0 0.0011193131621158846 -6.3092155520104673e-05 0 -0.002821167079929591 -0.0003360408268809788 0 -0.0025584272191221287 -0.00040526315187918138 0 -0.0028114562357539168 -0.00036323293288645435 0 -0.002821167079929591 -0.0003360408268809788 0 -0.0028114562357539168 -0.00036323293288645435 0 -0.0028988758803604464 -0.00021036178100890965 0 -0.0027301806821599275 -0.00047853735438368073 0 -0.0025584272191221287 -0.00040526315187918138 0 -0.0028114562357539168 -0.00036323293288645435 0 -0.0029741817084263274 -0.00045248941086292591 0 -0.0028114562357539168 -0.00036323293288645435 0 -0.0030601826046959091 -0.00030141176109349505 0 -0.0030601826046959091 -0.00030141176109349505 0 -0.0028988758803604464 -0.00021036178100890965 0 -0.0030842005209158908 -0.00021076385695494983 0 -0.0028114562357539168 -0.00036323293288645435 0 -0.0030601826046959091 -0.00030141176109349505 0 -0.0028988758803604464 -0.00021036178100890965 0 -0.00080410407344280645 5.2383810375500315e-07 0 -0.00048863109658613048 1.427408191546782e-05 0 -0.0025982853828113717 -3.2290608921975929e-05 0 -0.002821167079929591 -0.0003360408268809788 0 -0.0028988758803604464 -0.00021036178100890965 0 -0.0025982853828113717 -3.2290608921975929e-05 0 -0.00080410407344280645 5.2383810375500315e-07 0 -0.0028708685608379689 -6.7566348455903035e-07 0 -0.0025982853828113717 -3.2290608921975929e-05 0 -0.00071922135668505847 -0.00040348561180446069 0 -0.0009921360857405631 -0.00046578006733775967 0 -0.0028988758803604464 -0.00021036178100890965 0 -0.0025982853828113717 -3.2290608921975929e-05 0 -0.0030842005209158908 -0.00021076385695494983 0 -0.0028708685608379689 -6.7566348455903035e-07 0 -0.0032224725156203586 -0.00017685366031414064 0 -0.0039986114054903696 -0.00019573079366844132 0 -0.0028708685608379689 -6.7566348455903035e-07 0 -0.0025982853828113717 -3.2290608921975929e-05 0 -0.0032224725156203586 -0.00017685366031414064 0 -0.0025982853828113717 -3.2290608921975929e-05 0 -0.0032224725156203586 -0.00017685366031414064 0 -0.0030842005209158908 -0.00021076385695494983 0 -0.0032224725156203586 -0.00017685366031414064 0 -0.0034321787692336791 -0.00032501790018365785 0 -0.0039986114054903696 -0.00019573079366844132 0 -0.0032224725156203586 -0.00017685366031414064 0 -0.0034321787692336791 -0.00032501790018365785 0 -0.0030842005209158908 -0.00021076385695494983 0 -0.0030601826046959091 -0.00030141176109349505 0 -0.0034321787692336791 -0.00032501790018365785 0 -0.0030842005209158908 -0.00021076385695494983 0 -0.003232082626034099 -0.00040813004729865532 0 -0.0030601826046959091 -0.00030141176109349505 0 -0.0034321787692336791 -0.00032501790018365785 0 -0.0034321787692336791 -0.00032501790018365785 0 -0.0039421875291607315 -0.00035812696113177639 0 -0.003470947374783975 -0.00043466334144335846 0 -0.0034321787692336791 -0.00032501790018365785 0 -0.0039421875291607315 -0.00035812696113177639 0 -0.0039986114054903696 -0.00019573079366844132 0 -0.0039421875291607315 -0.00035812696113177639 0 -0.0039986114054903696 -0.00019573079366844132 0 -0.004567504627626142 -0.00019546914529148293 0 -0.0028708685608379689 -6.7566348455903035e-07 0 -0.0039986114054903696 -0.00019573079366844132 0 -0.0049361121161066966 -4.8497300170249304e-07 0 -0.0031110346457909736 -0.00052110750527282145 0 -0.0031959990920999637 -0.0004925754646015806 0 -0.003342991797592937 -0.0004754893707723262 0 -0.0031110346457909736 -0.00052110750527282145 0 -0.003342991797592937 -0.0004754893707723262 0 -0.0034135777677273692 -0.00043163960953992124 0 -0.0031959990920999637 -0.0004925754646015806 0 -0.003342991797592937 -0.0004754893707723262 0 -0.003470947374783975 -0.00043466334144335846 0 -0.003232082626034099 -0.00040813004729865532 0 -0.0031959990920999637 -0.0004925754646015806 0 -0.003470947374783975 -0.00043466334144335846 0 -0.003232082626034099 -0.00040813004729865532 0 -0.0034321787692336791 -0.00032501790018365785 0 -0.003470947374783975 -0.00043466334144335846 0 -0.003342991797592937 -0.0004754893707723262 0 -0.003470947374783975 -0.00043466334144335846 0 -0.0036585740321269829 -0.00040679238008249098 0 -0.0039421875291607315 -0.00035812696113177639 0 -0.0036585740321269829 -0.00040679238008249098 0 -0.003999174513231351 -0.00029193897729539174 0 -0.0039421875291607315 -0.00035812696113177639 0 -0.003470947374783975 -0.00043466334144335846 0 -0.0036585740321269829 -0.00040679238008249098 0 -0.0036585740321269829 -0.00040679238008249098 0 -0.0034135777677273692 -0.00043163960953992124 0 -0.003999174513231351 -0.00029193897729539174 0 -0.003342991797592937 -0.0004754893707723262 0 -0.0036585740321269829 -0.00040679238008249098 0 -0.0034135777677273692 -0.00043163960953992124 0 -0.0034135777677273692 -0.00043163960953992124 0 -0.003999174513231351 -0.00029193897729539174 0 -0.0033189619796340766 -0.00013360462285401893 0 -0.003999174513231351 -0.00029193897729539174 0 -0.0054881368403761838 1.9436553633263726e-05 0 -0.0038776864440932778 0.00041303791969945732 0 -0.0052695446288305737 5.1172205539127287e-05 0 -0.0051510840105771618 7.5212166846872863e-05 0 -0.003999174513231351 -0.00029193897729539174 0 -0.0038776864440932778 0.00041303791969945732 0 -0.0033189619796340766 -0.00013360462285401893 0 -0.0038776864440932778 0.00041303791969945732 0 -0.0032274577572955236 0.00030730269218240392 0 -0.0033189619796340766 -0.00013360462285401893 0 -0.0039986114054903696 -0.00019573079366844132 0 -0.0049361121161066966 -4.8497300170249304e-07 0 -0.004567504627626142 -0.00019546914529148293 0 -0.0039421875291607315 -0.00035812696113177639 0 -0.003999174513231351 -0.00029193897729539174 0 -0.004567504627626142 -0.00019546914529148293 0 -0.003999174513231351 -0.00029193897729539174 0 -0.004567504627626142 -0.00019546914529148293 0 -0.0054881368403761838 1.9436553633263726e-05 0 -0.0049361121161066966 -4.8497300170249304e-07 0 -0.004567504627626142 -0.00019546914529148293 0 -0.0054881368403761838 1.9436553633263726e-05 0 -0.0049361121161066966 -4.8497300170249304e-07 0 -0.0054881368403761838 1.9436553633263726e-05 0 -0.0070011976869079019 2.8182973374715633e-08 0 -0.0054881368403761838 1.9436553633263726e-05 0 -0.0070011976869079019 2.8182973374715633e-08 0 -0.0067529647530520107 -6.38566592597722e-05 0 -0.0054881368403761838 1.9436553633263726e-05 0 -0.0067529647530520107 -6.38566592597722e-05 0 -0.0061161932337378518 -9.3400796943234597e-05 0 -0.0083099290980808323 0.00013110517366067819 0 -0.0067529647530520107 -6.38566592597722e-05 0 -0.0061643180250223299 0.00030250943428817618 0 -0.0077986738017654794 8.9019410462059398e-05 0 -0.0076434615821428841 4.9365757759156711e-05 0 -0.0083099290980808323 0.00013110517366067819 0 -0.0070011976869079019 2.8182973374715633e-08 0 -0.0067529647530520107 -6.38566592597722e-05 0 -0.0090675177354264721 -2.4426804072561918e-07 0 -0.0083099290980808323 0.00013110517366067819 0 -0.0070011976869079019 2.8182973374715633e-08 0 -0.0051510840105771618 7.5212166846872863e-05 0 -0.0052625083933887469 1.4363494785372543e-05 0 -0.0060465169875501719 3.5701294520294874e-05 0 -0.0059259376340130322 0.00010723513444539428 0 -0.0058891210830415326 -3.6073377064650384e-06 0 -0.0060465169875501719 3.5701294520294874e-05 0 -0.0061262264991732672 -2.7372265027145752e-05 0 -0.0058891210830415326 -3.6073377064650384e-06 0 -0.0054881368403761838 1.9436553633263726e-05 0 -0.0061262264991732672 -2.7372265027145752e-05 0 -0.0061161932337378518 -9.3400796943234597e-05 0 -0.0060465169875501719 3.5701294520294874e-05 0 -0.0061262264991732672 -2.7372265027145752e-05 0 -0.0061161932337378518 -9.3400796943234597e-05 0 -0.0067529647530520107 -6.38566592597722e-05 0 -0.0061161932337378518 -9.3400796943234597e-05 0 -0.0061643180250223299 0.00030250943428817618 0 -0.0060465169875501719 3.5701294520294874e-05 0 -0.0061161932337378518 -9.3400796943234597e-05 0 -0.0061643180250223299 0.00030250943428817618 0 -0.0089954889241996849 -8.0880375962708633e-06 0 -0.0089557139212209716 0.00014868502647153361 0 -0.0091020784584871263 0.00014928355204811902 0 -0.0060465169875501719 3.5701294520294874e-05 0 -0.0061643180250223299 0.00030250943428817618 0 -0.0059259376340130322 0.00010723513444539428 0 -0.0089954889241996849 -8.0880375962708633e-06 0 -0.0091345474794142702 9.7098016047306697e-05 0 -0.0091020784584871263 0.00014928355204811902 0 -0.0076434615821428841 4.9365757759156711e-05 0 -0.007552735365088591 -5.9995345416625943e-05 0 -0.0091345474794142702 9.7098016047306697e-05 0 -0.0091020784584871263 0.00014928355204811902 0 -0.0092280238329337291 0.00015865555246328297 0 -0.007552735365088591 -5.9995345416625943e-05 0 -0.0074060537771187063 -0.00031051296218524943 0 -0.013438828185327906 -0.00018452395570715989 0 -0.013663161866248004 -0.00035639465002550462 0 -0.013292408356314723 -0.00045345399883050511 0 -0.0059259376340130322 0.00010723513444539428 0 -0.0058891210830415326 -3.6073377064650384e-06 0 -0.0057621808916309648 4.6150230260954648e-05 0 -0.0032274577572955236 0.00030730269218240392 0 -0.0029687375842187631 6.8478173899686051e-05 0 -0.0028335270463569736 0.00022681789434861384 0 -0.0058891210830415326 -3.6073377064650384e-06 0 -0.0057460517573631673 3.3961961550847695e-05 0 -0.0057621808916309648 4.6150230260954648e-05 0 -0.0052625083933887469 1.4363494785372543e-05 0 -0.0068501673006473567 -0.0004440926492151004 0 -0.0029687375842187631 6.8478173899686051e-05 0 -0.0028335270463569736 0.00022681789434861384 0 -0.0027966988220705534 -2.6660784159564938e-05 0 -0.013059559054018626 -0.0011403051437042576 0 -0.012942822197143889 -0.0010749964423904296 0 -0.012881543252355642 -0.0012103834557334293 0 -0.0074060537771187063 -0.00031051296218524943 0 -0.007162927069151474 -0.00049410057623673967 0 -0.0067818245806142517 -0.00059832670708392119 0 -0.0067385865630776127 -0.0006267102859512831 0 -0.006821265722914944 -0.00061081813494763863 0 -0.0068501673006473567 -0.0004440926492151004 0 -0.0074060537771187063 -0.00031051296218524943 0 -0.013663161866248004 -0.00035639465002550462 0 -0.013170357198616119 -0.00077321838171684433 0 -0.013292408356314723 -0.00045345399883050511 0 -0.013059559054018626 -0.0011403051437042576 0 -0.013019446363876521 -0.0009732822183040103 0 -0.013170357198616119 -0.00077321838171684433 0 -0.013019446363876521 -0.0009732822183040103 0 -0.012942822197143889 -0.0010749964423904296 0 -0.01290485143380425 -0.00090859784715576668 0 -0.013663161866248004 -0.00035639465002550462 0 -0.013059559054018626 -0.0011403051437042576 0 -0.013170357198616119 -0.00077321838171684433 0 -0.013059559054018626 -0.0011403051437042576 0 -0.013019446363876521 -0.0009732822183040103 0 -0.012942822197143889 -0.0010749964423904296 0 -0.010191493740790225 0.00029969006060988015 0 -0.0074060537771187063 -0.00031051296218524943 0 -0.013019446363876521 -0.0009732822183040103 0 -0.013170357198616119 -0.00077321838171684433 0 -0.01290485143380425 -0.00090859784715576668 0 -0.013053864427825601 -0.000537102030961822 0 -0.012843627921385506 -0.00061320620476414827 0 -0.01290485143380425 -0.00090859784715576668 0 -0.013170357198616119 -0.00077321838171684433 0 -0.013053864427825601 -0.000537102030961822 0 -0.01290485143380425 -0.00090859784715576668 0 -0.013170357198616119 -0.00077321838171684433 0 -0.013292408356314723 -0.00045345399883050511 0 -0.013053864427825601 -0.000537102030961822 0 -0.012531556321571042 -0.00042531642062014805 0 -0.012843627921385506 -0.00061320620476414827 0 -0.012649537648666253 -0.0007906934742513929 0 -0.012616630560729827 -0.0010625629366964936 0 -0.011815987099027305 -0.0013073734546668989 0 -0.012881543252355642 -0.0012103834557334293 0 -0.012886308767503726 -0.00026541829071525852 0 -0.013053864427825601 -0.000537102030961822 0 -0.012843627921385506 -0.00061320620476414827 0 -0.012330391147976726 -0.00091855454328892603 0 -0.012616630560729827 -0.0010625629366964936 0 -0.011815987099027305 -0.0013073734546668989 0 -0.0090595486870060291 -0.00094756348943307329 0 -0.007162927069151474 -0.00049410057623673967 0 -0.012843627921385506 -0.00061320620476414827 0 -0.012649537648666253 -0.0007906934742513929 0 -0.01290485143380425 -0.00090859784715576668 0 -0.012531556321571042 -0.00042531642062014805 0 -0.012649537648666253 -0.0007906934742513929 0 -0.012330391147976726 -0.00091855454328892603 0 -0.012649537648666253 -0.0007906934742513929 0 -0.012330391147976726 -0.00091855454328892603 0 -0.012616630560729827 -0.0010625629366964936 0 -0.012942822197143889 -0.0010749964423904296 0 -0.012836961983162261 -0.0010663634174543244 0 -0.012881543252355642 -0.0012103834557334293 0 -0.012942822197143889 -0.0010749964423904296 0 -0.012836961983162261 -0.0010663634174543244 0 -0.01290485143380425 -0.00090859784715576668 0 -0.012616630560729827 -0.0010625629366964936 0 -0.012836961983162261 -0.0010663634174543244 0 -0.01290485143380425 -0.00090859784715576668 0 -0.012616630560729827 -0.0010625629366964936 0 -0.012836961983162261 -0.0010663634174543244 0 -0.012881543252355642 -0.0012103834557334293 0 -0.012649537648666253 -0.0007906934742513929 0 -0.012616630560729827 -0.0010625629366964936 0 -0.01290485143380425 -0.00090859784715576668 0 -0.011819457275877928 -0.00059546627826269458 0 -0.012330391147976726 -0.00091855454328892603 0 -0.011815987099027305 -0.0013073734546668989 0 -0.011819457275877928 -0.00059546627826269458 0 -0.012531556321571042 -0.00042531642062014805 0 -0.012330391147976726 -0.00091855454328892603 0 -0.0084923571313749342 -0.00084554541146173931 0 -0.008431117972425262 -0.0012021629028920919 0 -0.0091204598310299125 -0.00102071005155408 0 -0.0024480013511271421 -0.00084335307220851231 0 -0.0023654494404075996 -0.00078276828490873439 0 -0.0024837155463530197 -0.00061227527178702779 0 -0.0079460827564190404 -0.00100734051203812 0 -0.0084923571313749342 -0.00084554541146173931 0 -0.008431117972425262 -0.0012021629028920919 0 -0.0024480013511271421 -0.00084335307220851231 0 -0.0023059160608163922 -0.00083724251546088554 0 -0.0023654494404075996 -0.00078276828490873439 0 -0.0057576857999891004 -0.00094593059543777254 0 -0.007162927069151474 -0.00049410057623673967 0 -0.0022962583290255358 -0.00083368380233142254 0 -0.0023059160608163922 -0.00083724251546088554 0 -0.0023654494404075996 -0.00078276828490873439 0 -0.0068501673006473567 -0.0004440926492151004 0 -0.007162927069151474 -0.00049410057623673967 0 -0.0068501673006473567 -0.0004440926492151004 0 -0.0045851319516109395 -0.0011204115715519357 0 -0.0028335270463569736 0.00022681789434861384 0 -0.0026090636749730757 -9.3423697437325777e-05 0 -0.0027966988220705534 -2.6660784159564938e-05 0 -0.0027966988220705534 -2.6660784159564938e-05 0 -0.0026567276541166946 -0.00030820749934474254 0 -0.002888348205389529 -0.00015928795263775751 0 -0.0026090636749730757 -9.3423697437325777e-05 0 -0.0027966988220705534 -2.6660784159564938e-05 0 -0.0026567276541166946 -0.00030820749934474254 0 -0.0026090636749730757 -9.3423697437325777e-05 0 -0.0026567276541166946 -0.00030820749934474254 0 -0.0024837155463530197 -0.00061227527178702779 0 -0.0026567276541166946 -0.00030820749934474254 0 -0.0024837155463530197 -0.00061227527178702779 0 -0.0025433440024416908 -0.00048870715550437479 0 -0.0045851319516109395 -0.0011204115715519357 0 -0.0040357557101196153 -0.0012392211294929424 0 -0.0026567276541166946 -0.00030820749934474254 0 -0.002592843339522199 -0.00046025473320571804 0 -0.0025433440024416908 -0.00048870715550437479 0 -0.0025121162634300859 -0.00055228943953103339 0 -0.0024837155463530197 -0.00061227527178702779 0 -0.0025433440024416908 -0.00048870715550437479 0 -0.0025121162634300859 -0.00055228943953103339 0 -0.002592843339522199 -0.00046025473320571804 0 -0.0025433440024416908 -0.00048870715550437479 0 -0.0026567276541166946 -0.00030820749934474254 0 -0.0027711791419608258 -0.00038360794715473843 0 -0.002888348205389529 -0.00015928795263775751 0 -0.0026567276541166946 -0.00030820749934474254 0 -0.002592843339522199 -0.00046025473320571804 0 -0.0027711791419608258 -0.00038360794715473843 0 -0.0030028094627697309 -0.0003260018785770345 0 -0.0030886953874604038 -4.9196340625931528e-05 0 -0.002888348205389529 -0.00015928795263775751 0 -0.0027711791419608258 -0.00038360794715473843 0 -0.0030028094627697309 -0.0003260018785770345 0 -0.002888348205389529 -0.00015928795263775751 0 -0.0030028094627697309 -0.0003260018785770345 0 -0.0033189619796340766 -0.00013360462285401893 0 -0.0030886953874604038 -4.9196340625931528e-05 0 -0.0031084122358124699 -0.0004473061677117327 0 -0.0030028094627697309 -0.0003260018785770345 0 -0.0033189619796340766 -0.00013360462285401893 0 -0.0032274577572955236 0.00030730269218240392 0 -0.0033189619796340766 -0.00013360462285401893 0 -0.0030886953874604038 -4.9196340625931528e-05 0 -0.0032274577572955236 0.00030730269218240392 0 -0.0029687375842187631 6.8478173899686051e-05 0 -0.0030886953874604038 -4.9196340625931528e-05 0 -0.0029687375842187631 6.8478173899686051e-05 0 -0.0030886953874604038 -4.9196340625931528e-05 0 -0.002888348205389529 -0.00015928795263775751 0 -0.0029687375842187631 6.8478173899686051e-05 0 -0.0027966988220705534 -2.6660784159564938e-05 0 -0.002888348205389529 -0.00015928795263775751 0 -0.003075752711871267 0.0012875430650107034 0 -0.0027424413008428654 0.00043391554050816654 0 -0.0038718739332938346 0.00012087489688345427 0 -0.003075752711871267 0.0012875430650107034 0 -0.001874036352375332 0.00066761913169090768 0 -0.0027424413008428654 0.00043391554050816654 0 -0.0070143686272450953 0.00085643099150538803 0 -0.0073870017387581222 0.0010958452772605806 0 -0.003075752711871267 0.0012875430650107034 0 -0.0045303064425778264 0.0013929013494248716 0 -0.0038718739332938346 0.00012087489688345427 0 -0.0045303064425778264 0.0013929013494248716 0 -0.0038718739332938346 0.00012087489688345427 0 -0.0056577496563428283 0.0011224633222719847 0 -0.003075752711871267 0.0012875430650107034 0 -0.0038701148877613827 0.0018931390324360053 0 -0.0045303064425778264 0.0013929013494248716 0 -0.0038701148877613827 0.0018931390324360053 0 -0.0045303064425778264 0.0013929013494248716 0 -0.0044607216665777582 0.0023567308140368054 0 -0.0045303064425778264 0.0013929013494248716 0 -0.0044607216665777582 0.0023567308140368054 0 -0.0056569112894249429 0.0019541348249043295 0 -0.0045303064425778264 0.0013929013494248716 0 -0.0056577496563428283 0.0011224633222719847 0 -0.0056569112894249429 0.0019541348249043295 0 -0.0044607216665777582 0.0023567308140368054 0 -0.0056569112894249429 0.0019541348249043295 0 -0.0051624524430740242 0.0029508840384281912 0 -0.0038701148877613827 0.0018931390324360053 0 -0.0044607216665777582 0.0023567308140368054 0 -0.0034497501232196915 0.0027046188227407672 0 -0.0044607216665777582 0.0023567308140368054 0 -0.0034497501232196915 0.0027046188227407672 0 -0.0042042553937614692 0.0032539282887609445 0 -0.003075752711871267 0.0012875430650107034 0 -0.0034497501232196915 0.0027046188227407672 0 -0.0018369709130908402 0.0024542316839884478 0 -0.003075752711871267 0.0012875430650107034 0 -0.0038701148877613827 0.0018931390324360053 0 -0.0034497501232196915 0.0027046188227407672 0 -0.0021832306276811748 0.0024798838193919831 0 -0.0013414384246730033 0.0022669033856386545 0 -0.001874036352375332 0.00066761913169090768 0 -0.0021832306276811748 0.0024798838193919831 0 -0.0013414384246730033 0.0022669033856386545 0 -0.0013325417269014119 0.0033102651644394852 0 -0.00087633993143639813 0.001789209909540601 0 -0.0013414384246730033 0.0022669033856386545 0 -0.00058221123569290173 0.0027655378004010464 0 -0.00087633993143639813 0.001789209909540601 0 -0.0010046636397577928 0.00092060334564061572 0 -0.001874036352375332 0.00066761913169090768 0 -0.00087633993143639813 0.001789209909540601 0 -0.0013414384246730033 0.0022669033856386545 0 -0.001874036352375332 0.00066761913169090768 0 -0.0018669880305691212 0.0028519578877967892 0 -0.0017635730980060692 0.0018111352445406813 0 -0.003075752711871267 0.0012875430650107034 0 -0.0018369709130908402 0.0024542316839884478 0 -0.001874036352375332 0.00066761913169090768 0 -0.001874036352375332 0.00066761913169090768 0 -0.00098377144540783652 0.00028355462847793136 0 -0.0022260501035424366 -0.00019066815210155231 0 -0.001874036352375332 0.00066761913169090768 0 -0.0022260501035424366 -0.00019066815210155231 0 -0.0027424413008428654 0.00043391554050816654 0 -0.0010046636397577928 0.00092060334564061572 0 -0.001874036352375332 0.00066761913169090768 0 -0.00098377144540783652 0.00028355462847793136 0 -0.00098377144540783652 0.00028355462847793136 0 -0.0022260501035424366 -0.00019066815210155231 0 -0.0011441353769597016 -0.00067158488898318039 0 -0.0064507501706988195 0.00057915020162488905 0 -0.0058596851346825645 0.00022865668966385588 0 -0.011076350670448451 0.001468764830563522 0 -0.011449335163220196 0.0015618700702035098 0 -0.010534968517268175 0.0014579419700485323 0 -0.010093120631129795 0.0014660492067641584 0 -0.010506939038795972 0.001635039147336492 0 -0.010534968517268175 0.0014579419700485323 0 -0.009714987864968657 0.00077136170190588143 0 -0.010093120631129795 0.0014660492067641584 0 -0.0064507501706988195 0.00057915020162488905 0 -0.0070143686272450953 0.00085643099150538803 0 -0.0022260501035424366 -0.00019066815210155231 0 -0.0027424413008428654 0.00043391554050816654 0 -0.0038718739332938346 0.00012087489688345427 0 -0.009714987864968657 0.00077136170190588143 0 -0.0090807439095425165 0.0011817204121113637 0 -0.010093120631129795 0.0014660492067641584 0 -0.009714987864968657 0.00077136170190588143 0 -0.0090807439095425165 0.0011817204121113637 0 -0.0083687611116911326 0.00089211975142989587 0 -0.0090807439095425165 0.0011817204121113637 0 -0.010093120631129795 0.0014660492067641584 0 -0.0089496366496205296 0.0017941927331313423 0 -0.010093120631129795 0.0014660492067641584 0 -0.0089496366496205296 0.0017941927331313423 0 -0.011078471663517513 0.0023577608412266066 0 -0.010021283394189309 0.0015239779150356396 0 -0.0092264592760516028 0.0015680931483726909 0 -0.0089442337628024282 0.0012523362457998305 0 -0.010021283394189309 0.0015239779150356396 0 -0.0092264592760516028 0.0015680931483726909 0 -0.0094327270241455225 0.0021272610860188427 0 -0.0085600326905706237 0.0016152010290066124 0 -0.0085529081855027118 0.0019238359729854889 0 -0.0089659667554683031 0.002021680616823447 0 -0.0085496334795924517 0.0014048810517987831 0 -0.0092264592760516028 0.0015680931483726909 0 -0.0094327270241455225 0.0021272610860188427 0 -0.0085496334795924517 0.0014048810517987831 0 -0.0085600326905706237 0.0016152010290066124 0 -0.0089659667554683031 0.002021680616823447 0 -0.0092388520185318311 0.0015915409672255612 0 -0.0095703895063290988 0.0018571909714679726 0 -0.0085600326905706237 0.0016152010290066124 0 -0.0082361788576264892 0.0018171929681824073 0 -0.0085529081855027118 0.0019238359729854889 0 -0.0085496334795924517 0.0014048810517987831 0 -0.0092264592760516028 0.0015680931483726909 0 -0.0089442337628024282 0.0012523362457998305 0 -0.0085496334795924517 0.0014048810517987831 0 -0.0085600326905706237 0.0016152010290066124 0 -0.0083966467815192059 0.00097254901948382174 0 -0.0085496334795924517 0.0014048810517987831 0 -0.0089442337628024282 0.0012523362457998305 0 -0.0083966467815192059 0.00097254901948382174 0 -0.0089442337628024282 0.0012523362457998305 0 -0.0088595204558921687 0.00087973139459270489 0 -0.0083966467815192059 0.00097254901948382174 0 -0.010021283394189309 0.0015239779150356396 0 -0.0089442337628024282 0.0012523362457998305 0 -0.0088595204558921687 0.00087973139459270489 0 -0.0090807439095425165 0.0011817204121113637 0 -0.0089496366496205296 0.0017941927331313423 0 -0.0083690684653788278 0.0011067982057689737 0 -0.0089496366496205296 0.0017941927331313423 0 -0.00764512637711506 0.00097439742344246078 0 -0.0083690684653788278 0.0011067982057689737 0 -0.00764512637711506 0.00097439742344246078 0 -0.0083690684653788278 0.0011067982057689737 0 -0.0078362174702820298 0.00089473446969386649 0 -0.0093803614805888277 0.001590571444616947 0 -0.0087316432442595404 0.0011363487162633101 0 -0.0090807439095425165 0.0011817204121113637 0 -0.0083690684653788278 0.0011067982057689737 0 -0.0083687611116911326 0.00089211975142989587 0 0.0019592478269422203 0.0035364958163805658 0 0.002080527228536288 0.0038703924720421678 0 -0.0078127881630480032 0.0018627423286610451 0 -0.0080413331508694622 0.0014447962618414809 0 -0.0076246976436831031 0.0011842482942647152 0 -0.0078127881630480032 0.0018627423286610451 0 -0.0076246976436831031 0.0011842482942647152 0 -0.0072037140660068709 0.0019809326463598319 0 -0.0078127881630480032 0.0018627423286610451 0 -0.0080413331508694622 0.0014447962618414809 0 -0.0082361788576264892 0.0018171929681824073 0 -0.0085600326905706237 0.0016152010290066124 0 -0.0082361788576264892 0.0018171929681824073 0 -0.0082725500430659068 0.0014664157081232441 0 -0.0080413331508694622 0.0014447962618414809 0 -0.0082361788576264892 0.0018171929681824073 0 -0.0082725500430659068 0.0014664157081232441 0 -0.0027873372896690899 0.0030686312894812949 0 -0.0017382852685454283 0.0031160079721969649 0 -0.0080413331508694622 0.0014447962618414809 0 -0.0082402128536994169 0.0010047462145829859 0 -0.0076246976436831031 0.0011842482942647152 0 -0.0085600326905706237 0.0016152010290066124 0 -0.0082725500430659068 0.0014664157081232441 0 -0.0082402128536994169 0.0010047462145829859 0 -0.0080413331508694622 0.0014447962618414809 0 -0.0082725500430659068 0.0014664157081232441 0 -0.0082402128536994169 0.0010047462145829859 0 0.012469554995880898 0.0053565790189511759 0 0.012441400900960674 0.0052875552737727182 0 0.012264078295434981 0.005245188095309385 0 0.0019592478269422203 0.0035364958163805658 0 0.001639072426023042 0.0036000457116330169 0 0.012469554995880898 0.0053565790189511759 0 0.012441400900960674 0.0052875552737727182 0 0.012556523526534588 0.0053236251717377007 0 0.012441400900960674 0.0052875552737727182 0 0.012384063484571911 0.0052050171988276411 0 0.01250103046263679 0.0052497413045270785 0 0.012441400900960674 0.0052875552737727182 0 0.012264078295434981 0.005245188095309385 0 0.012384063484571911 0.0052050171988276411 0 -0.0017382852685454283 0.0031160079721969649 0 0.001639072426023042 0.0036000457116330169 0 -0.0083966467815192059 0.00097254901948382174 0 -0.0081348814677498146 0.0008826666997073751 0 -0.0080875474416746158 0.00090310239927881869 0 -0.0082402128536994169 0.0010047462145829859 0 -0.0076246976436831031 0.0011842482942647152 0 -0.0079939570244167615 0.00042959223277296449 0 0.011193350450934588 0.0069426985809822907 0 0.010512884151618367 0.0055794763371661152 0 0.011659980821427898 0.0057601580341802416 0 0.001639072426023042 0.0036000457116330169 0 0.0015432696651134174 0.005830547908911422 0 -0.0080875474416746158 0.00090310239927881869 0 -0.0078745827747774104 0.0010257440657676414 0 -0.007874322162845929 0.0016287691490567691 0 -0.0081348814677498146 0.0008826666997073751 0 -0.0080875474416746158 0.00090310239927881869 0 -0.007874322162845929 0.0016287691490567691 0 0.001639072426023042 0.0036000457116330169 0 0.0055771819349672985 0.0035340999396329697 0 0.012264078295434981 0.005245188095309385 0 0.012384063484571911 0.0052050171988276411 0 0.012218818097581493 0.0050318748720497124 0 0.012384063484571911 0.0052050171988276411 0 0.012218818097581493 0.0050318748720497124 0 0.012523131974495196 0.0051556823754208133 0 0.012384063484571911 0.0052050171988276411 0 0.01250103046263679 0.0052497413045270785 0 0.012523131974495196 0.0051556823754208133 0 -0.009714987864968657 0.00077136170190588143 0 -0.0083687611116911326 0.00089211975142989587 0 -0.007204221611919452 0.00088492266041620979 0 -0.0038718739332938346 0.00012087489688345427 0 -0.0056577496563428283 0.0011224633222719847 0 -0.007204221611919452 0.00088492266041620979 0 -0.0077834933748638056 0.00087272201384739094 0 -0.0083687611116911326 0.00089211975142989587 0 -0.007204221611919452 0.00088492266041620979 0 -0.0077834933748638056 0.00087272201384739094 0 -0.007518010385609516 0.00087140953817506481 0 -0.0076030484368514806 0.00087817851715775094 0 -0.007518010385609516 0.00087140953817506481 0 -0.007454899788782627 0.00091229972728872652 0 -0.0076030484368514806 0.00087817851715775094 0 -0.007518010385609516 0.00087140953817506481 0 -0.007454899788782627 0.00091229972728872652 0 -0.007204221611919452 0.00088492266041620979 0 -0.0077834933748638056 0.00087272201384739094 0 -0.007518010385609516 0.00087140953817506481 0 -0.007204221611919452 0.00088492266041620979 0 -0.0077834933748638056 0.00087272201384739094 0 -0.0078362174702820298 0.00089473446969386649 0 -0.0076030484368514806 0.00087817851715775094 0 -0.0077834933748638056 0.00087272201384739094 0 -0.0083687611116911326 0.00089211975142989587 0 -0.0078362174702820298 0.00089473446969386649 0 -0.0083690684653788278 0.0011067982057689737 0 -0.0083687611116911326 0.00089211975142989587 0 -0.0078362174702820298 0.00089473446969386649 0 -0.00764512637711506 0.00097439742344246078 0 -0.0077027080538067602 0.00089814052496153926 0 -0.0077930857724821875 0.00092428301653632995 0 -0.0088595204558921687 0.00087973139459270489 0 -0.0083966467815192059 0.00097254901948382174 0 -0.0080875474416746158 0.00090310239927881869 0 -0.00764512637711506 0.00097439742344246078 0 -0.0080875474416746158 0.00090310239927881869 0 -0.0077930857724821875 0.00092428301653632995 0 -0.0087316432442595404 0.0011363487162633101 0 -0.0085349288774033121 0.0010212998547538747 0 -0.0078362174702820298 0.00089473446969386649 0 -0.0077027080538067602 0.00089814052496153926 0 -0.0076030484368514806 0.00087817851715775094 0 -0.00764512637711506 0.00097439742344246078 0 -0.0078362174702820298 0.00089473446969386649 0 -0.0077027080538067602 0.00089814052496153926 0 -0.0080875474416746158 0.00090310239927881869 0 -0.0077930857724821875 0.00092428301653632995 0 -0.0078745827747774104 0.0010257440657676414 0 -0.0077930857724821875 0.00092428301653632995 0 -0.0076030484368514806 0.00087817851715775094 0 -0.0076761424014386084 0.0010658379681192981 0 -0.0077027080538067602 0.00089814052496153926 0 -0.0077930857724821875 0.00092428301653632995 0 -0.0076030484368514806 0.00087817851715775094 0 -0.0076030484368514806 0.00087817851715775094 0 -0.0075337698882272609 0.00097717110379360542 0 -0.0076761424014386084 0.0010658379681192981 0 -0.007454899788782627 0.00091229972728872652 0 -0.0076030484368514806 0.00087817851715775094 0 -0.0075337698882272609 0.00097717110379360542 0 -0.00099271597014466396 0.0054929196954327077 0 0.0015432696651134174 0.005830547908911422 0 -0.0075337698882272609 0.00097717110379360542 0 -0.0076761424014386084 0.0010658379681192981 0 -0.0073651259973738937 0.00110682277361754 0 -0.0076761424014386084 0.0010658379681192981 0 -0.0078745827747774104 0.0010257440657676414 0 -0.007874322162845929 0.0016287691490567691 0 -0.0073651259973738937 0.00110682277361754 0 -0.0072750757536579353 0.0028172648790344181 0 -0.0085705629529546218 0.003529272944314116 0 -0.0076761424014386084 0.0010658379681192981 0 -0.0073651259973738937 0.00110682277361754 0 -0.007874322162845929 0.0016287691490567691 0 -0.0077930857724821875 0.00092428301653632995 0 -0.0076761424014386084 0.0010658379681192981 0 -0.0078745827747774104 0.0010257440657676414 0 -0.0066875601269365745 0.0023646099020966788 0 -0.0073651259973738937 0.00110682277361754 0 -0.0072750757536579353 0.0028172648790344181 0 -0.0066875601269365745 0.0023646099020966788 0 -0.0068443671059010159 0.001531554347922717 0 -0.0063837438156258931 0.0019259197652910325 0 -0.0066875601269365745 0.0023646099020966788 0 -0.0068443671059010159 0.001531554347922717 0 -0.0073651259973738937 0.00110682277361754 0 -0.0068443671059010159 0.001531554347922717 0 -0.0063490221037494051 0.0014967139554320228 0 -0.0063837438156258931 0.0019259197652910325 0 -0.0068443671059010159 0.001531554347922717 0 -0.007204221611919452 0.00088492266041620979 0 -0.0063490221037494051 0.0014967139554320228 0 -0.007454899788782627 0.00091229972728872652 0 -0.007204221611919452 0.00088492266041620979 0 -0.0073651259973738937 0.00110682277361754 0 -0.0068443671059010159 0.001531554347922717 0 -0.007204221611919452 0.00088492266041620979 0 -0.0073651259973738937 0.00110682277361754 0 -0.007454899788782627 0.00091229972728872652 0 -0.0075337698882272609 0.00097717110379360542 0 -0.0073651259973738937 0.00110682277361754 0 -0.0056577496563428283 0.0011224633222719847 0 -0.0063490221037494051 0.0014967139554320228 0 -0.0056569112894249429 0.0019541348249043295 0 -0.0056577496563428283 0.0011224633222719847 0 -0.007204221611919452 0.00088492266041620979 0 -0.0063490221037494051 0.0014967139554320228 0 -0.0063490221037494051 0.0014967139554320228 0 -0.0056569112894249429 0.0019541348249043295 0 -0.0063837438156258931 0.0019259197652910325 0 -0.0056569112894249429 0.0019541348249043295 0 -0.0060122958930799242 0.0025436156405975589 0 -0.0051624524430740242 0.0029508840384281912 0 -0.0056569112894249429 0.0019541348249043295 0 -0.0063837438156258931 0.0019259197652910325 0 -0.0060122958930799242 0.0025436156405975589 0 -0.0066875601269365745 0.0023646099020966788 0 -0.0063837438156258931 0.0019259197652910325 0 -0.0060122958930799242 0.0025436156405975589 0 -0.0060122958930799242 0.0025436156405975589 0 -0.006069217968782843 0.003422852810565119 0 -0.0051624524430740242 0.0029508840384281912 0 -0.0066875601269365745 0.0023646099020966788 0 -0.0060122958930799242 0.0025436156405975589 0 -0.006069217968782843 0.003422852810565119 0 -0.006069217968782843 0.003422852810565119 0 -0.0057430399853975822 0.0049160362776062769 0 -0.0047190342113208128 0.0040891682693068952 0 -0.006069217968782843 0.003422852810565119 0 -0.0068884629405786286 0.0040581931996230098 0 -0.0057430399853975822 0.0049160362776062769 0 -0.006069217968782843 0.003422852810565119 0 -0.0068884629405786286 0.0040581931996230098 0 -0.0072750757536579353 0.0028172648790344181 0 -0.0066875601269365745 0.0023646099020966788 0 -0.006069217968782843 0.003422852810565119 0 -0.0072750757536579353 0.0028172648790344181 0 -0.0068884629405786286 0.0040581931996230098 0 -0.0072750757536579353 0.0028172648790344181 0 -0.0085705629529546218 0.003529272944314116 0 -0.0068884629405786286 0.0040581931996230098 0 -0.0085705629529546218 0.003529272944314116 0 -0.0071867218331686696 0.0058707609956460032 0 0.0015432696651134174 0.005830547908911422 0 0.00095582965641153922 0.0080433214899202632 0 0.006960442681754107 0.014809209613484172 0 0.0059964359001441333 0.012978669686444197 0 0.0071472609620196123 0.012893179422310937 0 -0.0068884629405786286 0.0040581931996230098 0 -0.0071867218331686696 0.0058707609956460032 0 -0.0057430399853975822 0.0049160362776062769 0 -0.0071867218331686696 0.0058707609956460032 0 -0.0057430399853975822 0.0049160362776062769 0 -0.0053920691749227579 0.006441531063901924 0 0.012218818097581493 0.0050318748720497124 0 0.012594495850795853 0.0050165013874527457 0 0.012566187861459124 0.0047559835644339467 0 0.0055771819349672985 0.0035340999396329697 0 0.0067644310756093179 0.0034216433524732583 0 0.012218818097581493 0.0050318748720497124 0 0.012523131974495196 0.0051556823754208133 0 0.012594495850795853 0.0050165013874527457 0 0.010512884151618367 0.0055794763371661152 0 0.011659980821427898 0.0057601580341802416 0 0.011431205613475546 0.0044719546144974167 0 0.006960442681754107 0.014809209613484172 0 0.0081665638171569011 0.013306835731685836 0 0.0071472609620196123 0.012893179422310937 0 0.0015432696651134174 0.005830547908911422 0 0.0065266608796720801 0.0066646048589958963 0 0.011659980821427898 0.0057601580341802416 0 0.011431205613475546 0.0044719546144974167 0 0.01214879992000315 0.004563442402793454 0 0.012218818097581493 0.0050318748720497124 0 0.01214879992000315 0.004563442402793454 0 0.012566187861459124 0.0047559835644339467 0 0.011431205613475546 0.0044719546144974167 0 0.01214879992000315 0.004563442402793454 0 0.012081022181359572 0.0041361575671806624 0 0.01214879992000315 0.004563442402793454 0 0.012360284602892792 0.0041666214250108777 0 0.012081022181359572 0.0041361575671806624 0 0.01214879992000315 0.004563442402793454 0 0.012360284602892792 0.0041666214250108777 0 0.012451329724683628 0.0044643567461330833 0 0.01214879992000315 0.004563442402793454 0 0.012451329724683628 0.0044643567461330833 0 0.012566187861459124 0.0047559835644339467 0 0.0081665638171569011 0.013306835731685836 0 0.0094632780183770363 0.011805060374740217 0 0.0093269408482130889 0.011871094808342746 0 0.011431205613475546 0.0044719546144974167 0 0.012160230576606708 0.0035658170110659266 0 0.012081022181359572 0.0041361575671806624 0 0.0081665638171569011 0.013306835731685836 0 0.0093269408482130889 0.011871094808342746 0 0.007981745488629538 0.011953412014449261 0 0.0065266608796720801 0.0066646048589958963 0 0.0096782227481316263 0.0067370681061948105 0 0.0094771426243699611 0.011811960342574155 0 0.0093269408482130889 0.011871094808342746 0 0.0093816155891393027 0.011485016303624584 0 0.0096782227481316263 0.0067370681061948105 0 0.0096691686212218922 0.0067481527046946623 0 0.012160230576606708 0.0035658170110659266 0 0.012257785745297558 0.0039163152727114316 0 0.012516848305746318 0.0037470068071881165 0 0.012257785745297558 0.0039163152727114316 0 0.012360284602892792 0.0041666214250108777 0 0.012516848305746318 0.0037470068071881165 0 0.012160230576606708 0.0035658170110659266 0 0.012257785745297558 0.0039163152727114316 0 0.012081022181359572 0.0041361575671806624 0 0.012257785745297558 0.0039163152727114316 0 0.012360284602892792 0.0041666214250108777 0 0.012081022181359572 0.0041361575671806624 0 0.0093269408482130889 0.011871094808342746 0 0.007981745488629538 0.011953412014449261 0 0.0089494209382857161 0.011253306333293222 0 0.0081665638171569011 0.013306835731685836 0 0.007981745488629538 0.011953412014449261 0 0.0071472609620196123 0.012893179422310937 0 0.007981745488629538 0.011953412014449261 0 0.0071472609620196123 0.012893179422310937 0 0.0067037878168200518 0.011632587285720643 0 0.0078642600688794834 0.010939503862749382 0 0.0087022587968698731 0.010374068115116318 0 0.00695070183288885 0.010142876607896088 0 0.0078642600688794834 0.010939503862749382 0 0.0067037878168200518 0.011632587285720643 0 0.00695070183288885 0.010142876607896088 0 0.007981745488629538 0.011953412014449261 0 0.0078642600688794834 0.010939503862749382 0 0.0067037878168200518 0.011632587285720643 0 0.007981745488629538 0.011953412014449261 0 0.0078642600688794834 0.010939503862749382 0 0.0089494209382857161 0.011253306333293222 0 0.0089494209382857161 0.011253306333293222 0 0.0087022587968698731 0.010374068115116318 0 0.0096066773031477197 0.010938626359304574 0 0.0078642600688794834 0.010939503862749382 0 0.0089494209382857161 0.011253306333293222 0 0.0087022587968698731 0.010374068115116318 0 0.0087022587968698731 0.010374068115116318 0 0.0096066773031477197 0.010938626359304574 0 0.0099096787898175515 0.010164821245760186 0 0.0096066773031477197 0.010938626359304574 0 0.0093816155891393027 0.011485016303624584 0 0.0097780657379140639 0.011524294433403099 0 0.0089494209382857161 0.011253306333293222 0 0.0096066773031477197 0.010938626359304574 0 0.0093816155891393027 0.011485016303624584 0 0.0093269408482130889 0.011871094808342746 0 0.0089494209382857161 0.011253306333293222 0 0.0093816155891393027 0.011485016303624584 0 0.0094771426243699611 0.011811960342574155 0 0.0093816155891393027 0.011485016303624584 0 0.0097780657379140639 0.011524294433403099 0 0.0096782227481316263 0.0067370681061948105 0 0.009618736498736848 0.0068585989081398893 0 0.00095582965641153922 0.0080433214899202632 0 0.00067137859658578656 0.0083103929402927792 0 -0.0071867218331686696 0.0058707609956460032 0 -0.0053920691749227579 0.006441531063901924 0 -0.0057795216350384317 0.0084260054327911262 0 0.0059964359001441333 0.012978669686444197 0 0.0071472609620196123 0.012893179422310937 0 0.0067037878168200518 0.011632587285720643 0 0.0059964359001441333 0.012978669686444197 0 0.0067037878168200518 0.011632587285720643 0 0.0049869717902828181 0.011080448677404604 0 0.00067137859658578656 0.0083103929402927792 0 0.0047766724654656435 0.0085203594846267917 0 0.0067037878168200518 0.011632587285720643 0 0.0049869717902828181 0.011080448677404604 0 0.00695070183288885 0.010142876607896088 0 0.0024949244624379351 0.012405418335027832 0 0.0058856979781318165 0.01073765045961626 0 0.0032853336928921977 0.0099162486197348406 0 0.00067137859658578656 0.0083103929402927792 0 0.00047352040441662021 0.0081756981294143858 0 -0.001219803404455663 0.0066850773853917578 0 -0.0011227432910636322 0.0067023511953404466 0 -0.0010292446806563428 0.0068539525348040092 0 -0.0011227432910636322 0.0067023511953404466 0 -0.0014833447206802188 0.0066405561793026402 0 -0.0013176249869421882 0.0066376495038774483 0 0.00067137859658578656 0.0083103929402927792 0 -0.00072953523562891548 0.0082940313389910977 0 -0.001219803404455663 0.0066850773853917578 0 -0.0011227432910636322 0.0067023511953404466 0 -0.0013176249869421882 0.0066376495038774483 0 -0.0014833447206802188 0.0066405561793026402 0 -0.0011067808116060869 0.0065886437071105038 0 -0.00087482016608015831 0.0068328038200318238 0 -0.0011227432910636322 0.0067023511953404466 0 -0.0014833447206802188 0.0066405561793026402 0 -0.00087482016608015831 0.0068328038200318238 0 -0.0020096454292987988 0.0056198721869814127 0 -0.0019970209951668733 0.0047094243654425541 0 -0.0014833447206802188 0.0066405561793026402 0 -0.0019918577877113559 0.0063389533603531584 0 -0.0013176249869421882 0.0066376495038774483 0 -0.0014833447206802188 0.0066405561793026402 0 -0.0019918577877113559 0.0063389533603531584 0 -0.0019283033622731803 0.0054541672767857785 0 -0.00095945018650404673 0.0081752175977749687 0 -0.00072953523562891548 0.0082940313389910977 0 -0.0019918577877113559 0.0063389533603531584 0 -0.0040639884489375444 0.0075901654674595835 0 -0.0041328842556585463 0.0054888611432858921 0 -0.0053920691749227579 0.006441531063901924 0 -0.0040639884489375444 0.0075901654674595835 0 -0.0041328842556585463 0.0054888611432858921 0 -0.0053920691749227579 0.006441531063901924 0 -0.0057795216350384317 0.0084260054327911262 0 -0.0040639884489375444 0.0075901654674595835 0 -0.0057430399853975822 0.0049160362776062769 0 -0.0053920691749227579 0.006441531063901924 0 -0.0041328842556585463 0.0054888611432858921 0 -0.0057430399853975822 0.0049160362776062769 0 -0.0041328842556585463 0.0054888611432858921 0 -0.0047190342113208128 0.0040891682693068952 0 -0.0041328842556585463 0.0054888611432858921 0 -0.003250357624955025 0.0041938942084953227 0 -0.0047190342113208128 0.0040891682693068952 0 -0.0019918577877113559 0.0063389533603531584 0 -0.0041328842556585463 0.0054888611432858921 0 -0.0027796557227210738 0.0053997529842343701 0 -0.0019918577877113559 0.0063389533603531584 0 -0.0027796557227210738 0.0053997529842343701 0 -0.0019283033622731803 0.0054541672767857785 0 -0.0027796557227210738 0.0053997529842343701 0 -0.003250357624955025 0.0041938942084953227 0 -0.0019283033622731803 0.0054541672767857785 0 -0.0041328842556585463 0.0054888611432858921 0 -0.0027796557227210738 0.0053997529842343701 0 -0.003250357624955025 0.0041938942084953227 0 -0.0034497501232196915 0.0027046188227407672 0 -0.0018369709130908402 0.0024542316839884478 0 -0.003250357624955025 0.0041938942084953227 0 -0.0018369709130908402 0.0024542316839884478 0 -0.003250357624955025 0.0041938942084953227 0 -0.0019283033622731803 0.0054541672767857785 0 -0.0034497501232196915 0.0027046188227407672 0 -0.003250357624955025 0.0041938942084953227 0 -0.0042042553937614692 0.0032539282887609445 0 -0.006069217968782843 0.003422852810565119 0 -0.0051624524430740242 0.0029508840384281912 0 -0.0047190342113208128 0.0040891682693068952 0 -0.0042042553937614692 0.0032539282887609445 0 -0.0051624524430740242 0.0029508840384281912 0 -0.0047190342113208128 0.0040891682693068952 0 -0.0044607216665777582 0.0023567308140368054 0 -0.0042042553937614692 0.0032539282887609445 0 -0.0051624524430740242 0.0029508840384281912 0 -0.003250357624955025 0.0041938942084953227 0 -0.0042042553937614692 0.0032539282887609445 0 -0.0047190342113208128 0.0040891682693068952 0 -0.0013414384246730033 0.0022669033856386545 0 -0.0013325417269014119 0.0033102651644394852 0 -0.00058221123569290173 0.0027655378004010464 0 -0.0013325417269014119 0.0033102651644394852 0 -0.00058221123569290173 0.0027655378004010464 0 -0.00062751639009962854 0.0037273227417777936 0 -0.0021832306276811748 0.0024798838193919831 0 -0.0013325417269014119 0.0033102651644394852 0 -0.0021953506026761126 0.0048573138468410246 0 -0.0018669880305691212 0.0028519578877967892 0 -0.0019970209951668733 0.0047094243654425541 0 -0.0013325417269014119 0.0033102651644394852 0 -0.0021953506026761126 0.0048573138468410246 0 -0.0012182651858900441 0.00496498441042721 0 -0.00064995240213389246 0.0035066187371263009 0 -9.2502397963624351e-05 0.003899083923341594 0 -0.0013325417269014119 0.0033102651644394852 0 -0.0012182651858900441 0.00496498441042721 0 -0.0003386712989738386 0.0053721096514770614 0 -0.0010434675745057756 0.0060447581723768349 0 -0.00065100143433347978 0.0060998948975592672 0 -0.0003386712989738386 0.0053721096514770614 0 -0.0012182651858900441 0.00496498441042721 0 -0.0010434675745057756 0.0060447581723768349 0 -0.0003386712989738386 0.0053721096514770614 0 -0.0014833447206802188 0.0066405561793026402 0 -0.0021953506026761126 0.0048573138468410246 0 -0.0010434675745057756 0.0060447581723768349 0 -0.0021953506026761126 0.0048573138468410246 0 -0.0012182651858900441 0.00496498441042721 0 -0.0010434675745057756 0.0060447581723768349 0 -0.0010434675745057756 0.0060447581723768349 0 -0.0011067808116060869 0.0065886437071105038 0 -0.00090625128548541272 0.0064896704892773169 0 -0.0014833447206802188 0.0066405561793026402 0 -0.0010434675745057756 0.0060447581723768349 0 -0.0011067808116060869 0.0065886437071105038 0 -0.0010434675745057756 0.0060447581723768349 0 -0.00065100143433347978 0.0060998948975592672 0 -0.00090625128548541272 0.0064896704892773169 0 -0.00065100143433347978 0.0060998948975592672 0 -0.00070811797097900474 0.0063274035858926249 0 -0.00090625128548541272 0.0064896704892773169 0 0.00010597106846279271 0.0045260151911845981 0 0.00072307550491741126 0.0036363142720482341 0 -0.00062751639009962854 0.0037273227417777936 0 -0.00065100143433347978 0.0060998948975592672 0 -0.0005469113518454746 0.0062047169473246656 0 -0.00070811797097900474 0.0063274035858926249 0 0.0010562356254858979 0.0041393965480673867 0 -9.2502397963624351e-05 0.003899083923341594 0 -0.00065100143433347978 0.0060998948975592672 0 -0.0005469113518454746 0.0062047169473246656 0 -0.0003386712989738386 0.0053721096514770614 0 0.0010562356254858979 0.0041393965480673867 0 0.0033825670882802793 0.0038099009049892356 0 0.00010597106846279271 0.0045260151911845981 0 0.0012817250347580552 0.004642922686173113 0 0.00086565643712443823 0.0053744435298600365 0 0.0078247483002324217 0.0028780037234476708 0 0.0066583906973631856 0.0024551031328312418 0 0.0069301640372335851 0.0042638977014064754 0 0.0078247483002324217 0.0028780037234476708 0 0.0066583906973631856 0.0024551031328312418 0 0.0079389266613319187 0.0019964896834067788 0 0.003494523815280968 0.0033663215799773251 0 0.0030001947348100386 0.0031024444203691659 0 0.0012817250347580552 0.004642922686173113 0 0.00072307550491741126 0.0036363142720482341 0 0.0017224201308103546 0.0038945334017167514 0 0.00010597106846279271 0.0045260151911845981 0 0.0012817250347580552 0.004642922686173113 0 0.00072307550491741126 0.0036363142720482341 0 0.00072307550491741126 0.0036363142720482341 0 0.0014152902278610389 0.0032780112111796423 0 0.0017224201308103546 0.0038945334017167514 0 0.00072307550491741126 0.0036363142720482341 0 0.0014152902278610389 0.0032780112111796423 0 0.0010245693637253969 0.0024547178675311185 0 0.0014152902278610389 0.0032780112111796423 0 0.0010245693637253969 0.0024547178675311185 0 0.0021964388562022105 0.0031018334442874571 0 0.0016986864315058625 0.0022461890384890821 0 0.0021145821954002691 0.0022406513956790856 0 0.00072307550491741126 0.0036363142720482341 0 0.0010245693637253969 0.0024547178675311185 0 0.00012206392138474742 0.0029333210541238118 0 0.0010245693637253969 0.0024547178675311185 0 0.00012206392138474742 0.0029333210541238118 0 0.00014504935114638122 0.0020112292332937058 0 0.00012206392138474742 0.0029333210541238118 0 -0.00058221123569290173 0.0027655378004010464 0 0.00014504935114638122 0.0020112292332937058 0 0.00072307550491741126 0.0036363142720482341 0 0.00012206392138474742 0.0029333210541238118 0 -0.00062751639009962854 0.0037273227417777936 0 0.00012206392138474742 0.0029333210541238118 0 -0.00058221123569290173 0.0027655378004010464 0 -0.00062751639009962854 0.0037273227417777936 0 -0.0011093619865705244 0.0017068559249674346 0 -0.0013187449924115817 0.0017316755001121216 0 -0.0012612308808456192 0.0015768549242120779 0 2.078310006809701e-06 0.0023543358228351611 0 0.00081812606835285307 0.0025635293157851053 0 0.0010256154167849097 0.0029098168058881704 0 0.0028043066214472937 0.0038898276508366439 0 0.0019166511044797227 0.0027260612960055613 0 0.0028043066214472937 0.0038898276508366439 0 0.0026763219597387392 0.0023980880735533032 0 0.0035008075713750314 0.0026524260960810743 0 0.0028043066214472937 0.0038898276508366439 0 0.0019166511044797227 0.0027260612960055613 0 0.0026763219597387392 0.0023980880735533032 0 0.0019166511044797227 0.0027260612960055613 0 0.0019502522249628829 0.0019895774734395859 0 0.0026763219597387392 0.0023980880735533032 0 0.0019502522249628829 0.0019895774734395859 0 0.0026763219597387392 0.0023980880735533032 0 0.0024154486438494245 0.0015466085472618158 0 0.0026763219597387392 0.0023980880735533032 0 0.0024154486438494245 0.0015466085472618158 0 0.0031816373748640493 0.0017102715839943689 0 0.0026763219597387392 0.0023980880735533032 0 0.0035008075713750314 0.0026524260960810743 0 0.0031816373748640493 0.0017102715839943689 0 0.0035008075713750314 0.0026524260960810743 0 0.0043157820939563928 0.0020312885895566622 0 0.0043687487181951982 0.0034888103802477367 0 0.0035008075713750314 0.0026524260960810743 0 0.0043157820939563928 0.0020312885895566622 0 0.0031816373748640493 0.0017102715839943689 0 0.0028043066214472937 0.0038898276508366439 0 0.0035008075713750314 0.0026524260960810743 0 0.0043687487181951982 0.0034888103802477367 0 0.0028043066214472937 0.0038898276508366439 0 0.0043687487181951982 0.0034888103802477367 0 0.0044528375350587901 0.0048332537885885738 0 0.00081812606835285307 0.0025635293157851053 0 0.0015833523208832287 0.00261483496944325 0 0.0043687487181951982 0.0034888103802477367 0 0.0055642060135680212 0.0042366010340584856 0 0.0044528375350587901 0.0048332537885885738 0 0.0043687487181951982 0.0034888103802477367 0 0.0055642060135680212 0.0042366010340584856 0 0.0054912273290665869 0.00293919574715384 0 0.0043157820939563928 0.0020312885895566622 0 0.0043687487181951982 0.0034888103802477367 0 0.0054912273290665869 0.00293919574715384 0 0.0043157820939563928 0.0020312885895566622 0 0.0054912273290665869 0.00293919574715384 0 0.0051601552945593722 0.0012226569658230365 0 0.0054912273290665869 0.00293919574715384 0 0.0066583906973631856 0.0024551031328312418 0 0.0051601552945593722 0.0012226569658230365 0 0.0054912273290665869 0.00293919574715384 0 0.0066583906973631856 0.0024551031328312418 0 0.0069301640372335851 0.0042638977014064754 0 0.0055642060135680212 0.0042366010340584856 0 0.0054912273290665869 0.00293919574715384 0 0.0069301640372335851 0.0042638977014064754 0 0.0014152902278610389 0.0032780112111796423 0 0.0017224201308103546 0.0038945334017167514 0 0.0021964388562022105 0.0031018334442874571 0 0.0030001947348100386 0.0031024444203691659 0 0.0021145821954002691 0.0022406513956790856 0 0.0055642060135680212 0.0042366010340584856 0 0.0069301640372335851 0.0042638977014064754 0 0.0060667843791808408 0.005723020979497272 0 0.0018783922587414191 0.0028379965349549087 0 0.0022948941609464372 0.0020859525273197476 0 0.0017432558064763794 0.0022804983004924089 0 0.0010245693637253969 0.0024547178675311185 0 0.0018783922587414191 0.0028379965349549087 0 0.0017432558064763794 0.0022804983004924089 0 0.0021145821954002691 0.0022406513956790856 0 0.00061916948223672108 0.0016481148043094259 0 -0.0017559380094788984 0.0014537591986077398 0 -0.0015355196939430802 0.0013518711287173893 0 -0.0016247309518360147 0.0012137779549614201 0 -0.0017559380094788984 0.0014537591986077398 0 -0.0015491704589738876 0.0015841157308576666 0 -0.0015355196939430802 0.0013518711287173893 0 0.0021145821954002691 0.0022406513956790856 0 0.0015833523208832287 0.00261483496944325 0 0.0055642060135680212 0.0042366010340584856 0 0.0060667843791808408 0.005723020979497272 0 0.0044528375350587901 0.0048332537885885738 0 -0.0015491704589738876 0.0015841157308576666 0 -0.0013976059626858819 0.0014760090505044803 0 -0.0015355196939430802 0.0013518711287173893 0 -0.0013187449924115817 0.0017316755001121216 0 -0.0015491704589738876 0.0015841157308576666 0 -0.0013976059626858819 0.0014760090505044803 0 -0.0013976059626858819 0.0014760090505044803 0 -0.0015355196939430802 0.0013518711287173893 0 -0.0014114315327451211 0.0012719624419726572 0 -0.0014114315327451211 0.0012719624419726572 0 -0.0012042993996880737 0.0014055648780873548 0 -0.0012837774727425962 0.0011380390142819994 0 -0.0011535150672952832 0.0013403412659345692 0 -0.0016933428533265149 0.00069757021534749505 0 -0.0011354404526177459 0.0010975387499477301 0 -0.0011393167899389561 0.0013324635778612811 0 -0.0013463663398346564 0.00058742024585043751 0 -0.0013976059626858819 0.0014760090505044803 0 -0.0014114315327451211 0.0012719624419726572 0 -0.0012042993996880737 0.0014055648780873548 0 -0.0010174948847383434 0.0016384522233345228 0 -0.0011354404526177459 0.0010975387499477301 0 -0.0011393167899389561 0.0013324635778612811 0 -0.0013976059626858819 0.0014760090505044803 0 -0.0012042993996880737 0.0014055648780873548 0 -0.0012612308808456192 0.0015768549242120779 0 -0.0013187449924115817 0.0017316755001121216 0 -0.0013976059626858819 0.0014760090505044803 0 -0.0012612308808456192 0.0015768549242120779 0 -0.0011093619865705244 0.0017068559249674346 0 -0.0012042993996880737 0.0014055648780873548 0 -0.0012612308808456192 0.0015768549242120779 0 -0.0029666793068741323 -0.00090459737572901175 0 -0.0024249322184611666 -0.0012448206469020189 0 -0.00248820686032286 -0.0015637936823868672 0 -0.0014321165595775351 0.001039639759379162 0 -0.0014377996344758157 0.0010400423149201465 0 -0.0014711545257993818 0.0009961019958300509 0 -0.0014377996344758157 0.0010400423149201465 0 -0.0013745889394773695 0.0011459561642345648 0 -0.0014777540629295849 0.0011518834611210849 0 -0.0017781683107550305 0.0006898913716846365 0 -0.0018371813147964626 0.00054241863103758712 0 -0.0014377996344758157 0.0010400423149201465 0 -0.0014347484185420526 0.0010429257882615317 0 -0.001435782873643834 0.0010437196825490418 0 -0.0014321165595775351 0.001039639759379162 0 -0.0014377996344758157 0.0010400423149201465 0 -0.0014347484185420526 0.0010429257882615317 0 -0.002559317933450858 0.00014681816378376837 0 -0.002058355089776033 0.00035542293463718745 0 -0.0017029018134727652 0.00092375999104291149 0 -0.0017889968752327181 0.00050459378509903343 0 -0.0018206200727220623 0.00063147306528948423 0 -0.0013775428024878492 0.00096949587331044589 0 -0.002058355089776033 0.00035542293463718745 0 -0.0017889968752327181 0.00050459378509903343 0 -0.0018206200727220623 0.00063147306528948423 0 -0.0018362513841181259 0.0005727776982547328 0 -0.002058355089776033 0.00035542293463718745 0 -0.0018371813147964626 0.00054241863103758712 0 -0.0016933428533265149 0.00069757021534749505 0 -0.0018371813147964626 0.00054241863103758712 0 -0.0013775428024878492 0.00096949587331044589 0 -0.0016933428533265149 0.00069757021534749505 0 -0.0014114315327451211 0.0012719624419726572 0 -0.0012837774727425962 0.0011380390142819994 0 -0.0012942290744351373 0.0010997902265060498 0 -0.0018350228419800902 0.00066905744272307936 0 -0.0018371813147964626 0.00054241863103758712 0 -0.0014777540629295849 0.0011518834611210849 0 -0.0015063245679055675 0.0010257814090049871 0 -0.0016247309518360147 0.0012137779549614201 0 -0.0015355196939430802 0.0013518711287173893 0 -0.0014114315327451211 0.0012719624419726572 0 -0.0014777540629295849 0.0011518834611210849 0 -0.0015355196939430802 0.0013518711287173893 0 -0.0014777540629295849 0.0011518834611210849 0 -0.0016247309518360147 0.0012137779549614201 0 -0.0014114315327451211 0.0012719624419726572 0 -0.0013745889394773695 0.0011459561642345648 0 -0.0014777540629295849 0.0011518834611210849 0 -0.0014377996344758157 0.0010400423149201465 0 -0.0014777540629295849 0.0011518834611210849 0 -0.0015063245679055675 0.0010257814090049871 0 -0.0014377996344758157 0.0010400423149201465 0 -0.0015063245679055675 0.0010257814090049871 0 -0.0014711545257993818 0.0009961019958300509 0 -0.00052743211019039879 0.00072399801339588401 0 0.00061916948223672108 0.0016481148043094259 0 0.0027212357077478133 0.0012590026241175833 0 0.0021412506495084014 0.0014781216578465674 0 0.0018702877813610334 0.0009108935223685517 0 0.0027212357077478133 0.0012590026241175833 0 0.0021412506495084014 0.0014781216578465674 0 0.0022948941609464372 0.0020859525273197476 0 0.0021412506495084014 0.0014781216578465674 0 0.0022948941609464372 0.0020859525273197476 0 0.0016983898802677376 0.0016430814941973816 0 0.0022948941609464372 0.0020859525273197476 0 0.0017432558064763794 0.0022804983004924089 0 0.0016983898802677376 0.0016430814941973816 0 0.0016983898802677376 0.0016430814941973816 0 0.0018702877813610334 0.0009108935223685517 0 0.0010284170754777417 0.001251809740445875 0 0.0021412506495084014 0.0014781216578465674 0 0.0016983898802677376 0.0016430814941973816 0 0.0018702877813610334 0.0009108935223685517 0 0.00074629352183808 0.00091514539098427362 0 0.00016765140909965901 0.00067747514271111775 0 0.0019232557321850168 -3.9746170173994344e-05 0 0.00079277651258202839 0.00023384742156847818 0 0.0010841879519365731 -0.00070201064253645187 0 0.0018702877813610334 0.0009108935223685517 0 0.0019232557321850168 -3.9746170173994344e-05 0 0.00079277651258202839 0.00023384742156847818 0 0.0019232557321850168 -3.9746170173994344e-05 0 0.0024797956969593361 0.00054189139071740002 0 0.0026003498045284058 7.8396206867741137e-06 0 0.0019232557321850168 -3.9746170173994344e-05 0 0.0026003498045284058 7.8396206867741137e-06 0 0.0024144591236864269 -0.00047931541361664285 0 0.0027212357077478133 0.0012590026241175833 0 0.0018702877813610334 0.0009108935223685517 0 0.0024797956969593361 0.00054189139071740002 0 0.0018702877813610334 0.0009108935223685517 0 0.0019232557321850168 -3.9746170173994344e-05 0 0.0024797956969593361 0.00054189139071740002 0 -0.0015063245679055675 0.0010257814090049871 0 -0.0014791823692594055 0.00099367648914767417 0 -0.0014711545257993818 0.0009961019958300509 0 -0.00052743211019039879 0.00072399801339588401 0 -0.0025357107588964366 -4.2942300198154709e-05 0 0.0027212357077478133 0.0012590026241175833 0 0.0024797956969593361 0.00054189139071740002 0 0.0031991601557268467 0.00035189624088437704 0 0.0026003498045284058 7.8396206867741137e-06 0 0.0031991601557268467 0.00035189624088437704 0 0.0029331131979039421 -0.00033354313136257647 0 0.0024797956969593361 0.00054189139071740002 0 0.0026003498045284058 7.8396206867741137e-06 0 0.0031991601557268467 0.00035189624088437704 0 -0.0015632380392734428 0.0010626628320697918 0 -0.0015238847665535763 0.0010311126975296636 0 -0.0015060401365525253 0.00099988663684815165 0 -0.0025357107588964366 -4.2942300198154709e-05 0 -0.0077677199300650694 0.0010993883407019863 0 -0.0014791823692594055 0.00099367648914767417 0 -0.0015238847665535763 0.0010311126975296636 0 -0.0015475032711246091 0.0010702492943695211 0 0.0031991601557268467 0.00035189624088437704 0 0.0036751715480010721 -0.00057501313335813246 0 0.0029331131979039421 -0.00033354313136257647 0 -0.0014791823692594055 0.00099367648914767417 0 -0.0015238847665535763 0.0010311126975296636 0 -0.0015060401365525253 0.00099988663684815165 0 -0.0029666793068741323 -0.00090459737572901175 0 -0.0024249322184611666 -0.0012448206469020189 0 -0.0025996552935316146 -0.00046925062025511755 0 -0.0014699479049514374 0.00097434479941513915 0 -0.0015060401365525253 0.00099988663684815165 0 -0.0014711545257993818 0.0009961019958300509 0 -0.002559317933450858 0.00014681816378376837 0 -0.0044615157583158963 0.00026873085501071366 0 -0.0014791823692594055 0.00099367648914767417 0 -0.0015060401365525253 0.00099988663684815165 0 -0.0014711545257993818 0.0009961019958300509 0 -0.002559317933450858 0.00014681816378376837 0 -0.0024484350514393368 0.00038471258533456212 0 0.00014504935114638122 0.0020112292332937058 0 0.0010284170754777417 0.001251809740445875 0 -0.00016518735871165859 0.00089393885300784214 0 -0.00087633993143639813 0.001789209909540601 0 -0.0010046636397577928 0.00092060334564061572 0 -0.00016518735871165859 0.00089393885300784214 0 -0.00087633993143639813 0.001789209909540601 0 0.00014504935114638122 0.0020112292332937058 0 -0.00016518735871165859 0.00089393885300784214 0 -0.00087633993143639813 0.001789209909540601 0 -0.00058221123569290173 0.0027655378004010464 0 0.00014504935114638122 0.0020112292332937058 0 0.0010245693637253969 0.0024547178675311185 0 0.00014504935114638122 0.0020112292332937058 0 0.0010284170754777417 0.001251809740445875 0 0.0010245693637253969 0.0024547178675311185 0 0.0016983898802677376 0.0016430814941973816 0 0.0010284170754777417 0.001251809740445875 0 0.0010245693637253969 0.0024547178675311185 0 0.0017432558064763794 0.0022804983004924089 0 0.0016983898802677376 0.0016430814941973816 0 0.0010284170754777417 0.001251809740445875 0 0.00053107904754811025 0.00032244159014575298 0 -0.00016518735871165859 0.00089393885300784214 0 0.0018702877813610334 0.0009108935223685517 0 0.0010284170754777417 0.001251809740445875 0 0.0013398298082101818 0.00020704345340770533 0 0.0010284170754777417 0.001251809740445875 0 0.0013398298082101818 0.00020704345340770533 0 0.00053107904754811025 0.00032244159014575298 0 0.00016765140909965901 0.00067747514271111775 0 -0.0013816119081719602 0.00027246187480852937 0 0.0013398298082101818 0.00020704345340770533 0 0.00053107904754811025 0.00032244159014575298 0 0.00061897465428889661 -0.00060140008281397875 0 0.00053107904754811025 0.00032244159014575298 0 -0.00021242756887260267 -0.00018513532173307091 0 0.00061897465428889661 -0.00060140008281397875 0 0.00053107904754811025 0.00032244159014575298 0 -0.00021242756887260267 -0.00018513532173307091 0 -0.00016518735871165859 0.00089393885300784214 0 -0.00098377144540783652 0.00028355462847793136 0 -0.00021242756887260267 -0.00018513532173307091 0 -0.00016518735871165859 0.00089393885300784214 0 -0.0010046636397577928 0.00092060334564061572 0 -0.00098377144540783652 0.00028355462847793136 0 -0.00016518735871165859 0.00089393885300784214 0 -0.00098377144540783652 0.00028355462847793136 0 -0.00021242756887260267 -0.00018513532173307091 0 -0.0011441353769597016 -0.00067158488898318039 0 -0.00021242756887260267 -0.00018513532173307091 0 -0.00017199483840739719 -0.0013307422377442813 0 -0.0011441353769597016 -0.00067158488898318039 0 -0.004862481958651391 -0.00061293154647623779 0 -0.0058596851346825645 0.00022865668966385588 0 -0.010395505626954337 0.0015577119150137861 0 -0.010383670398546327 0.0015653492138626797 0 -0.010517066180422887 0.001609379107860572 0 -0.01046252297024191 0.0015435101402236767 0 -0.010395505626954337 0.0015577119150137861 0 -0.010517066180422887 0.001609379107860572 0 -0.01046252297024191 0.0015435101402236767 0 -0.010395505626954337 0.0015577119150137861 0 -0.010410248728796248 0.001529594866181255 0 -0.010377503544002277 0.0015395232533594295 0 -0.010378658527398292 0.0015708595943984551 0 -0.010341212776910977 0.0015164822845201711 0 -0.01039136776325497 0.0015351775843020705 0 -0.010395505626954337 0.0015577119150137861 0 -0.010410248728796248 0.001529594866181255 0 -0.010377503544002277 0.0015395232533594295 0 -0.01039136776325497 0.0015351775843020705 0 -0.010395505626954337 0.0015577119150137861 0 -0.010377503544002277 0.0015395232533594295 0 -0.010395505626954337 0.0015577119150137861 0 -0.010378658527398292 0.0015708595943984551 0 -0.0049017545139390635 -0.00062361341743038764 0 -0.004862481958651391 -0.00061293154647623779 0 -0.00021242756887260267 -0.00018513532173307091 0 -0.00017199483840739719 -0.0013307422377442813 0 0.00061897465428889661 -0.00060140008281397875 0 -0.004862481958651391 -0.00061293154647623779 0 -0.0013816119081719602 0.00027246187480852937 0 -0.00023405147685112964 -0.00054440051835576728 0 0.00041370454562805937 -0.0013296105403309039 0 0.0010841879519365731 -0.00070201064253645187 0 0.00079277651258202839 0.00023384742156847818 0 -0.00023405147685112964 -0.00054440051835576728 0 0.0010841879519365731 -0.00070201064253645187 0 0.00041370454562805937 -0.0013296105403309039 0 -9.0066468531417238e-05 -0.0022572701905781084 0 0.0013104220962694582 -0.0016780182276905174 0 0.00041370454562805937 -0.0013296105403309039 0 0.0010841879519365731 -0.00070201064253645187 0 0.0013104220962694582 -0.0016780182276905174 0 0.00041370454562805937 -0.0013296105403309039 0 -0.00025852284271833561 -0.0013871516636967682 0 -9.0066468531417238e-05 -0.0022572701905781084 0 -0.0012464416081088509 -0.001381032005230055 0 -0.00023405147685112964 -0.00054440051835576728 0 -0.00025852284271833561 -0.0013871516636967682 0 -0.0012464416081088509 -0.001381032005230055 0 -0.00025852284271833561 -0.0013871516636967682 0 -9.0066468531417238e-05 -0.0022572701905781084 0 -0.00023405147685112964 -0.00054440051835576728 0 0.00041370454562805937 -0.0013296105403309039 0 -0.00025852284271833561 -0.0013871516636967682 0 -0.010312997072625122 0.00017680578576610381 0 -0.012565593560004543 0.0001223100221577118 0 -0.010255105819038171 0.001483443893444875 0 -0.010341212776910977 0.0015164822845201711 0 -0.010348710533481765 0.0014470063866673423 0 -0.019173494579742153 -0.0014132624516034371 0 -0.020062192711347342 -0.00076818286139513096 0 -0.020876887883524289 -0.0011771066663526413 0 -0.019173494579742153 -0.0014132624516034371 0 -0.020974555150241384 -0.002075676553078362 0 -0.020876887883524289 -0.0011771066663526413 0 -0.010312997072625122 0.00017680578576610381 0 -0.010331923250479892 -0.00054143513113943812 0 -0.010312997072625122 0.00017680578576610381 0 -0.012552893670856389 0.0010326525303487818 0 -0.020062192711347342 -0.00076818286139513096 0 -0.019092808634316758 -0.00037394644310584889 0 -0.020369412866379021 0.00019453947897985911 0 -0.019224379141582162 -0.0014217341025404735 0 -0.020062192711347342 -0.00076818286139513096 0 -0.019092808634316758 -0.00037394644310584889 0 -0.019224379141582162 -0.0014217341025404735 0 -0.019092808634316758 -0.00037394644310584889 0 -0.018246952662121403 -0.0010570311694562695 0 -0.019092808634316758 -0.00037394644310584889 0 -0.018246952662121403 -0.0010570311694562695 0 -0.017947958499593804 4.2939496406917034e-06 0 -0.017289997280277851 -0.00069532165589264515 0 -0.018246952662121403 -0.0010570311694562695 0 -0.017947958499593804 4.2939496406917034e-06 0 -0.013198534945962235 0.00052421500852156439 0 -0.012565593560004543 0.0001223100221577118 0 -0.013198534945962235 0.00052421500852156439 0 -0.013987950522892534 0.0008503703502473638 0 -0.017128009671603672 -0.00091699973185300143 0 -0.016896791065408808 0.00061036966789964719 0 -0.015538381999098976 -0.00031243603478865419 0 -0.013198534945962235 0.00052421500852156439 0 -0.013544791460019755 0.00044975354971083523 0 -0.01046252297024191 0.0015435101402236767 0 -0.0104185625214609 0.0014918019425084518 0 -0.010517648561602597 0.0015486786373498198 0 -0.010438338433170853 0.001418264031084724 0 -0.0104185625214609 0.0014918019425084518 0 -0.010517648561602597 0.0015486786373498198 0 -0.013198534945962235 0.00052421500852156439 0 -0.011947345885215101 0.0012219505831895744 0 -0.01046252297024191 0.0015435101402236767 0 -0.0104185625214609 0.0014918019425084518 0 -0.010410248728796248 0.001529594866181255 0 -0.0104185625214609 0.0014918019425084518 0 -0.010410248728796248 0.001529594866181255 0 -0.010382401540455256 0.0015129588622457221 0 -0.004862481958651391 -0.00061293154647623779 0 -0.010312997072625122 0.00017680578576610381 0 -0.010378658527398292 0.0015708595943984551 0 -0.010255105819038171 0.001483443893444875 0 -0.010341212776910977 0.0015164822845201711 0 -0.01039136776325497 0.0015351775843020705 0 -0.010410248728796248 0.001529594866181255 0 -0.010382401540455256 0.0015129588622457221 0 -0.010377503544002277 0.0015395232533594295 0 -0.01039136776325497 0.0015351775843020705 0 -0.010382401540455256 0.0015129588622457221 0 -0.010377503544002277 0.0015395232533594295 0 -0.010382401540455256 0.0015129588622457221 0 -0.010341212776910977 0.0015164822845201711 0 -0.010382401540455256 0.0015129588622457221 0 -0.010341212776910977 0.0015164822845201711 0 -0.010348710533481765 0.0014470063866673423 0 -0.010438338433170853 0.001418264031084724 0 -0.0104185625214609 0.0014918019425084518 0 -0.010348710533481765 0.0014470063866673423 0 -0.0104185625214609 0.0014918019425084518 0 -0.010382401540455256 0.0015129588622457221 0 -0.010348710533481765 0.0014470063866673423 0 -0.025051449775687216 -0.0020909565264678217 0 -0.024387011959153267 -0.0021329030546361335 0 -0.023804811330285357 -0.0031005863904226758 0 -0.011639862076893564 0.0011756035006366876 0 -0.010795795057577048 0.00067178282893170713 0 -0.023899023919074908 -0.0021031972852309459 0 -0.023804811330285357 -0.0031005863904226758 0 -0.02318327546583248 -0.0020654010623694158 0 -0.024387011959153267 -0.0021329030546361335 0 -0.023899023919074908 -0.0021031972852309459 0 -0.024318508660554312 -0.001663022138987714 0 -0.024387011959153267 -0.0021329030546361335 0 -0.023899023919074908 -0.0021031972852309459 0 -0.023804811330285357 -0.0031005863904226758 0 -0.01045983032272671 0.0005258881052657273 0 -0.0098057155818530341 -0.00062059913188747501 0 -0.0088092560230734925 -0.0002325606976532251 0 0.0036751715480010721 -0.00057501313335813246 0 0.0032510259903536271 -0.00075516630219069059 0 0.0029331131979039421 -0.00033354313136257647 0 -0.0077677199300650694 0.0010993883407019863 0 -0.010795795057577048 0.00067178282893170713 0 -0.0015632380392734428 0.0010626628320697918 0 -0.0015238847665535763 0.0010311126975296636 0 -0.0015475032711246091 0.0010702492943695211 0 0.0029331131979039421 -0.00033354313136257647 0 0.002576134232034654 -0.0010831021796279859 0 0.0024144591236864269 -0.00047931541361664285 0 0.0032510259903536271 -0.00075516630219069059 0 0.0029331131979039421 -0.00033354313136257647 0 0.002576134232034654 -0.0010831021796279859 0 0.0026003498045284058 7.8396206867741137e-06 0 0.0029331131979039421 -0.00033354313136257647 0 0.0024144591236864269 -0.00047931541361664285 0 -0.010795795057577048 0.00067178282893170713 0 -0.010609139126184275 -0.000188095048492344 0 -0.022751843177710007 -0.0027055784841362963 0 -0.02318327546583248 -0.0020654010623694158 0 -0.022352819944975448 -0.0014608326828168901 0 -0.023804811330285357 -0.0031005863904226758 0 -0.022751843177710007 -0.0027055784841362963 0 -0.02318327546583248 -0.0020654010623694158 0 -0.010609139126184275 -0.000188095048492344 0 -0.010331923250479892 -0.00054143513113943812 0 0.002576134232034654 -0.0010831021796279859 0 0.0018737580784445689 -0.00079572445253422736 0 0.0013104220962694582 -0.0016780182276905174 0 -0.022751843177710007 -0.0027055784841362963 0 -0.020974555150241384 -0.002075676553078362 0 -0.022352819944975448 -0.0014608326828168901 0 0.002576134232034654 -0.0010831021796279859 0 0.0018737580784445689 -0.00079572445253422736 0 0.0024144591236864269 -0.00047931541361664285 0 0.0019232557321850168 -3.9746170173994344e-05 0 0.0018737580784445689 -0.00079572445253422736 0 0.0024144591236864269 -0.00047931541361664285 0 0.0019232557321850168 -3.9746170173994344e-05 0 0.0018737580784445689 -0.00079572445253422736 0 0.0010841879519365731 -0.00070201064253645187 0 0.0018737580784445689 -0.00079572445253422736 0 0.0010841879519365731 -0.00070201064253645187 0 0.0013104220962694582 -0.0016780182276905174 0 -0.020876887883524289 -0.0011771066663526413 0 -0.021466730851428931 -0.0004631787041435047 0 -0.022352819944975448 -0.0014608326828168901 0 -0.020974555150241384 -0.002075676553078362 0 -0.020876887883524289 -0.0011771066663526413 0 -0.022352819944975448 -0.0014608326828168901 0 -0.020062192711347342 -0.00076818286139513096 0 -0.020876887883524289 -0.0011771066663526413 0 -0.021466730851428931 -0.0004631787041435047 0 -0.020062192711347342 -0.00076818286139513096 0 -0.021466730851428931 -0.0004631787041435047 0 -0.020369412866379021 0.00019453947897985911 0 -0.021466730851428931 -0.0004631787041435047 0 -0.022513797991139541 -0.00053902606800381955 0 -0.022352819944975448 -0.0014608326828168901 0 -0.021466730851428931 -0.0004631787041435047 0 -0.021969335602185995 0.00013610906552864125 0 -0.021324481898535249 0.00033936748469146332 0 -0.021466730851428931 -0.0004631787041435047 0 -0.022513797991139541 -0.00053902606800381955 0 -0.021969335602185995 0.00013610906552864125 0 -0.022513797991139541 -0.00053902606800381955 0 -0.022778530743419238 0.00035195777899584956 0 -0.021969335602185995 0.00013610906552864125 0 -0.02318327546583248 -0.0020654010623694158 0 -0.022352819944975448 -0.0014608326828168901 0 -0.023059679305972514 -0.0011420623343652906 0 -0.02318327546583248 -0.0020654010623694158 0 -0.023059679305972514 -0.0011420623343652906 0 -0.023704458463259494 -0.0014802209384376817 0 -0.023899023919074908 -0.0021031972852309459 0 -0.02318327546583248 -0.0020654010623694158 0 -0.023704458463259494 -0.0014802209384376817 0 -0.023059679305972514 -0.0011420623343652906 0 -0.023443754806608319 -0.00054657293697615297 0 -0.023704458463259494 -0.0014802209384376817 0 -0.022513797991139541 -0.00053902606800381955 0 -0.022352819944975448 -0.0014608326828168901 0 -0.023059679305972514 -0.0011420623343652906 0 -0.022513797991139541 -0.00053902606800381955 0 -0.023059679305972514 -0.0011420623343652906 0 -0.023443754806608319 -0.00054657293697615297 0 -0.022513797991139541 -0.00053902606800381955 0 -0.023443754806608319 -0.00054657293697615297 0 -0.022778530743419238 0.00035195777899584956 0 -0.023443754806608319 -0.00054657293697615297 0 -0.024103857673587067 -0.00035565319177438114 0 -0.023655088167469852 0.00051169884616647358 0 -0.023443754806608319 -0.00054657293697615297 0 -0.024103857673587067 -0.00035565319177438114 0 -0.02418702093815004 -0.0010612099862702543 0 -0.024668772087579189 -0.00058531135754555873 0 -0.024103857673587067 -0.00035565319177438114 0 -0.024509558549719545 0.00017051908101024121 0 -0.024668772087579189 -0.00058531135754555873 0 -0.024103857673587067 -0.00035565319177438114 0 -0.02418702093815004 -0.0010612099862702543 0 -0.024734582463931828 -0.0012079058445199277 0 -0.024668772087579189 -0.00058531135754555873 0 -0.02418702093815004 -0.0010612099862702543 0 -0.024734582463931828 -0.0012079058445199277 0 -0.02418702093815004 -0.0010612099862702543 0 -0.024318508660554312 -0.001663022138987714 0 -0.023443754806608319 -0.00054657293697615297 0 -0.02418702093815004 -0.0010612099862702543 0 -0.023704458463259494 -0.0014802209384376817 0 -0.02418702093815004 -0.0010612099862702543 0 -0.023704458463259494 -0.0014802209384376817 0 -0.024318508660554312 -0.001663022138987714 0 -0.023899023919074908 -0.0021031972852309459 0 -0.023704458463259494 -0.0014802209384376817 0 -0.024318508660554312 -0.001663022138987714 0 -0.024775662908199398 -0.0017052505858906363 0 -0.024387011959153267 -0.0021329030546361335 0 -0.024318508660554312 -0.001663022138987714 0 -0.024322675816637045 0.0012396961112162291 0 -0.023655088167469852 0.00051169884616647358 0 -0.023515194845373642 0.0016026967449426428 0 -0.025155654188752329 0.0018143203482275912 0 -0.024322675816637045 0.0012396961112162291 0 -0.024136533753238425 0.0025673702304831653 0 -0.024322675816637045 0.0012396961112162291 0 -0.023515194845373642 0.0016026967449426428 0 -0.024136533753238425 0.0025673702304831653 0 -0.024322675816637045 0.0012396961112162291 0 -0.024509558549719545 0.00017051908101024121 0 -0.023655088167469852 0.00051169884616647358 0 -0.024103857673587067 -0.00035565319177438114 0 -0.024509558549719545 0.00017051908101024121 0 -0.023655088167469852 0.00051169884616647358 0 -0.023443754806608319 -0.00054657293697615297 0 -0.023655088167469852 0.00051169884616647358 0 -0.022778530743419238 0.00035195777899584956 0 -0.023655088167469852 0.00051169884616647358 0 -0.022778530743419238 0.00035195777899584956 0 -0.022906898057791145 0.0011408060054347365 0 -0.023515194845373642 0.0016026967449426428 0 -0.022906898057791145 0.0011408060054347365 0 -0.022624483476692572 0.0024349406372257414 0 -0.023655088167469852 0.00051169884616647358 0 -0.023515194845373642 0.0016026967449426428 0 -0.022906898057791145 0.0011408060054347365 0 -0.023260366924960477 -0.00022303650711225564 0 -0.021982724632182871 0.00080840614043860141 0 -0.023625921193801327 0.0016299148151380368 0 -0.022432350238916068 0.0012747828930396005 0 -0.022932516042488877 0.0021688245463968091 0 -0.022906898057791145 0.0011408060054347365 0 -0.022179815497834748 0.00097082588442204507 0 -0.022624483476692572 0.0024349406372257414 0 -0.022778530743419238 0.00035195777899584956 0 -0.022906898057791145 0.0011408060054347365 0 -0.022179815497834748 0.00097082588442204507 0 -0.022550406962666157 0.0011200682225028303 0 -0.022432350238916068 0.0012747828930396005 0 -0.022778530743419238 0.00035195777899584956 0 -0.021969335602185995 0.00013610906552864125 0 -0.021864277777663501 0.00094476482844276671 0 -0.021969335602185995 0.00013610906552864125 0 -0.021864277777663501 0.00094476482844276671 0 -0.021324481898535249 0.00033936748469146332 0 -0.021466730851428931 -0.0004631787041435047 0 -0.021324481898535249 0.00033936748469146332 0 -0.020369412866379021 0.00019453947897985911 0 -0.021864277777663501 0.00094476482844276671 0 -0.021324481898535249 0.00033936748469146332 0 -0.021039687619846717 0.00091589082989400664 0 -0.021324481898535249 0.00033936748469146332 0 -0.021039687619846717 0.00091589082989400664 0 -0.020369412866379021 0.00019453947897985911 0 -0.022432350238916068 0.0012747828930396005 0 -0.021514761241957062 0.0016134102803937573 0 -0.021039687619846717 0.00091589082989400664 0 -0.020717764312409747 0.001722622182917833 0 -0.02020886076367822 0.0010028030366860256 0 -0.021864277777663501 0.00094476482844276671 0 -0.021039687619846717 0.00091589082989400664 0 -0.020717764312409747 0.001722622182917833 0 -0.021982724632182871 0.00080840614043860141 0 -0.022441215050425182 0.0023019227268461155 0 -0.023625921193801327 0.0016299148151380368 0 -0.022441215050425182 0.0023019227268461155 0 -0.023953163265188111 0.0034671550902929272 0 -0.021882049386105867 0.0037113346821812361 0 -0.022932516042488877 0.0021688245463968091 0 -0.023404141504744458 0.00354696615387976 0 -0.022441215050425182 0.0023019227268461155 0 -0.023625921193801327 0.0016299148151380368 0 -0.023953163265188111 0.0034671550902929272 0 -0.023515194845373642 0.0016026967449426428 0 -0.022624483476692572 0.0024349406372257414 0 -0.024136533753238425 0.0025673702304831653 0 -0.022624483476692572 0.0024349406372257414 0 -0.024136533753238425 0.0025673702304831653 0 -0.023127159784509549 0.0038428844358491011 0 -0.024136533753238425 0.0025673702304831653 0 -0.024887261096201985 0.0039782098189393147 0 -0.023127159784509549 0.0038428844358491011 0 -0.025397474986691562 0.0028653861487356893 0 -0.024136533753238425 0.0025673702304831653 0 -0.024887261096201985 0.0039782098189393147 0 -0.018311722488134865 0.0011646611131878827 0 -0.018486768816639302 0.0022942494367682513 0 -0.017132610833369845 0.0019758105434306158 0 -0.018311722488134865 0.0011646611131878827 0 -0.016896791065408808 0.00061036966789964719 0 -0.017132610833369845 0.0019758105434306158 0 -0.016896791065408808 0.00061036966789964719 0 -0.017132610833369845 0.0019758105434306158 0 -0.0150939589980648 0.0015603015390623374 0 -0.017128009671603672 -0.00091699973185300143 0 -0.016896791065408808 0.00061036966789964719 0 -0.017947958499593804 4.2939496406917034e-06 0 -0.018311722488134865 0.0011646611131878827 0 -0.017947958499593804 4.2939496406917034e-06 0 -0.018730619217596695 0.00030774155759544572 0 -0.018311722488134865 0.0011646611131878827 0 -0.016896791065408808 0.00061036966789964719 0 -0.017947958499593804 4.2939496406917034e-06 0 -0.018311722488134865 0.0011646611131878827 0 -0.018730619217596695 0.00030774155759544572 0 -0.019462372646022259 0.00066745845922310399 0 -0.019092808634316758 -0.00037394644310584889 0 -0.017947958499593804 4.2939496406917034e-06 0 -0.018730619217596695 0.00030774155759544572 0 -0.019092808634316758 -0.00037394644310584889 0 -0.018730619217596695 0.00030774155759544572 0 -0.019462372646022259 0.00066745845922310399 0 -0.019092808634316758 -0.00037394644310584889 0 -0.019462372646022259 0.00066745845922310399 0 -0.020369412866379021 0.00019453947897985911 0 -0.019462372646022259 0.00066745845922310399 0 -0.020369412866379021 0.00019453947897985911 0 -0.02020886076367822 0.0010028030366860256 0 -0.021039687619846717 0.00091589082989400664 0 -0.020369412866379021 0.00019453947897985911 0 -0.02020886076367822 0.0010028030366860256 0 -0.020717764312409747 0.001722622182917833 0 -0.02020886076367822 0.0010028030366860256 0 -0.019469864582898355 0.001569699852505174 0 -0.019462372646022259 0.00066745845922310399 0 -0.02020886076367822 0.0010028030366860256 0 -0.019469864582898355 0.001569699852505174 0 -0.018311722488134865 0.0011646611131878827 0 -0.019469864582898355 0.001569699852505174 0 -0.018486768816639302 0.0022942494367682513 0 -0.018311722488134865 0.0011646611131878827 0 -0.019462372646022259 0.00066745845922310399 0 -0.019469864582898355 0.001569699852505174 0 -0.019677330051344488 0.0024737587108805423 0 -0.018964032859312845 0.0031116318235600718 0 -0.018486768816639302 0.0022942494367682513 0 -0.019469864582898355 0.001569699852505174 0 -0.019677330051344488 0.0024737587108805423 0 -0.018486768816639302 0.0022942494367682513 0 -0.020717764312409747 0.001722622182917833 0 -0.019469864582898355 0.001569699852505174 0 -0.019677330051344488 0.0024737587108805423 0 -0.021514761241957062 0.0016134102803937573 0 -0.020505157920489001 0.0022290468785857187 0 -0.021982724632182871 0.00080840614043860141 0 -0.022441215050425182 0.0023019227268461155 0 -0.020639393442497059 0.0018394804703896848 0 -0.022441215050425182 0.0023019227268461155 0 -0.020639393442497059 0.0018394804703896848 0 -0.021882049386105867 0.0037113346821812361 0 -0.020639393442497059 0.0018394804703896848 0 -0.021882049386105867 0.0037113346821812361 0 -0.020291505286743481 0.003962322265128786 0 -0.020505157920489001 0.0022290468785857187 0 -0.01996540870203773 0.0026057841987927391 0 -0.020639393442497059 0.0018394804703896848 0 -0.018964032859312845 0.0031116318235600718 0 -0.020291505286743481 0.003962322265128786 0 -0.018964032859312845 0.0031116318235600718 0 -0.018486768816639302 0.0022942494367682513 0 -0.017345386260002843 0.0033136257569264895 0 -0.018486768816639302 0.0022942494367682513 0 -0.017132610833369845 0.0019758105434306158 0 -0.017345386260002843 0.0033136257569264895 0 -0.017132610833369845 0.0019758105434306158 0 -0.017345386260002843 0.0033136257569264895 0 -0.016116115208059903 0.002690555963047648 0 -0.017345386260002843 0.0033136257569264895 0 -0.015633245594778227 0.0038596980735198781 0 -0.016116115208059903 0.002690555963047648 0 -0.015633245594778227 0.0038596980735198781 0 -0.014947040772768941 0.0027604456827477726 0 -0.016116115208059903 0.002690555963047648 0 -0.014509288545303393 0.0034937427109406624 0 -0.014009477955362334 0.0041804133246853888 0 -0.015633245594778227 0.0038596980735198781 0 -0.014947040772768941 0.0027604456827477726 0 -0.014323834684107934 0.0040677483969500982 0 -0.014947040772768941 0.0027604456827477726 0 -0.0150939589980648 0.0015603015390623374 0 -0.014319915839661388 0.0018264536837370943 0 -0.014947040772768941 0.0027604456827477726 0 -0.013831131859501215 0.0020910557427121449 0 -0.014319915839661388 0.0018264536837370943 0 -0.014947040772768941 0.0027604456827477726 0 -0.016116115208059903 0.002690555963047648 0 -0.0150939589980648 0.0015603015390623374 0 -0.017132610833369845 0.0019758105434306158 0 -0.016116115208059903 0.002690555963047648 0 -0.0150939589980648 0.0015603015390623374 0 -0.013318307042173969 0.0029482402922188134 0 -0.012198443586184535 0.0036509860428926349 0 -0.012862903964351871 0.0044517306442770832 0 -0.013318307042173969 0.0029482402922188134 0 -0.012862903964351871 0.0044517306442770832 0 -0.013767799400023912 0.0041663458251558058 0 -0.014947040772768941 0.0027604456827477726 0 -0.013318307042173969 0.0029482402922188134 0 -0.013767799400023912 0.0041663458251558058 0 -0.014947040772768941 0.0027604456827477726 0 -0.013831131859501215 0.0020910557427121449 0 -0.013318307042173969 0.0029482402922188134 0 -0.013831131859501215 0.0020910557427121449 0 -0.013318307042173969 0.0029482402922188134 0 -0.013137254327668229 0.0020799232757739788 0 -0.013318307042173969 0.0029482402922188134 0 -0.012450733937586068 0.0018868174870686899 0 -0.012198443586184535 0.0036509860428926349 0 -0.010861723314436173 0.0036330673687499943 0 -0.01141183726041896 0.0042316408263695622 0 -0.013318307042173969 0.0029482402922188134 0 -0.013137254327668229 0.0020799232757739788 0 -0.012450733937586068 0.0018868174870686899 0 -0.010644388467682793 0.0034750302610769834 0 -0.011558490361392441 0.0035515830176391684 0 -0.010861723314436173 0.0036330673687499943 0 -0.011558490361392441 0.0035515830176391684 0 -0.010999651679406121 0.0036178046341093575 0 -0.010997486906380576 0.0036275339081050443 0 -0.01101775574379322 0.0036237109646354319 0 -0.013137254327668229 0.0020799232757739788 0 -0.012450733937586068 0.0018868174870686899 0 -0.013587566455568139 0.0015027679547859592 0 -0.010644388467682793 0.0034750302610769834 0 -0.010861723314436173 0.0036330673687499943 0 -0.0091862267628293384 0.0042839982900520551 0 -0.0091570959458800814 0.0044464085656230716 0 -0.0090414853628637548 0.0043168018922326856 0 -0.013215061466917704 0.0011600989163745056 0 -0.013587566455568139 0.0015027679547859592 0 -0.01340751488676818 0.0010251971770422969 0 -0.013831131859501215 0.0020910557427121449 0 -0.013137254327668229 0.0020799232757739788 0 -0.013587566455568139 0.0015027679547859592 0 -0.013831131859501215 0.0020910557427121449 0 -0.013587566455568139 0.0015027679547859592 0 -0.014319915839661388 0.0018264536837370943 0 -0.013587566455568139 0.0015027679547859592 0 -0.01340751488676818 0.0010251971770422969 0 -0.013887577602798665 0.0012807800537850114 0 -0.013587566455568139 0.0015027679547859592 0 -0.014319915839661388 0.0018264536837370943 0 -0.013887577602798665 0.0012807800537850114 0 -0.01340751488676818 0.0010251971770422969 0 -0.013114273149789794 0.001280086506664824 0 -0.01338138542443112 0.0011798734551452831 0 -0.01340751488676818 0.0010251971770422969 0 -0.013451379806100432 0.00070926338502458764 0 -0.013114273149789794 0.001280086506664824 0 -0.01340751488676818 0.0010251971770422969 0 -0.013887577602798665 0.0012807800537850114 0 -0.013451379806100432 0.00070926338502458764 0 -0.013215061466917704 0.0011600989163745056 0 -0.01340751488676818 0.0010251971770422969 0 -0.01338138542443112 0.0011798734551452831 0 -0.0095932022440453485 0.00443092255866296 0 -0.0097306395154980515 0.0037979497536241445 0 -0.0092643136117117851 0.0039119947348643172 0 -0.010644388467682793 0.0034750302610769834 0 -0.011032375795231789 0.0027650819167667155 0 -0.0150939589980648 0.0015603015390623374 0 -0.014319915839661388 0.0018264536837370943 0 -0.013887577602798665 0.0012807800537850114 0 -0.0150939589980648 0.0015603015390623374 0 -0.013887577602798665 0.0012807800537850114 0 -0.013451379806100432 0.00070926338502458764 0 -0.013538256933278805 0.00047889177504474578 0 -0.013544791460019755 0.00044975354971083523 0 -0.0150939589980648 0.0015603015390623374 0 -0.013451379806100432 0.00070926338502458764 0 -0.015538381999098976 -0.00031243603478865419 0 -0.016896791065408808 0.00061036966789964719 0 -0.0150939589980648 0.0015603015390623374 0 -0.015538381999098976 -0.00031243603478865419 0 -0.011925266793348016 0.0011915839731226946 0 -0.012518667067379993 0.0017269178358900552 0 -0.011985586522008729 0.0024198456361641057 0 -0.011129703005072518 0.0015080374013351726 0 -0.011925266793348016 0.0011915839731226946 0 -0.011985586522008729 0.0024198456361641057 0 -0.012283782017641773 0.0022400058599187675 0 -0.012518667067379993 0.0017269178358900552 0 -0.011985586522008729 0.0024198456361641057 0 -0.012283782017641773 0.0022400058599187675 0 -0.012587448078012292 0.0019851774752255693 0 -0.012293862563079624 0.0023941586443208657 0 -0.012283782017641773 0.0022400058599187675 0 -0.012518667067379993 0.0017269178358900552 0 -0.012587448078012292 0.0019851774752255693 0 -0.012518667067379993 0.0017269178358900552 0 -0.013114273149789794 0.001280086506664824 0 -0.012587448078012292 0.0019851774752255693 0 -0.013451379806100432 0.00070926338502458764 0 -0.011925266793348016 0.0011915839731226946 0 -0.012518667067379993 0.0017269178358900552 0 -0.013451379806100432 0.00070926338502458764 0 -0.012518667067379993 0.0017269178358900552 0 -0.013114273149789794 0.001280086506664824 0 -0.013114273149789794 0.001280086506664824 0 -0.01338138542443112 0.0011798734551452831 0 -0.012948855011079129 0.0018420244775079816 0 -0.013114273149789794 0.001280086506664824 0 -0.012587448078012292 0.0019851774752255693 0 -0.012948855011079129 0.0018420244775079816 0 -0.0097306395154980515 0.0037979497536241445 0 -0.0095798195288914183 0.0033652810662342372 0 -0.0098715480769137678 0.003164671840244639 0 -0.01338138542443112 0.0011798734551452831 0 -0.013141072734203472 0.0020839542403433627 0 -0.012948855011079129 0.0018420244775079816 0 -0.0097306395154980515 0.0037979497536241445 0 -0.009269282664334997 0.0034190835218018034 0 -0.0092643136117117851 0.0039119947348643172 0 -0.011032375795231789 0.0027650819167667155 0 -0.011156880977540154 0.002517918750295499 0 -0.0097306395154980515 0.0037979497536241445 0 -0.0095798195288914183 0.0033652810662342372 0 -0.009269282664334997 0.0034190835218018034 0 -0.0098715480769137678 0.003164671840244639 0 -0.0094469797161423619 0.0030790592415461155 0 -0.0094201255441443074 0.002602568446893131 0 -0.0095798195288914183 0.0033652810662342372 0 -0.0094469797161423619 0.0030790592415461155 0 -0.009269282664334997 0.0034190835218018034 0 -0.0095798195288914183 0.0033652810662342372 0 -0.0098715480769137678 0.003164671840244639 0 -0.0094469797161423619 0.0030790592415461155 0 -0.012860327250359758 0.0021508077693030217 0 -0.012491901191077223 0.0022670187816185164 0 -0.011651317796718585 0.0027028093939922334 0 -0.012587448078012292 0.0019851774752255693 0 -0.012948855011079129 0.0018420244775079816 0 -0.012491901191077223 0.0022670187816185164 0 -0.012860327250359758 0.0021508077693030217 0 -0.012948855011079129 0.0018420244775079816 0 -0.012491901191077223 0.0022670187816185164 0 -0.011156880977540154 0.002517918750295499 0 -0.011203581328683513 0.0025224619528960578 0 -0.012587448078012292 0.0019851774752255693 0 -0.012491901191077223 0.0022670187816185164 0 -0.012293862563079624 0.0023941586443208657 0 -0.011156880977540154 0.002517918750295499 0 -0.011243273274762832 0.0024437283545795945 0 -0.011651317796718585 0.0027028093939922334 0 -0.011078471663517513 0.0023577608412266066 0 -0.012144391116855738 0.0024980330702377698 0 -0.012293862563079624 0.0023941586443208657 0 -0.011651317796718585 0.0027028093939922334 0 -0.012144391116855738 0.0024980330702377698 0 -0.012491901191077223 0.0022670187816185164 0 -0.012293862563079624 0.0023941586443208657 0 -0.011651317796718585 0.0027028093939922334 0 -0.011408992628271256 0.0038206496838407945 0 -0.011651317796718585 0.0027028093939922334 0 -0.010368762877832723 0.0027572293152991435 0 -0.011156880977540154 0.002517918750295499 0 -0.010281879165732363 0.0022904679348471264 0 -0.011651317796718585 0.0027028093939922334 0 -0.011078471663517513 0.0023577608412266066 0 -0.010368762877832723 0.0027572293152991435 0 -0.0093803614805888277 0.001590571444616947 0 -0.0098826476549091439 0.0019580225301931886 0 -0.010021283394189309 0.0015239779150356396 0 -0.011078471663517513 0.0023577608412266066 0 -0.010228405319419997 0.00220337721543877 0 -0.011078471663517513 0.0023577608412266066 0 -0.010228405319419997 0.00220337721543877 0 -0.010368762877832723 0.0027572293152991435 0 -0.010093120631129795 0.0014660492067641584 0 -0.011078471663517513 0.0023577608412266066 0 -0.012064862737513136 0.0023077417038145707 0 -0.011078471663517513 0.0023577608412266066 0 -0.012064862737513136 0.0023077417038145707 0 -0.012144391116855738 0.0024980330702377698 0 -0.010534968517268175 0.0014579419700485323 0 -0.010506939038795972 0.001635039147336492 0 -0.010517066180422887 0.001609379107860572 0 -0.010506939038795972 0.001635039147336492 0 -0.010517066180422887 0.001609379107860572 0 -0.010517648561602597 0.0015486786373498198 0 -0.01046252297024191 0.0015435101402236767 0 -0.010517066180422887 0.001609379107860572 0 -0.010517648561602597 0.0015486786373498198 0 -0.012064862737513136 0.0023077417038145707 0 -0.011985586522008729 0.0024198456361641057 0 -0.012144391116855738 0.0024980330702377698 0 -0.012283782017641773 0.0022400058599187675 0 -0.011985586522008729 0.0024198456361641057 0 -0.012144391116855738 0.0024980330702377698 0 -0.011449335163220196 0.0015618700702035098 0 -0.011947345885215101 0.0012219505831895744 0 -0.012283782017641773 0.0022400058599187675 0 -0.012293862563079624 0.0023941586443208657 0 -0.012144391116855738 0.0024980330702377698 0 -0.0080848445096364831 0.0025754970721095106 0 -0.0084288229975261024 0.0027833721511191863 0 -0.0082006685080186388 0.0031056516536435859 0 -0.0080848445096364831 0.0025754970721095106 0 -0.0084273439322592823 0.0022323497801576405 0 -0.0084288229975261024 0.0027833721511191863 0 -0.0080848445096364831 0.0025754970721095106 0 -0.0078459992493697065 0.0028428090085360156 0 -0.0082006685080186388 0.0031056516536435859 0 -0.0076286417722715976 0.0024421391469424897 0 -0.0074863223913631885 0.002990154958207431 0 -0.0072350428945285221 0.0026619385170306795 0 -0.0078459992493697065 0.0028428090085360156 0 -0.0076286417722715976 0.0024421391469424897 0 -0.0074863223913631885 0.002990154958207431 0 -0.0080848445096364831 0.0025754970721095106 0 -0.0078459992493697065 0.0028428090085360156 0 -0.0076286417722715976 0.0024421391469424897 0 -0.0078127881630480032 0.0018627423286610451 0 -0.0076286417722715976 0.0024421391469424897 0 -0.0072037140660068709 0.0019809326463598319 0 -0.0076286417722715976 0.0024421391469424897 0 -0.0072037140660068709 0.0019809326463598319 0 -0.0072350428945285221 0.0026619385170306795 0 -0.0078127881630480032 0.0018627423286610451 0 -0.0076286417722715976 0.0024421391469424897 0 -0.0080520479248177915 0.0022157696026343637 0 -0.0078127881630480032 0.0018627423286610451 0 -0.0082361788576264892 0.0018171929681824073 0 -0.0080520479248177915 0.0022157696026343637 0 -0.0080848445096364831 0.0025754970721095106 0 -0.0076286417722715976 0.0024421391469424897 0 -0.0080520479248177915 0.0022157696026343637 0 -0.0080848445096364831 0.0025754970721095106 0 -0.0080520479248177915 0.0022157696026343637 0 -0.0084273439322592823 0.0022323497801576405 0 -0.0082361788576264892 0.0018171929681824073 0 -0.0085529081855027118 0.0019238359729854889 0 -0.0084273439322592823 0.0022323497801576405 0 -0.0082361788576264892 0.0018171929681824073 0 -0.0080520479248177915 0.0022157696026343637 0 -0.0084273439322592823 0.0022323497801576405 0 -0.0085529081855027118 0.0019238359729854889 0 -0.0084273439322592823 0.0022323497801576405 0 -0.0089659667554683031 0.002021680616823447 0 -0.0084273439322592823 0.0022323497801576405 0 -0.0089659667554683031 0.002021680616823447 0 -0.0087946502055244579 0.0026128518926199114 0 -0.0095703895063290988 0.0018571909714679726 0 -0.010281879165732363 0.0022904679348471264 0 -0.0089659667554683031 0.002021680616823447 0 -0.0094201255441443074 0.002602568446893131 0 -0.0087946502055244579 0.0026128518926199114 0 -0.010228405319419997 0.00220337721543877 0 -0.0094327270241455225 0.0021272610860188427 0 -0.010368762877832723 0.0027572293152991435 0 -0.010021283394189309 0.0015239779150356396 0 -0.010228405319419997 0.00220337721543877 0 -0.0094327270241455225 0.0021272610860188427 0 -0.0094201255441443074 0.002602568446893131 0 -0.0087946502055244579 0.0026128518926199114 0 -0.0091043313076442159 0.0029523414004670409 0 -0.0094469797161423619 0.0030790592415461155 0 -0.0094201255441443074 0.002602568446893131 0 -0.0091043313076442159 0.0029523414004670409 0 -0.0084288229975261024 0.0027833721511191863 0 -0.0087946502055244579 0.0026128518926199114 0 -0.0087356049535840495 0.0031804857327485088 0 -0.0084273439322592823 0.0022323497801576405 0 -0.0084288229975261024 0.0027833721511191863 0 -0.0087946502055244579 0.0026128518926199114 0 -0.0087946502055244579 0.0026128518926199114 0 -0.0087356049535840495 0.0031804857327485088 0 -0.0091043313076442159 0.0029523414004670409 0 -0.0084288229975261024 0.0027833721511191863 0 -0.0087356049535840495 0.0031804857327485088 0 -0.0082006685080186388 0.0031056516536435859 0 -0.0087356049535840495 0.0031804857327485088 0 -0.0083960599943010365 0.0035015582981817537 0 -0.0082006685080186388 0.0031056516536435859 0 -0.0087356049535840495 0.0031804857327485088 0 -0.0091043313076442159 0.0029523414004670409 0 -0.009269282664334997 0.0034190835218018034 0 -0.0094469797161423619 0.0030790592415461155 0 -0.0091043313076442159 0.0029523414004670409 0 -0.009269282664334997 0.0034190835218018034 0 -0.0087356049535840495 0.0031804857327485088 0 -0.009269282664334997 0.0034190835218018034 0 -0.0088129568122274158 0.003715398097623274 0 -0.009269282664334997 0.0034190835218018034 0 -0.0088129568122274158 0.003715398097623274 0 -0.0092643136117117851 0.0039119947348643172 0 -0.0088129568122274158 0.003715398097623274 0 -0.0083960599943010365 0.0035015582981817537 0 -0.008228076972718542 0.0039432233995521787 0 -0.0087356049535840495 0.0031804857327485088 0 -0.0088129568122274158 0.003715398097623274 0 -0.0083960599943010365 0.0035015582981817537 0 -0.0083960599943010365 0.0035015582981817537 0 -0.0079431831724121795 0.0035674849858296355 0 -0.008228076972718542 0.0039432233995521787 0 -0.0082006685080186388 0.0031056516536435859 0 -0.0078259360288891119 0.0031798185119435605 0 -0.0079431831724121795 0.0035674849858296355 0 -0.0083960599943010365 0.0035015582981817537 0 -0.0082006685080186388 0.0031056516536435859 0 -0.0079431831724121795 0.0035674849858296355 0 -0.0078459992493697065 0.0028428090085360156 0 -0.0082006685080186388 0.0031056516536435859 0 -0.0078259360288891119 0.0031798185119435605 0 -0.0074863223913631885 0.002990154958207431 0 -0.0074839419357679692 0.0033124181898674036 0 -0.0071092387024901012 0.0031381647904716219 0 -0.0074863223913631885 0.002990154958207431 0 -0.0078259360288891119 0.0031798185119435605 0 -0.0074839419357679692 0.0033124181898674036 0 -0.0078459992493697065 0.0028428090085360156 0 -0.0074863223913631885 0.002990154958207431 0 -0.0078259360288891119 0.0031798185119435605 0 -0.0078259360288891119 0.0031798185119435605 0 -0.0074839419357679692 0.0033124181898674036 0 -0.0079431831724121795 0.0035674849858296355 0 -0.0079431831724121795 0.0035674849858296355 0 -0.0077050782538155508 0.0036746997138664295 0 -0.008228076972718542 0.0039432233995521787 0 -0.0083098297835043928 0.0035720355449888252 0 -0.0086272527930610007 0.0036111682788846473 0 -0.006443450825062402 0.0040562894527301045 0 -0.0051458422806051479 0.0041732772516209658 0 -0.0079431831724121795 0.0035674849858296355 0 -0.0077050782538155508 0.0036746997138664295 0 -0.0074181919093783072 0.0035097677200600138 0 -0.0074839419357679692 0.0033124181898674036 0 -0.0079431831724121795 0.0035674849858296355 0 -0.0070852540605341905 0.0036540446357610766 0 -0.0077050782538155508 0.0036746997138664295 0 -0.0077642035005613622 0.0039527306118251979 0 -0.0085063822628002259 0.0039286464535971842 0 -0.0077050782538155508 0.0036746997138664295 0 -0.0077642035005613622 0.0039527306118251979 0 -0.0074321738876799194 0.0038453077398026185 0 -0.0077642035005613622 0.0039527306118251979 0 -0.0079208280756644725 0.0042008181679548924 0 -0.0085063822628002259 0.0039286464535971842 0 -0.0077642035005613622 0.0039527306118251979 0 -0.0079208280756644725 0.0042008181679548924 0 -0.0073196998107780452 0.004138754504018626 0 -0.0079208280756644725 0.0042008181679548924 0 -0.0083227552742471678 0.0042413169160877119 0 -0.008073654771929048 0.0044378903533732273 0 -0.0085063822628002259 0.0039286464535971842 0 -0.0083227552742471678 0.0042413169160877119 0 -0.0086638767650581931 0.0044590183029127369 0 -0.0079208280756644725 0.0042008181679548924 0 -0.0085063822628002259 0.0039286464535971842 0 -0.0083227552742471678 0.0042413169160877119 0 -0.0083227552742471678 0.0042413169160877119 0 -0.0086638767650581931 0.0044590183029127369 0 -0.008073654771929048 0.0044378903533732273 0 -0.0086638767650581931 0.0044590183029127369 0 -0.0088944242493844972 0.0043591544649684904 0 -0.0088006517181151763 0.0043990693823684219 0 -0.0082999442739383929 0.0044609220749189001 0 -0.0080008017708669155 0.0045158912213779847 0 -0.0086638767650581931 0.0044590183029127369 0 -0.008726742067853243 0.0044754493949861985 0 -0.0088006517181151763 0.0043990693823684219 0 -0.0086638767650581931 0.0044590183029127369 0 -0.0078034353711232971 0.004813494391850027 0 -0.008073654771929048 0.0044378903533732273 0 -0.0079208280756644725 0.0042008181679548924 0 -0.008073654771929048 0.0044378903533732273 0 -0.0076511895309017324 0.0044741952711629613 0 -0.0078034353711232971 0.004813494391850027 0 -0.008073654771929048 0.0044378903533732273 0 -0.0076511895309017324 0.0044741952711629613 0 -0.010644388467682793 0.0034750302610769834 0 -0.009334825292371637 0.0035992151887590139 0 -0.0095932022440453485 0.00443092255866296 0 -0.0092643136117117851 0.0039119947348643172 0 -0.0089132350241569597 0.0041959594522077634 0 -0.0091862267628293384 0.0042839982900520551 0 -0.0089229372451090742 0.0041707382935918576 0 -0.0090414853628637548 0.0043168018922326856 0 -0.0088129568122274158 0.003715398097623274 0 -0.0092643136117117851 0.0039119947348643172 0 -0.0089132350241569597 0.0041959594522077634 0 -0.0088129568122274158 0.003715398097623274 0 -0.008228076972718542 0.0039432233995521787 0 -0.0089132350241569597 0.0041959594522077634 0 -0.0086272527930610007 0.0036111682788846473 0 -0.009334825292371637 0.0035992151887590139 0 -0.0085063822628002259 0.0039286464535971842 0 -0.0086638767650581931 0.0044590183029127369 0 -0.0089229372451090742 0.0041707382935918576 0 -0.0086638767650581931 0.0044590183029127369 0 -0.0089025328958633118 0.0043778727263273339 0 -0.008726742067853243 0.0044754493949861985 0 -0.0086638767650581931 0.0044590183029127369 0 -0.0089229372451090742 0.0041707382935918576 0 -0.0089025328958633118 0.0043778727263273339 0 -0.0091570959458800814 0.0044464085656230716 0 -0.0089025328958633118 0.0043778727263273339 0 -0.008726742067853243 0.0044754493949861985 0 -0.0091570959458800814 0.0044464085656230716 0 -0.0089025328958633118 0.0043778727263273339 0 -0.0090414853628637548 0.0043168018922326856 0 -0.0089229372451090742 0.0041707382935918576 0 -0.0089025328958633118 0.0043778727263273339 0 -0.0090414853628637548 0.0043168018922326856 0 -0.010157244719827317 0.0040203133570416499 0 -0.0099088618272950933 0.0042731644571430659 0 -0.010021452668227631 0.0046030280989499588 0 -0.010157244719827317 0.0040203133570416499 0 -0.0099088618272950933 0.0042731644571430659 0 -0.0095740046485611914 0.0041536038047286271 0 -0.010861723314436173 0.0036330673687499943 0 -0.0094163978057098339 0.0041156088101951633 0 -0.0099088618272950933 0.0042731644571430659 0 -0.0095740046485611914 0.0041536038047286271 0 -0.0096961357715272933 0.004492300815415946 0 -0.0095740046485611914 0.0041536038047286271 0 -0.0096961357715272933 0.004492300815415946 0 -0.0093504743975531355 0.0045561421686240349 0 -0.0096961357715272933 0.004492300815415946 0 -0.0093504743975531355 0.0045561421686240349 0 -0.0096151898020761569 0.0048531948223266303 0 -0.0096961357715272933 0.004492300815415946 0 -0.010021452668227631 0.0046030280989499588 0 -0.0096151898020761569 0.0048531948223266303 0 -0.0099088618272950933 0.0042731644571430659 0 -0.0096961357715272933 0.004492300815415946 0 -0.010021452668227631 0.0046030280989499588 0 -0.0089156673976372187 0.0043433754302000856 0 -0.008807298123871949 0.0043732193552830003 0 -0.0088482513576119502 0.0045161123022843227 0 -0.0088944242493844972 0.0043591544649684904 0 -0.0089156673976372187 0.0043433754302000856 0 -0.008807298123871949 0.0043732193552830003 0 -0.0088944242493844972 0.0043591544649684904 0 -0.0089156673976372187 0.0043433754302000856 0 -0.0088006517181151763 0.0043990693823684219 0 -0.008726742067853243 0.0044754493949861985 0 -0.0089156673976372187 0.0043433754302000856 0 -0.0088006517181151763 0.0043990693823684219 0 -0.0094163978057098339 0.0041156088101951633 0 -0.0091197893779213276 0.0042188829466637667 0 -0.0095740046485611914 0.0041536038047286271 0 -0.0089156673976372187 0.0043433754302000856 0 -0.0093504743975531355 0.0045561421686240349 0 -0.0089156673976372187 0.0043433754302000856 0 -0.0093504743975531355 0.0045561421686240349 0 -0.0090532283431912133 0.0045924634865036297 0 -0.0093504743975531355 0.0045561421686240349 0 -0.0090532283431912133 0.0045924634865036297 0 -0.0092285632932339965 0.0048894591522932723 0 -0.0089156673976372187 0.0043433754302000856 0 -0.0090532283431912133 0.0045924634865036297 0 -0.0088482513576119502 0.0045161123022843227 0 -0.0090532283431912133 0.0045924634865036297 0 -0.0089358965166968229 0.0047500274380187198 0 -0.0088482513576119502 0.0045161123022843227 0 -0.0089358965166968229 0.0047500274380187198 0 -0.0092285632932339965 0.0048894591522932723 0 -0.0089337999715099412 0.0050555199172263891 0 -0.0090532283431912133 0.0045924634865036297 0 -0.0089358965166968229 0.0047500274380187198 0 -0.0092285632932339965 0.0048894591522932723 0 -0.0092285632932339965 0.0048894591522932723 0 -0.00940281620332469 0.005127314941568809 0 -0.0096151898020761569 0.0048531948223266303 0 -0.0093504743975531355 0.0045561421686240349 0 -0.0092285632932339965 0.0048894591522932723 0 -0.0096151898020761569 0.0048531948223266303 0 -0.0092285632932339965 0.0048894591522932723 0 -0.00940281620332469 0.005127314941568809 0 -0.0092083298210683152 0.0052216466223424561 0 -0.00940281620332469 0.005127314941568809 0 -0.0092083298210683152 0.0052216466223424561 0 -0.0094999637884120528 0.0053293862134706337 0 -0.0092083298210683152 0.0052216466223424561 0 -0.0089337999715099412 0.0050555199172263891 0 -0.0089577772444662581 0.0054703986774101241 0 -0.0092285632932339965 0.0048894591522932723 0 -0.0092083298210683152 0.0052216466223424561 0 -0.0089337999715099412 0.0050555199172263891 0 -0.0092083298210683152 0.0052216466223424561 0 -0.0089577772444662581 0.0054703986774101241 0 -0.0093110519317549829 0.0054924655983064914 0 -0.0092083298210683152 0.0052216466223424561 0 -0.0093110519317549829 0.0054924655983064914 0 -0.0094999637884120528 0.0053293862134706337 0 -0.0093110519317549829 0.0054924655983064914 0 -0.0095379353356783211 0.0056113453784151866 0 -0.0094999637884120528 0.0053293862134706337 0 -0.0093110519317549829 0.0054924655983064914 0 -0.009349949546863242 0.0058284893196333901 0 -0.0095379353356783211 0.0056113453784151866 0 -0.009349949546863242 0.0058284893196333901 0 -0.0096113811259488108 0.0058199817844840013 0 -0.0095379353356783211 0.0056113453784151866 0 -0.023547326076733727 -0.0013562301171137141 0 -0.023186897383386799 -0.0017046167448367142 0 -0.023694349233086255 -0.0017393617602512088 0 -0.0089577772444662581 0.0054703986774101241 0 -0.0093110519317549829 0.0054924655983064914 0 -0.009349949546863242 0.0058284893196333901 0 -0.016339031818501021 0.0020761447904438066 0 -0.016642890479118492 0.0022929864803158009 0 -0.012341662866523637 0.0070631005693245286 0 -0.012000753448852179 0.0069963747692738292 0 -0.012250063258808454 0.0067099907321166241 0 -0.012903053351483689 0.0068315616782136249 0 -0.012633325683813361 0.0072803560785684087 0 -0.013136617705163767 0.0073317559961873164 0 -0.012341662866523637 0.0070631005693245286 0 -0.012903053351483689 0.0068315616782136249 0 -0.012633325683813361 0.0072803560785684087 0 -0.012341662866523637 0.0070631005693245286 0 -0.012250063258808454 0.0067099907321166241 0 -0.012903053351483689 0.0068315616782136249 0 -0.012633325683813361 0.0072803560785684087 0 -0.013136617705163767 0.0073317559961873164 0 -0.012639971766683692 0.0077430905894175289 0 -0.012341662866523637 0.0070631005693245286 0 -0.012000753448852179 0.0069963747692738292 0 -0.012205433952362708 0.0074941489747802608 0 -0.012633325683813361 0.0072803560785684087 0 -0.012205433952362708 0.0074941489747802608 0 -0.012639971766683692 0.0077430905894175289 0 -0.012341662866523637 0.0070631005693245286 0 -0.012633325683813361 0.0072803560785684087 0 -0.012205433952362708 0.0074941489747802608 0 -0.0098118326625912817 0.0056642029415877411 0 -0.0096113811259488108 0.0058199817844840013 0 -0.0095379353356783211 0.0056113453784151866 0 -0.0098118326625912817 0.0056642029415877411 0 -0.0095379353356783211 0.0056113453784151866 0 -0.0096507007196383367 0.0054723610487212209 0 -0.0095379353356783211 0.0056113453784151866 0 -0.0096507007196383367 0.0054723610487212209 0 -0.0094999637884120528 0.0053293862134706337 0 -0.0098118326625912817 0.0056642029415877411 0 -0.0096507007196383367 0.0054723610487212209 0 -0.0097145382961624071 0.0053331162133470212 0 -0.0096507007196383367 0.0054723610487212209 0 -0.0094999637884120528 0.0053293862134706337 0 -0.0097145382961624071 0.0053331162133470212 0 -0.0098118326625912817 0.0056642029415877411 0 -0.0097145382961624071 0.0053331162133470212 0 -0.0098988633929772904 0.0051489984892431305 0 -0.013737306999924958 0.0061745631782933021 0 -0.012101407874579435 0.0053327544838947848 0 -0.012250063258808454 0.0067099907321166241 0 -0.012062428359057457 0.0053283699832377372 0 -0.01288192069902365 0.0054093431916454847 0 -0.012686143172503907 0.0059941804063009755 0 -0.013182961761807992 0.0053138140620205563 0 -0.012000753448852179 0.0069963747692738292 0 -0.012250063258808454 0.0067099907321166241 0 -0.012062428359057457 0.0053283699832377372 0 -0.012250063258808454 0.0067099907321166241 0 -0.012903053351483689 0.0068315616782136249 0 -0.013409652337415038 0.0053625040620377392 0 -0.00940281620332469 0.005127314941568809 0 -0.0096342433206252995 0.0051489034639461738 0 -0.0096151898020761569 0.0048531948223266303 0 -0.0098988633929772904 0.0051489984892431305 0 -0.0096342433206252995 0.0051489034639461738 0 -0.0096151898020761569 0.0048531948223266303 0 -0.0094999637884120528 0.0053293862134706337 0 -0.0097145382961624071 0.0053331162133470212 0 -0.0096342433206252995 0.0051489034639461738 0 -0.00940281620332469 0.005127314941568809 0 -0.0094999637884120528 0.0053293862134706337 0 -0.0096342433206252995 0.0051489034639461738 0 -0.0097145382961624071 0.0053331162133470212 0 -0.0098988633929772904 0.0051489984892431305 0 -0.0096342433206252995 0.0051489034639461738 0 -0.012198443586184535 0.0036509860428926349 0 -0.012062428359057457 0.0053283699832377372 0 -0.012862903964351871 0.0044517306442770832 0 -0.01141183726041896 0.0042316408263695622 0 -0.012101407874579435 0.0053327544838947848 0 -0.010021452668227631 0.0046030280989499588 0 -0.0098988633929772904 0.0051489984892431305 0 -0.0096151898020761569 0.0048531948223266303 0 -0.012862903964351871 0.0044517306442770832 0 -0.013767799400023912 0.0041663458251558058 0 -0.01288192069902365 0.0054093431916454847 0 -0.014009477955362334 0.0041804133246853888 0 -0.013182961761807992 0.0053138140620205563 0 -0.014323834684107934 0.0040677483969500982 0 -0.014337955139409622 0.0052780469012248107 0 -0.015226020790717448 0.0050102543259126706 0 -0.014337955139409622 0.0052780469012248107 0 -0.015226020790717448 0.0050102543259126706 0 -0.01471531776386051 0.0059832448662101301 0 -0.014323834684107934 0.0040677483969500982 0 -0.014337955139409622 0.0052780469012248107 0 -0.013409652337415038 0.0053625040620377392 0 -0.012062428359057457 0.0053283699832377372 0 -0.012862903964351871 0.0044517306442770832 0 -0.01288192069902365 0.0054093431916454847 0 -0.014337955139409622 0.0052780469012248107 0 -0.013409652337415038 0.0053625040620377392 0 -0.014022127544491836 0.0059992405010414248 0 -0.017345386260002843 0.0033136257569264895 0 -0.015633245594778227 0.0038596980735198781 0 -0.016670521062954923 0.0047411291558264379 0 -0.015633245594778227 0.0038596980735198781 0 -0.016670521062954923 0.0047411291558264379 0 -0.015226020790717448 0.0050102543259126706 0 -0.015633245594778227 0.0038596980735198781 0 -0.014323834684107934 0.0040677483969500982 0 -0.015226020790717448 0.0050102543259126706 0 -0.015226020790717448 0.0050102543259126706 0 -0.015976426780521889 0.0062251395692657684 0 -0.01471531776386051 0.0059832448662101301 0 -0.016670521062954923 0.0047411291558264379 0 -0.015976426780521889 0.0062251395692657684 0 -0.01734949107704872 0.0060359375602405847 0 -0.016670521062954923 0.0047411291558264379 0 -0.015226020790717448 0.0050102543259126706 0 -0.015976426780521889 0.0062251395692657684 0 -0.015976426780521889 0.0062251395692657684 0 -0.01734949107704872 0.0060359375602405847 0 -0.017092551543318013 0.0075766034044924329 0 -0.015976426780521889 0.0062251395692657684 0 -0.015017073267891397 0.006782538899592635 0 -0.01471531776386051 0.0059832448662101301 0 -0.015610281282101176 0.007412859776924568 0 -0.015017073267891397 0.006782538899592635 0 -0.014633031064609116 0.0074047141974786842 0 -0.015610281282101176 0.007412859776924568 0 -0.014633031064609116 0.0074047141974786842 0 -0.01508767609147558 0.008061165990833204 0 -0.015976426780521889 0.0062251395692657684 0 -0.015610281282101176 0.007412859776924568 0 -0.015017073267891397 0.006782538899592635 0 -0.015976426780521889 0.0062251395692657684 0 -0.015610281282101176 0.007412859776924568 0 -0.017092551543318013 0.0075766034044924329 0 -0.012903053351483689 0.0068315616782136249 0 -0.013409652337415038 0.0053625040620377392 0 -0.01355372797246166 0.0066108829891005959 0 -0.013409652337415038 0.0053625040620377392 0 -0.01355372797246166 0.0066108829891005959 0 -0.014022127544491836 0.0059992405010414248 0 -0.01355372797246166 0.0066108829891005959 0 -0.014022127544491836 0.0059992405010414248 0 -0.014235605443092063 0.0067944824926335808 0 -0.014337955139409622 0.0052780469012248107 0 -0.014022127544491836 0.0059992405010414248 0 -0.01471531776386051 0.0059832448662101301 0 -0.015017073267891397 0.006782538899592635 0 -0.01471531776386051 0.0059832448662101301 0 -0.014235605443092063 0.0067944824926335808 0 -0.014022127544491836 0.0059992405010414248 0 -0.01471531776386051 0.0059832448662101301 0 -0.014235605443092063 0.0067944824926335808 0 -0.014235605443092063 0.0067944824926335808 0 -0.014633031064609116 0.0074047141974786842 0 -0.013767529701368486 0.0072982972516138214 0 -0.015017073267891397 0.006782538899592635 0 -0.014235605443092063 0.0067944824926335808 0 -0.014633031064609116 0.0074047141974786842 0 -0.014633031064609116 0.0074047141974786842 0 -0.013767529701368486 0.0072982972516138214 0 -0.013921266181650717 0.0079113251450516151 0 -0.013767529701368486 0.0072982972516138214 0 -0.013439897090243404 0.0077618947540853949 0 -0.013921266181650717 0.0079113251450516151 0 -0.01355372797246166 0.0066108829891005959 0 -0.014235605443092063 0.0067944824926335808 0 -0.013767529701368486 0.0072982972516138214 0 -0.01355372797246166 0.0066108829891005959 0 -0.013767529701368486 0.0072982972516138214 0 -0.013136617705163767 0.0073317559961873164 0 -0.012903053351483689 0.0068315616782136249 0 -0.01355372797246166 0.0066108829891005959 0 -0.013136617705163767 0.0073317559961873164 0 -0.013767529701368486 0.0072982972516138214 0 -0.013136617705163767 0.0073317559961873164 0 -0.013439897090243404 0.0077618947540853949 0 -0.013136617705163767 0.0073317559961873164 0 -0.013032705113794868 0.0078913380749566081 0 -0.013439897090243404 0.0077618947540853949 0 -0.013032705113794868 0.0078913380749566081 0 -0.013439897090243404 0.0077618947540853949 0 -0.01334694763046557 0.008368039731626413 0 -0.013032705113794868 0.0078913380749566081 0 -0.01334694763046557 0.008368039731626413 0 -0.012741520484446012 0.0084129294120282565 0 -0.01334694763046557 0.008368039731626413 0 -0.01381428164847792 0.0085018900874889707 0 -0.013921266181650717 0.0079113251450516151 0 -0.013439897090243404 0.0077618947540853949 0 -0.01334694763046557 0.008368039731626413 0 -0.013921266181650717 0.0079113251450516151 0 -0.017420735400335861 0.0080199416897622795 0 -0.017803339807735394 0.0080336304562125538 0 -0.014633031064609116 0.0074047141974786842 0 -0.01508767609147558 0.008061165990833204 0 -0.014677202551825589 0.0084484227076963327 0 -0.014633031064609116 0.0074047141974786842 0 -0.013921266181650717 0.0079113251450516151 0 -0.014404924456814079 0.0085211094741946304 0 -0.017542521540796947 0.0081779808744611819 0 -0.017803339807735394 0.0080336304562125538 0 -0.01381428164847792 0.0085018900874889707 0 -0.013921266181650717 0.0079113251450516151 0 -0.014404924456814079 0.0085211094741946304 0 -0.01508767609147558 0.008061165990833204 0 -0.014986778600964843 0.0082833356902396824 0 -0.015245484266335178 0.0088683090998235726 0 -0.014986778600964843 0.0082833356902396824 0 -0.015245484266335178 0.0088683090998235726 0 -0.01497923947214287 0.0092605071454316297 0 -0.01959859875215814 0.0071232715449846143 0 -0.020169102330408389 0.0066200442977800648 0 -0.019748648109870665 0.0061906492631404872 0 -0.017803339807735394 0.0080336304562125538 0 -0.019572662397182514 0.0073804320033630201 0 -0.013584774395894329 0.0092004528447885998 0 -0.012795625386899056 0.0098820939338452162 0 -0.012793148162123099 0.0091243192600046017 0 -0.018335341859122646 0.0070341319801703701 0 -0.020339857544773059 0.0048375619440706964 0 -0.01334694763046557 0.008368039731626413 0 -0.013584774395894329 0.0092004528447885998 0 -0.012793148162123099 0.0091243192600046017 0 -0.01381428164847792 0.0085018900874889707 0 -0.014404924456814079 0.0085211094741946304 0 -0.013584774395894329 0.0092004528447885998 0 -0.017803339807735394 0.0080336304562125538 0 -0.018335341859122646 0.0070341319801703701 0 -0.01334694763046557 0.008368039731626413 0 -0.01381428164847792 0.0085018900874889707 0 -0.013584774395894329 0.0092004528447885998 0 -0.016681828376220131 0.0079638318658269806 0 -0.017920837983717894 0.0071505889815116491 0 -0.015610281282101176 0.007412859776924568 0 -0.015819196916676638 0.0082971418481445226 0 -0.017092551543318013 0.0075766034044924329 0 -0.017097568320380382 0.0076471108077884892 0 -0.017852973543055147 0.0084633516517212664 0 -0.0187030806833836 0.0067160627328522902 0 -0.015610281282101176 0.007412859776924568 0 -0.01508767609147558 0.008061165990833204 0 -0.015819196916676638 0.0082971418481445226 0 -0.015245484266335178 0.0088683090998235726 0 -0.017097568320380382 0.0076471108077884892 0 -0.016780659222982806 0.009009554598472462 0 -0.01508767609147558 0.008061165990833204 0 -0.015245484266335178 0.0088683090998235726 0 -0.015819196916676638 0.0082971418481445226 0 -0.016024991636594009 0.0084153609959958259 0 -0.016681828376220131 0.0079638318658269806 0 -0.017097568320380382 0.0076471108077884892 0 -0.016780659222982806 0.009009554598472462 0 -0.017852973543055147 0.0084633516517212664 0 -0.017852973543055147 0.0084633516517212664 0 -0.018072684626386646 0.0098049386990183719 0 -0.018958536140322165 0.0085388336773510303 0 -0.016780659222982806 0.009009554598472462 0 -0.018072684626386646 0.0098049386990183719 0 -0.016776451148412086 0.010194905444233801 0 -0.016780659222982806 0.009009554598472462 0 -0.017852973543055147 0.0084633516517212664 0 -0.018072684626386646 0.0098049386990183719 0 -0.016780659222982806 0.009009554598472462 0 -0.016776451148412086 0.010194905444233801 0 -0.015875965605170711 0.009576090351356684 0 -0.015245484266335178 0.0088683090998235726 0 -0.016780659222982806 0.009009554598472462 0 -0.015875965605170711 0.009576090351356684 0 -0.016776451148412086 0.010194905444233801 0 -0.015875965605170711 0.009576090351356684 0 -0.015772062693476748 0.010324475323278045 0 -0.016776451148412086 0.010194905444233801 0 -0.016558620075429079 0.011227622053780268 0 -0.017798620572237824 0.011114054678015036 0 -0.016776451148412086 0.010194905444233801 0 -0.016558620075429079 0.011227622053780268 0 -0.015772062693476748 0.010324475323278045 0 -0.018072684626386646 0.0098049386990183719 0 -0.017798620572237824 0.011114054678015036 0 -0.018744632889115296 0.010974718296293214 0 -0.018072684626386646 0.0098049386990183719 0 -0.016776451148412086 0.010194905444233801 0 -0.017798620572237824 0.011114054678015036 0 -0.020135227256462884 0.0060502876706529408 0 -0.019748648109870665 0.0061906492631404872 0 -0.019896797516918911 0.0052740839769717081 0 -0.022386783265253403 0.005482953734158285 0 -0.020339857544773059 0.0048375619440706964 0 -0.020135227256462884 0.0060502876706529408 0 -0.019896797516918911 0.0052740839769717081 0 -0.020726798771257732 0.0061212761219355295 0 -0.020169102330408389 0.0066200442977800648 0 -0.020135227256462884 0.0060502876706529408 0 -0.020726798771257732 0.0061212761219355295 0 -0.020169102330408389 0.0066200442977800648 0 -0.020135227256462884 0.0060502876706529408 0 -0.019748648109870665 0.0061906492631404872 0 -0.019572662397182514 0.0073804320033630201 0 -0.022386783265253403 0.005482953734158285 0 -0.01497923947214287 0.0092605071454316297 0 -0.015772062693476748 0.010324475323278045 0 -0.01479152254263174 0.010870777974158129 0 -0.015245484266335178 0.0088683090998235726 0 -0.01497923947214287 0.0092605071454316297 0 -0.015875965605170711 0.009576090351356684 0 -0.01497923947214287 0.0092605071454316297 0 -0.015875965605170711 0.009576090351356684 0 -0.015772062693476748 0.010324475323278045 0 -0.016558620075429079 0.011227622053780268 0 -0.015772062693476748 0.010324475323278045 0 -0.01479152254263174 0.010870777974158129 0 -0.026608020135715629 0.0023335648344776912 0 -0.026869086603370264 0.0023228647103410351 0 -0.026837847198884518 0.0025589695348960688 0 -0.026608020135715629 0.0023335648344776912 0 -0.026869086603370264 0.0023228647103410351 0 -0.02675072719085558 0.0021953475281604102 0 -0.026869086603370264 0.0023228647103410351 0 -0.026837847198884518 0.0025589695348960688 0 -0.02699946153472442 0.0024032749564620818 0 -0.026869086603370264 0.0023228647103410351 0 -0.027006373239184971 0.0022572099163874998 0 -0.026963915521864931 0.0021696048723044183 0 -0.026869086603370264 0.0023228647103410351 0 -0.02699946153472442 0.0024032749564620818 0 -0.027006373239184971 0.0022572099163874998 0 -0.020339857544773059 0.0048375619440706964 0 -0.022616596806113592 0.0028883518148314423 0 -0.020390982329237597 0.0035746772188026675 0 -0.020965556528180024 0.0037526954169436557 0 -0.021019296867802576 0.0030160693866808645 0 -0.025868116631740115 0.0016117767948131917 0 -0.026152957263913909 0.0015581901738805797 0 -0.025750953512271742 0.0020444862560238617 0 -0.020965556528180024 0.0037526954169436557 0 -0.02144780170046456 0.0033774734149610297 0 -0.021237233349246085 0.0042865774108534699 0 -0.020965556528180024 0.0037526954169436557 0 -0.02144780170046456 0.0033774734149610297 0 -0.021019296867802576 0.0030160693866808645 0 -0.022616596806113592 0.0028883518148314423 0 -0.023719377443352486 0.0017010328319126409 0 -0.021743220181213097 0.0023867965546185538 0 -0.023719377443352486 0.0017010328319126409 0 -0.02144780170046456 0.0033774734149610297 0 -0.021019296867802576 0.0030160693866808645 0 -0.021661148494535758 0.0024517433222016713 0 -0.02699946153472442 0.0024032749564620818 0 -0.027006373239184971 0.0022572099163874998 0 -0.027106384217914743 0.002260482108608707 0 -0.025974340415752698 0.0012138540669720771 0 -0.026133424898913925 0.0011861223765707596 0 -0.026215180386334466 0.0013131654851826738 0 -0.025974340415752698 0.0012138540669720771 0 -0.026215180386334466 0.0013131654851826738 0 -0.026152957263913909 0.0015581901738805797 0 -0.026215180386334466 0.0013131654851826738 0 -0.026431368011086673 0.0015087525979905819 0 -0.026261857868384336 0.0010037738469988635 0 -0.025868116631740115 0.0016117767948131917 0 -0.025974340415752698 0.0012138540669720771 0 -0.026152957263913909 0.0015581901738805797 0 -0.026133424898913925 0.0011861223765707596 0 -0.026215180386334466 0.0013131654851826738 0 -0.026261857868384336 0.0010037738469988635 0 -0.026215180386334466 0.0013131654851826738 0 -0.026431368011086673 0.0015087525979905819 0 -0.026152957263913909 0.0015581901738805797 0 -0.026230775207818847 0.0014265890824300056 0 -0.026150691596594368 0.0013451319366107716 0 -0.02653299382126461 0.0013690469914723596 0 -0.026431368011086673 0.0015087525979905819 0 -0.026550363475187654 0.0012840046354153096 0 -0.026571101414517191 0.0013532685420590555 0 -0.02653299382126461 0.0013690469914723596 0 -0.026575886237263743 0.0014509118343911847 0 -0.02653299382126461 0.0013690469914723596 0 -0.026575886237263743 0.0014509118343911847 0 -0.026431368011086673 0.0015087525979905819 0 -0.026575886237263743 0.0014509118343911847 0 -0.026373346498888374 0.0017148280308313818 0 -0.026737247081201759 0.0014615790772047545 0 -0.026575886237263743 0.0014509118343911847 0 -0.026431368011086673 0.0015087525979905819 0 -0.026373346498888374 0.0017148280308313818 0 -0.024363578626255891 0.00048870682920008803 0 -0.026191629596008605 -0.00019645957211955972 0 -0.026373346498888374 0.0017148280308313818 0 -0.026152957263913909 0.0015581901738805797 0 -0.025750953512271742 0.0020444862560238617 0 -0.026431368011086673 0.0015087525979905819 0 -0.026373346498888374 0.0017148280308313818 0 -0.026152957263913909 0.0015581901738805797 0 -0.023344431169277851 -0.002363649563155283 0 -0.023136322775226686 -0.0020454165371936433 0 -0.022825344915931384 -0.0020932949995417244 0 -0.024363578626255891 0.00048870682920008803 0 -0.019057122139087706 0.0033972986835479418 0 -0.023344431169277851 -0.002363649563155283 0 -0.023509136856967761 -0.0020231534029442112 0 -0.023719063031126711 -0.0022471620473428072 0 -0.023344431169277851 -0.002363649563155283 0 -0.023136322775226686 -0.0020454165371936433 0 -0.023509136856967761 -0.0020231534029442112 0 -0.023186897383386799 -0.0017046167448367142 0 -0.023509136856967761 -0.0020231534029442112 0 -0.023694349233086255 -0.0017393617602512088 0 -0.016642890479118492 0.0022929864803158009 0 -0.018288812345807402 0.0037648093443528063 0 -0.023186897383386799 -0.0017046167448367142 0 -0.023136322775226686 -0.0020454165371936433 0 -0.023509136856967761 -0.0020231534029442112 0 -0.023186897383386799 -0.0017046167448367142 0 -0.023136322775226686 -0.0020454165371936433 0 -0.02281488854762425 -0.0020447983733205867 0 -0.0098118326625912817 0.0056642029415877411 0 -0.0096113811259488108 0.0058199817844840013 0 -0.0097437406536334311 0.0061758340973216645 0 -0.012000753448852179 0.0069963747692738292 0 -0.012205433952362708 0.0074941489747802608 0 -0.011696058604005289 0.0087932868991906568 0 -0.013737306999924958 0.0061745631782933021 0 -0.018288812345807402 0.0037648093443528063 0 -0.009349949546863242 0.0058284893196333901 0 -0.0096113811259488108 0.0058199817844840013 0 -0.0097437406536334311 0.0061758340973216645 0 -0.012205433952362708 0.0074941489747802608 0 -0.012238291534805327 0.0079607869603518632 0 -0.011696058604005289 0.0087932868991906568 0 -0.012205433952362708 0.0074941489747802608 0 -0.012238291534805327 0.0079607869603518632 0 -0.012639971766683692 0.0077430905894175289 0 -0.012238291534805327 0.0079607869603518632 0 -0.012639971766683692 0.0077430905894175289 0 -0.012522545239510966 0.0080708032904762399 0 -0.013032705113794868 0.0078913380749566081 0 -0.012522545239510966 0.0080708032904762399 0 -0.012741520484446012 0.0084129294120282565 0 -0.013136617705163767 0.0073317559961873164 0 -0.013032705113794868 0.0078913380749566081 0 -0.012639971766683692 0.0077430905894175289 0 -0.013032705113794868 0.0078913380749566081 0 -0.012639971766683692 0.0077430905894175289 0 -0.012522545239510966 0.0080708032904762399 0 -0.012238291534805327 0.0079607869603518632 0 -0.012283255104459146 0.0083841288730211253 0 -0.011696058604005289 0.0087932868991906568 0 -0.012522545239510966 0.0080708032904762399 0 -0.012741520484446012 0.0084129294120282565 0 -0.012283255104459146 0.0083841288730211253 0 -0.012238291534805327 0.0079607869603518632 0 -0.012522545239510966 0.0080708032904762399 0 -0.012283255104459146 0.0083841288730211253 0 -0.012741520484446012 0.0084129294120282565 0 -0.012447898723220803 0.0085859005773234326 0 -0.012283255104459146 0.0083841288730211253 0 -0.012447898723220803 0.0085859005773234326 0 -0.012283255104459146 0.0083841288730211253 0 -0.012138831463204143 0.0087055173873202656 0 -0.020390982329237597 0.0035746772188026675 0 -0.020965556528180024 0.0037526954169436557 0 -0.021141708144516051 0.004335281302268016 0 -0.012138831463204143 0.0087055173873202656 0 -0.012793148162123099 0.0091243192600046017 0 -0.011793888614923262 0.0088815668967007887 0 -0.020339857544773059 0.0048375619440706964 0 -0.018509769613462259 0.0037998457603169466 0 -0.012447898723220803 0.0085859005773234326 0 -0.012138831463204143 0.0087055173873202656 0 -0.012793148162123099 0.0091243192600046017 0 -0.012795625386899056 0.0098820939338452162 0 -0.012793148162123099 0.0091243192600046017 0 -0.011793888614923262 0.0088815668967007887 0 -0.01334694763046557 0.008368039731626413 0 -0.012741520484446012 0.0084129294120282565 0 -0.012793148162123099 0.0091243192600046017 0 -0.012741520484446012 0.0084129294120282565 0 -0.012447898723220803 0.0085859005773234326 0 -0.012793148162123099 0.0091243192600046017 0 -0.020965556528180024 0.0037526954169436557 0 -0.021237233349246085 0.0042865774108534699 0 -0.021141708144516051 0.004335281302268016 0 -0.023136322775226686 -0.0020454165371936433 0 -0.02281488854762425 -0.0020447983733205867 0 -0.022825344915931384 -0.0020932949995417244 0 -0.021743220181213097 0.0023867965546185538 0 -0.019057122139087706 0.0033972986835479418 0 -0.012283255104459146 0.0083841288730211253 0 -0.012138831463204143 0.0087055173873202656 0 -0.011696058604005289 0.0087932868991906568 0 -0.018288812345807402 0.0037648093443528063 0 -0.018509769613462259 0.0037998457603169466 0 -0.018060287901462416 0.0040567692031364313 0 -0.018509769613462259 0.0037998457603169466 0 -0.012138831463204143 0.0087055173873202656 0 -0.011696058604005289 0.0087932868991906568 0 -0.011788439014838715 0.0088835788265845695 0 -0.018288812345807402 0.0037648093443528063 0 -0.019057122139087706 0.0033972986835479418 0 -0.017556301130385275 0.0031039419113209148 0 -0.016803890335768797 0.0065810280259377234 0 -0.01958994870390739 0.0051593501862754708 0 -0.019057122139087706 0.0033972986835479418 0 -0.018509769613462259 0.0037998457603169466 0 -0.025247146202911384 0.0059871758343261411 0 -0.025366823755018808 0.0067323403861057228 0 -0.025058545998839065 0.0066921796816390511 0 -0.025058545998839065 0.0066921796816390511 0 -0.024449197731176243 0.0064183509743406938 0 -0.024980388136539692 0.0071467758943335727 0 -0.025247146202911384 0.0059871758343261411 0 -0.025058545998839065 0.0066921796816390511 0 -0.024449197731176243 0.0064183509743406938 0 -0.025366823755018808 0.0067323403861057228 0 -0.025058545998839065 0.0066921796816390511 0 -0.025247033473628038 0.0070505473735821026 0 -0.023973087102529649 0.0054654412340349448 0 -0.023787044330349737 0.0048174876774914523 0 -0.024449197731176243 0.0064183509743406938 0 -0.024669587078000776 0.0050910357324354689 0 -0.023692733598605114 0.0052010926346901087 0 -0.024449197731176243 0.0064183509743406938 0 -0.024249101806975371 0.0050824319928545782 0 -0.023558181832606856 0.0061169231544438386 0 -0.025247146202911384 0.0059871758343261411 0 -0.024449197731176243 0.0064183509743406938 0 -0.024669587078000776 0.0050910357324354689 0 -0.024669587078000776 0.0050910357324354689 0 -0.024887261096201985 0.0039782098189393147 0 -0.023127159784509549 0.0038428844358491011 0 -0.023787044330349737 0.0048174876774914523 0 -0.023404141504744458 0.00354696615387976 0 -0.024669587078000776 0.0050910357324354689 0 -0.023692733598605114 0.0052010926346901087 0 -0.023127159784509549 0.0038428844358491011 0 -0.024249101806975371 0.0050824319928545782 0 -0.023953163265188111 0.0034671550902929272 0 -0.02270553046146526 0.0051849159056477781 0 -0.023953163265188111 0.0034671550902929272 0 -0.021882049386105867 0.0037113346821812361 0 -0.02270553046146526 0.0051849159056477781 0 -0.02270553046146526 0.0051849159056477781 0 -0.023558181832606856 0.0061169231544438386 0 -0.022450624839727984 0.0064650553413109959 0 -0.023558181832606856 0.0061169231544438386 0 -0.022450624839727984 0.0064650553413109959 0 -0.024436558287968573 0.0075688230975748446 0 -0.024449197731176243 0.0064183509743406938 0 -0.023558181832606856 0.0061169231544438386 0 -0.024436558287968573 0.0075688230975748446 0 -0.024249101806975371 0.0050824319928545782 0 -0.02270553046146526 0.0051849159056477781 0 -0.023558181832606856 0.0061169231544438386 0 -0.022450624839727984 0.0064650553413109959 0 -0.021065800333074869 0.0066931214499851652 0 -0.022388667265010858 0.0074882550190811517 0 -0.021065800333074869 0.0066931214499851652 0 -0.020047560062153968 0.0059553535905272322 0 -0.020086613747835016 0.0074935654404054653 0 -0.019901998339049296 0.0058421433655494763 0 -0.019187805665628249 0.0063254541022351 0 -0.021065800333074869 0.0066931214499851652 0 -0.020814776002679107 0.005354678811273739 0 -0.020047560062153968 0.0059553535905272322 0 -0.02270553046146526 0.0051849159056477781 0 -0.022450624839727984 0.0064650553413109959 0 -0.020814776002679107 0.005354678811273739 0 -0.022450624839727984 0.0064650553413109959 0 -0.021065800333074869 0.0066931214499851652 0 -0.020814776002679107 0.005354678811273739 0 -0.021882049386105867 0.0037113346821812361 0 -0.02270553046146526 0.0051849159056477781 0 -0.020814776002679107 0.005354678811273739 0 -0.021882049386105867 0.0037113346821812361 0 -0.020291505286743481 0.003962322265128786 0 -0.020814776002679107 0.005354678811273739 0 -0.018964032859312845 0.0031116318235600718 0 -0.020291505286743481 0.003962322265128786 0 -0.0185481262915041 0.0047442584515108742 0 -0.020814776002679107 0.005354678811273739 0 -0.0185481262915041 0.0047442584515108742 0 -0.018687716231848981 0.0067219939657904943 0 -0.020291505286743481 0.003962322265128786 0 -0.020814776002679107 0.005354678811273739 0 -0.0185481262915041 0.0047442584515108742 0 -0.018964032859312845 0.0031116318235600718 0 -0.017345386260002843 0.0033136257569264895 0 -0.0185481262915041 0.0047442584515108742 0 -0.017345386260002843 0.0033136257569264895 0 -0.016670521062954923 0.0047411291558264379 0 -0.0185481262915041 0.0047442584515108742 0 -0.016670521062954923 0.0047411291558264379 0 -0.0185481262915041 0.0047442584515108742 0 -0.01734949107704872 0.0060359375602405847 0 -0.01734949107704872 0.0060359375602405847 0 -0.018687716231848981 0.0067219939657904943 0 -0.017092551543318013 0.0075766034044924329 0 -0.0185481262915041 0.0047442584515108742 0 -0.01734949107704872 0.0060359375602405847 0 -0.018687716231848981 0.0067219939657904943 0 -0.020047560062153968 0.0059553535905272322 0 -0.0187030806833836 0.0067160627328522902 0 -0.020086613747835016 0.0074935654404054653 0 -0.019187805665628249 0.0063254541022351 0 -0.017920837983717894 0.0071505889815116491 0 -0.017852973543055147 0.0084633516517212664 0 -0.0187030806833836 0.0067160627328522902 0 -0.018958536140322165 0.0085388336773510303 0 -0.0187030806833836 0.0067160627328522902 0 -0.020086613747835016 0.0074935654404054653 0 -0.018958536140322165 0.0085388336773510303 0 -0.020086613747835016 0.0074935654404054653 0 -0.018958536140322165 0.0085388336773510303 0 -0.020312306064275306 0.0089688652210506582 0 -0.02323223627106492 0.0083862243508124931 0 -0.024240764787738334 0.008523328966100455 0 -0.018072684626386646 0.0098049386990183719 0 -0.018958536140322165 0.0085388336773510303 0 -0.019321456084273117 0.01018007138169527 0 -0.018072684626386646 0.0098049386990183719 0 -0.019321456084273117 0.01018007138169527 0 -0.018744632889115296 0.010974718296293214 0 -0.019321456084273117 0.01018007138169527 0 -0.018744632889115296 0.010974718296293214 0 -0.019773644704334816 0.011701237123629233 0 -0.024240764787738334 0.008523328966100455 0 -0.027230617083264973 0.0078182397013197482 0 -0.019359720348510277 0.0099388677298132624 0 -0.02055284389100465 0.010329759803566324 0 -0.019794076743118571 0.011282201565762985 0 -0.025116546518413836 0.0096653864073406297 0 -0.027230617083264973 0.0078182397013197482 0 -0.02055284389100465 0.010329759803566324 0 -0.020780806348730307 0.01112670290761362 0 -0.019862249531936882 0.01124428146646704 0 -0.018958536140322165 0.0085388336773510303 0 -0.019359720348510277 0.0099388677298132624 0 -0.020312306064275306 0.0089688652210506582 0 -0.019359720348510277 0.0099388677298132624 0 -0.020312306064275306 0.0089688652210506582 0 -0.02055284389100465 0.010329759803566324 0 -0.020312306064275306 0.0089688652210506582 0 -0.021174722771147902 0.0095538561814801637 0 -0.02055284389100465 0.010329759803566324 0 -0.02055284389100465 0.010329759803566324 0 -0.021652415738234544 0.010848734540993388 0 -0.020780806348730307 0.01112670290761362 0 -0.021174722771147902 0.0095538561814801637 0 -0.02055284389100465 0.010329759803566324 0 -0.021652415738234544 0.010848734540993388 0 -0.021652415738234544 0.010848734540993388 0 -0.022320366297545573 0.0095052333101109682 0 -0.022849991520368866 0.010560619870533637 0 -0.021174722771147902 0.0095538561814801637 0 -0.021652415738234544 0.010848734540993388 0 -0.022320366297545573 0.0095052333101109682 0 -0.021174722771147902 0.0095538561814801637 0 -0.022320366297545573 0.0095052333101109682 0 -0.021421109611625352 0.0083129289241112309 0 -0.022320366297545573 0.0095052333101109682 0 -0.021421109611625352 0.0083129289241112309 0 -0.022873354049720251 0.0084602062369027661 0 -0.021421109611625352 0.0083129289241112309 0 -0.022388667265010858 0.0074882550190811517 0 -0.022873354049720251 0.0084602062369027661 0 -0.020086613747835016 0.0074935654404054653 0 -0.020312306064275306 0.0089688652210506582 0 -0.021421109611625352 0.0083129289241112309 0 -0.020312306064275306 0.0089688652210506582 0 -0.021174722771147902 0.0095538561814801637 0 -0.021421109611625352 0.0083129289241112309 0 -0.021065800333074869 0.0066931214499851652 0 -0.020086613747835016 0.0074935654404054653 0 -0.021421109611625352 0.0083129289241112309 0 -0.021065800333074869 0.0066931214499851652 0 -0.021421109611625352 0.0083129289241112309 0 -0.022388667265010858 0.0074882550190811517 0 -0.022450624839727984 0.0064650553413109959 0 -0.022388667265010858 0.0074882550190811517 0 -0.024436558287968573 0.0075688230975748446 0 -0.025285152940340821 0.0075458459505781134 0 -0.025412170220255201 0.0077546549855520624 0 -0.024436558287968573 0.0075688230975748446 0 -0.022873354049720251 0.0084602062369027661 0 -0.024062970484330041 0.0093918982890067709 0 -0.024436558287968573 0.0075688230975748446 0 -0.02611812079571639 0.0073099496894321889 0 -0.025235419148822266 0.0074504900344331054 0 -0.022388667265010858 0.0074882550190811517 0 -0.024436558287968573 0.0075688230975748446 0 -0.022873354049720251 0.0084602062369027661 0 -0.022320366297545573 0.0095052333101109682 0 -0.022849991520368866 0.010560619870533637 0 -0.024062970484330041 0.0093918982890067709 0 -0.022320366297545573 0.0095052333101109682 0 -0.022873354049720251 0.0084602062369027661 0 -0.024062970484330041 0.0093918982890067709 0 -0.022849991520368866 0.010560619870533637 0 -0.023822439174251229 0.010853526680020979 0 -0.024062970484330041 0.0093918982890067709 0 -0.025684284766753586 0.0078233036290887865 0 -0.025412170220255201 0.0077546549855520624 0 -0.02769355702963415 0.0061320171710332596 0 -0.02611812079571639 0.0073099496894321889 0 -0.026524339019257274 0.006600635600009095 0 -0.02769355702963415 0.0061320171710332596 0 -0.026524339019257274 0.006600635600009095 0 -0.026990287646329297 0.0057583546539723097 0 -0.02611812079571639 0.0073099496894321889 0 -0.025733544991576512 0.0069716729211426838 0 -0.025235419148822266 0.0074504900344331054 0 -0.02611812079571639 0.0073099496894321889 0 -0.025733544991576512 0.0069716729211426838 0 -0.026524339019257274 0.006600635600009095 0 -0.025733544991576512 0.0069716729211426838 0 -0.026524339019257274 0.006600635600009095 0 -0.026129590044057731 0.0064200087582362017 0 -0.026524339019257274 0.006600635600009095 0 -0.026129590044057731 0.0064200087582362017 0 -0.026990287646329297 0.0057583546539723097 0 -0.025733544991576512 0.0069716729211426838 0 -0.026129590044057731 0.0064200087582362017 0 -0.025284822848422046 0.0062326774686041093 0 -0.025199952972219029 0.0068860798551798686 0 -0.025733544991576512 0.0069716729211426838 0 -0.025284822848422046 0.0062326774686041093 0 -0.025733544991576512 0.0069716729211426838 0 -0.02527935124985696 0.007246247892380985 0 -0.025235419148822266 0.0074504900344331054 0 -0.025199952972219029 0.0068860798551798686 0 -0.025733544991576512 0.0069716729211426838 0 -0.02527935124985696 0.007246247892380985 0 -0.025234793338835684 0.007207351499430339 0 -0.02527935124985696 0.007246247892380985 0 -0.025196842922039872 0.0072691175662953321 0 -0.025234793338835684 0.007207351499430339 0 -0.025196842922039872 0.0072691175662953321 0 -0.025247033473628038 0.0070505473735821026 0 -0.02527935124985696 0.007246247892380985 0 -0.025196842922039872 0.0072691175662953321 0 -0.025235419148822266 0.0074504900344331054 0 -0.024436558287968573 0.0075688230975748446 0 -0.025235419148822266 0.0074504900344331054 0 -0.024980388136539692 0.0071467758943335727 0 -0.025196842922039872 0.0072691175662953321 0 -0.025235419148822266 0.0074504900344331054 0 -0.024980388136539692 0.0071467758943335727 0 -0.024449197731176243 0.0064183509743406938 0 -0.024436558287968573 0.0075688230975748446 0 -0.024980388136539692 0.0071467758943335727 0 -0.025058545998839065 0.0066921796816390511 0 -0.024980388136539692 0.0071467758943335727 0 -0.025247033473628038 0.0070505473735821026 0 -0.025196842922039872 0.0072691175662953321 0 -0.024980388136539692 0.0071467758943335727 0 -0.025247033473628038 0.0070505473735821026 0 -0.030728781144843575 0.00092194840171377673 0 -0.030555478253598767 0.00030918348663214044 0 -0.024643200490706157 7.0206885917925877e-05 0 -0.026046678793327335 0.0010965547786536646 0 -0.026888318818938557 -0.00054273882676409693 0 -0.026046678793327335 0.0010965547786536646 0 -0.027211924914121839 0.0012208017248717326 0 -0.026520817732836821 0.0021498264040254334 0 -0.024643200490706157 7.0206885917925877e-05 0 -0.026046678793327335 0.0010965547786536646 0 -0.02537552393170146 0.0013788151985118734 0 -0.026046678793327335 0.0010965547786536646 0 -0.027211924914121839 0.0012208017248717326 0 -0.026888318818938557 -0.00054273882676409693 0 -0.028231489453275058 0.00055166083791500186 0 -0.027211924914121839 0.0012208017248717326 0 -0.026888318818938557 -0.00054273882676409693 0 -0.028231489453275058 0.00055166083791500186 0 -0.030837149496580219 -0.0010219440093009685 0 -0.026888318818938557 -0.00054273882676409693 0 -0.028231489453275058 0.00055166083791500186 0 -0.029479263392316532 0.00045566249203786972 0 -0.030837149496580219 -0.0010219440093009685 0 -0.029479263392316532 0.00045566249203786972 0 -0.028251975317242561 0.0014946815990482839 0 -0.028951171201731171 0.0014553544367572118 0 -0.028231489453275058 0.00055166083791500186 0 -0.029479263392316532 0.00045566249203786972 0 -0.028251975317242561 0.0014946815990482839 0 -0.028231489453275058 0.00055166083791500186 0 -0.028251975317242561 0.0014946815990482839 0 -0.027211924914121839 0.0012208017248717326 0 -0.028251975317242561 0.0014946815990482839 0 -0.027211924914121839 0.0012208017248717326 0 -0.02734930578729446 0.0021290094528725358 0 -0.028251975317242561 0.0014946815990482839 0 -0.02734930578729446 0.0021290094528725358 0 -0.027848353875836455 0.0026405292625286151 0 -0.02734930578729446 0.0021290094528725358 0 -0.027020646315009732 0.0030653688742362365 0 -0.026520817732836821 0.0021498264040254334 0 -0.028251975317242561 0.0014946815990482839 0 -0.027848353875836455 0.0026405292625286151 0 -0.028743134689633344 0.0021413009142169353 0 -0.028251975317242561 0.0014946815990482839 0 -0.028743134689633344 0.0021413009142169353 0 -0.028951171201731171 0.0014553544367572118 0 -0.027848353875836455 0.0026405292625286151 0 -0.027020646315009732 0.0030653688742362365 0 -0.02760514931433098 0.0037869540939362263 0 -0.027848353875836455 0.0026405292625286151 0 -0.028501831552210193 0.0029851025477586118 0 -0.028743134689633344 0.0021413009142169353 0 -0.027848353875836455 0.0026405292625286151 0 -0.02760514931433098 0.0037869540939362263 0 -0.028501831552210193 0.0029851025477586118 0 -0.02734930578729446 0.0021290094528725358 0 -0.027848353875836455 0.0026405292625286151 0 -0.027020646315009732 0.0030653688742362365 0 -0.027020646315009732 0.0030653688742362365 0 -0.026254377676692052 0.0028621943031691584 0 -0.026520817732836821 0.0021498264040254334 0 -0.027211924914121839 0.0012208017248717326 0 -0.02734930578729446 0.0021290094528725358 0 -0.026520817732836821 0.0021498264040254334 0 -0.026254377676692052 0.0028621943031691584 0 -0.026520817732836821 0.0021498264040254334 0 -0.025688514654512055 0.0021979943315874237 0 -0.026046678793327335 0.0010965547786536646 0 -0.02537552393170146 0.0013788151985118734 0 -0.025688514654512055 0.0021979943315874237 0 -0.026046678793327335 0.0010965547786536646 0 -0.026520817732836821 0.0021498264040254334 0 -0.025688514654512055 0.0021979943315874237 0 -0.025112179977461978 0.002137114518714353 0 -0.02537552393170146 0.0013788151985118734 0 -0.025688514654512055 0.0021979943315874237 0 -0.025002071105220326 0.0024426809329552448 0 -0.025688514654512055 0.0021979943315874237 0 -0.025590890389118916 0.0029594252269943737 0 -0.026254377676692052 0.0028621943031691584 0 -0.025688514654512055 0.0021979943315874237 0 -0.025590890389118916 0.0029594252269943737 0 -0.025175552138122732 0.0035163035541321119 0 -0.025590890389118916 0.0029594252269943737 0 -0.026325074876778255 0.003734222410186532 0 -0.026254377676692052 0.0028621943031691584 0 -0.025590890389118916 0.0029594252269943737 0 -0.026325074876778255 0.003734222410186532 0 -0.027020646315009732 0.0030653688742362365 0 -0.026254377676692052 0.0028621943031691584 0 -0.026325074876778255 0.003734222410186532 0 -0.025708035960490833 0.003880203979795647 0 -0.025714014503447472 0.0046834516800819577 0 -0.02641698358523405 0.0049559156196923738 0 -0.025054680859116042 0.0044013282284851929 0 -0.025708035960490833 0.003880203979795647 0 -0.025714014503447472 0.0046834516800819577 0 -0.025054680859116042 0.0044013282284851929 0 -0.025714014503447472 0.0046834516800819577 0 -0.025483619337725503 0.0055875582561326154 0 -0.025714014503447472 0.0046834516800819577 0 -0.025483619337725503 0.0055875582561326154 0 -0.02641698358523405 0.0049559156196923738 0 -0.025865979047610912 0.0051000086537635655 0 -0.026329339097956688 0.0052579093568197255 0 -0.025483619337725503 0.0055875582561326154 0 -0.026990287646329297 0.0057583546539723097 0 -0.02641698358523405 0.0049559156196923738 0 -0.026129590044057731 0.0064200087582362017 0 -0.025284822848422046 0.0062326774686041093 0 -0.026990287646329297 0.0057583546539723097 0 -0.026990287646329297 0.0057583546539723097 0 -0.02641698358523405 0.0049559156196923738 0 -0.027618315588227634 0.0048860589319069617 0 -0.027020646315009732 0.0030653688742362365 0 -0.026325074876778255 0.003734222410186532 0 -0.02760514931433098 0.0037869540939362263 0 -0.026743683205967705 0.0030992821349097024 0 -0.026906458454008571 0.0031915213660011154 0 -0.02641698358523405 0.0049559156196923738 0 -0.02760514931433098 0.0037869540939362263 0 -0.027618315588227634 0.0048860589319069617 0 -0.025708035960490833 0.003880203979795647 0 -0.02641698358523405 0.0049559156196923738 0 -0.02760514931433098 0.0037869540939362263 0 -0.02760514931433098 0.0037869540939362263 0 -0.029055751460643413 0.0039958546700675831 0 -0.028501831552210193 0.0029851025477586118 0 -0.02760514931433098 0.0037869540939362263 0 -0.029055751460643413 0.0039958546700675831 0 -0.027618315588227634 0.0048860589319069617 0 -0.029055751460643413 0.0039958546700675831 0 -0.029116788183630352 0.002508233185836351 0 -0.028501831552210193 0.0029851025477586118 0 -0.023822439174251229 0.010853526680020979 0 -0.023645260377559554 0.012266156207059108 0 -0.023130766979187038 0.011459089980088225 0 -0.02769355702963415 0.0061320171710332596 0 -0.029055751460643413 0.0039958546700675831 0 -0.027618315588227634 0.0048860589319069617 0 -0.025684284766753586 0.0078233036290887865 0 -0.025948806566645378 0.0073641319270784994 0 -0.02769355702963415 0.0061320171710332596 0 -0.026990287646329297 0.0057583546539723097 0 -0.027618315588227634 0.0048860589319069617 0 -0.022849991520368866 0.010560619870533637 0 -0.023130766979187038 0.011459089980088225 0 -0.022519463374523863 0.011425903762996943 0 -0.022849991520368866 0.010560619870533637 0 -0.023822439174251229 0.010853526680020979 0 -0.023130766979187038 0.011459089980088225 0 -0.023130766979187038 0.011459089980088225 0 -0.02280852719202903 0.012164611598986184 0 -0.022519463374523863 0.011425903762996943 0 -0.023645260377559554 0.012266156207059108 0 -0.023130766979187038 0.011459089980088225 0 -0.02280852719202903 0.012164611598986184 0 -0.023645260377559554 0.012266156207059108 0 -0.02280852719202903 0.012164611598986184 0 -0.023076730974607253 0.012746936963334685 0 -0.02280852719202903 0.012164611598986184 0 -0.023076730974607253 0.012746936963334685 0 -0.022336573837069256 0.012876873924743504 0 -0.023645260377559554 0.012266156207059108 0 -0.023076730974607253 0.012746936963334685 0 -0.023519717301413688 0.013634762321169501 0 -0.032464285918634171 0.0015151328747041184 0 -0.031503923351040367 0.0014662692214867127 0 -0.032975872636788812 0.0022779878222191643 0 -0.026117739221190768 0.0056679161992591702 0 -0.027246536928305642 0.0069931619091090054 0 -0.023076730974607253 0.012746936963334685 0 -0.023519717301413688 0.013634762321169501 0 -0.022336573837069256 0.012876873924743504 0 -0.029055751460643413 0.0039958546700675831 0 -0.029116788183630352 0.002508233185836351 0 -0.029859792942650617 0.0018354255536889772 0 -0.025948806566645378 0.0073641319270784994 0 -0.026117739221190768 0.0056679161992591702 0 -0.029116788183630352 0.002508233185836351 0 -0.028501831552210193 0.0029851025477586118 0 -0.028743134689633344 0.0021413009142169353 0 -0.029116788183630352 0.002508233185836351 0 -0.028743134689633344 0.0021413009142169353 0 -0.029300557633334938 0.001664631015360567 0 -0.028743134689633344 0.0021413009142169353 0 -0.029300557633334938 0.001664631015360567 0 -0.028951171201731171 0.0014553544367572118 0 -0.029116788183630352 0.002508233185836351 0 -0.029300557633334938 0.001664631015360567 0 -0.029859792942650617 0.0018354255536889772 0 -0.031420373953728459 0.00094295121543619442 0 -0.030837743496667621 -9.4135888664043305e-05 0 -0.031065716980034633 -0.00087943305017329119 0 -0.026117739221190768 0.0056679161992591702 0 -0.026169453837391804 0.0055135425907824921 0 -0.029479263392316532 0.00045566249203786972 0 -0.031378620480058038 0.0014412594032118659 0 -0.031420373953728459 0.00094295121543619442 0 -0.029479263392316532 0.00045566249203786972 0 -0.031420373953728459 0.00094295121543619442 0 -0.030837743496667621 -9.4135888664043305e-05 0 -0.029479263392316532 0.00045566249203786972 0 -0.029300557633334938 0.001664631015360567 0 -0.028951171201731171 0.0014553544367572118 0 -0.026552981357038551 0.0050132060001544018 0 -0.026117739221190768 0.0056679161992591702 0 -0.029479263392316532 0.00045566249203786972 0 -0.029300557633334938 0.001664631015360567 0 -0.029859792942650617 0.0018354255536889772 0 -0.029479263392316532 0.00045566249203786972 0 -0.030837743496667621 -9.4135888664043305e-05 0 -0.030837149496580219 -0.0010219440093009685 0 -0.03275100807713377 0.00064097056027710556 0 -0.032758213953324601 0.00028249580545113841 0 -0.032464285918634171 0.0015151328747041184 0 -0.032946749646561808 0.0012853999183575771 0 -0.032701099993498496 0.0010717862677414797 0 -0.032464285918634171 0.0015151328747041184 0 -0.031420373953728459 0.00094295121543619442 0 -0.031065716980034633 -0.00087943305017329119 0 -0.032464285918634171 0.0015151328747041184 0 -0.032701099993498496 0.0010717862677414797 0 -0.032411282505425618 0.00097457739949872101 0 -0.032464285918634171 0.0015151328747041184 0 -0.031503923351040367 0.0014662692214867127 0 -0.031420373953728459 0.00094295121543619442 0 -0.0333147466161395 0.0015184184200506227 0 -0.032946749646561808 0.0012853999183575771 0 -0.033023123054743926 0.0017406128482585137 0 -0.032464285918634171 0.0015151328747041184 0 -0.032946749646561808 0.0012853999183575771 0 -0.033023123054743926 0.0017406128482585137 0 -0.032946749646561808 0.0012853999183575771 0 -0.033269886282658305 0.0012061356675981234 0 -0.033012834330746525 0.00091159752022137888 0 -0.0333147466161395 0.0015184184200506227 0 -0.032946749646561808 0.0012853999183575771 0 -0.033269886282658305 0.0012061356675981234 0 -0.0333147466161395 0.0015184184200506227 0 -0.033269886282658305 0.0012061356675981234 0 -0.033541037116334889 0.0013324217937656206 0 -0.033269886282658305 0.0012061356675981234 0 -0.033541037116334889 0.0013324217937656206 0 -0.033535967859494087 0.0010276328933044936 0 -0.033541037116334889 0.0013324217937656206 0 -0.033913642108034651 0.0013324877446030151 0 -0.033535967859494087 0.0010276328933044936 0 -0.033541037116334889 0.0013324217937656206 0 -0.033696770734644679 0.001690832981066377 0 -0.033913642108034651 0.0013324877446030151 0 -0.0333147466161395 0.0015184184200506227 0 -0.033541037116334889 0.0013324217937656206 0 -0.033696770734644679 0.001690832981066377 0 -0.0333147466161395 0.0015184184200506227 0 -0.033696770734644679 0.001690832981066377 0 -0.03353720199669849 0.0020731149065474222 0 -0.033696770734644679 0.001690832981066377 0 -0.03353720199669849 0.0020731149065474222 0 -0.034119327674514553 0.0022265593463256135 0 -0.03353720199669849 0.0020731149065474222 0 -0.033023123054743926 0.0017406128482585137 0 -0.032975872636788812 0.0022779878222191643 0 -0.0333147466161395 0.0015184184200506227 0 -0.03353720199669849 0.0020731149065474222 0 -0.033023123054743926 0.0017406128482585137 0 -0.032464285918634171 0.0015151328747041184 0 -0.033023123054743926 0.0017406128482585137 0 -0.032975872636788812 0.0022779878222191643 0 -0.02280852719202903 0.012164611598986184 0 -0.022336573837069256 0.012876873924743504 0 -0.022017320469955269 0.012001473743194229 0 -0.022336573837069256 0.012876873924743504 0 -0.022017320469955269 0.012001473743194229 0 -0.02108466903655026 0.012077760988911548 0 -0.027246536928305642 0.0069931619091090054 0 -0.02727960755203063 0.0074135902150196404 0 -0.021652415738234544 0.010848734540993388 0 -0.022849991520368866 0.010560619870533637 0 -0.022519463374523863 0.011425903762996943 0 -0.021652415738234544 0.010848734540993388 0 -0.022017320469955269 0.012001473743194229 0 -0.022519463374523863 0.011425903762996943 0 -0.021652415738234544 0.010848734540993388 0 -0.022017320469955269 0.012001473743194229 0 -0.02108466903655026 0.012077760988911548 0 -0.02280852719202903 0.012164611598986184 0 -0.022017320469955269 0.012001473743194229 0 -0.022519463374523863 0.011425903762996943 0 -0.021652415738234544 0.010848734540993388 0 -0.020780806348730307 0.01112670290761362 0 -0.02108466903655026 0.012077760988911548 0 -0.020780806348730307 0.01112670290761362 0 -0.02108466903655026 0.012077760988911548 0 -0.019862249531936882 0.01124428146646704 0 -0.03353720199669849 0.0020731149065474222 0 -0.033604407802172054 0.0026691901520300705 0 -0.034119327674514553 0.0022265593463256135 0 -0.03353720199669849 0.0020731149065474222 0 -0.032975872636788812 0.0022779878222191643 0 -0.033604407802172054 0.0026691901520300705 0 -0.033604407802172054 0.0026691901520300705 0 -0.034241322270499377 0.0031450857595108025 0 -0.034119327674514553 0.0022265593463256135 0 -0.034153008221194034 0.0038624796887755291 0 -0.034725669155963139 0.0031531251183874926 0 -0.034003193356826771 0.0027060072980933342 0 -0.027230617083264973 0.0078182397013197482 0 -0.030547195219353541 0.0037185073163398452 0 -0.02727960755203063 0.0074135902150196404 0 -0.027230617083264973 0.0078182397013197482 0 -0.019773644704334816 0.011701237123629233 0 -0.018645115210934923 0.011874855205953666 0 -0.018836643952803739 0.012852909712406721 0 -0.027230617083264973 0.0078182397013197482 0 -0.027067191046737417 0.0067945226486531406 0 -0.017798620572237824 0.011114054678015036 0 -0.018744632889115296 0.010974718296293214 0 -0.018645115210934923 0.011874855205953666 0 -0.018744632889115296 0.010974718296293214 0 -0.019773644704334816 0.011701237123629233 0 -0.018645115210934923 0.011874855205953666 0 -0.018645115210934923 0.011874855205953666 0 -0.018836643952803739 0.012852909712406721 0 -0.017782498453438995 0.012429481403789326 0 -0.034725669155963139 0.0031531251183874926 0 -0.034765403406106357 0.0026489465346791847 0 -0.034003193356826771 0.0027060072980933342 0 -0.034725669155963139 0.0031531251183874926 0 -0.034765403406106357 0.0026489465346791847 0 -0.035207694590744694 0.0025266799114425625 0 -0.027067191046737417 0.0067945226486531406 0 -0.027815812382962254 0.0044785378190170038 0 -0.034765403406106357 0.0026489465346791847 0 -0.034887271830630999 0.0021959007560205693 0 -0.035207694590744694 0.0025266799114425625 0 -0.034887271830630999 0.0021959007560205693 0 -0.034437533132699323 0.0023492407140799859 0 -0.034279706570474598 0.0018474536691436988 0 -0.034765403406106357 0.0026489465346791847 0 -0.034437533132699323 0.0023492407140799859 0 -0.034003193356826771 0.0027060072980933342 0 -0.034765403406106357 0.0026489465346791847 0 -0.034887271830630999 0.0021959007560205693 0 -0.034437533132699323 0.0023492407140799859 0 -0.030547195219353541 0.0037185073163398452 0 -0.031926737501523306 0.0022162220020508932 0 -0.033696770734644679 0.001690832981066377 0 -0.034119327674514553 0.0022265593463256135 0 -0.033913642108034651 0.0013324877446030151 0 -0.034437533132699323 0.0023492407140799859 0 -0.034003193356826771 0.0027060072980933342 0 -0.034279706570474598 0.0018474536691436988 0 -0.034003193356826771 0.0027060072980933342 0 -0.034279706570474598 0.0018474536691436988 0 -0.033883897209769122 0.0016720262677911699 0 -0.033883897209769122 0.0016720262677911699 0 -0.034313640751844988 0.0015276516656633546 0 -0.034049493293084036 0.0011756833388355955 0 -0.034279706570474598 0.0018474536691436988 0 -0.033883897209769122 0.0016720262677911699 0 -0.034313640751844988 0.0015276516656633546 0 -0.030175758944790913 0.0041700580693126259 0 -0.031245216361923272 0.0040443504348455558 0 -0.034857181622799521 0.0021821738650820502 0 -0.034279706570474598 0.0018474536691436988 0 -0.034313640751844988 0.0015276516656633546 0 -0.030175758944790913 0.0041700580693126259 0 -0.031377380322321118 0.0042465654036346143 0 -0.034707064256262986 0.0019863097861355285 0 -0.034313640751844988 0.0015276516656633546 0 -0.034574035397394884 0.0015872131583508848 0 -0.034707064256262986 0.0019863097861355285 0 -0.034574035397394884 0.0015872131583508848 0 -0.034963822837246875 0.0021120016740253378 0 -0.031969998103182337 0.0028799485200261946 0 -0.029229838507693267 0.0034078666550496745 0 -0.034468349119348297 0.00094437802325029107 0 -0.034530819811113445 0.00092911287580701649 0 -0.034520598942875555 0.00087626868424701455 0 -0.034468349119348297 0.00094437802325029107 0 -0.034491491712036124 0.00081556595716967216 0 -0.034172794875058886 0.00082406130316929735 0 -0.034491491712036124 0.00081556595716967216 0 -0.034516273402947245 0.00075871176921432084 0 -0.034538558536859124 0.00081776137289725351 0 -0.034491491712036124 0.00081556595716967216 0 -0.034538558536859124 0.00081776137289725351 0 -0.034520598942875555 0.00087626868424701455 0 -0.034468349119348297 0.00094437802325029107 0 -0.034491491712036124 0.00081556595716967216 0 -0.034520598942875555 0.00087626868424701455 0 -0.034313640751844988 0.0015276516656633546 0 -0.034574035397394884 0.0015872131583508848 0 -0.034172794875058886 0.00082406130316929735 0 -0.034313640751844988 0.0015276516656633546 0 -0.034049493293084036 0.0011756833388355955 0 -0.034172794875058886 0.00082406130316929735 0 -0.034491491712036124 0.00081556595716967216 0 -0.034172794875058886 0.00082406130316929735 0 -0.034449683002272392 0.00072327827449968941 0 -0.031969998103182337 0.0028799485200261946 0 -0.032491509725862837 0.0024571003611897364 0 -0.034049493293084036 0.0011756833388355955 0 -0.034172794875058886 0.00082406130316929735 0 -0.03379975681295308 0.0006668140022039388 0 -0.034172794875058886 0.00082406130316929735 0 -0.034449683002272392 0.00072327827449968941 0 -0.034254275615087537 0.00039167142645798016 0 -0.034172794875058886 0.00082406130316929735 0 -0.034254275615087537 0.00039167142645798016 0 -0.03379975681295308 0.0006668140022039388 0 -0.034449683002272392 0.00072327827449968941 0 -0.034254275615087537 0.00039167142645798016 0 -0.034642816723677215 0.000265462194850061 0 -0.034449683002272392 0.00072327827449968941 0 -0.034642816723677215 0.000265462194850061 0 -0.035022289317768733 6.9135242596229029e-05 0 -0.034449683002272392 0.00072327827449968941 0 -0.034516273402947245 0.00075871176921432084 0 -0.034533544040256055 0.00071191491028947977 0 -0.034550150379295257 0.00052445376183471568 0 -0.034651837830175759 0.00037788125208822247 0 -0.034491491712036124 0.00081556595716967216 0 -0.034449683002272392 0.00072327827449968941 0 -0.034516273402947245 0.00075871176921432084 0 -0.034642816723677215 0.000265462194850061 0 -0.034803337090694823 -6.2322026926728334e-05 0 -0.035022289317768733 6.9135242596229029e-05 0 -0.034999792852386927 -1.1951103841491128e-07 0 -0.034803337090694823 -6.2322026926728334e-05 0 -0.034999725844646966 5.5096849900991403e-08 0 -0.034999792852386927 -1.1951103841491128e-07 0 -0.034803337090694823 -6.2322026926728334e-05 0 -0.035022289317768733 6.9135242596229029e-05 0 -0.034803337090694823 -6.2322026926728334e-05 0 -0.034999725844646966 5.5096849900991403e-08 0 -0.034987614203738755 -6.3119328192957921e-05 0 -0.034254275615087537 0.00039167142645798016 0 -0.034642816723677215 0.000265462194850061 0 -0.034803337090694823 -6.2322026926728334e-05 0 -0.034476081479026671 1.5500100578164006e-05 0 -0.03438263808864063 4.6954799573399378e-05 0 -0.034254275615087537 0.00039167142645798016 0 -0.034803337090694823 -6.2322026926728334e-05 0 -0.033932359842490899 -4.1795099042195075e-05 0 -0.033932359842490899 -4.1795099042195075e-05 0 -0.033545626515944393 0.00040226890898426791 0 -0.033881196101431484 0.00035908861807038754 0 -0.034254275615087537 0.00039167142645798016 0 -0.033932359842490899 -4.1795099042195075e-05 0 -0.033881196101431484 0.00035908861807038754 0 -0.033932359842490899 -4.1795099042195075e-05 0 -0.03327793043707393 0.00011821382811471538 0 -0.033545626515944393 0.00040226890898426791 0 -0.03438263808864063 4.6954799573399378e-05 0 -0.034223726489039125 0.00011980054457438323 0 -0.034999725844646966 5.5096849900991403e-08 0 -0.034987614203738755 -6.3119328192957921e-05 0 -0.035000197992999617 -7.0778961023561153e-08 0 -0.034987614203738755 -6.3119328192957921e-05 0 -0.035000197992999617 -7.0778961023561153e-08 0 -0.035022601135370902 -7.1398137172847662e-05 0 -0.034998677862669796 -6.4745768765761349e-08 0 -0.034223726489039125 0.00011980054457438323 0 -0.035000044926621406 1.4563984555037655e-08 0 -0.035005959593279887 2.5792101467077795e-05 0 -0.034996840785245648 1.4953750672440076e-05 0 -0.034223726489039125 0.00011980054457438323 0 -0.033794316890658788 0.000136562155441222 0 -0.033151607768813991 -1.3190885851869782e-05 0 -0.033077754271227715 0.00044660639216504837 0 -0.032625988680793146 0.00016121187180888005 0 -0.033189252909931542 0.00055450628275679971 0 -0.033545626515944393 0.00040226890898426791 0 -0.033434152367896625 0.00073255967366465382 0 -0.034223726489039125 0.00011980054457438323 0 -0.03394942224378248 0.00042616798485722033 0 -0.03327793043707393 0.00011821382811471538 0 -0.033189252909931542 0.00055450628275679971 0 -0.033545626515944393 0.00040226890898426791 0 -0.033545626515944393 0.00040226890898426791 0 -0.033881196101431484 0.00035908861807038754 0 -0.03379975681295308 0.0006668140022039388 0 -0.034254275615087537 0.00039167142645798016 0 -0.033881196101431484 0.00035908861807038754 0 -0.03379975681295308 0.0006668140022039388 0 -0.033545626515944393 0.00040226890898426791 0 -0.03379975681295308 0.0006668140022039388 0 -0.033434152367896625 0.00073255967366465382 0 -0.03379975681295308 0.0006668140022039388 0 -0.033434152367896625 0.00073255967366465382 0 -0.033535967859494087 0.0010276328933044936 0 -0.033913642108034651 0.0013324877446030151 0 -0.03379975681295308 0.0006668140022039388 0 -0.033535967859494087 0.0010276328933044936 0 -0.031926737501523306 0.0022162220020508932 0 -0.032284594247315078 0.0016343113036233719 0 -0.033883897209769122 0.0016720262677911699 0 -0.034049493293084036 0.0011756833388355955 0 -0.03379975681295308 0.0006668140022039388 0 -0.033269886282658305 0.0012061356675981234 0 -0.033535967859494087 0.0010276328933044936 0 -0.033012834330746525 0.00091159752022137888 0 -0.032946749646561808 0.0012853999183575771 0 -0.033012834330746525 0.00091159752022137888 0 -0.032701099993498496 0.0010717862677414797 0 -0.033077754271227715 0.00044660639216504837 0 -0.033012834330746525 0.00091159752022137888 0 -0.032651499663448692 0.00061761151295712828 0 -0.03394942224378248 0.00042616798485722033 0 -0.033854053731804772 0.00057086814214740787 0 -0.033189252909931542 0.00055450628275679971 0 -0.033434152367896625 0.00073255967366465382 0 -0.033012834330746525 0.00091159752022137888 0 -0.033434152367896625 0.00073255967366465382 0 -0.033535967859494087 0.0010276328933044936 0 -0.033012834330746525 0.00091159752022137888 0 -0.033012834330746525 0.00091159752022137888 0 -0.032701099993498496 0.0010717862677414797 0 -0.032651499663448692 0.00061761151295712828 0 -0.032701099993498496 0.0010717862677414797 0 -0.032411282505425618 0.00097457739949872101 0 -0.032651499663448692 0.00061761151295712828 0 -0.032411282505425618 0.00097457739949872101 0 -0.032119511122910373 0.00033462183733615452 0 -0.032651499663448692 0.00061761151295712828 0 -0.031065716980034633 -0.00087943305017329119 0 -0.031007782105769235 0.00045082611068540581 0 -0.031599458227474106 -0.00035272618929087397 0 -0.030837743496667621 -9.4135888664043305e-05 0 -0.031065716980034633 -0.00087943305017329119 0 -0.030837149496580219 -0.0010219440093009685 0 -0.031065716980034633 -0.00087943305017329119 0 -0.030837149496580219 -0.0010219440093009685 0 -0.031599458227474106 -0.00035272618929087397 0 -0.032758213953324601 0.00028249580545113841 0 -0.033339228876515248 0.00017026096050877637 0 -0.033339228876515248 0.00017026096050877637 0 -0.033794316890658788 0.000136562155441222 0 -0.032119511122910373 0.00033462183733615452 0 -0.032651499663448692 0.00061761151295712828 0 -0.032625988680793146 0.00016121187180888005 0 -0.033077754271227715 0.00044660639216504837 0 -0.032651499663448692 0.00061761151295712828 0 -0.032625988680793146 0.00016121187180888005 0 -0.035005959593279887 2.5792101467077795e-05 0 -0.034989137108976755 3.8763851289713765e-05 0 -0.034996840785245648 1.4953750672440076e-05 0 -0.034989137108976755 3.8763851289713765e-05 0 -0.034996840785245648 1.4953750672440076e-05 0 -0.03498050574364199 2.7101592136637551e-05 0 -0.034999944074020975 -1.1100232289448079e-09 0 -0.034996840785245648 1.4953750672440076e-05 0 -0.03498050574364199 2.7101592136637551e-05 0 -0.035000044926621406 1.4563984555037655e-08 0 -0.034999944074020975 -1.1100232289448079e-09 0 -0.034996840785245648 1.4953750672440076e-05 0 -0.034999944074020975 -1.1100232289448079e-09 0 -0.034950465702515289 3.0366393320907338e-05 0 -0.034925669785131348 -1.3500316514487953e-08 0 -0.034999944074020975 -1.1100232289448079e-09 0 -0.03498050574364199 2.7101592136637551e-05 0 -0.034950465702515289 3.0366393320907338e-05 0 -0.033339228876515248 0.00017026096050877637 0 -0.033769017801348188 0.0001487826265457444 0 -0.034963226747104365 5.1972354567356558e-05 0 -0.03498050574364199 2.7101592136637551e-05 0 -0.034950465702515289 3.0366393320907338e-05 0 -0.034963226747104365 5.1972354567356558e-05 0 -0.034989137108976755 3.8763851289713765e-05 0 -0.03498050574364199 2.7101592136637551e-05 0 -0.034026456204841515 1.973226458178158e-05 0 -0.034146643141294654 -1.2127369996489739e-05 0 -0.033881179500098224 -3.9199776041770289e-05 0 -0.034146643141294654 -1.2127369996489739e-05 0 -0.034586477793467491 3.5125279716535016e-05 0 -0.034210973655011662 4.7463719493287231e-05 0 -0.034146643141294654 -1.2127369996489739e-05 0 -0.034210973655011662 4.7463719493287231e-05 0 -0.033881179500098224 -3.9199776041770289e-05 0 -0.034146643141294654 -1.2127369996489739e-05 0 -0.034586477793467491 3.5125279716535016e-05 0 -0.034924202011224328 3.5423379437303364e-07 0 -0.033769017801348188 0.0001487826265457444 0 -0.03390629452714939 0.00011672292469623341 0 -0.034586477793467491 3.5125279716535016e-05 0 -0.034924202011224328 3.5423379437303364e-07 0 -0.034698858640336616 7.7055239302464373e-05 0 -0.034999910213764453 1.2452362117287007e-07 0 -0.034924202011224328 3.5423379437303364e-07 0 -0.034698858640336616 7.7055239302464373e-05 0 -0.034586477793467491 3.5125279716535016e-05 0 -0.034698858640336616 7.7055239302464373e-05 0 -0.034210973655011662 4.7463719493287231e-05 0 -0.034889209733906766 6.5003028054974591e-05 0 -0.034698858640336616 7.7055239302464373e-05 0 -0.034210973655011662 4.7463719493287231e-05 0 -0.034765957129935375 -0.00039697834645663051 0 -0.034210973655011662 4.7463719493287231e-05 0 -0.034139513058623269 -0.00064580522674608518 0 -0.034210973655011662 4.7463719493287231e-05 0 -0.033374724655050869 -5.7896871730615714e-05 0 -0.034139513058623269 -0.00064580522674608518 0 -0.034026456204841515 1.973226458178158e-05 0 -0.033881179500098224 -3.9199776041770289e-05 0 -0.033374724655050869 -5.7896871730615714e-05 0 -0.033339228876515248 0.00017026096050877637 0 -0.033320952463280672 0.00014756225277273035 0 -0.034210973655011662 4.7463719493287231e-05 0 -0.033881179500098224 -3.9199776041770289e-05 0 -0.033374724655050869 -5.7896871730615714e-05 0 -0.031007782105769235 0.00045082611068540581 0 -0.031599458227474106 -0.00035272618929087397 0 -0.033374724655050869 -5.7896871730615714e-05 0 -0.031599458227474106 -0.00035272618929087397 0 -0.033374724655050869 -5.7896871730615714e-05 0 -0.033482515690031966 -0.0016139777663691374 0 -0.030634658954655541 0.00010622706955274049 0 -0.030555478253598767 0.00030918348663214044 0 -0.030837149496580219 -0.0010219440093009685 0 -0.031599458227474106 -0.00035272618929087397 0 -0.033482515690031966 -0.0016139777663691374 0 -0.033374724655050869 -5.7896871730615714e-05 0 -0.034139513058623269 -0.00064580522674608518 0 -0.033482515690031966 -0.0016139777663691374 0 -0.034818277572017962 -0.0016765480307784377 0 -0.034139513058623269 -0.00064580522674608518 0 -0.033482515690031966 -0.0016139777663691374 0 -0.027065886194666183 0.0020791209637458343 0 -0.027020935311646534 0.0020908857847133817 0 -0.027055940377941432 0.0020573243427161416 0 -0.027065886194666183 0.0020791209637458343 0 -0.027020935311646534 0.0020908857847133817 0 -0.027029006483368007 0.0021112674441000037 0 -0.027065886194666183 0.0020791209637458343 0 -0.027102609558073407 0.0020901820145370238 0 -0.027074809155795746 0.0021090447641469853 0 -0.027020935311646534 0.0020908857847133817 0 -0.027021056876798573 0.0020728832221373647 0 -0.02702153889715022 0.0020898689815648719 0 -0.027020935311646534 0.0020908857847133817 0 -0.027021056876798573 0.0020728832221373647 0 -0.027055940377941432 0.0020573243427161416 0 -0.027021056876798573 0.0020728832221373647 0 -0.027055940377941432 0.0020573243427161416 0 -0.027061378696594699 0.002001135803617059 0 -0.027021056876798573 0.0020728832221373647 0 -0.027061378696594699 0.002001135803617059 0 -0.02703278938476095 0.0019853427775447159 0 -0.027065886194666183 0.0020791209637458343 0 -0.027055940377941432 0.0020573243427161416 0 -0.027098368335522125 0.0020367226898413003 0 -0.027055940377941432 0.0020573243427161416 0 -0.027098368335522125 0.0020367226898413003 0 -0.027061378696594699 0.002001135803617059 0 -0.027910814830077527 0.00098394851029434444 0 -0.028325643447007238 0.0011243455277726232 0 -0.02928662189699615 0.0006390176076658254 0 -0.029306193587444466 0.000523836759993574 0 -0.029399991403257726 0.00074616146365335287 0 -0.026926757215303233 0.0016560211869255308 0 -0.026753791012060112 0.0014583910653558619 0 -0.026866250076269079 0.0017897197974158364 0 -0.026604899492381869 0.0014028143658159728 0 -0.026753791012060112 0.0014583910653558619 0 -0.026866250076269079 0.0017897197974158364 0 -0.029307199040932749 0.00072972254668650577 0 -0.02928662189699615 0.0006390176076658254 0 -0.029399991403257726 0.00074616146365335287 0 -0.031310718960982656 0.00089400265727142118 0 -0.030447780365229483 0.00098418804316943633 0 -0.027878129216348701 0.0026972732088396891 0 -0.027960186131445693 0.0025015443434792907 0 -0.028375049492762802 0.0030202355088393114 0 -0.029307199040932749 0.00072972254668650577 0 -0.02928662189699615 0.0006390176076658254 0 -0.029179586768457316 0.00063392049829623885 0 -0.029266953451758122 0.0011010389172674329 0 -0.030447780365229483 0.00098418804316943633 0 -0.02928662189699615 0.0006390176076658254 0 -0.029238641492347759 0.00056151995793924075 0 -0.029179586768457316 0.00063392049829623885 0 -0.02928662189699615 0.0006390176076658254 0 -0.029238641492347759 0.00056151995793924075 0 -0.029306193587444466 0.000523836759993574 0 -0.029238641492347759 0.00056151995793924075 0 -0.029306193587444466 0.000523836759993574 0 -0.029239178448001692 0.00047468060049048319 0 -0.029238641492347759 0.00056151995793924075 0 -0.029239178448001692 0.00047468060049048319 0 -0.029177128610261078 0.00050270287364500665 0 -0.026439826387493127 0.0018529608175012742 0 -0.025951808411011839 0.0014658634710423548 0 -0.027065886194666183 0.0020791209637458343 0 -0.027098368335522125 0.0020367226898413003 0 -0.027102609558073407 0.0020901820145370238 0 -0.026926757215303233 0.0016560211869255308 0 -0.026753791012060112 0.0014583910653558619 0 -0.026770032497262675 0.001313521881497799 0 -0.026604899492381869 0.0014028143658159728 0 -0.026753791012060112 0.0014583910653558619 0 -0.026708582659896576 0.0013621642628571019 0 -0.025983199027769934 0.0014482070669455159 0 -0.025951808411011839 0.0014658634710423548 0 -0.025951808411011839 0.0014658634710423548 0 -0.025066665444683878 0.0014667972066253088 0 -0.026128577910066314 0.00056663471892031683 0 -0.026062780824067239 0.0008795566605139173 0 -0.026261857868384336 0.0010037738469988635 0 -0.027102609558073407 0.0020901820145370238 0 -0.027101951484940622 0.0021448523117615264 0 -0.027074809155795746 0.0021090447641469853 0 -0.026708582659896576 0.0013621642628571019 0 -0.026595007821920199 0.0013171144333524788 0 -0.026550363475187654 0.0012840046354153096 0 -0.025951808411011839 0.0014658634710423548 0 -0.026150691596594368 0.0013451319366107716 0 -0.026604899492381869 0.0014028143658159728 0 -0.026708582659896576 0.0013621642628571019 0 -0.026595007821920199 0.0013171144333524788 0 -0.029306193587444466 0.000523836759993574 0 -0.029239178448001692 0.00047468060049048319 0 -0.02923464704200323 0.00028866126605960177 0 -0.026604899492381869 0.0014028143658159728 0 -0.026595007821920199 0.0013171144333524788 0 -0.026567310022673825 0.0012765575561597591 0 -0.027910814830077527 0.00098394851029434444 0 -0.027419228787358526 0.00078566728116808912 0 -0.029239178448001692 0.00047468060049048319 0 -0.02923464704200323 0.00028866126605960177 0 -0.029198794125998281 0.00042473515762751394 0 -0.026595007821920199 0.0013171144333524788 0 -0.026561303555747984 0.001292909176363376 0 -0.026567310022673825 0.0012765575561597591 0 -0.026595007821920199 0.0013171144333524788 0 -0.026561303555747984 0.001292909176363376 0 -0.026550363475187654 0.0012840046354153096 0 -0.026561303555747984 0.001292909176363376 0 -0.026552672594715113 0.0013171122592647295 0 -0.026550363475187654 0.0012840046354153096 0 -0.02653299382126461 0.0013690469914723596 0 -0.026552672594715113 0.0013171122592647295 0 -0.026550363475187654 0.0012840046354153096 0 -0.026571101414517191 0.0013532685420590555 0 -0.026561303555747984 0.001292909176363376 0 -0.026567310022673825 0.0012765575561597591 0 -0.026571101414517191 0.0013532685420590555 0 -0.026561303555747984 0.001292909176363376 0 -0.026552672594715113 0.0013171122592647295 0 -0.026571101414517191 0.0013532685420590555 0 -0.02653299382126461 0.0013690469914723596 0 -0.026552672594715113 0.0013171122592647295 0 -0.025979626047734454 0.001212313834552523 0 -0.026062780824067239 0.0008795566605139173 0 -0.026148918460691443 0.0010667815555191213 0 -0.023719377443352486 0.0017010328319126409 0 -0.025066665444683878 0.0014667972066253088 0 -0.026062780824067239 0.0008795566605139173 0 -0.026261857868384336 0.0010037738469988635 0 -0.026148918460691443 0.0010667815555191213 0 -0.026133424898913925 0.0011861223765707596 0 -0.026261857868384336 0.0010037738469988635 0 -0.026148918460691443 0.0010667815555191213 0 -0.025974340415752698 0.0012138540669720771 0 -0.026133424898913925 0.0011861223765707596 0 -0.026148918460691443 0.0010667815555191213 0 -0.023719377443352486 0.0017010328319126409 0 -0.024053493695250054 0.0014820489729439725 0 -0.027048974144685909 0.0021704306646133965 0 -0.027029006483368007 0.0021112674441000037 0 -0.026963915521864931 0.0021696048723044183 0 -0.027006373239184971 0.0022572099163874998 0 -0.027106384217914743 0.002260482108608707 0 -0.027048974144685909 0.0021704306646133965 0 -0.027106384217914743 0.002260482108608707 0 -0.027101951484940622 0.0021448523117615264 0 -0.027048974144685909 0.0021704306646133965 0 -0.027006373239184971 0.0022572099163874998 0 -0.027048974144685909 0.0021704306646133965 0 -0.026963915521864931 0.0021696048723044183 0 -0.027048974144685909 0.0021704306646133965 0 -0.027029006483368007 0.0021112674441000037 0 -0.027074809155795746 0.0021090447641469853 0 -0.027101951484940622 0.0021448523117615264 0 -0.027048974144685909 0.0021704306646133965 0 -0.027074809155795746 0.0021090447641469853 0 -0.027065886194666183 0.0020791209637458343 0 -0.027029006483368007 0.0021112674441000037 0 -0.027074809155795746 0.0021090447641469853 0 -0.027029006483368007 0.0021112674441000037 0 -0.02699736820659732 0.0021143127907741438 0 -0.026963915521864931 0.0021696048723044183 0 -0.027020935311646534 0.0020908857847133817 0 -0.02699736820659732 0.0021143127907741438 0 -0.027011546077557139 0.002097474655448611 0 -0.027020935311646534 0.0020908857847133817 0 -0.027029006483368007 0.0021112674441000037 0 -0.02699736820659732 0.0021143127907741438 0 -0.026869086603370264 0.0023228647103410351 0 -0.026963915521864931 0.0021696048723044183 0 -0.02675072719085558 0.0021953475281604102 0 -0.026963915521864931 0.0021696048723044183 0 -0.02675072719085558 0.0021953475281604102 0 -0.026649759367479809 0.0020214251249506387 0 -0.022386783265253403 0.005482953734158285 0 -0.025466169413297757 0.002894952386003681 0 -0.02699736820659732 0.0021143127907741438 0 -0.026963915521864931 0.0021696048723044183 0 -0.02700403894795559 0.0020997793854892091 0 -0.026110763266697527 0.0029042671581878941 0 -0.025466169413297757 0.002894952386003681 0 -0.026608020135715629 0.0023335648344776912 0 -0.02675072719085558 0.0021953475281604102 0 -0.026649759367479809 0.0020214251249506387 0 -0.024794961616335168 0.0025087941889019175 0 -0.024589553407782565 0.0039640197124376176 0 -0.026107594266607786 0.0038013042681006911 0 -0.022386783265253403 0.005482953734158285 0 -0.023841857013906401 0.0057230086795136362 0 -0.016558620075429079 0.011227622053780268 0 -0.01479152254263174 0.010870777974158129 0 -0.01640899854735858 0.012409548066729068 0 -0.024589553407782565 0.0039640197124376176 0 -0.026107594266607786 0.0038013042681006911 0 -0.026108449205251079 0.0041186581546611518 0 -0.025466169413297757 0.002894952386003681 0 -0.026842921929456608 0.0030853244589435602 0 -0.024589553407782565 0.0039640197124376176 0 -0.026108449205251079 0.0041186581546611518 0 -0.025855178848221767 0.0045878480636723116 0 -0.027050249122605455 0.0020940377941106813 0 -0.027015039343359405 0.0020700961552682102 0 -0.027091422645076996 0.0020948448831839685 0 -0.027050249122605455 0.0020940377941106813 0 -0.027012185586639433 0.0020922284696714443 0 -0.027025655439575792 0.0020952540790457764 0 -0.027012185586639433 0.0020922284696714443 0 -0.027011546077557139 0.002097474655448611 0 -0.027025655439575792 0.0020952540790457764 0 -0.02699736820659732 0.0021143127907741438 0 -0.027012185586639433 0.0020922284696714443 0 -0.027011546077557139 0.002097474655448611 0 -0.02699736820659732 0.0021143127907741438 0 -0.027012185586639433 0.0020922284696714443 0 -0.02700403894795559 0.0020997793854892091 0 -0.027050249122605455 0.0020940377941106813 0 -0.027012185586639433 0.0020922284696714443 0 -0.027015039343359405 0.0020700961552682102 0 -0.025495573687340983 0.0028398197918274156 0 -0.025466169413297757 0.002894952386003681 0 -0.017798620572237824 0.011114054678015036 0 -0.018645115210934923 0.011874855205953666 0 -0.017782498453438995 0.012429481403789326 0 -0.016558620075429079 0.011227622053780268 0 -0.017798620572237824 0.011114054678015036 0 -0.017782498453438995 0.012429481403789326 0 -0.016558620075429079 0.011227622053780268 0 -0.017782498453438995 0.012429481403789326 0 -0.01640899854735858 0.012409548066729068 0 -0.026108449205251079 0.0041186581546611518 0 -0.025855178848221767 0.0045878480636723116 0 -0.027124963880726025 0.0051961613949309381 0 -0.026107594266607786 0.0038013042681006911 0 -0.026108449205251079 0.0041186581546611518 0 -0.027465968672076849 0.005135846881803483 0 -0.02813217675576574 0.0033842732683047926 0 -0.028781317414347658 0.0033597161112694542 0 -0.018836643952803739 0.012852909712406721 0 -0.017782498453438995 0.012429481403789326 0 -0.017992171261149281 0.013904408585660768 0 -0.023841857013906401 0.0057230086795136362 0 -0.027815812382962254 0.0044785378190170038 0 -0.017782498453438995 0.012429481403789326 0 -0.01640899854735858 0.012409548066729068 0 -0.017992171261149281 0.013904408585660768 0 -0.026108449205251079 0.0041186581546611518 0 -0.027465968672076849 0.005135846881803483 0 -0.027155885970977327 0.0052422910740596634 0 -0.029741430083359593 0.0044558953640759461 0 -0.027595803324720898 0.0022885397516146416 0 -0.02679460069986268 0.0032809630197202138 0 -0.030175758944790913 0.0041700580693126259 0 -0.027815812382962254 0.0044785378190170038 0 -0.030175758944790913 0.0041700580693126259 0 -0.029229838507693267 0.0034078666550496745 0 -0.027465968672076849 0.005135846881803483 0 -0.027155885970977327 0.0052422910740596634 0 -0.027276904447656507 0.0053736467548099074 0 -0.027815812382962254 0.0044785378190170038 0 -0.029229838507693267 0.0034078666550496745 0 -0.028781317414347658 0.0033597161112694542 0 -0.029229838507693267 0.0034078666550496745 0 -0.027009270080270716 0.0021042183016810063 0 -0.02698216743381545 0.0020854936534143108 0 -0.027087975871275021 0.0020838426719354381 0 -0.026842921929456608 0.0030853244589435602 0 -0.028781317414347658 0.0033597161112694542 0 -0.02698216743381545 0.0020854936534143108 0 -0.027087975871275021 0.0020838426719354381 0 -0.027111635572077176 0.0018115517404268936 0 -0.027091422645076996 0.0020948448831839685 0 -0.027009270080270716 0.0021042183016810063 0 -0.027087975871275021 0.0020838426719354381 0 -0.027087975871275021 0.0020838426719354381 0 -0.027071150195102395 0.0020939702586723098 0 -0.027061532399597382 0.0021060131860962004 0 -0.027091422645076996 0.0020948448831839685 0 -0.027087975871275021 0.0020838426719354381 0 -0.027071150195102395 0.0020939702586723098 0 -0.027111635572077176 0.0018115517404268936 0 -0.027491927410392816 0.0018159388477192058 0 -0.027400899563625326 0.0014287874497325064 0 -0.027087975871275021 0.0020838426719354381 0 -0.027111635572077176 0.0018115517404268936 0 -0.027491927410392816 0.0018159388477192058 0 -0.027758345645426941 0.0022503695851139073 0 -0.028092028440239499 0.0021172085958284597 0 -0.034524654768919853 0.0010001471891653681 0 -0.034586893126101928 0.00092516079747839437 0 -0.034530819811113445 0.00092911287580701649 0 -0.029229838507693267 0.0034078666550496745 0 -0.030384518763051468 0.0018774238385105549 0 -0.034468349119348297 0.00094437802325029107 0 -0.034524654768919853 0.0010001471891653681 0 -0.034530819811113445 0.00092911287580701649 0 -0.034586893126101928 0.00092516079747839437 0 -0.034530819811113445 0.00092911287580701649 0 -0.034556769760830386 0.00087693964524412254 0 -0.034530819811113445 0.00092911287580701649 0 -0.034520598942875555 0.00087626868424701455 0 -0.034556769760830386 0.00087693964524412254 0 -0.02702153889715022 0.0020898689815648719 0 -0.027044249722550862 0.0020951984670037897 0 -0.027038400338337352 0.0020934618214310924 0 -0.027021056876798573 0.0020728832221373647 0 -0.02702153889715022 0.0020898689815648719 0 -0.027038400338337352 0.0020934618214310924 0 -0.027020935311646534 0.0020908857847133817 0 -0.027011546077557139 0.002097474655448611 0 -0.02702153889715022 0.0020898689815648719 0 -0.027011546077557139 0.002097474655448611 0 -0.02702153889715022 0.0020898689815648719 0 -0.027025655439575792 0.0020952540790457764 0 -0.02702153889715022 0.0020898689815648719 0 -0.027025655439575792 0.0020952540790457764 0 -0.027044249722550862 0.0020951984670037897 0 -0.027071150195102395 0.0020939702586723098 0 -0.027044249722550862 0.0020951984670037897 0 -0.027061532399597382 0.0021060131860962004 0 -0.027050249122605455 0.0020940377941106813 0 -0.027071150195102395 0.0020939702586723098 0 -0.027044249722550862 0.0020951984670037897 0 -0.027050249122605455 0.0020940377941106813 0 -0.027025655439575792 0.0020952540790457764 0 -0.027044249722550862 0.0020951984670037897 0 -0.027050249122605455 0.0020940377941106813 0 -0.027091422645076996 0.0020948448831839685 0 -0.027071150195102395 0.0020939702586723098 0 -0.027044249722550862 0.0020951984670037897 0 -0.027061532399597382 0.0021060131860962004 0 -0.027038400338337352 0.0020934618214310924 0 -0.02885229646252585 0.0013791485752755793 0 -0.029449437923597693 0.0014550384119772211 0 -0.027061532399597382 0.0021060131860962004 0 -0.027038400338337352 0.0020934618214310924 0 -0.027042026660174578 0.0021208530549034202 0 -0.027021056876798573 0.0020728832221373647 0 -0.027038400338337352 0.0020934618214310924 0 -0.027042026660174578 0.0021208530549034202 0 -0.029449437923597693 0.0014550384119772211 0 -0.030019302058287359 0.0013313301331000992 0 -0.027933155526958985 0.001434254596976547 0 -0.027400899563625326 0.0014287874497325064 0 -0.027726047184189858 0.0010326480301106782 0 -0.028092028440239499 0.0021172085958284597 0 -0.029449437923597693 0.0014550384119772211 0 -0.027491927410392816 0.0018159388477192058 0 -0.027933155526958985 0.001434254596976547 0 -0.027400899563625326 0.0014287874497325064 0 -0.034633875625429349 0.00083816852918575872 0 -0.034630136961023766 0.00075480923859859515 0 -0.034671201941033479 0.00077225486964791965 0 -0.030785043122971083 0.0012567253284895517 0 -0.030908357501927171 0.00092188649025790319 0 -0.034630136961023766 0.00075480923859859515 0 -0.034671201941033479 0.00077225486964791965 0 -0.034642754246964537 0.00071551420585432078 0 -0.03054318995423197 0.0010348460749881924 0 -0.030421993782111453 0.00080255312602775758 0 -0.030748096800542506 0.00084465400619709342 0 -0.030421993782111453 0.00080255312602775758 0 -0.030575275979555446 0.00061384126407328739 0 -0.030748096800542506 0.00084465400619709342 0 -0.030908357501927171 0.00092188649025790319 0 -0.031707434586533752 0.00060189156884734273 0 -0.029449437923597693 0.0014550384119772211 0 -0.030908357501927171 0.00092188649025790319 0 -0.034538558536859124 0.00081776137289725351 0 -0.034520598942875555 0.00087626868424701455 0 -0.034556769760830386 0.00087693964524412254 0 -0.034538558536859124 0.00081776137289725351 0 -0.034556769760830386 0.00087693964524412254 0 -0.03458793886104345 0.00082613145374301833 0 -0.030384518763051468 0.0018774238385105549 0 -0.030785043122971083 0.0012567253284895517 0 -0.034586893126101928 0.00092516079747839437 0 -0.034633875625429349 0.00083816852918575872 0 -0.03458793886104345 0.00082613145374301833 0 -0.034586893126101928 0.00092516079747839437 0 -0.034556769760830386 0.00087693964524412254 0 -0.03458793886104345 0.00082613145374301833 0 -0.034633875625429349 0.00083816852918575872 0 -0.03458793886104345 0.00082613145374301833 0 -0.034596227787865114 0.00077149790650594941 0 -0.034633875625429349 0.00083816852918575872 0 -0.034630136961023766 0.00075480923859859515 0 -0.034596227787865114 0.00077149790650594941 0 -0.034630136961023766 0.00075480923859859515 0 -0.034596227787865114 0.00077149790650594941 0 -0.034606258446921744 0.00073651476237620651 0 -0.034596227787865114 0.00077149790650594941 0 -0.034556680526153148 0.00076168373502796295 0 -0.034580536806498932 0.00072362617039330667 0 -0.03458793886104345 0.00082613145374301833 0 -0.034596227787865114 0.00077149790650594941 0 -0.034556680526153148 0.00076168373502796295 0 -0.034516273402947245 0.00075871176921432084 0 -0.034556680526153148 0.00076168373502796295 0 -0.034533544040256055 0.00071191491028947977 0 -0.034538558536859124 0.00081776137289725351 0 -0.03458793886104345 0.00082613145374301833 0 -0.034556680526153148 0.00076168373502796295 0 -0.034516273402947245 0.00075871176921432084 0 -0.034538558536859124 0.00081776137289725351 0 -0.034556680526153148 0.00076168373502796295 0 -0.034533544040256055 0.00071191491028947977 0 -0.034580536806498932 0.00072362617039330667 0 -0.034597444140513724 0.00068335388097027084 0 -0.034556680526153148 0.00076168373502796295 0 -0.034533544040256055 0.00071191491028947977 0 -0.034580536806498932 0.00072362617039330667 0 -0.034580536806498932 0.00072362617039330667 0 -0.03460136214364936 0.00071366398920194314 0 -0.034597444140513724 0.00068335388097027084 0 -0.034596227787865114 0.00077149790650594941 0 -0.034580536806498932 0.00072362617039330667 0 -0.034606258446921744 0.00073651476237620651 0 -0.034630136961023766 0.00075480923859859515 0 -0.034606258446921744 0.00073651476237620651 0 -0.034621264371284516 0.00071265134359460667 0 -0.034580536806498932 0.00072362617039330667 0 -0.034606258446921744 0.00073651476237620651 0 -0.03460136214364936 0.00071366398920194314 0 -0.034606258446921744 0.00073651476237620651 0 -0.03460136214364936 0.00071366398920194314 0 -0.034621264371284516 0.00071265134359460667 0 -0.03460136214364936 0.00071366398920194314 0 -0.034597444140513724 0.00068335388097027084 0 -0.034621264371284516 0.00071265134359460667 0 -0.034597444140513724 0.00068335388097027084 0 -0.034621264371284516 0.00071265134359460667 0 -0.034639146567092167 0.00071469908529136876 0 -0.034533544040256055 0.00071191491028947977 0 -0.034597444140513724 0.00068335388097027084 0 -0.034594395168056721 0.00064513016727439849 0 -0.034597444140513724 0.00068335388097027084 0 -0.034605257222906853 0.00064564894066948975 0 -0.034639146567092167 0.00071469908529136876 0 -0.034597444140513724 0.00068335388097027084 0 -0.034605257222906853 0.00064564894066948975 0 -0.034594395168056721 0.00064513016727439849 0 -0.034999960807955532 -7.3015290919618101e-08 0 -0.035024480057606285 4.570943796503239e-05 0 -0.034903296075682183 7.290426419526462e-08 0 -0.034812504010926365 9.7975854596471913e-05 0 -0.034768067750232522 0.00011995096586049333 0 -0.034994920387482309 2.689762424806273e-06 0 -0.034812504010926365 9.7975854596471913e-05 0 -0.034999792852386927 -1.1951103841491128e-07 0 -0.035022289317768733 6.9135242596229029e-05 0 -0.034903494030397476 9.2772694838992098e-08 0 -0.034651837830175759 0.00037788125208822247 0 -0.034768067750232522 0.00011995096586049333 0 -0.033142329333942844 0.00016692388781678404 0 -0.033469694545893068 0.00020391438394160569 0 -0.033273770471114648 0.0003391352535397941 0 -0.031707434586533752 0.00060189156884734273 0 -0.032704008763266047 0.00078666792265981705 0 -0.033075494960437248 0.00024938986730480044 0 -0.033273770471114648 0.0003391352535397941 0 -0.033066851927426186 0.0003933707683083761 0 -0.033075494960437248 0.00024938986730480044 0 -0.033142329333942844 0.00016692388781678404 0 -0.033273770471114648 0.0003391352535397941 0 -0.031759499965495375 0.00055732213244475521 0 -0.031707434586533752 0.00060189156884734273 0 -0.030908357501927171 0.00092188649025790319 0 -0.032704008763266047 0.00078666792265981705 0 -0.031510083373765936 0.00051580917490829021 0 -0.031550310043108286 0.0004658855785081887 0 -0.031482659445208748 0.00045935614456730622 0 -0.034630136961023766 0.00075480923859859515 0 -0.034621264371284516 0.00071265134359460667 0 -0.034642754246964537 0.00071551420585432078 0 -0.032812768095759809 0.00079472112860560259 0 -0.032704008763266047 0.00078666792265981705 0 -0.033675588560088815 0.00057665669243707257 0 -0.033272236212040202 0.0005542742589828187 0 -0.033273770471114648 0.0003391352535397941 0 -0.034999999264625749 6.5130530340017125e-10 0 -0.034999928009223941 1.1697672399641523e-07 0 -0.034999998470264068 9.9595087402288621e-10 0 -0.034812504010926365 9.7975854596471913e-05 0 -0.034374790652780172 5.6683526332034257e-05 0 -0.034999928009223941 1.1697672399641523e-07 0 -0.034999998470264068 9.9595087402288621e-10 0 -0.034999803923045893 9.0931217032897729e-08 0 -0.033675588560088815 0.00057665669243707257 0 -0.033469694545893068 0.00020391438394160569 0 -0.033273770471114648 0.0003391352535397941 0 -0.034812504010926365 9.7975854596471913e-05 0 -0.032704008763266047 0.00078666792265981705 0 -0.034999998470264068 9.9595087402288621e-10 0 -0.034999803923045893 9.0931217032897729e-08 0 -0.034999998394466887 -2.412072080092074e-09 0 -0.034374790652780172 5.6683526332034257e-05 0 -0.034470020868035578 -6.022140128916776e-05 0 -0.033272236212040202 0.0005542742589828187 0 -0.033066851927426186 0.0003933707683083761 0 -0.032871198686745283 0.00053061303213250584 0 -0.033272236212040202 0.0005542742589828187 0 -0.033273770471114648 0.0003391352535397941 0 -0.033066851927426186 0.0003933707683083761 0 -0.034999803923045893 9.0931217032897729e-08 0 -0.034999998394466887 -2.412072080092074e-09 0 -0.034999661389086917 -3.7930224765645595e-07 0 -0.032871198686745283 0.00053061303213250584 0 -0.032579475950692154 0.00020766388316002148 0 -0.032841816886145576 0.00029298940653402125 0 -0.034996494334819869 7.7519095049392588e-07 0 -0.034470020868035578 -6.022140128916776e-05 0 -0.035000182361632728 2.8701761695145945e-08 0 -0.034999804533642764 -2.9133182423548454e-08 0 -0.03497817849153112 -0.00010722874661847234 0 -0.033066851927426186 0.0003933707683083761 0 -0.032871198686745283 0.00053061303213250584 0 -0.032841816886145576 0.00029298940653402125 0 -0.034999804533642764 -2.9133182423548454e-08 0 -0.03497817849153112 -0.00010722874661847234 0 -0.034254409410041459 -0.00037664521428103334 0 -0.03497817849153112 -0.00010722874661847234 0 -0.034509872371574872 -0.0006157268678857905 0 -0.034254409410041459 -0.00037664521428103334 0 -0.034999138752168743 1.8455788045596746e-07 0 -0.033815950890486453 -0.00019721488380253872 0 -0.034999997977479345 3.159134532010341e-09 0 -0.034998230302914025 -6.5486665097840967e-07 0 -0.034999997202158045 -2.9125389221614127e-09 0 -0.034470020868035578 -6.022140128916776e-05 0 -0.032820905732868201 8.9658332615481884e-05 0 -0.032820905732868201 8.9658332615481884e-05 0 -0.033815950890486453 -0.00019721488380253872 0 -0.032579475950692154 0.00020766388316002148 0 -0.032683752707847701 0.00011097371412049045 0 -0.032841816886145576 0.00029298940653402125 0 -0.032820905732868201 8.9658332615481884e-05 0 -0.031660154151289394 0.00051900775711572465 0 -0.032745847004523251 0.00067599489025910663 0 -0.033262729915777001 0.00019643267077379211 0 -0.03220894995412818 7.4426426480568155e-05 0 -0.027096083174271989 0.0018525363149233217 0 -0.027156277811526422 0.0019288578408599012 0 -0.027323252193728321 0.0018091317412258466 0 -0.031660154151289394 0.00051900775711572465 0 -0.032328312951649771 0.00012769092521247179 0 -0.032820905732868201 8.9658332615481884e-05 0 -0.032328312951649771 0.00012769092521247179 0 -0.033357413869504346 -0.00014295966845345672 0 -0.033452546262611994 -3.6860692827378994e-05 0 -0.033476997545891528 -0.00014332027551146461 0 -0.033075494960437248 0.00024938986730480044 0 -0.033141606531147422 0.00016669078143221521 0 -0.032683752707847701 0.00011097371412049045 0 -0.033075494960437248 0.00024938986730480044 0 -0.032683752707847701 0.00011097371412049045 0 -0.032841816886145576 0.00029298940653402125 0 -0.031707434586533752 0.00060189156884734273 0 -0.031660154151289394 0.00051900775711572465 0 -0.033075494960437248 0.00024938986730480044 0 -0.033066851927426186 0.0003933707683083761 0 -0.032841816886145576 0.00029298940653402125 0 -0.030575275979555446 0.00061384126407328739 0 -0.030953039341678666 0.00065401364219863309 0 -0.030748096800542506 0.00084465400619709342 0 -0.027034030341160999 0.0019359806495807786 0 -0.027079814643969382 0.0019446068373479061 0 -0.02703278938476095 0.0019853427775447159 0 -0.027096083174271989 0.0018525363149233217 0 -0.027034030341160999 0.0019359806495807786 0 -0.027079814643969382 0.0019446068373479061 0 -0.031660154151289394 0.00051900775711572465 0 -0.030019302058287359 0.0013313301331000992 0 -0.028350904880958323 0.0012836106257654513 0 -0.028501508581996366 0.0011525644873577455 0 -0.027156277811526422 0.0019288578408599012 0 -0.027085460467104416 0.001944656292776037 0 -0.026978911126689306 0.0019187073693296239 0 -0.027156277811526422 0.0019288578408599012 0 -0.027383968860580959 0.002378032875128121 0 -0.027356437530537035 0.0020219506096512303 0 -0.027096083174271989 0.0018525363149233217 0 -0.027156277811526422 0.0019288578408599012 0 -0.027079814643969382 0.0019446068373479061 0 -0.027156277811526422 0.0019288578408599012 0 -0.027356437530537035 0.0020219506096512303 0 -0.027323252193728321 0.0018091317412258466 0 -0.027156277811526422 0.0019288578408599012 0 -0.027079814643969382 0.0019446068373479061 0 -0.027085460467104416 0.001944656292776037 0 -0.026439826387493127 0.0018529608175012742 0 -0.026580534512351008 0.0019500820231808224 0 -0.027079814643969382 0.0019446068373479061 0 -0.027085460467104416 0.001944656292776037 0 -0.027061378696594699 0.002001135803617059 0 -0.027098368335522125 0.0020367226898413003 0 -0.027085460467104416 0.001944656292776037 0 -0.027061378696594699 0.002001135803617059 0 -0.027079814643969382 0.0019446068373479061 0 -0.027061378696594699 0.002001135803617059 0 -0.02703278938476095 0.0019853427775447159 0 -0.027021056876798573 0.0020728832221373647 0 -0.026983683025804936 0.0019830329805612616 0 -0.02703278938476095 0.0019853427775447159 0 -0.026983683025804936 0.0019830329805612616 0 -0.027034030341160999 0.0019359806495807786 0 -0.02703278938476095 0.0019853427775447159 0 -0.034351357629491298 -1.0347172637467218e-05 0 -0.034469900083344204 -0.00014302025144410539 0 -0.03455860400472726 -4.9389147131837663e-05 0 -0.034351357629491298 -1.0347172637467218e-05 0 -0.034232363496207362 -0.00015522225909758816 0 -0.03434867878347804 -0.00014928778921810638 0 -0.034351357629491298 -1.0347172637467218e-05 0 -0.03434867878347804 -0.00014928778921810638 0 -0.034469900083344204 -0.00014302025144410539 0 -0.027878129216348701 0.0026972732088396891 0 -0.027960186131445693 0.0025015443434792907 0 -0.027383968860580959 0.002378032875128121 0 -0.026926757215303233 0.0016560211869255308 0 -0.027085460467104416 0.001944656292776037 0 -0.026866250076269079 0.0017897197974158364 0 -0.027960186131445693 0.0025015443434792907 0 -0.027383968860580959 0.002378032875128121 0 -0.027549969501608301 0.0019977971650445574 0 -0.029266953451758122 0.0011010389172674329 0 -0.028501508581996366 0.0011525644873577455 0 -0.029307199040932749 0.00072972254668650577 0 -0.029399991403257726 0.00074616146365335287 0 -0.029433941593099928 0.00082609008460629541 0 -0.028325643447007238 0.0011243455277726232 0 -0.028501508581996366 0.0011525644873577455 0 -0.027085460467104416 0.001944656292776037 0 -0.026866250076269079 0.0017897197974158364 0 -0.026978911126689306 0.0019187073693296239 0 -0.031310718960982656 0.00089400265727142118 0 -0.032036763332681746 0.00036233811678443816 0 -0.034162047401041236 -0.00022441486487650959 0 -0.034339986211714642 -0.00029660243991027507 0 -0.034062649169469175 -0.00033049507078767969 0 -0.034351357629491298 -1.0347172637467218e-05 0 -0.034232363496207362 -0.00015522225909758816 0 -0.034160844544526593 -0.00021703443696831557 0 -0.03212924843273357 0.00039970716378683399 0 -0.032036763332681746 0.00036233811678443816 0 -0.027383968860580959 0.002378032875128121 0 -0.027356437530537035 0.0020219506096512303 0 -0.027549969501608301 0.0019977971650445574 0 -0.032036763332681746 0.00036233811678443816 0 -0.032328312951649771 0.00012769092521247179 0 -0.027356437530537035 0.0020219506096512303 0 -0.027549969501608301 0.0019977971650445574 0 -0.027323252193728321 0.0018091317412258466 0 -0.034232363496207362 -0.00015522225909758816 0 -0.034162047401041236 -0.00022441486487650959 0 -0.034339986211714642 -0.00029660243991027507 0 -0.034232363496207362 -0.00015522225909758816 0 -0.034339986211714642 -0.00029660243991027507 0 -0.03434867878347804 -0.00014928778921810638 0 -0.034339986211714642 -0.00029660243991027507 0 -0.03434867878347804 -0.00014928778921810638 0 -0.034469900083344204 -0.00014302025144410539 0 -0.033769901704046729 -1.6240976958980849e-06 0 -0.033793236228242034 -0.00012235476404693786 0 -0.034092083562986188 3.334083750761174e-05 0 -0.033769901704046729 -1.6240976958980849e-06 0 -0.033793236228242034 -0.00012235476404693786 0 -0.033598714592236269 -0.0001184121085751481 0 -0.034998662069002914 -5.50486757243738e-06 0 -0.034999050814191315 -1.6182402012083342e-06 0 -0.034995720612566006 -3.9101029736585788e-06 0 -0.033793236228242034 -0.00012235476404693786 0 -0.033598714592236269 -0.0001184121085751481 0 -0.033499867779561231 -0.00027499599816434685 0 -0.03420425046011985 -2.5880280650248348e-05 0 -0.033815950890486453 -0.00019721488380253872 0 -0.033769901704046729 -1.6240976958980849e-06 0 -0.033452546262611994 -3.6860692827378994e-05 0 -0.033598714592236269 -0.0001184121085751481 0 -0.034998662069002914 -5.50486757243738e-06 0 -0.03499844697892348 -1.5582649742298292e-06 0 -0.03499880341883381 -9.4047432424109275e-07 0 -0.033646146136440354 7.8711291042254789e-05 0 -0.032328312951649771 0.00012769092521247179 0 -0.033452546262611994 -3.6860692827378994e-05 0 -0.033598714592236269 -0.0001184121085751481 0 -0.033476997545891528 -0.00014332027551146461 0 -0.033598714592236269 -0.0001184121085751481 0 -0.033476997545891528 -0.00014332027551146461 0 -0.033499867779561231 -0.00027499599816434685 0 -0.033357413869504346 -0.00014295966845345672 0 -0.033476997545891528 -0.00014332027551146461 0 -0.033499867779561231 -0.00027499599816434685 0 -0.034998230302914025 -6.5486665097840967e-07 0 -0.03499880341883381 -9.4047432424109275e-07 0 -0.034999997202158045 -2.9125389221614127e-09 0 -0.033815950890486453 -0.00019721488380253872 0 -0.033842638392591967 -0.00020943350295778675 0 -0.03499880341883381 -9.4047432424109275e-07 0 -0.034999997202158045 -2.9125389221614127e-09 0 -0.034999050814191315 -1.6182402012083342e-06 0 -0.034999050814191315 -1.6182402012083342e-06 0 -0.034999995850106429 -4.4695910884193152e-10 0 -0.034995720612566006 -3.9101029736585788e-06 0 -0.034999997202158045 -2.9125389221614127e-09 0 -0.034999050814191315 -1.6182402012083342e-06 0 -0.034999995850106429 -4.4695910884193152e-10 0 -0.034998662069002914 -5.50486757243738e-06 0 -0.03499880341883381 -9.4047432424109275e-07 0 -0.034999050814191315 -1.6182402012083342e-06 0 -0.034999995850106429 -4.4695910884193152e-10 0 -0.034991671515860578 -1.5331504389148479e-06 0 -0.034995720612566006 -3.9101029736585788e-06 0 -0.034991671515860578 -1.5331504389148479e-06 0 -0.034975275716658941 -5.6091705103363208e-06 0 -0.034999963945286379 3.956749283189008e-09 0 -0.034999995850106429 -4.4695910884193152e-10 0 -0.034991671515860578 -1.5331504389148479e-06 0 -0.034999963945286379 3.956749283189008e-09 0 -0.034991671515860578 -1.5331504389148479e-06 0 -0.034975275716658941 -5.6091705103363208e-06 0 -0.034987654411831763 -8.238431640771272e-06 0 -0.034975275716658941 -5.6091705103363208e-06 0 -0.034980975182493892 -1.1974644097219607e-05 0 -0.034987654411831763 -8.238431640771272e-06 0 -0.034998662069002914 -5.50486757243738e-06 0 -0.034995720612566006 -3.9101029736585788e-06 0 -0.034990291642132888 -1.5420641847426955e-05 0 -0.034987654411831763 -8.238431640771272e-06 0 -0.034995720612566006 -3.9101029736585788e-06 0 -0.034990291642132888 -1.5420641847426955e-05 0 -0.034980975182493892 -1.1974644097219607e-05 0 -0.034987654411831763 -8.238431640771272e-06 0 -0.034990291642132888 -1.5420641847426955e-05 0 -0.03420425046011985 -2.5880280650248348e-05 0 -0.034316711256277825 5.233946402058382e-05 0 -0.034991671515860578 -1.5331504389148479e-06 0 -0.034987654411831763 -8.238431640771272e-06 0 -0.034995720612566006 -3.9101029736585788e-06 0 -0.034999969403112403 -1.3140392831764789e-08 0 -0.034968212321077399 -8.0242468174757031e-06 0 -0.034983874946393594 -8.3532506009226743e-06 0 -0.034975275716658941 -5.6091705103363208e-06 0 -0.034999963945286379 3.956749283189008e-09 0 -0.034968212321077399 -8.0242468174757031e-06 0 -0.034999969403112403 -1.3140392831764789e-08 0 -0.034999963945286379 3.956749283189008e-09 0 -0.034968212321077399 -8.0242468174757031e-06 0 -0.034975275716658941 -5.6091705103363208e-06 0 -0.034968212321077399 -8.0242468174757031e-06 0 -0.034942484845009822 -1.4222561450812879e-05 0 -0.034968212321077399 -8.0242468174757031e-06 0 -0.034938776509801074 -1.585711282459662e-05 0 -0.034983874946393594 -8.3532506009226743e-06 0 -0.034938776509801074 -1.585711282459662e-05 0 -0.034974611468626494 -6.9771087499114184e-06 0 -0.034983874946393594 -8.3532506009226743e-06 0 -0.034938776509801074 -1.585711282459662e-05 0 -0.034889535477235424 1.9758143002122997e-05 0 -0.034974611468626494 -6.9771087499114184e-06 0 -0.034968212321077399 -8.0242468174757031e-06 0 -0.034938776509801074 -1.585711282459662e-05 0 -0.034942484845009822 -1.4222561450812879e-05 0 -0.034938776509801074 -1.585711282459662e-05 0 -0.034942484845009822 -1.4222561450812879e-05 0 -0.034892520126140109 -2.7854045426697382e-05 0 -0.034942484845009822 -1.4222561450812879e-05 0 -0.034892520126140109 -2.7854045426697382e-05 0 -0.03496568796911026 -2.5758052375011683e-05 0 -0.034635051609964149 9.4007096724017328e-05 0 -0.034561553494126623 8.4056805840666842e-05 0 -0.034938776509801074 -1.585711282459662e-05 0 -0.034892520126140109 -2.7854045426697382e-05 0 -0.034889535477235424 1.9758143002122997e-05 0 -0.034892520126140109 -2.7854045426697382e-05 0 -0.03483565617720305 2.9762425339394731e-05 0 -0.034729177364445245 -2.2873879269133268e-05 0 -0.034892520126140109 -2.7854045426697382e-05 0 -0.03483565617720305 2.9762425339394731e-05 0 -0.034889535477235424 1.9758143002122997e-05 0 -0.03483565617720305 2.9762425339394731e-05 0 -0.034889535477235424 1.9758143002122997e-05 0 -0.034860104435267408 6.5656227749041004e-05 0 -0.034889535477235424 1.9758143002122997e-05 0 -0.034903278595803951 3.6853935009374275e-05 0 -0.034910417871435055 1.6382087048090893e-05 0 -0.034889535477235424 1.9758143002122997e-05 0 -0.034903278595803951 3.6853935009374275e-05 0 -0.034887374199537274 6.3732093554264669e-05 0 -0.034929421622581537 1.4431184079948061e-05 0 -0.034944895505931689 5.998233719524939e-06 0 -0.034339986211714642 -0.00029660243991027507 0 -0.034469900083344204 -0.00014302025144410539 0 -0.034584311213893305 -0.00025675421919844432 0 -0.033646146136440354 7.8711291042254789e-05 0 -0.034316711256277825 5.233946402058382e-05 0 -0.034627449697707507 -0.0001395765263353354 0 -0.034469900083344204 -0.00014302025144410539 0 -0.034584311213893305 -0.00025675421919844432 0 -0.034980975182493892 -1.1974644097219607e-05 0 -0.034990291642132888 -1.5420641847426955e-05 0 -0.03496568796911026 -2.5758052375011683e-05 0 -0.034316711256277825 5.233946402058382e-05 0 -0.034561553494126623 8.4056805840666842e-05 0 -0.034975275716658941 -5.6091705103363208e-06 0 -0.034980975182493892 -1.1974644097219607e-05 0 -0.03496568796911026 -2.5758052375011683e-05 0 -0.034975275716658941 -5.6091705103363208e-06 0 -0.034942484845009822 -1.4222561450812879e-05 0 -0.03496568796911026 -2.5758052375011683e-05 0 -0.034627449697707507 -0.0001395765263353354 0 -0.034584311213893305 -0.00025675421919844432 0 -0.034740599543501303 -0.00015585978794465185 0 -0.034627449697707507 -0.0001395765263353354 0 -0.034740599543501303 -0.00015585978794465185 0 -0.034729177364445245 -2.2873879269133268e-05 0 -0.034892520126140109 -2.7854045426697382e-05 0 -0.034740599543501303 -0.00015585978794465185 0 -0.034729177364445245 -2.2873879269133268e-05 0 -0.03483565617720305 2.9762425339394731e-05 0 -0.034729177364445245 -2.2873879269133268e-05 0 -0.034749516985200707 5.9077226992112217e-05 0 -0.034729177364445245 -2.2873879269133268e-05 0 -0.034590905396062306 6.041493263037637e-05 0 -0.034749516985200707 5.9077226992112217e-05 0 -0.034351357629491298 -1.0347172637467218e-05 0 -0.03455860400472726 -4.9389147131837663e-05 0 -0.034590905396062306 6.041493263037637e-05 0 -0.034729177364445245 -2.2873879269133268e-05 0 -0.03455860400472726 -4.9389147131837663e-05 0 -0.034590905396062306 6.041493263037637e-05 0 -0.034627449697707507 -0.0001395765263353354 0 -0.034729177364445245 -2.2873879269133268e-05 0 -0.03455860400472726 -4.9389147131837663e-05 0 -0.034627449697707507 -0.0001395765263353354 0 -0.034469900083344204 -0.00014302025144410539 0 -0.03455860400472726 -4.9389147131837663e-05 0 -0.034351357629491298 -1.0347172637467218e-05 0 -0.034590905396062306 6.041493263037637e-05 0 -0.034513431081199135 0.00016203159859185908 0 -0.034513431081199135 0.00016203159859185908 0 -0.034652545506736881 0.00023994848823435293 0 -0.034690453331819207 0.0001171463006277383 0 -0.034590905396062306 6.041493263037637e-05 0 -0.034513431081199135 0.00016203159859185908 0 -0.034690453331819207 0.0001171463006277383 0 -0.029238641492347759 0.00056151995793924075 0 -0.029179586768457316 0.00063392049829623885 0 -0.029177128610261078 0.00050270287364500665 0 -0.029485186159292551 0.00096374851837240333 0 -0.029212747522944633 0.00059849785885969444 0 -0.029198451340759681 0.00075884571306315081 0 -0.029179586768457316 0.00063392049829623885 0 -0.029064007635161305 0.00047693430526712683 0 -0.029177128610261078 0.00050270287364500665 0 -0.030447780365229483 0.00098418804316943633 0 -0.029744944176185069 0.00049023860445960243 0 -0.030447780365229483 0.00098418804316943633 0 -0.031475006547412587 0.00075392749886259971 0 -0.029064007635161305 0.00047693430526712683 0 -0.029177128610261078 0.00050270287364500665 0 -0.02912713059737275 0.00042387897368019315 0 -0.029239178448001692 0.00047468060049048319 0 -0.029177128610261078 0.00050270287364500665 0 -0.029198794125998281 0.00042473515762751394 0 -0.034761199639855002 0.00032950930590594637 0 -0.034652545506736881 0.00023994848823435293 0 -0.034690453331819207 0.0001171463006277383 0 -0.032267160301745 0.00048118796873430637 0 -0.032886294311108899 0.0006602309097762522 0 -0.034785999330090731 0.00015639959557384669 0 -0.034777022441368002 0.00012551033186454394 0 -0.034690453331819207 0.0001171463006277383 0 -0.029212747522944633 0.00059849785885969444 0 -0.028947646683963397 0.00055930423223035067 0 -0.029198451340759681 0.00075884571306315081 0 -0.032267160301745 0.00048118796873430637 0 -0.031475006547412587 0.00075392749886259971 0 -0.034777022441368002 0.00012551033186454394 0 -0.03477173690173261 9.6913034800234755e-05 0 -0.034690453331819207 0.0001171463006277383 0 -0.034590905396062306 6.041493263037637e-05 0 -0.034690453331819207 0.0001171463006277383 0 -0.034749516985200707 5.9077226992112217e-05 0 -0.03477173690173261 9.6913034800234755e-05 0 -0.034690453331819207 0.0001171463006277383 0 -0.034749516985200707 5.9077226992112217e-05 0 -0.03477173690173261 9.6913034800234755e-05 0 -0.034749516985200707 5.9077226992112217e-05 0 -0.034808379536169783 7.123208511367888e-05 0 -0.03483565617720305 2.9762425339394731e-05 0 -0.034808379536169783 7.123208511367888e-05 0 -0.034860104435267408 6.5656227749041004e-05 0 -0.034808379536169783 7.123208511367888e-05 0 -0.034860104435267408 6.5656227749041004e-05 0 -0.034815740584772742 9.9763289866927038e-05 0 -0.03483565617720305 2.9762425339394731e-05 0 -0.034749516985200707 5.9077226992112217e-05 0 -0.034808379536169783 7.123208511367888e-05 0 -0.034860104435267408 6.5656227749041004e-05 0 -0.034815740584772742 9.9763289866927038e-05 0 -0.034844365004344242 0.00010682470911585899 0 -0.03477173690173261 9.6913034800234755e-05 0 -0.034808379536169783 7.123208511367888e-05 0 -0.034815740584772742 9.9763289866927038e-05 0 -0.034777022441368002 0.00012551033186454394 0 -0.03477173690173261 9.6913034800234755e-05 0 -0.034815740584772742 9.9763289866927038e-05 0 -0.034860104435267408 6.5656227749041004e-05 0 -0.034887374199537274 6.3732093554264669e-05 0 -0.034867263911318822 8.4338163502397064e-05 0 -0.034889535477235424 1.9758143002122997e-05 0 -0.034860104435267408 6.5656227749041004e-05 0 -0.034887374199537274 6.3732093554264669e-05 0 -0.034860104435267408 6.5656227749041004e-05 0 -0.034867263911318822 8.4338163502397064e-05 0 -0.034844365004344242 0.00010682470911585899 0 -0.034887374199537274 6.3732093554264669e-05 0 -0.034876324265953502 0.00010208596528516813 0 -0.034911465525968917 6.5907755769744006e-05 0 -0.034887374199537274 6.3732093554264669e-05 0 -0.034867263911318822 8.4338163502397064e-05 0 -0.034876324265953502 0.00010208596528516813 0 -0.034876324265953502 0.00010208596528516813 0 -0.034838085856119534 0.00013611961502013953 0 -0.034864401534763063 0.00014887431429917689 0 -0.034867263911318822 8.4338163502397064e-05 0 -0.034876324265953502 0.00010208596528516813 0 -0.034844365004344242 0.00010682470911585899 0 -0.034876324265953502 0.00010208596528516813 0 -0.034838085856119534 0.00013611961502013953 0 -0.034844365004344242 0.00010682470911585899 0 -0.034777022441368002 0.00012551033186454394 0 -0.034815740584772742 9.9763289866927038e-05 0 -0.034807841589988564 0.00013799745246625297 0 -0.034815740584772742 9.9763289866927038e-05 0 -0.034844365004344242 0.00010682470911585899 0 -0.034807841589988564 0.00013799745246625297 0 -0.034838085856119534 0.00013611961502013953 0 -0.034807841589988564 0.00013799745246625297 0 -0.034815802004132826 0.00014598779310818233 0 -0.034838085856119534 0.00013611961502013953 0 -0.034844365004344242 0.00010682470911585899 0 -0.034807841589988564 0.00013799745246625297 0 -0.034807841589988564 0.00013799745246625297 0 -0.034796666858983215 0.00015416079076912049 0 -0.034815802004132826 0.00014598779310818233 0 -0.034785999330090731 0.00015639959557384669 0 -0.034807841589988564 0.00013799745246625297 0 -0.034796666858983215 0.00015416079076912049 0 -0.034785999330090731 0.00015639959557384669 0 -0.034777022441368002 0.00012551033186454394 0 -0.034807841589988564 0.00013799745246625297 0 -0.032267160301745 0.00048118796873430637 0 -0.03238545723189843 0.00052937505137366477 0 -0.032267160301745 0.00048118796873430637 0 -0.031468282960497779 0.0001999409696034152 0 -0.028947646683963397 0.00055930423223035067 0 -0.0288429469032081 0.00026801375903437425 0 -0.028964302224290056 0.00030337376075086645 0 -0.034783759882162993 0.00014789105575162905 0 -0.034796666858983215 0.00015416079076912049 0 -0.034801541226560789 0.00017804482589027894 0 -0.034796666858983215 0.00015416079076912049 0 -0.034815802004132826 0.00014598779310818233 0 -0.034821713578297282 0.00016002278974130253 0 -0.034838085856119534 0.00013611961502013953 0 -0.034815802004132826 0.00014598779310818233 0 -0.034821713578297282 0.00016002278974130253 0 -0.034796666858983215 0.00015416079076912049 0 -0.034821713578297282 0.00016002278974130253 0 -0.034801541226560789 0.00017804482589027894 0 -0.034838085856119534 0.00013611961502013953 0 -0.034821713578297282 0.00016002278974130253 0 -0.034864401534763063 0.00014887431429917689 0 -0.034821713578297282 0.00016002278974130253 0 -0.034864401534763063 0.00014887431429917689 0 -0.034834103541795308 0.00018383769307739437 0 -0.034864401534763063 0.00014887431429917689 0 -0.034834103541795308 0.00018383769307739437 0 -0.034868044056675276 0.0001802015489477072 0 -0.034834103541795308 0.00018383769307739437 0 -0.034811281363452018 0.00021367743509376146 0 -0.034839203934892746 0.00021509526584756407 0 -0.034834103541795308 0.00018383769307739437 0 -0.034868044056675276 0.0001802015489477072 0 -0.034839203934892746 0.00021509526584756407 0 -0.0288429469032081 0.00026801375903437425 0 -0.028862835054407829 0.00017280623637026764 0 -0.028784917591077843 9.2935727034297867e-05 0 -0.031468282960497779 0.0001999409696034152 0 -0.030440753232321999 -0.0003195060437361376 0 -0.034834103541795308 0.00018383769307739437 0 -0.034801541226560789 0.00017804482589027894 0 -0.034811281363452018 0.00021367743509376146 0 -0.0288429469032081 0.00026801375903437425 0 -0.028894083202325317 0.000213921050868809 0 -0.028964302224290056 0.00030337376075086645 0 -0.0288429469032081 0.00026801375903437425 0 -0.028894083202325317 0.000213921050868809 0 -0.028862835054407829 0.00017280623637026764 0 -0.034821713578297282 0.00016002278974130253 0 -0.034834103541795308 0.00018383769307739437 0 -0.034801541226560789 0.00017804482589027894 0 -0.028862835054407829 0.00017280623637026764 0 -0.028917370126487596 0.00015377704326363398 0 -0.028784917591077843 9.2935727034297867e-05 0 -0.028894083202325317 0.000213921050868809 0 -0.028917370126487596 0.00015377704326363398 0 -0.02894885735179567 0.00019851024741977428 0 -0.028894083202325317 0.000213921050868809 0 -0.028862835054407829 0.00017280623637026764 0 -0.028917370126487596 0.00015377704326363398 0 -0.028917370126487596 0.00015377704326363398 0 -0.02894885735179567 0.00019851024741977428 0 -0.028999272425674447 0.00017688434228320244 0 -0.028999272425674447 0.00017688434228320244 0 -0.029109479321113879 0.00014754334064309799 0 -0.028966511084549958 0.0001106891081748035 0 -0.028917370126487596 0.00015377704326363398 0 -0.028999272425674447 0.00017688434228320244 0 -0.028966511084549958 0.0001106891081748035 0 -0.02894885735179567 0.00019851024741977428 0 -0.028997917729469972 0.00023735395550126233 0 -0.028999272425674447 0.00017688434228320244 0 -0.02894885735179567 0.00019851024741977428 0 -0.028997917729469972 0.00023735395550126233 0 -0.028964302224290056 0.00030337376075086645 0 -0.028894083202325317 0.000213921050868809 0 -0.02894885735179567 0.00019851024741977428 0 -0.028964302224290056 0.00030337376075086645 0 -0.029036694492858624 0.00029428042701528089 0 -0.028997917729469972 0.00023735395550126233 0 -0.028964302224290056 0.00030337376075086645 0 -0.028997917729469972 0.00023735395550126233 0 -0.029038805997955029 0.00021428374815205236 0 -0.028999272425674447 0.00017688434228320244 0 -0.029036694492858624 0.00029428042701528089 0 -0.028997917729469972 0.00023735395550126233 0 -0.029038805997955029 0.00021428374815205236 0 -0.029038805997955029 0.00021428374815205236 0 -0.028999272425674447 0.00017688434228320244 0 -0.029109479321113879 0.00014754334064309799 0 -0.029109479321113879 0.00014754334064309799 0 -0.02923464704200323 0.00028866126605960177 0 -0.028930405368742064 -0.00028235899314785982 0 -0.029109479321113879 0.00014754334064309799 0 -0.02923464704200323 0.00028866126605960177 0 -0.029145447690024952 0.0002926557167445119 0 -0.02923464704200323 0.00028866126605960177 0 -0.029145447690024952 0.0002926557167445119 0 -0.029160297121778214 0.00035590057809964859 0 -0.029109479321113879 0.00014754334064309799 0 -0.029145447690024952 0.0002926557167445119 0 -0.029082559213731426 0.00026031792614485854 0 -0.029038805997955029 0.00021428374815205236 0 -0.029109479321113879 0.00014754334064309799 0 -0.029082559213731426 0.00026031792614485854 0 -0.029145447690024952 0.0002926557167445119 0 -0.029082559213731426 0.00026031792614485854 0 -0.029100050173198933 0.00034009913443573496 0 -0.029036694492858624 0.00029428042701528089 0 -0.029038805997955029 0.00021428374815205236 0 -0.029082559213731426 0.00026031792614485854 0 -0.029036694492858624 0.00029428042701528089 0 -0.029100050173198933 0.00034009913443573496 0 -0.029055995293814432 0.00036784727498440442 0 -0.029036694492858624 0.00029428042701528089 0 -0.029082559213731426 0.00026031792614485854 0 -0.029100050173198933 0.00034009913443573496 0 -0.029100050173198933 0.00034009913443573496 0 -0.029160297121778214 0.00035590057809964859 0 -0.02912713059737275 0.00042387897368019315 0 -0.029100050173198933 0.00034009913443573496 0 -0.02912713059737275 0.00042387897368019315 0 -0.029055995293814432 0.00036784727498440442 0 -0.02923464704200323 0.00028866126605960177 0 -0.029160297121778214 0.00035590057809964859 0 -0.029198794125998281 0.00042473515762751394 0 -0.029145447690024952 0.0002926557167445119 0 -0.029100050173198933 0.00034009913443573496 0 -0.029160297121778214 0.00035590057809964859 0 -0.029177128610261078 0.00050270287364500665 0 -0.029198794125998281 0.00042473515762751394 0 -0.02912713059737275 0.00042387897368019315 0 -0.029160297121778214 0.00035590057809964859 0 -0.029198794125998281 0.00042473515762751394 0 -0.02912713059737275 0.00042387897368019315 0 -0.029064007635161305 0.00047693430526712683 0 -0.02912713059737275 0.00042387897368019315 0 -0.029055995293814432 0.00036784727498440442 0 -0.029744944176185069 0.00049023860445960243 0 -0.029536325346750249 0.00034369375526628761 0 -0.029212747522944633 0.00059849785885969444 0 -0.028947646683963397 0.00055930423223035067 0 -0.028964302224290056 0.00030337376075086645 0 -0.029064007635161305 0.00047693430526712683 0 -0.028964302224290056 0.00030337376075086645 0 -0.029055995293814432 0.00036784727498440442 0 -0.029036694492858624 0.00029428042701528089 0 -0.028964302224290056 0.00030337376075086645 0 -0.029055995293814432 0.00036784727498440442 0 -0.033592761770457412 -0.002130525142583994 0 -0.033568685308759234 -0.0021323517149130352 0 -0.033593853928234982 -0.0021404520032051537 0 -0.033592761770457412 -0.002130525142583994 0 -0.033570497687921183 -0.0020990572498833216 0 -0.033568685308759234 -0.0021323517149130352 0 -0.031823712833127529 -0.0023043275193411245 0 -0.033063843131344896 -0.0024765170554623575 0 -0.033543680361586031 -0.0024254878786089825 0 -0.033569049272124916 -0.0024007829543908968 0 -0.033564791799510545 -0.0024307030890204995 0 -0.033666838153072171 -0.0023057071969963456 0 -0.033749425921882223 -0.0024329755494841634 0 -0.033569049272124916 -0.0024007829543908968 0 -0.032781802348408433 -0.0025406542875221982 0 -0.031823712833127529 -0.0023043275193411245 0 -0.033570497687921183 -0.0020990572498833216 0 -0.033568685308759234 -0.0021323517149130352 0 -0.033533536751046977 -0.0020900717207180098 0 -0.03489804910423272 0.00015454748753178301 0 -0.034942303027273691 0.00013641571411437641 0 -0.034902411929846423 0.00020170025163285959 0 -0.031823712833127529 -0.0023043275193411245 0 -0.031107416289805508 -0.0016059296703648711 0 -0.032984789955275401 -0.0013776898720730619 0 -0.031107416289805508 -0.0016059296703648711 0 -0.034868044056675276 0.0001802015489477072 0 -0.034839203934892746 0.00021509526584756407 0 -0.034902411929846423 0.00020170025163285959 0 -0.034868044056675276 0.0001802015489477072 0 -0.03489804910423272 0.00015454748753178301 0 -0.034902411929846423 0.00020170025163285959 0 -0.034864401534763063 0.00014887431429917689 0 -0.03489804910423272 0.00015454748753178301 0 -0.034907235729112508 0.00011059664463176824 0 -0.034864401534763063 0.00014887431429917689 0 -0.034868044056675276 0.0001802015489477072 0 -0.03489804910423272 0.00015454748753178301 0 -0.03489804910423272 0.00015454748753178301 0 -0.034942303027273691 0.00013641571411437641 0 -0.034907235729112508 0.00011059664463176824 0 -0.034942303027273691 0.00013641571411437641 0 -0.034907235729112508 0.00011059664463176824 0 -0.034938830257997225 6.9634110056353616e-05 0 -0.034876324265953502 0.00010208596528516813 0 -0.034907235729112508 0.00011059664463176824 0 -0.034911465525968917 6.5907755769744006e-05 0 -0.034876324265953502 0.00010208596528516813 0 -0.034864401534763063 0.00014887431429917689 0 -0.034907235729112508 0.00011059664463176824 0 -0.034911465525968917 6.5907755769744006e-05 0 -0.034938830257997225 6.9634110056353616e-05 0 -0.034922147204437495 3.5155901058249368e-05 0 -0.034907235729112508 0.00011059664463176824 0 -0.034911465525968917 6.5907755769744006e-05 0 -0.034938830257997225 6.9634110056353616e-05 0 -0.034903278595803951 3.6853935009374275e-05 0 -0.034887374199537274 6.3732093554264669e-05 0 -0.034911465525968917 6.5907755769744006e-05 0 -0.034938830257997225 6.9634110056353616e-05 0 -0.034973602297389168 7.2247678990671076e-05 0 -0.034965389016178849 4.2194422792652467e-05 0 -0.033568685308759234 -0.0021323517149130352 0 -0.033606304428491586 -0.0021282352799086141 0 -0.033593853928234982 -0.0021404520032051537 0 -0.032984789955275401 -0.0013776898720730619 0 -0.033854648026375112 -0.0011336778724316302 0 -0.034942303027273691 0.00013641571411437641 0 -0.034938830257997225 6.9634110056353616e-05 0 -0.034973602297389168 7.2247678990671076e-05 0 -0.033592761770457412 -0.002130525142583994 0 -0.033593853928234982 -0.0021404520032051537 0 -0.033583144352805523 -0.0021605371624758589 0 -0.032781802348408433 -0.0025406542875221982 0 -0.032989250399737595 -0.0025199486251720193 0 -0.033593853928234982 -0.0021404520032051537 0 -0.033593457193024263 -0.0021283486540413631 0 -0.033583144352805523 -0.0021605371624758589 0 -0.033606304428491586 -0.0021282352799086141 0 -0.033593853928234982 -0.0021404520032051537 0 -0.033593457193024263 -0.0021283486540413631 0 -0.033606304428491586 -0.0021282352799086141 0 -0.033593457193024263 -0.0021283486540413631 0 -0.033594351726101916 -0.0020998187264661102 0 -0.033593457193024263 -0.0021283486540413631 0 -0.033594351726101916 -0.0020998187264661102 0 -0.033574028983087117 -0.00210383093442046 0 -0.033594351726101916 -0.0020998187264661102 0 -0.03361089448135799 -0.0020662572019117739 0 -0.033579617045035634 -0.0020734540828663203 0 -0.033606304428491586 -0.0021282352799086141 0 -0.033594351726101916 -0.0020998187264661102 0 -0.03361089448135799 -0.0020662572019117739 0 -0.034372026267885158 -0.00082934111305254848 0 -0.034367496673585317 -0.00083172549108443111 0 -0.034973602297389168 7.2247678990671076e-05 0 -0.034986366183751824 2.4418255075663098e-05 0 -0.034965389016178849 4.2194422792652467e-05 0 -0.034973602297389168 7.2247678990671076e-05 0 -0.034986366183751824 2.4418255075663098e-05 0 -0.034991468027296552 2.155339377138434e-05 0 -0.033854648026375112 -0.0011336778724316302 0 -0.034367496673585317 -0.00083172549108443111 0 -0.034965389016178849 4.2194422792652467e-05 0 -0.034964263745726698 2.9911900197416272e-05 0 -0.034975593320305261 2.5193090909948908e-05 0 -0.034965389016178849 4.2194422792652467e-05 0 -0.034964263745726698 2.9911900197416272e-05 0 -0.034949716723608165 3.5840547920271379e-05 0 -0.034986366183751824 2.4418255075663098e-05 0 -0.034965389016178849 4.2194422792652467e-05 0 -0.034975593320305261 2.5193090909948908e-05 0 -0.034986366183751824 2.4418255075663098e-05 0 -0.034975593320305261 2.5193090909948908e-05 0 -0.034985659924890798 1.8290415358625342e-05 0 -0.034975593320305261 2.5193090909948908e-05 0 -0.034980324515834257 1.5048737133886763e-05 0 -0.034985659924890798 1.8290415358625342e-05 0 -0.034975593320305261 2.5193090909948908e-05 0 -0.034980324515834257 1.5048737133886763e-05 0 -0.034971518523441734 1.9560770461916138e-05 0 -0.034980324515834257 1.5048737133886763e-05 0 -0.034988889455699841 1.1322730538491634e-05 0 -0.034985659924890798 1.8290415358625342e-05 0 -0.034971518523441734 1.9560770461916138e-05 0 -0.034973442938636856 9.3773619547454339e-06 0 -0.034958703456184723 2.3202253580212203e-05 0 -0.034964263745726698 2.9911900197416272e-05 0 -0.034971518523441734 1.9560770461916138e-05 0 -0.034958703456184723 2.3202253580212203e-05 0 -0.034964263745726698 2.9911900197416272e-05 0 -0.034975593320305261 2.5193090909948908e-05 0 -0.034971518523441734 1.9560770461916138e-05 0 -0.034980324515834257 1.5048737133886763e-05 0 -0.034971518523441734 1.9560770461916138e-05 0 -0.034973442938636856 9.3773619547454339e-06 0 -0.034980324515834257 1.5048737133886763e-05 0 -0.034973442938636856 9.3773619547454339e-06 0 -0.034984401993520424 9.343922558308566e-06 0 -0.034980324515834257 1.5048737133886763e-05 0 -0.034984401993520424 9.343922558308566e-06 0 -0.034988889455699841 1.1322730538491634e-05 0 -0.034367496673585317 -0.00083172549108443111 0 -0.034356948618094449 -0.0008561301603191774 0 -0.034988889455699841 1.1322730538491634e-05 0 -0.034989985947448787 1.5997930128226551e-05 0 -0.034993946906246298 6.0745817488990201e-06 0 -0.034984401993520424 9.343922558308566e-06 0 -0.034988889455699841 1.1322730538491634e-05 0 -0.034990515380377223 6.3209613225683373e-06 0 -0.034988889455699841 1.1322730538491634e-05 0 -0.034993946906246298 6.0745817488990201e-06 0 -0.034990515380377223 6.3209613225683373e-06 0 -0.034989985947448787 1.5997930128226551e-05 0 -0.034989392944050894 1.7778136418161555e-05 0 -0.034998505880485642 5.411383771236357e-06 0 -0.034989985947448787 1.5997930128226551e-05 0 -0.034993946906246298 6.0745817488990201e-06 0 -0.034998505880485642 5.411383771236357e-06 0 -0.034986366183751824 2.4418255075663098e-05 0 -0.034985659924890798 1.8290415358625342e-05 0 -0.034989302448376322 2.1401326862382091e-05 0 -0.034989985947448787 1.5997930128226551e-05 0 -0.034985659924890798 1.8290415358625342e-05 0 -0.034989302448376322 2.1401326862382091e-05 0 -0.034367571986504093 -0.0008214565720061687 0 -0.034367496673585317 -0.00083172549108443111 0 -0.034988889455699841 1.1322730538491634e-05 0 -0.034989985947448787 1.5997930128226551e-05 0 -0.034985659924890798 1.8290415358625342e-05 0 -0.034903278595803951 3.6853935009374275e-05 0 -0.034922147204437495 3.5155901058249368e-05 0 -0.034910417871435055 1.6382087048090893e-05 0 -0.034903278595803951 3.6853935009374275e-05 0 -0.034911465525968917 6.5907755769744006e-05 0 -0.034922147204437495 3.5155901058249368e-05 0 -0.034938830257997225 6.9634110056353616e-05 0 -0.034965389016178849 4.2194422792652467e-05 0 -0.034949716723608165 3.5840547920271379e-05 0 -0.034938830257997225 6.9634110056353616e-05 0 -0.034922147204437495 3.5155901058249368e-05 0 -0.034949716723608165 3.5840547920271379e-05 0 -0.034922147204437495 3.5155901058249368e-05 0 -0.034949716723608165 3.5840547920271379e-05 0 -0.034944774156474165 1.7506026163572351e-05 0 -0.034964263745726698 2.9911900197416272e-05 0 -0.034949716723608165 3.5840547920271379e-05 0 -0.034958703456184723 2.3202253580212203e-05 0 -0.034949716723608165 3.5840547920271379e-05 0 -0.034958703456184723 2.3202253580212203e-05 0 -0.034944774156474165 1.7506026163572351e-05 0 -0.034973442938636856 9.3773619547454339e-06 0 -0.034958703456184723 2.3202253580212203e-05 0 -0.034944774156474165 1.7506026163572351e-05 0 -0.034944774156474165 1.7506026163572351e-05 0 -0.034910417871435055 1.6382087048090893e-05 0 -0.034954716070339953 -6.0527257744913649e-06 0 -0.034922147204437495 3.5155901058249368e-05 0 -0.034944774156474165 1.7506026163572351e-05 0 -0.034910417871435055 1.6382087048090893e-05 0 -0.034974611468626494 -6.9771087499114184e-06 0 -0.034983874946393594 -8.3532506009226743e-06 0 -0.034992864402611491 -4.1977928985136367e-06 0 -0.034944895505931689 5.998233719524939e-06 0 -0.03496412136988835 -2.2747256449892361e-06 0 -0.034973442938636856 9.3773619547454339e-06 0 -0.034944774156474165 1.7506026163572351e-05 0 -0.034954716070339953 -6.0527257744913649e-06 0 -0.034983874946393594 -8.3532506009226743e-06 0 -0.034992864402611491 -4.1977928985136367e-06 0 -0.034999990968653173 -6.9976274512659408e-09 0 -0.03496412136988835 -2.2747256449892361e-06 0 -0.034972675495577657 -4.8659116206378494e-06 0 -0.034992864402611491 -4.1977928985136367e-06 0 -0.034999990968653173 -6.9976274512659408e-09 0 -0.034997985579550805 -1.9003140189348057e-06 0 -0.034999969403112403 -1.3140392831764789e-08 0 -0.034983874946393594 -8.3532506009226743e-06 0 -0.034999990968653173 -6.9976274512659408e-09 0 -0.034993662236825457 2.451443575225881e-06 0 -0.034994898461899689 -9.1581671775517038e-07 0 -0.034998445237834776 7.4755720068807431e-07 0 -0.034993662236825457 2.451443575225881e-06 0 -0.034987362779258659 3.497478211377594e-06 0 -0.034994898461899689 -9.1581671775517038e-07 0 -0.034993662236825457 2.451443575225881e-06 0 -0.034993946906246298 6.0745817488990201e-06 0 -0.034998445237834776 7.4755720068807431e-07 0 -0.034993662236825457 2.451443575225881e-06 0 -0.034990515380377223 6.3209613225683373e-06 0 -0.034987362779258659 3.497478211377594e-06 0 -0.034984401993520424 9.343922558308566e-06 0 -0.034990515380377223 6.3209613225683373e-06 0 -0.034987362779258659 3.497478211377594e-06 0 -0.034993662236825457 2.451443575225881e-06 0 -0.034993946906246298 6.0745817488990201e-06 0 -0.034990515380377223 6.3209613225683373e-06 0 -0.034973442938636856 9.3773619547454339e-06 0 -0.034987362779258659 3.497478211377594e-06 0 -0.034983139760720622 -8.4188705535443934e-07 0 -0.034973442938636856 9.3773619547454339e-06 0 -0.034954716070339953 -6.0527257744913649e-06 0 -0.034983139760720622 -8.4188705535443934e-07 0 -0.034973442938636856 9.3773619547454339e-06 0 -0.034984401993520424 9.343922558308566e-06 0 -0.034987362779258659 3.497478211377594e-06 0 -0.034987362779258659 3.497478211377594e-06 0 -0.034983139760720622 -8.4188705535443934e-07 0 -0.034994898461899689 -9.1581671775517038e-07 0 -0.034983139760720622 -8.4188705535443934e-07 0 -0.034997985579550805 -1.9003140189348057e-06 0 -0.034994898461899689 -9.1581671775517038e-07 0 -0.034954716070339953 -6.0527257744913649e-06 0 -0.034983139760720622 -8.4188705535443934e-07 0 -0.034997985579550805 -1.9003140189348057e-06 0 -0.034999990968653173 -6.9976274512659408e-09 0 -0.034997985579550805 -1.9003140189348057e-06 0 -0.034999983457284847 -5.6893617622547114e-09 0 -0.034997985579550805 -1.9003140189348057e-06 0 -0.034999983457284847 -5.6893617622547114e-09 0 -0.034994898461899689 -9.1581671775517038e-07 0 -0.034999983457284847 -5.6893617622547114e-09 0 -0.034994898461899689 -9.1581671775517038e-07 0 -0.034998445237834776 7.4755720068807431e-07 0 -0.034999983457284847 -5.6893617622547114e-09 0 -0.034998445237834776 7.4755720068807431e-07 0 -0.035000002700109133 1.785533103827158e-09 0 -0.034993946906246298 6.0745817488990201e-06 0 -0.034998445237834776 7.4755720068807431e-07 0 -0.034998505880485642 5.411383771236357e-06 0 -0.034998445237834776 7.4755720068807431e-07 0 -0.035000337659136259 7.1370825197547058e-07 0 -0.034998505880485642 5.411383771236357e-06 0 -0.034392425091096523 -0.00079685532636208781 0 -0.034356948618094449 -0.0008561301603191774 0 -0.034998445237834776 7.4755720068807431e-07 0 -0.035000002700109133 1.785533103827158e-09 0 -0.035000337659136259 7.1370825197547058e-07 0 -0.035000002700109133 1.785533103827158e-09 0 -0.034999999772921772 -1.2400240648949636e-09 0 -0.035000337659136259 7.1370825197547058e-07 0 -0.034998905801273364 -8.7119864777656519e-07 0 -0.034392425091096523 -0.00079685532636208781 0 -0.034999997373524876 -3.7878819758119644e-09 0 -0.034998552159709692 -5.3494942829650318e-06 0 -0.035004993486948695 -2.0588413276203766e-05 0 -0.034305129966481052 -0.00060073349843341108 0 -0.034758685705281414 -0.00028339166415884963 0 -0.034998972810546689 -2.6399111340592761e-06 0 -0.034999997373524876 -3.7878819758119644e-09 0 -0.034999996889976979 -3.0807550678933817e-09 0 -0.034998972810546689 -2.6399111340592761e-06 0 -0.034997829401952466 -5.5420517566929828e-06 0 -0.034999255492938856 -1.4078503683368106e-06 0 -0.034998972810546689 -2.6399111340592761e-06 0 -0.034999997373524876 -3.7878819758119644e-09 0 -0.034998552159709692 -5.3494942829650318e-06 0 -0.034340120629771959 -0.00052223749147468782 0 -0.034305129966481052 -0.00060073349843341108 0 -0.034998972810546689 -2.6399111340592761e-06 0 -0.034998552159709692 -5.3494942829650318e-06 0 -0.034997829401952466 -5.5420517566929828e-06 0 -0.035265388344588089 -3.0810212072628418e-05 0 -0.035245036273320006 -0.00058271758788474323 0 -0.034967381762269184 -0.00021286281978257537 0 -0.034305129966481052 -0.00060073349843341108 0 -0.034098242561254724 -0.0012334178823115479 0 -0.034998552159709692 -5.3494942829650318e-06 0 -0.034995492465758234 -1.2546922682122074e-05 0 -0.035004993486948695 -2.0588413276203766e-05 0 -0.034305129966481052 -0.00060073349843341108 0 -0.034392425091096523 -0.00079685532636208781 0 -0.033362248714606121 -0.0018194607242382034 0 -0.033458248616663182 -0.0018681713707450864 0 -0.033424185327466389 -0.0019639689254299401 0 -0.033362248714606121 -0.0018194607242382034 0 -0.033424185327466389 -0.0019639689254299401 0 -0.033326925086450403 -0.0019695728695606038 0 -0.033326925086450403 -0.0019695728695606038 0 -0.033370376972847185 -0.0020548182287060917 0 -0.033295826857572056 -0.0021127071185189877 0 -0.034098242561254724 -0.0012334178823115479 0 -0.033807328575920413 -0.0016328017478497363 0 -0.033424185327466389 -0.0019639689254299401 0 -0.033326925086450403 -0.0019695728695606038 0 -0.033370376972847185 -0.0020548182287060917 0 -0.033424185327466389 -0.0019639689254299401 0 -0.033370376972847185 -0.0020548182287060917 0 -0.033444621792074546 -0.0020622737152251889 0 -0.033444621792074546 -0.0020622737152251889 0 -0.033513437692705754 -0.0020706177213776775 0 -0.033520974800002913 -0.0019844859658067222 0 -0.033424185327466389 -0.0019639689254299401 0 -0.033444621792074546 -0.0020622737152251889 0 -0.033520974800002913 -0.0019844859658067222 0 -0.034139680256169466 -0.0014981076697578911 0 -0.034054661480537832 -0.0016772381238448482 0 -0.033594351726101916 -0.0020998187264661102 0 -0.033579617045035634 -0.0020734540828663203 0 -0.033574028983087117 -0.00210383093442046 0 -0.033513437692705754 -0.0020706177213776775 0 -0.033520974800002913 -0.0019844859658067222 0 -0.033574028983087117 -0.00210383093442046 0 -0.033579617045035634 -0.0020734540828663203 0 -0.033551807562028295 -0.0020602545822761215 0 -0.033574028983087117 -0.00210383093442046 0 -0.03361089448135799 -0.0020662572019117739 0 -0.033579617045035634 -0.0020734540828663203 0 -0.033571153035975722 -0.0020386942836590491 0 -0.033579617045035634 -0.0020734540828663203 0 -0.033571153035975722 -0.0020386942836590491 0 -0.033551807562028295 -0.0020602545822761215 0 -0.033458248616663182 -0.0018681713707450864 0 -0.033424185327466389 -0.0019639689254299401 0 -0.033520974800002913 -0.0019844859658067222 0 -0.033529712120440675 -0.0020089276103844654 0 -0.033571153035975722 -0.0020386942836590491 0 -0.033551807562028295 -0.0020602545822761215 0 -0.034392425091096523 -0.00079685532636208781 0 -0.034139680256169466 -0.0014981076697578911 0 -0.034436122916857076 -0.00015667152383186993 0 -0.034240230577585594 -0.00020415215469958729 0 -0.03406764408287815 -7.2827307577202761e-05 0 -0.034324521952828736 -0.0002644277921950503 0 -0.034240230577585594 -0.00020415215469958729 0 -0.034172321854173592 -0.00027237623952096259 0 -0.034324521952828736 -0.0002644277921950503 0 -0.034436122916857076 -0.00015667152383186993 0 -0.034240230577585594 -0.00020415215469958729 0 -0.034696619282689176 -3.1669524694128597e-05 0 -0.03464793914883775 -4.5694494719801752e-05 0 -0.034999700513779132 -1.0523063525582794e-07 0 -0.034798944198813311 1.9311431338416894e-05 0 -0.035023245084306875 1.4371768456612923e-05 0 -0.034436122916857076 -0.00015667152383186993 0 -0.034798944198813311 1.9311431338416894e-05 0 -0.03406764408287815 -7.2827307577202761e-05 0 -0.034999700513779132 -1.0523063525582794e-07 0 -0.034798944198813311 1.9311431338416894e-05 0 -0.034999077290702028 1.5832806009293872e-07 0 -0.034798944198813311 1.9311431338416894e-05 0 -0.03457332962400287 -0.00014414987104070424 0 -0.03481533213873779 -3.3761664421487607e-05 0 -0.034436122916857076 -0.00015667152383186993 0 -0.034798944198813311 1.9311431338416894e-05 0 -0.03457332962400287 -0.00014414987104070424 0 -0.034324521952828736 -0.0002644277921950503 0 -0.034436122916857076 -0.00015667152383186993 0 -0.03457332962400287 -0.00014414987104070424 0 -0.034324521952828736 -0.0002644277921950503 0 -0.03457332962400287 -0.00014414987104070424 0 -0.034298225727463945 -0.00030581065448164163 0 -0.03457332962400287 -0.00014414987104070424 0 -0.034678255836289536 -0.00017735448413704337 0 -0.034298225727463945 -0.00030581065448164163 0 -0.034678255836289536 -0.00017735448413704337 0 -0.03481533213873779 -3.3761664421487607e-05 0 -0.03495772391063337 4.8450798842055234e-05 0 -0.03457332962400287 -0.00014414987104070424 0 -0.034678255836289536 -0.00017735448413704337 0 -0.03481533213873779 -3.3761664421487607e-05 0 -0.034798944198813311 1.9311431338416894e-05 0 -0.034999077290702028 1.5832806009293872e-07 0 -0.03481533213873779 -3.3761664421487607e-05 0 -0.034999077290702028 1.5832806009293872e-07 0 -0.03481533213873779 -3.3761664421487607e-05 0 -0.03495772391063337 4.8450798842055234e-05 0 -0.034999543647504482 -7.3961461095133006e-07 0 -0.034758685705281414 -0.00028339166415884963 0 -0.034999999995111178 9.8128862279304015e-10 0 -0.034999996889976979 -3.0807550678933817e-09 0 -0.034999255492938856 -1.4078503683368106e-06 0 -0.034998972810546689 -2.6399111340592761e-06 0 -0.034999996889976979 -3.0807550678933817e-09 0 -0.034999255492938856 -1.4078503683368106e-06 0 -0.035265388344588089 -3.0810212072628418e-05 0 -0.03495772391063337 4.8450798842055234e-05 0 -0.034967381762269184 -0.00021286281978257537 0 -0.034678255836289536 -0.00017735448413704337 0 -0.03495772391063337 4.8450798842055234e-05 0 -0.034967381762269184 -0.00021286281978257537 0 -0.034678255836289536 -0.00017735448413704337 0 -0.034967381762269184 -0.00021286281978257537 0 -0.034679279498724409 -0.00049252588974482031 0 -0.035245036273320006 -0.00058271758788474323 0 -0.034967381762269184 -0.00021286281978257537 0 -0.034679279498724409 -0.00049252588974482031 0 -0.035245036273320006 -0.00058271758788474323 0 -0.034572310353233097 -0.0012962648462749961 0 -0.035087127856344165 -0.0014886645826472295 0 -0.035245036273320006 -0.00058271758788474323 0 -0.034679279498724409 -0.00049252588974482031 0 -0.034572310353233097 -0.0012962648462749961 0 -0.033634287780150068 -0.0014184804278201196 0 -0.033748797297613008 -0.001500077097525525 0 -0.034210700354883598 -0.00069675258750901607 0 -0.033564062458193662 -0.0011127189183852593 0 -0.034572310353233097 -0.0012962648462749961 0 -0.034210700354883598 -0.00069675258750901607 0 -0.034679279498724409 -0.00049252588974482031 0 -0.034572310353233097 -0.0012962648462749961 0 -0.034210700354883598 -0.00069675258750901607 0 -0.034355716897453273 -0.00039419971910417033 0 -0.03397226847140495 -0.0004130177046015742 0 -0.034210700354883598 -0.00069675258750901607 0 -0.034679279498724409 -0.00049252588974482031 0 -0.034355716897453273 -0.00039419971910417033 0 -0.034678255836289536 -0.00017735448413704337 0 -0.034679279498724409 -0.00049252588974482031 0 -0.034355716897453273 -0.00039419971910417033 0 -0.034678255836289536 -0.00017735448413704337 0 -0.034355716897453273 -0.00039419971910417033 0 -0.034298225727463945 -0.00030581065448164163 0 -0.034324521952828736 -0.0002644277921950503 0 -0.034298225727463945 -0.00030581065448164163 0 -0.034176462762245383 -0.00037431892942316875 0 -0.034298225727463945 -0.00030581065448164163 0 -0.03397226847140495 -0.0004130177046015742 0 -0.034176462762245383 -0.00037431892942316875 0 -0.034355716897453273 -0.00039419971910417033 0 -0.034298225727463945 -0.00030581065448164163 0 -0.03397226847140495 -0.0004130177046015742 0 -0.034210700354883598 -0.00069675258750901607 0 -0.03397226847140495 -0.0004130177046015742 0 -0.033564062458193662 -0.0011127189183852593 0 -0.033564062458193662 -0.0011127189183852593 0 -0.032530328115098706 -0.0010831760976664179 0 -0.032944125851951632 -0.0014057636942023546 0 -0.033518560489801022 -0.0007387895813186164 0 -0.033361651818456524 -0.0008839897194713671 0 -0.03397226847140495 -0.0004130177046015742 0 -0.033564062458193662 -0.0011127189183852593 0 -0.032530328115098706 -0.0010831760976664179 0 -0.034168386894788502 -0.00033113658132487121 0 -0.034163060661223446 -0.00034574628113811937 0 -0.034131884860782752 -0.00035557679177815641 0 -0.034168386894788502 -0.00033113658132487121 0 -0.034163060661223446 -0.00034574628113811937 0 -0.034176462762245383 -0.00037431892942316875 0 -0.03397226847140495 -0.0004130177046015742 0 -0.034168386894788502 -0.00033113658132487121 0 -0.034176462762245383 -0.00037431892942316875 0 -0.034163060661223446 -0.00034574628113811937 0 -0.034176462762245383 -0.00037431892942316875 0 -0.034149409716939749 -0.0003230141775888618 0 -0.034176462762245383 -0.00037431892942316875 0 -0.034172321854173592 -0.00027237623952096259 0 -0.034149409716939749 -0.0003230141775888618 0 -0.034324521952828736 -0.0002644277921950503 0 -0.034176462762245383 -0.00037431892942316875 0 -0.034172321854173592 -0.00027237623952096259 0 -0.032490387697685599 -0.001717919131576738 0 -0.03225282953699974 -0.0021351008000952869 0 -0.031914188503326314 -0.0020890879968612675 0 -0.032490387697685599 -0.001717919131576738 0 -0.032683891048043742 -0.0019881034382089346 0 -0.03225282953699974 -0.0021351008000952869 0 -0.032530328115098706 -0.0010831760976664179 0 -0.032490387697685599 -0.001717919131576738 0 -0.031902683228314015 -0.0015784722145433788 0 -0.032530328115098706 -0.0010831760976664179 0 -0.032490387697685599 -0.001717919131576738 0 -0.032944125851951632 -0.0014057636942023546 0 -0.032490387697685599 -0.001717919131576738 0 -0.032944125851951632 -0.0014057636942023546 0 -0.033098784035276947 -0.0015560421789161422 0 -0.033564062458193662 -0.0011127189183852593 0 -0.032944125851951632 -0.0014057636942023546 0 -0.033098784035276947 -0.0015560421789161422 0 -0.032490387697685599 -0.001717919131576738 0 -0.033098784035276947 -0.0015560421789161422 0 -0.032683891048043742 -0.0019881034382089346 0 -0.033098784035276947 -0.0015560421789161422 0 -0.033081253182181962 -0.0019064318805808102 0 -0.032683891048043742 -0.0019881034382089346 0 -0.033098784035276947 -0.0015560421789161422 0 -0.033081253182181962 -0.0019064318805808102 0 -0.033312443954822399 -0.0016134495952272014 0 -0.033564062458193662 -0.0011127189183852593 0 -0.033098784035276947 -0.0015560421789161422 0 -0.033337953843648439 -0.0013685010439350134 0 -0.033098784035276947 -0.0015560421789161422 0 -0.033337953843648439 -0.0013685010439350134 0 -0.033312443954822399 -0.0016134495952272014 0 -0.033337953843648439 -0.0013685010439350134 0 -0.033540897565976543 -0.0014906933609772934 0 -0.033312443954822399 -0.0016134495952272014 0 -0.033748797297613008 -0.001500077097525525 0 -0.033807328575920413 -0.0016328017478497363 0 -0.033807328575920413 -0.0016328017478497363 0 -0.03360090560153834 -0.0019444698384916508 0 -0.033540897565976543 -0.0014906933609772934 0 -0.033312443954822399 -0.0016134495952272014 0 -0.033428578832471148 -0.0018536078829204236 0 -0.033081253182181962 -0.0019064318805808102 0 -0.033312443954822399 -0.0016134495952272014 0 -0.033428578832471148 -0.0018536078829204236 0 -0.033081253182181962 -0.0019064318805808102 0 -0.033428578832471148 -0.0018536078829204236 0 -0.033166175520741269 -0.0023160117165820018 0 -0.03360090560153834 -0.0019444698384916508 0 -0.033526968215772744 -0.0020697031169079963 0 -0.033212249445891524 -0.0022117190261297169 0 -0.033166175520741269 -0.0023160117165820018 0 -0.033312641068964227 -0.00230113837306919 0 -0.032827527777963321 -0.0022462408181596911 0 -0.032325534688168012 -0.0023914426695357911 0 -0.03290334656846812 -0.0028165542775636454 0 -0.033166175520741269 -0.0023160117165820018 0 -0.032827527777963321 -0.0022462408181596911 0 -0.03290334656846812 -0.0028165542775636454 0 -0.033081253182181962 -0.0019064318805808102 0 -0.032827527777963321 -0.0022462408181596911 0 -0.032683891048043742 -0.0019881034382089346 0 -0.033081253182181962 -0.0019064318805808102 0 -0.033166175520741269 -0.0023160117165820018 0 -0.032827527777963321 -0.0022462408181596911 0 -0.032683891048043742 -0.0019881034382089346 0 -0.032325534688168012 -0.0023914426695357911 0 -0.03225282953699974 -0.0021351008000952869 0 -0.032827527777963321 -0.0022462408181596911 0 -0.032683891048043742 -0.0019881034382089346 0 -0.032325534688168012 -0.0023914426695357911 0 -0.031898187901564796 -0.0025905156124669247 0 -0.031898544406461699 -0.0024239803921831549 0 -0.031622452038144788 -0.0027095302747273111 0 -0.032325534688168012 -0.0023914426695357911 0 -0.031898187901564796 -0.0025905156124669247 0 -0.031898544406461699 -0.0024239803921831549 0 -0.032325534688168012 -0.0023914426695357911 0 -0.031898544406461699 -0.0024239803921831549 0 -0.03225282953699974 -0.0021351008000952869 0 -0.031898544406461699 -0.0024239803921831549 0 -0.03225282953699974 -0.0021351008000952869 0 -0.031914188503326314 -0.0020890879968612675 0 -0.033530781650933386 -0.0022236871270113474 0 -0.033512341328549147 -0.0021283515665246455 0 -0.033415672487066318 -0.0021635415678747049 0 -0.033574485867890233 -0.0019426267257762742 0 -0.033576564237897261 -0.0018552387561230317 0 -0.033530781650933386 -0.0022236871270113474 0 -0.033395538879288963 -0.0021620295548375724 0 -0.033437662570802426 -0.0022847398526124429 0 -0.033530781650933386 -0.0022236871270113474 0 -0.033583144352805523 -0.0021605371624758589 0 -0.033570417203371977 -0.0022884804189522699 0 -0.033530781650933386 -0.0022236871270113474 0 -0.033583144352805523 -0.0021605371624758589 0 -0.033512341328549147 -0.0021283515665246455 0 -0.033583144352805523 -0.0021605371624758589 0 -0.033574028983087117 -0.00210383093442046 0 -0.033512341328549147 -0.0021283515665246455 0 -0.033593457193024263 -0.0021283486540413631 0 -0.033583144352805523 -0.0021605371624758589 0 -0.033574028983087117 -0.00210383093442046 0 -0.033513437692705754 -0.0020706177213776775 0 -0.033574028983087117 -0.00210383093442046 0 -0.033512341328549147 -0.0021283515665246455 0 -0.033444621792074546 -0.0020622737152251889 0 -0.033513437692705754 -0.0020706177213776775 0 -0.033512341328549147 -0.0021283515665246455 0 -0.033444621792074546 -0.0020622737152251889 0 -0.033512341328549147 -0.0021283515665246455 0 -0.033415672487066318 -0.0021635415678747049 0 -0.033370376972847185 -0.0020548182287060917 0 -0.033444621792074546 -0.0020622737152251889 0 -0.033415672487066318 -0.0021635415678747049 0 -0.033807328575920413 -0.0016328017478497363 0 -0.033576564237897261 -0.0018552387561230317 0 -0.033370376972847185 -0.0020548182287060917 0 -0.033295826857572056 -0.0021127071185189877 0 -0.033415672487066318 -0.0021635415678747049 0 -0.033212249445891524 -0.0022117190261297169 0 -0.033395538879288963 -0.0021620295548375724 0 -0.033312641068964227 -0.00230113837306919 0 -0.033242486360364483 -0.002093509835144797 0 -0.033212249445891524 -0.0022117190261297169 0 -0.033395538879288963 -0.0021620295548375724 0 -0.033437662570802426 -0.0022847398526124429 0 -0.033312641068964227 -0.00230113837306919 0 -0.033429554172809912 -0.0024002039232722465 0 -0.033395538879288963 -0.0021620295548375724 0 -0.033437662570802426 -0.0022847398526124429 0 -0.033312641068964227 -0.00230113837306919 0 -0.033312641068964227 -0.00230113837306919 0 -0.033429554172809912 -0.0024002039232722465 0 -0.033328099484892001 -0.0026153884383848074 0 -0.033166175520741269 -0.0023160117165820018 0 -0.033312641068964227 -0.00230113837306919 0 -0.033328099484892001 -0.0026153884383848074 0 -0.033508922170265541 -0.0023423447877237691 0 -0.033569049272124916 -0.0024007829543908968 0 -0.033486454681878643 -0.0025023874632220744 0 -0.033429554172809912 -0.0024002039232722465 0 -0.033508922170265541 -0.0023423447877237691 0 -0.033486454681878643 -0.0025023874632220744 0 -0.033437662570802426 -0.0022847398526124429 0 -0.033429554172809912 -0.0024002039232722465 0 -0.033508922170265541 -0.0023423447877237691 0 -0.033530781650933386 -0.0022236871270113474 0 -0.033437662570802426 -0.0022847398526124429 0 -0.033508922170265541 -0.0023423447877237691 0 -0.033508922170265541 -0.0023423447877237691 0 -0.033570417203371977 -0.0022884804189522699 0 -0.033569049272124916 -0.0024007829543908968 0 -0.033666838153072171 -0.0023057071969963456 0 -0.033583144352805523 -0.0021605371624758589 0 -0.033570417203371977 -0.0022884804189522699 0 -0.033666838153072171 -0.0023057071969963456 0 -0.033570417203371977 -0.0022884804189522699 0 -0.033569049272124916 -0.0024007829543908968 0 -0.033530781650933386 -0.0022236871270113474 0 -0.033508922170265541 -0.0023423447877237691 0 -0.033570417203371977 -0.0022884804189522699 0 -0.033569049272124916 -0.0024007829543908968 0 -0.033486454681878643 -0.0025023874632220744 0 -0.033564791799510545 -0.0024307030890204995 0 -0.030763403890754923 -0.002756044568840699 0 -0.03027807739107757 -0.0024708984144849108 0 -0.02694042545208419 -0.0030004066583747984 0 -0.028095938524722391 -0.0034829379467718083 0 -0.026797376025065541 -0.0034601277291319357 0 -0.027386002322933489 -0.002725353771392615 0 -0.027719105418726426 -0.0024290718966805233 0 -0.02694042545208419 -0.0030004066583747984 0 -0.027729471207780635 -0.0028139775237422285 0 -0.027823149230504836 -0.0020374727786749073 0 -0.02694042545208419 -0.0030004066583747984 0 -0.027178132799722463 -0.0025907343382994747 0 -0.026826188743599676 -0.0027056783435194407 0 -0.02694042545208419 -0.0030004066583747984 0 -0.027729471207780635 -0.0028139775237422285 0 -0.028095938524722391 -0.0034829379467718083 0 -0.027729471207780635 -0.0028139775237422285 0 -0.028095938524722391 -0.0034829379467718083 0 -0.028822832438284592 -0.0024168712026265606 0 -0.033429554172809912 -0.0024002039232722465 0 -0.033486454681878643 -0.0025023874632220744 0 -0.033328099484892001 -0.0026153884383848074 0 -0.030763403890754923 -0.002756044568840699 0 -0.031249793116220316 -0.0028763699780588962 0 -0.02943339655262707 -0.0033777344988629482 0 -0.028822832438284592 -0.0024168712026265606 0 -0.030136363047982628 -0.0025548951435563198 0 -0.028095938524722391 -0.0034829379467718083 0 -0.02943339655262707 -0.0033777344988629482 0 -0.028822832438284592 -0.0024168712026265606 0 -0.028822832438284592 -0.0024168712026265606 0 -0.028661927723680067 -0.0011456564125816267 0 -0.027823149230504836 -0.0020374727786749073 0 -0.028822832438284592 -0.0024168712026265606 0 -0.030136363047982628 -0.0025548951435563198 0 -0.029802799723205819 -0.0015920991288623798 0 -0.028344953669417697 -0.002023649540347958 0 -0.02925373344335588 -0.0021568349359021265 0 -0.028822832438284592 -0.0024168712026265606 0 -0.028661927723680067 -0.0011456564125816267 0 -0.029802799723205819 -0.0015920991288623798 0 -0.028441754237553175 -0.0020773875207855453 0 -0.027904656296179428 -0.0021475157248949921 0 -0.028868223028402865 -0.0025001248729359482 0 -0.028441754237553175 -0.0020773875207855453 0 -0.028868223028402865 -0.0025001248729359482 0 -0.028653778963127614 -0.0019974315481423519 0 -0.028344953669417697 -0.002023649540347958 0 -0.028325682388481675 -0.0020199397338848566 0 -0.026912578882769458 -0.0021504355381720291 0 -0.027178132799722463 -0.0025907343382994747 0 -0.027191053322528878 -0.0021315043890276662 0 -0.027485517118174794 -0.0021834057897465826 0 -0.027178132799722463 -0.0025907343382994747 0 -0.027191053322528878 -0.0021315043890276662 0 -0.027564719141244105 -0.0022121898215631242 0 -0.027485517118174794 -0.0021834057897465826 0 -0.027178132799722463 -0.0025907343382994747 0 -0.028344953669417697 -0.002023649540347958 0 -0.027719105418726426 -0.0024290718966805233 0 -0.026912578882769458 -0.0021504355381720291 0 -0.026803893266826112 -0.0024505353328816183 0 -0.027178132799722463 -0.0025907343382994747 0 -0.026912578882769458 -0.0021504355381720291 0 -0.026803893266826112 -0.0024505353328816183 0 -0.026589213365204315 -0.0022629442553036587 0 -0.026803893266826112 -0.0024505353328816183 0 -0.027178132799722463 -0.0025907343382994747 0 -0.026826188743599676 -0.0027056783435194407 0 -0.027729471207780635 -0.0028139775237422285 0 -0.028822832438284592 -0.0024168712026265606 0 -0.027823149230504836 -0.0020374727786749073 0 -0.031714984968369761 -0.0028511161233024675 0 -0.031271606534747476 -0.0025946193355957507 0 -0.031622452038144788 -0.0027095302747273111 0 -0.031271606534747476 -0.0025946193355957507 0 -0.031622452038144788 -0.0027095302747273111 0 -0.031410958107310614 -0.0024585622294060363 0 -0.031898187901564796 -0.0025905156124669247 0 -0.031714984968369761 -0.0028511161233024675 0 -0.031622452038144788 -0.0027095302747273111 0 -0.032325534688168012 -0.0023914426695357911 0 -0.031898187901564796 -0.0025905156124669247 0 -0.031714984968369761 -0.0028511161233024675 0 -0.032325534688168012 -0.0023914426695357911 0 -0.031714984968369761 -0.0028511161233024675 0 -0.03290334656846812 -0.0028165542775636454 0 -0.03163301295711779 -0.0029101365960929018 0 -0.031563149505215916 -0.002913904065189995 0 -0.031714984968369761 -0.0028511161233024675 0 -0.031107423265556832 -0.0026438604574095647 0 -0.031271606534747476 -0.0025946193355957507 0 -0.031714984968369761 -0.0028511161233024675 0 -0.031107423265556832 -0.0026438604574095647 0 -0.030610994937072561 -0.0032000282369236016 0 -0.031107423265556832 -0.0026438604574095647 0 -0.030610994937072561 -0.0032000282369236016 0 -0.030136363047982628 -0.0025548951435563198 0 -0.031249793116220316 -0.0028763699780588962 0 -0.031563149505215916 -0.002913904065189995 0 -0.033166175520741269 -0.0023160117165820018 0 -0.033328099484892001 -0.0026153884383848074 0 -0.03290334656846812 -0.0028165542775636454 0 -0.02943339655262707 -0.0033777344988629482 0 -0.030610994937072561 -0.0032000282369236016 0 -0.030136363047982628 -0.0025548951435563198 0 -0.02925373344335588 -0.0021568349359021265 0 -0.030122763503246205 -0.0023717720471747037 0 -0.030136363047982628 -0.0025548951435563198 0 -0.029802799723205819 -0.0015920991288623798 0 -0.030851207707569769 -0.0021017135820337886 0 -0.028868223028402865 -0.0025001248729359482 0 -0.030035979315416433 -0.0026950911734731809 0 -0.029480996214537435 -0.001974192890458431 0 -0.028868223028402865 -0.0025001248729359482 0 -0.029480996214537435 -0.001974192890458431 0 -0.028653778963127614 -0.0019974315481423519 0 -0.030035979315416433 -0.0026950911734731809 0 -0.030567498419939342 -0.0021262833100234649 0 -0.029480996214537435 -0.001974192890458431 0 -0.031107423265556832 -0.0026438604574095647 0 -0.030136363047982628 -0.0025548951435563198 0 -0.030851207707569769 -0.0021017135820337886 0 -0.031107423265556832 -0.0026438604574095647 0 -0.030851207707569769 -0.0021017135820337886 0 -0.031271606534747476 -0.0025946193355957507 0 -0.030122763503246205 -0.0023717720471747037 0 -0.030549702182142716 -0.0024886297018807506 0 -0.030035979315416433 -0.0026950911734731809 0 -0.030567498419939342 -0.0021262833100234649 0 -0.031271606534747476 -0.0025946193355957507 0 -0.030567498419939342 -0.0021262833100234649 0 -0.031112129267686049 -0.0021411684661612113 0 -0.031271606534747476 -0.0025946193355957507 0 -0.030567498419939342 -0.0021262833100234649 0 -0.031112129267686049 -0.0021411684661612113 0 -0.030808732647993053 -0.0018017813262902959 0 -0.031112129267686049 -0.0021411684661612113 0 -0.031271606534747476 -0.0025946193355957507 0 -0.031410958107310614 -0.0024585622294060363 0 -0.030854155344680615 -0.0015181186721381736 0 -0.030808732647993053 -0.0018017813262902959 0 -0.03103091636247984 -0.0017723599888354743 0 -0.031112129267686049 -0.0021411684661612113 0 -0.030808732647993053 -0.0018017813262902959 0 -0.03103091636247984 -0.0017723599888354743 0 -0.030854155344680615 -0.0015181186721381736 0 -0.030808732647993053 -0.0018017813262902959 0 -0.030040096729802495 -0.0013706883192957753 0 -0.030567498419939342 -0.0021262833100234649 0 -0.030808732647993053 -0.0018017813262902959 0 -0.030040096729802495 -0.0013706883192957753 0 -0.030157907105960981 -0.0015550837222935367 0 -0.029589888143313536 -0.0015939339209783113 0 -0.029807700950322365 -0.0016762290242097115 0 -0.029102204497779421 -0.0017172940472257316 0 -0.029339507733861341 -0.001194121312778168 0 -0.029102204497779421 -0.0017172940472257316 0 -0.028786302810690865 -0.0015382620829315326 0 -0.02881704152218242 -0.0012266062447250897 0 -0.030567498419939342 -0.0021262833100234649 0 -0.030040096729802495 -0.0013706883192957753 0 -0.029480996214537435 -0.001974192890458431 0 -0.029589888143313536 -0.0015939339209783113 0 -0.029196946950405294 -0.0016297324482459272 0 -0.030040096729802495 -0.0013706883192957753 0 -0.029480996214537435 -0.001974192890458431 0 -0.028634349532321239 -0.001630718291396672 0 -0.029480996214537435 -0.001974192890458431 0 -0.028653778963127614 -0.0019974315481423519 0 -0.028634349532321239 -0.001630718291396672 0 -0.028786302810690865 -0.0015382620829315326 0 -0.028634349532321239 -0.001630718291396672 0 -0.028488516296810019 -0.0015349302768788537 0 -0.029102204497779421 -0.0017172940472257316 0 -0.028786302810690865 -0.0015382620829315326 0 -0.028634349532321239 -0.001630718291396672 0 -0.028786302810690865 -0.0015382620829315326 0 -0.028501839065978082 -0.0013135645093309708 0 -0.028488516296810019 -0.0015349302768788537 0 -0.028501839065978082 -0.0013135645093309708 0 -0.02881704152218242 -0.0012266062447250897 0 -0.028214834296373878 -0.00092437261308323893 0 -0.028786302810690865 -0.0015382620829315326 0 -0.028501839065978082 -0.0013135645093309708 0 -0.02881704152218242 -0.0012266062447250897 0 -0.02881704152218242 -0.0012266062447250897 0 -0.028920981107277949 -0.00065733161743237296 0 -0.028214834296373878 -0.00092437261308323893 0 -0.028920981107277949 -0.00065733161743237296 0 -0.028214834296373878 -0.00092437261308323893 0 -0.028137847226188555 -1.162168535516794e-05 0 -0.02881704152218242 -0.0012266062447250897 0 -0.028920981107277949 -0.00065733161743237296 0 -0.029339507733861341 -0.001194121312778168 0 -0.029102204497779421 -0.0017172940472257316 0 -0.02881704152218242 -0.0012266062447250897 0 -0.029339507733861341 -0.001194121312778168 0 -0.029807700950322365 -0.0016762290242097115 0 -0.029339507733861341 -0.001194121312778168 0 -0.029757660374778765 -0.0011169309172862469 0 -0.029339507733861341 -0.001194121312778168 0 -0.029585083998091694 -0.0007567895362347954 0 -0.029757660374778765 -0.0011169309172862469 0 -0.028920981107277949 -0.00065733161743237296 0 -0.029339507733861341 -0.001194121312778168 0 -0.029585083998091694 -0.0007567895362347954 0 -0.029585083998091694 -0.0007567895362347954 0 -0.029917042585293575 -0.00088258827943172116 0 -0.029757660374778765 -0.0011169309172862469 0 -0.029917042585293575 -0.00088258827943172116 0 -0.029757660374778765 -0.0011169309172862469 0 -0.030134729802820642 -0.0011416308268705393 0 -0.029807700950322365 -0.0016762290242097115 0 -0.029757660374778765 -0.0011169309172862469 0 -0.030134729802820642 -0.0011416308268705393 0 -0.027463031993119117 -0.0016867103294770608 0 -0.027672600587973384 -0.0014258713263961061 0 -0.027091072959366969 -0.0013218546659809081 0 -0.027201897440194172 -0.0018783302126682275 0 -0.027463031993119117 -0.0016867103294770608 0 -0.027091072959366969 -0.0013218546659809081 0 -0.026765895961563098 -0.0017266793768467899 0 -0.027201897440194172 -0.0018783302126682275 0 -0.027091072959366969 -0.0013218546659809081 0 -0.026765895961563098 -0.0017266793768467899 0 -0.027091072959366969 -0.0013218546659809081 0 -0.026417511057216632 -0.0013610198556312137 0 -0.026912578882769458 -0.0021504355381720291 0 -0.026765895961563098 -0.0017266793768467899 0 -0.027201897440194172 -0.0018783302126682275 0 -0.026912578882769458 -0.0021504355381720291 0 -0.027191053322528878 -0.0021315043890276662 0 -0.027201897440194172 -0.0018783302126682275 0 -0.027485517118174794 -0.0021834057897465826 0 -0.027191053322528878 -0.0021315043890276662 0 -0.027201897440194172 -0.0018783302126682275 0 -0.027589025120798111 -0.0022319034195174294 0 -0.027485517118174794 -0.0021834057897465826 0 -0.027644630184263032 -0.0019929146374145891 0 -0.027201897440194172 -0.0018783302126682275 0 -0.027644630184263032 -0.0019929146374145891 0 -0.027463031993119117 -0.0016867103294770608 0 -0.027485517118174794 -0.0021834057897465826 0 -0.027201897440194172 -0.0018783302126682275 0 -0.027644630184263032 -0.0019929146374145891 0 -0.028344953669417697 -0.002023649540347958 0 -0.02833823874222207 -0.001930237872419854 0 -0.028441754237553175 -0.0020773875207855453 0 -0.027904656296179428 -0.0021475157248949921 0 -0.028350329566405773 -0.0017056732772258907 0 -0.027589025120798111 -0.0022319034195174294 0 -0.027644630184263032 -0.0019929146374145891 0 -0.027953734829328478 -0.0019666978744325614 0 -0.027644630184263032 -0.0019929146374145891 0 -0.027953734829328478 -0.0019666978744325614 0 -0.027741036584242477 -0.0017599519693639323 0 -0.027644630184263032 -0.0019929146374145891 0 -0.027463031993119117 -0.0016867103294770608 0 -0.027741036584242477 -0.0017599519693639323 0 -0.028441754237553175 -0.0020773875207855453 0 -0.028653778963127614 -0.0019974315481423519 0 -0.028350329566405773 -0.0017056732772258907 0 -0.028350329566405773 -0.0017056732772258907 0 -0.028634349532321239 -0.001630718291396672 0 -0.028488516296810019 -0.0015349302768788537 0 -0.028653778963127614 -0.0019974315481423519 0 -0.028350329566405773 -0.0017056732772258907 0 -0.028634349532321239 -0.001630718291396672 0 -0.02833823874222207 -0.001930237872419854 0 -0.02839308982458805 -0.0018414373287911603 0 -0.027953734829328478 -0.0019666978744325614 0 -0.028488516296810019 -0.0015349302768788537 0 -0.027989257400054736 -0.001584764583888932 0 -0.028488516296810019 -0.0015349302768788537 0 -0.027989257400054736 -0.001584764583888932 0 -0.028109680939730972 -0.0012827550092044798 0 -0.027989257400054736 -0.001584764583888932 0 -0.027672600587973384 -0.0014258713263961061 0 -0.028109680939730972 -0.0012827550092044798 0 -0.028501839065978082 -0.0013135645093309708 0 -0.028488516296810019 -0.0015349302768788537 0 -0.028109680939730972 -0.0012827550092044798 0 -0.027463031993119117 -0.0016867103294770608 0 -0.027741036584242477 -0.0017599519693639323 0 -0.027672600587973384 -0.0014258713263961061 0 -0.027953734829328478 -0.0019666978744325614 0 -0.027989257400054736 -0.001584764583888932 0 -0.027741036584242477 -0.0017599519693639323 0 -0.027989257400054736 -0.001584764583888932 0 -0.027741036584242477 -0.0017599519693639323 0 -0.027672600587973384 -0.0014258713263961061 0 -0.027672600587973384 -0.0014258713263961061 0 -0.027531022612079244 -0.0010087208946931172 0 -0.028109680939730972 -0.0012827550092044798 0 -0.027672600587973384 -0.0014258713263961061 0 -0.027531022612079244 -0.0010087208946931172 0 -0.027091072959366969 -0.0013218546659809081 0 -0.027531022612079244 -0.0010087208946931172 0 -0.028109680939730972 -0.0012827550092044798 0 -0.028214834296373878 -0.00092437261308323893 0 -0.028501839065978082 -0.0013135645093309708 0 -0.028109680939730972 -0.0012827550092044798 0 -0.028214834296373878 -0.00092437261308323893 0 -0.027531022612079244 -0.0010087208946931172 0 -0.028214834296373878 -0.00092437261308323893 0 -0.027262835754878801 -0.00039516394374806854 0 -0.027531022612079244 -0.0010087208946931172 0 -0.027028772283208762 -0.00073719903361276113 0 -0.027262835754878801 -0.00039516394374806854 0 -0.027531022612079244 -0.0010087208946931172 0 -0.027028772283208762 -0.00073719903361276113 0 -0.027091072959366969 -0.0013218546659809081 0 -0.027028772283208762 -0.00073719903361276113 0 -0.027091072959366969 -0.0013218546659809081 0 -0.026555068947951566 -0.00078690723044987684 0 -0.027091072959366969 -0.0013218546659809081 0 -0.026555068947951566 -0.00078690723044987684 0 -0.026417511057216632 -0.0013610198556312137 0 -0.027028772283208762 -0.00073719903361276113 0 -0.026555068947951566 -0.00078690723044987684 0 -0.026802619808516167 -0.00030733592210500937 0 -0.026555068947951566 -0.00078690723044987684 0 -0.026199336514229669 -0.00064757553413531752 0 -0.026002999386816716 -0.00097614812631153841 0 -0.026199336514229669 -0.00064757553413531752 0 -0.026002999386816716 -0.00097614812631153841 0 -0.025902546461816278 -0.00050307397634420095 0 -0.026002999386816716 -0.00097614812631153841 0 -0.02594801857329114 -0.0014669304587206179 0 -0.025524747454045652 -0.0011634764429715382 0 -0.026002999386816716 -0.00097614812631153841 0 -0.026417511057216632 -0.0013610198556312137 0 -0.02594801857329114 -0.0014669304587206179 0 -0.026555068947951566 -0.00078690723044987684 0 -0.026002999386816716 -0.00097614812631153841 0 -0.026417511057216632 -0.0013610198556312137 0 -0.026765895961563098 -0.0017266793768467899 0 -0.026417511057216632 -0.0013610198556312137 0 -0.026165033143255464 -0.0019323403902358894 0 -0.026417511057216632 -0.0013610198556312137 0 -0.02594801857329114 -0.0014669304587206179 0 -0.026165033143255464 -0.0019323403902358894 0 -0.02594801857329114 -0.0014669304587206179 0 -0.026165033143255464 -0.0019323403902358894 0 -0.025520874756491747 -0.0017092885755875151 0 -0.026203113068214778 -0.0018615854802146222 0 -0.025606177853669424 -0.00165110657282962 0 -0.026912578882769458 -0.0021504355381720291 0 -0.026765895961563098 -0.0017266793768467899 0 -0.026165033143255464 -0.0019323403902358894 0 -0.02652738924150053 -0.0019747948972581603 0 -0.026203113068214778 -0.0018615854802146222 0 -0.025323826864075031 -0.0016271612460589556 0 -0.025521869241490171 -0.001914293910843957 0 -0.025194243967825842 -0.002113378521330657 0 -0.025323826864075031 -0.0016271612460589556 0 -0.025521869241490171 -0.001914293910843957 0 -0.025754835623338468 -0.0016008245018560218 0 -0.026414894105558858 -0.0018857218276767456 0 -0.025754835623338468 -0.0016008245018560218 0 -0.025806211482909642 -0.0020280193534502997 0 -0.025521869241490171 -0.001914293910843957 0 -0.025754835623338468 -0.0016008245018560218 0 -0.025806211482909642 -0.0020280193534502997 0 -0.02594801857329114 -0.0014669304587206179 0 -0.025520874756491747 -0.0017092885755875151 0 -0.025524747454045652 -0.0011634764429715382 0 -0.025520874756491747 -0.0017092885755875151 0 -0.024944669454700596 -0.0014015090075770221 0 -0.024797775955178052 -0.0014448807001262113 0 -0.025606177853669424 -0.00165110657282962 0 -0.024977497155964833 -0.0014339663952360605 0 -0.025323826864075031 -0.0016271612460589556 0 -0.025754835623338468 -0.0016008245018560218 0 -0.024983688950082013 -0.0013127727185047722 0 -0.025520874756491747 -0.0017092885755875151 0 -0.025524747454045652 -0.0011634764429715382 0 -0.024944669454700596 -0.0014015090075770221 0 -0.025524747454045652 -0.0011634764429715382 0 -0.025188807975709694 -0.00086969407152357879 0 -0.024944669454700596 -0.0014015090075770221 0 -0.022597807911697212 -0.00030004265246104844 0 -0.023084495023387185 -0.00068783202924356057 0 -0.026002999386816716 -0.00097614812631153841 0 -0.025546313327864008 -0.00067431473061363 0 -0.025902546461816278 -0.00050307397634420095 0 -0.026002999386816716 -0.00097614812631153841 0 -0.025524747454045652 -0.0011634764429715382 0 -0.025546313327864008 -0.00067431473061363 0 -0.022597807911697212 -0.00030004265246104844 0 -0.020757269345208881 0.00058673800889589287 0 -0.025546313327864008 -0.00067431473061363 0 -0.025188807975709694 -0.00086969407152357879 0 -0.025389112913308517 -0.00039100639500735636 0 -0.025524747454045652 -0.0011634764429715382 0 -0.025546313327864008 -0.00067431473061363 0 -0.025188807975709694 -0.00086969407152357879 0 -0.02433182406950048 -0.00055287948950817254 0 -0.024675267834643501 -0.0010009395168800786 0 -0.024764807625283845 -0.00049051176720029527 0 -0.024948076759134352 -0.00076649112733918651 0 -0.024675267834643501 -0.0010009395168800786 0 -0.024764807625283845 -0.00049051176720029527 0 -0.02433182406950048 -0.00055287948950817254 0 -0.024316558327105435 -0.00089572774626752263 0 -0.024675267834643501 -0.0010009395168800786 0 -0.024316558327105435 -0.00089572774626752263 0 -0.024675267834643501 -0.0010009395168800786 0 -0.024173994530922418 -0.001147870778690194 0 -0.024675267834643501 -0.0010009395168800786 0 -0.024173994530922418 -0.001147870778690194 0 -0.024797775955178052 -0.0014448807001262113 0 -0.024948076759134352 -0.00076649112733918651 0 -0.024675267834643501 -0.0010009395168800786 0 -0.024944669454700596 -0.0014015090075770221 0 -0.0089358965166968229 0.0047500274380187198 0 -0.0089337999715099412 0.0050555199172263891 0 -0.0086640160291963815 0.0047281814658029775 0 -0.0089337999715099412 0.0050555199172263891 0 -0.0086640160291963815 0.0047281814658029775 0 -0.0085797697418163957 0.0051152178882008245 0 -0.0081636776236181877 0.0047591524741933192 0 -0.0086640160291963815 0.0047281814658029775 0 -0.0085797697418163957 0.0051152178882008245 0 -0.02433182406950048 -0.00055287948950817254 0 -0.024316558327105435 -0.00089572774626752263 0 -0.023930310174194922 -0.00096042190898388289 0 -0.016266167197926177 0.0020561974178737044 0 -0.016279293978054492 0.0020584120780624306 0 -0.023930310174194922 -0.00096042190898388289 0 -0.023928358916548088 -0.0012914835943424305 0 -0.024173994530922418 -0.001147870778690194 0 -0.024316558327105435 -0.00089572774626752263 0 -0.023930310174194922 -0.00096042190898388289 0 -0.024173994530922418 -0.001147870778690194 0 -0.0089337999715099412 0.0050555199172263891 0 -0.0089577772444662581 0.0054703986774101241 0 -0.0085797697418163957 0.0051152178882008245 0 -0.023547326076733727 -0.0013562301171137141 0 -0.023930310174194922 -0.00096042190898388289 0 -0.023928358916548088 -0.0012914835943424305 0 -0.023547326076733727 -0.0013562301171137141 0 -0.023928358916548088 -0.0012914835943424305 0 -0.023875699345280117 -0.0015286754929545055 0 -0.016339031818501021 0.0020761447904438066 0 -0.016279293978054492 0.0020584120780624306 0 -0.023928358916548088 -0.0012914835943424305 0 -0.024132156691441319 -0.0014728733012168589 0 -0.023875699345280117 -0.0015286754929545055 0 -0.023928358916548088 -0.0012914835943424305 0 -0.024173994530922418 -0.001147870778690194 0 -0.024132156691441319 -0.0014728733012168589 0 -0.024173994530922418 -0.001147870778690194 0 -0.024132156691441319 -0.0014728733012168589 0 -0.024354620658068968 -0.0014183930858538479 0 -0.024132156691441319 -0.0014728733012168589 0 -0.024037134416818193 -0.0017476169485999996 0 -0.024431401115017036 -0.0016779007389816452 0 -0.024037134416818193 -0.0017476169485999996 0 -0.024431401115017036 -0.0016779007389816452 0 -0.024262064083843897 -0.0019948952424096032 0 -0.024132156691441319 -0.0014728733012168589 0 -0.024037134416818193 -0.0017476169485999996 0 -0.023875699345280117 -0.0015286754929545055 0 -0.024037134416818193 -0.0017476169485999996 0 -0.023694349233086255 -0.0017393617602512088 0 -0.023875699345280117 -0.0015286754929545055 0 -0.023547326076733727 -0.0013562301171137141 0 -0.023694349233086255 -0.0017393617602512088 0 -0.023875699345280117 -0.0015286754929545055 0 -0.024675267834643501 -0.0010009395168800786 0 -0.024944669454700596 -0.0014015090075770221 0 -0.024797775955178052 -0.0014448807001262113 0 -0.024983688950082013 -0.0013127727185047722 0 -0.024685630837506304 -0.001357002375303646 0 -0.024848779371055164 -0.0015613631125792444 0 -0.024983688950082013 -0.0013127727185047722 0 -0.024848779371055164 -0.0015613631125792444 0 -0.02502887574567025 -0.0015738115422420677 0 -0.025323826864075031 -0.0016271612460589556 0 -0.024983688950082013 -0.0013127727185047722 0 -0.02502887574567025 -0.0015738115422420677 0 -0.024173994530922418 -0.001147870778690194 0 -0.024983688950082013 -0.0013127727185047722 0 -0.024685630837506304 -0.001357002375303646 0 -0.024622710550397921 -0.0013160232370306073 0 -0.024977497155964833 -0.0014339663952360605 0 -0.024173994530922418 -0.001147870778690194 0 -0.024354620658068968 -0.0014183930858538479 0 -0.024685630837506304 -0.001357002375303646 0 -0.024354620658068968 -0.0014183930858538479 0 -0.024685630837506304 -0.001357002375303646 0 -0.024431401115017036 -0.0016779007389816452 0 -0.024685630837506304 -0.001357002375303646 0 -0.024543923161543725 -0.0017885083947083353 0 -0.024848779371055164 -0.0015613631125792444 0 -0.025548269856527063 -0.0017289743410108134 0 -0.02567158526763956 -0.0017199789762172497 0 -0.024132156691441319 -0.0014728733012168589 0 -0.024354620658068968 -0.0014183930858538479 0 -0.024431401115017036 -0.0016779007389816452 0 -0.024543923161543725 -0.0017885083947083353 0 -0.024958452524908466 -0.0017844984060553001 0 -0.024747974143492803 -0.0021284005988990913 0 -0.025323826864075031 -0.0016271612460589556 0 -0.024958452524908466 -0.0017844984060553001 0 -0.025194243967825842 -0.002113378521330657 0 -0.024543923161543725 -0.0017885083947083353 0 -0.024958452524908466 -0.0017844984060553001 0 -0.024848779371055164 -0.0015613631125792444 0 -0.024958452524908466 -0.0017844984060553001 0 -0.024848779371055164 -0.0015613631125792444 0 -0.02502887574567025 -0.0015738115422420677 0 -0.025323826864075031 -0.0016271612460589556 0 -0.024958452524908466 -0.0017844984060553001 0 -0.02502887574567025 -0.0015738115422420677 0 -0.024951436676581971 -0.0023394261918128034 0 -0.024747974143492803 -0.0021284005988990913 0 -0.024735607907480854 -0.0025755997929010244 0 -0.025194243967825842 -0.002113378521330657 0 -0.024951436676581971 -0.0023394261918128034 0 -0.024747974143492803 -0.0021284005988990913 0 -0.024958452524908466 -0.0017844984060553001 0 -0.025194243967825842 -0.002113378521330657 0 -0.024747974143492803 -0.0021284005988990913 0 -0.025194243967825842 -0.002113378521330657 0 -0.025166603730957599 -0.0024084268115992071 0 -0.024951436676581971 -0.0023394261918128034 0 -0.024747974143492803 -0.0021284005988990913 0 -0.024368769034760027 -0.0021972639902761814 0 -0.024735607907480854 -0.0025755997929010244 0 -0.024543923161543725 -0.0017885083947083353 0 -0.024747974143492803 -0.0021284005988990913 0 -0.024368769034760027 -0.0021972639902761814 0 -0.02567158526763956 -0.0017199789762172497 0 -0.026224844846002016 -0.0013680757462309456 0 -0.026224844846002016 -0.0013680757462309456 0 -0.027102426126554047 -0.001374588099884473 0 -0.028068135275230614 -0.0010394760030551741 0 -0.028681674548004524 -0.00086532056108792996 0 -0.028274607366011749 -0.00062678978609280098 0 -0.028414350256889639 -0.0014179552369664491 0 -0.028068135275230614 -0.0010394760030551741 0 -0.028681674548004524 -0.00086532056108792996 0 -0.028068135275230614 -0.0010394760030551741 0 -0.028009483975280042 -0.00068536996895427426 0 -0.028274607366011749 -0.00062678978609280098 0 -0.028068135275230614 -0.0010394760030551741 0 -0.027717882946067082 -0.00066149030273560203 0 -0.028009483975280042 -0.00068536996895427426 0 -0.027102426126554047 -0.001374588099884473 0 -0.028314896777955831 -0.0013854186423114445 0 -0.024735607907480854 -0.0025755997929010244 0 -0.025036513512063367 -0.002589717316121308 0 -0.02511102989473216 -0.0029528383261775439 0 -0.02520604265734017 -0.002748449395257235 0 -0.025036513512063367 -0.002589717316121308 0 -0.025262746907853469 -0.0025761617119994182 0 -0.02520604265734017 -0.002748449395257235 0 -0.025036513512063367 -0.002589717316121308 0 -0.02511102989473216 -0.0029528383261775439 0 -0.025166603730957599 -0.0024084268115992071 0 -0.025036513512063367 -0.002589717316121308 0 -0.025262746907853469 -0.0025761617119994182 0 -0.025166603730957599 -0.0024084268115992071 0 -0.024951436676581971 -0.0023394261918128034 0 -0.025036513512063367 -0.002589717316121308 0 -0.024951436676581971 -0.0023394261918128034 0 -0.024735607907480854 -0.0025755997929010244 0 -0.025036513512063367 -0.002589717316121308 0 -0.024037134416818193 -0.0017476169485999996 0 -0.023694349233086255 -0.0017393617602512088 0 -0.023869174714221984 -0.0019985739009042549 0 -0.023509136856967761 -0.0020231534029442112 0 -0.023694349233086255 -0.0017393617602512088 0 -0.023869174714221984 -0.0019985739009042549 0 -0.024037134416818193 -0.0017476169485999996 0 -0.024185530498085389 -0.0019044458319544136 0 -0.023869174714221984 -0.0019985739009042549 0 -0.025938946939139486 -0.0012545538180387238 0 -0.026224844846002016 -0.0013680757462309456 0 -0.026224844846002016 -0.0013680757462309456 0 -0.026138742328310368 -0.0011166309477822385 0 -0.024185530498085389 -0.0019044458319544136 0 -0.023869174714221984 -0.0019985739009042549 0 -0.024015404084212717 -0.002246480536833538 0 -0.023869174714221984 -0.0019985739009042549 0 -0.024015404084212717 -0.002246480536833538 0 -0.023719063031126711 -0.0022471620473428072 0 -0.023509136856967761 -0.0020231534029442112 0 -0.023869174714221984 -0.0019985739009042549 0 -0.023719063031126711 -0.0022471620473428072 0 -0.024015404084212717 -0.002246480536833538 0 -0.023719063031126711 -0.0022471620473428072 0 -0.023847392672866882 -0.0026075755168285843 0 -0.023344431169277851 -0.002363649563155283 0 -0.023719063031126711 -0.0022471620473428072 0 -0.023847392672866882 -0.0026075755168285843 0 -0.026138742328310368 -0.0011166309477822385 0 -0.026191629596008605 -0.00019645957211955972 0 -0.028681674548004524 -0.00086532056108792996 0 -0.028550059430764774 -0.00041141630305490577 0 -0.028274607366011749 -0.00062678978609280098 0 -0.028681674548004524 -0.00086532056108792996 0 -0.028550059430764774 -0.00041141630305490577 0 -0.028943345221292018 -0.00031023359705928519 0 -0.028550059430764774 -0.00041141630305490577 0 -0.028481967395913993 -0.00028442044214715349 0 -0.028327898708645608 -0.00034675245888269511 0 -0.029109479321113879 0.00014754334064309799 0 -0.028951513677974175 9.0382849319492058e-05 0 -0.028966511084549958 0.0001106891081748035 0 -0.029109479321113879 0.00014754334064309799 0 -0.028482453148058872 -0.00012678579758853653 0 -0.028738791777138888 -0.00020272108332295482 0 -0.029051518667636302 -0.00029125769423900982 0 -0.02892123012300394 -0.00049836954592936489 0 -0.028567386994021025 -0.00025357209140077218 0 -0.028482453148058872 -0.00012678579758853653 0 -0.028738791777138888 -0.00020272108332295482 0 -0.028550059430764774 -0.00041141630305490577 0 -0.028481967395913993 -0.00028442044214715349 0 -0.028567386994021025 -0.00025357209140077218 0 -0.028550059430764774 -0.00041141630305490577 0 -0.028567386994021025 -0.00025357209140077218 0 -0.028738791777138888 -0.00020272108332295482 0 -0.028481967395913993 -0.00028442044214715349 0 -0.028567386994021025 -0.00025357209140077218 0 -0.028482453148058872 -0.00012678579758853653 0 -0.028550059430764774 -0.00041141630305490577 0 -0.028738791777138888 -0.00020272108332295482 0 -0.028943345221292018 -0.00031023359705928519 0 -0.02643329249748649 -0.00028240634205470495 0 -0.026191629596008605 -0.00019645957211955972 0 -0.029109479321113879 0.00014754334064309799 0 -0.028738791777138888 -0.00020272108332295482 0 -0.028930405368742064 -0.00028235899314785982 0 -0.027419228787358526 0.00078566728116808912 0 -0.026191629596008605 -0.00019645957211955972 0 -0.026571101414517191 0.0013532685420590555 0 -0.026567310022673825 0.0012765575561597591 0 -0.026737247081201759 0.0014615790772047545 0 -0.026571101414517191 0.0013532685420590555 0 -0.026575886237263743 0.0014509118343911847 0 -0.026737247081201759 0.0014615790772047545 0 -0.027804591333423764 -0.00047532757277723406 0 -0.028009483975280042 -0.00068536996895427426 0 -0.028121245285403437 -0.00044314642497594024 0 -0.029288512358054471 -0.000906097066034672 0 -0.029400447304361737 -0.00084798682556020549 0 -0.029394672771456892 -0.0010375411417341898 0 -0.028818961499664387 -0.0010734834185206841 0 -0.028536136838710327 -0.0013353002540152801 0 -0.028159034722249739 -0.001511469085204683 0 -0.028313294408087414 -0.0011847701497247993 0 -0.028468082813403843 -0.0013510273135178817 0 -0.028818961499664387 -0.0010734834185206841 0 -0.028314896777955831 -0.0013854186423114445 0 -0.025123163674577034 -0.0029404313191055296 0 -0.025207107720660444 -0.0030312535575412942 0 -0.025295280039071902 -0.0028525459425470146 0 -0.028314896777955831 -0.0013854186423114445 0 -0.028536136838710327 -0.0013353002540152801 0 -0.028152373010589756 -0.0015943354754659569 0 -0.028314896777955831 -0.0013854186423114445 0 -0.02520604265734017 -0.002748449395257235 0 -0.025123163674577034 -0.0029404313191055296 0 -0.025295280039071902 -0.0028525459425470146 0 -0.027804591333423764 -0.00047532757277723406 0 -0.027717882946067082 -0.00066149030273560203 0 -0.028009483975280042 -0.00068536996895427426 0 -0.028009483975280042 -0.00068536996895427426 0 -0.028274607366011749 -0.00062678978609280098 0 -0.028121245285403437 -0.00044314642497594024 0 -0.028482453148058872 -0.00012678579758853653 0 -0.027804591333423764 -0.00047532757277723406 0 -0.028121245285403437 -0.00044314642497594024 0 -0.028550059430764774 -0.00041141630305490577 0 -0.028274607366011749 -0.00062678978609280098 0 -0.028327898708645608 -0.00034675245888269511 0 -0.028274607366011749 -0.00062678978609280098 0 -0.028121245285403437 -0.00044314642497594024 0 -0.028327898708645608 -0.00034675245888269511 0 -0.028951513677974175 9.0382849319492058e-05 0 -0.028893873072921076 4.2542904426191736e-05 0 -0.028924106443843391 8.2512255805941586e-05 0 -0.029787117558281329 -0.00027780292874853864 0 -0.030440753232321999 -0.0003195060437361376 0 -0.02892123012300394 -0.00049836954592936489 0 -0.028818961499664387 -0.0010734834185206841 0 -0.028966511084549958 0.0001106891081748035 0 -0.028924106443843391 8.2512255805941586e-05 0 -0.028909847365362444 9.0419847363163716e-05 0 -0.028917370126487596 0.00015377704326363398 0 -0.028966511084549958 0.0001106891081748035 0 -0.028784917591077843 9.2935727034297867e-05 0 -0.028481967395913993 -0.00028442044214715349 0 -0.028482453148058872 -0.00012678579758853653 0 -0.028327898708645608 -0.00034675245888269511 0 -0.028482453148058872 -0.00012678579758853653 0 -0.028121245285403437 -0.00044314642497594024 0 -0.028327898708645608 -0.00034675245888269511 0 -0.028951513677974175 9.0382849319492058e-05 0 -0.028966511084549958 0.0001106891081748035 0 -0.028924106443843391 8.2512255805941586e-05 0 -0.028924106443843391 8.2512255805941586e-05 0 -0.028909847365362444 9.0419847363163716e-05 0 -0.02890782566847307 8.4242971330224977e-05 0 -0.030109312341738619 -0.00046122829436517378 0 -0.030198889200960245 -0.00048396044199508817 0 -0.030440753232321999 -0.0003195060437361376 0 -0.030710479128046989 -0.00075613073424007015 0 -0.030198889200960245 -0.00048396044199508817 0 -0.030710479128046989 -0.00075613073424007015 0 -0.029998941717097174 -0.00075561224944968445 0 -0.030066126318866314 -0.00061412190154237214 0 -0.030672085439446335 -0.00073126975420578669 0 -0.030440753232321999 -0.0003195060437361376 0 -0.030198889200960245 -0.00048396044199508817 0 -0.028818961499664387 -0.0010734834185206841 0 -0.030198889200960245 -0.00048396044199508817 0 -0.029288512358054471 -0.000906097066034672 0 -0.029180536864862803 -0.0011374461338600557 0 -0.029394672771456892 -0.0010375411417341898 0 -0.028893873072921076 4.2542904426191736e-05 0 -0.028924106443843391 8.2512255805941586e-05 0 -0.028908901432937631 8.3136699134877363e-05 0 -0.029180536864862803 -0.0011374461338600557 0 -0.029394672771456892 -0.0010375411417341898 0 -0.029363899800387821 -0.0011743595188690144 0 -0.028536136838710327 -0.0013353002540152801 0 -0.029962036145406278 -0.0013140624122563093 0 -0.029394672771456892 -0.0010375411417341898 0 -0.029363899800387821 -0.0011743595188690144 0 -0.029694728552761705 -0.0011644753977942393 0 -0.030758702622161276 -0.00091546861687522648 0 -0.030402521908341952 -0.00093623180539359832 0 -0.030375653090200183 -0.00090797646285048039 0 -0.029386490177396973 -0.0013743578948865651 0 -0.029348085785288896 -0.0012141749661289567 0 -0.029412454285856524 -0.0013733879457788827 0 -0.030758702622161276 -0.00091546861687522648 0 -0.030375653090200183 -0.00090797646285048039 0 -0.030291171279229326 -0.00083556204320354684 0 -0.029400447304361737 -0.00084798682556020549 0 -0.029394672771456892 -0.0010375411417341898 0 -0.029694728552761705 -0.0011644753977942393 0 -0.030710479128046989 -0.00075613073424007015 0 -0.031107416289805508 -0.0016059296703648711 0 -0.030710479128046989 -0.00075613073424007015 0 -0.029962036145406278 -0.0013140624122563093 0 -0.029962036145406278 -0.0013140624122563093 0 -0.029962749169007957 -0.0013133527131731044 0 -0.025523118333470592 -0.0028366247038441881 0 -0.025719291304109031 -0.0028926369220203078 0 -0.02579834341858548 -0.0034898035287071151 0 -0.028632761558388682 -0.0018393614766888024 0 -0.030181498418439777 -0.0013847904211687048 0 -0.029270278162787804 -0.0012540654196691414 0 -0.029386490177396973 -0.0013743578948865651 0 -0.029348085785288896 -0.0012141749661289567 0 -0.025596128590281989 -0.002806368661160713 0 -0.025719291304109031 -0.0028926369220203078 0 -0.025739285643732675 -0.0027510001272754679 0 -0.025596128590281989 -0.002806368661160713 0 -0.025523118333470592 -0.0028366247038441881 0 -0.025719291304109031 -0.0028926369220203078 0 -0.028588714549760225 -0.0018599308624556179 0 -0.028632761558388682 -0.0018393614766888024 0 -0.025207107720660444 -0.0030312535575412942 0 -0.025516117759239482 -0.0028739756021107254 0 -0.025295280039071902 -0.0028525459425470146 0 -0.028536136838710327 -0.0013353002540152801 0 -0.028632761558388682 -0.0018393614766888024 0 -0.028761666358673894 -0.0016402578822816362 0 -0.030083146733653088 -0.0018359255175647278 0 -0.025719291304109031 -0.0028926369220203078 0 -0.026076905098205719 -0.0033945477514244508 0 -0.026072260969660904 -0.0029939978148280449 0 -0.025894424190078862 -0.0028165805345165655 0 -0.025719291304109031 -0.0028926369220203078 0 -0.026072260969660904 -0.0029939978148280449 0 -0.025894424190078862 -0.0028165805345165655 0 -0.026072260969660904 -0.0029939978148280449 0 -0.026066494403668854 -0.0028058011822080235 0 -0.025894424190078862 -0.0028165805345165655 0 -0.025719291304109031 -0.0028926369220203078 0 -0.025739285643732675 -0.0027510001272754679 0 -0.030531593034803382 -0.0016717552560415112 0 -0.030968686377329125 -0.0017511925225078863 0 -0.03069732177754669 -0.0018969042639795284 0 -0.025719291304109031 -0.0028926369220203078 0 -0.02579834341858548 -0.0034898035287071151 0 -0.026196543596511322 -0.0034728137990489563 0 -0.030402967333014033 -0.00093792448887032533 0 -0.030375653090200183 -0.00090797646285048039 0 -0.030330265713626223 -0.0009405487398182617 0 -0.029962036145406278 -0.0013140624122563093 0 -0.030181498418439777 -0.0013847904211687048 0 -0.030181498418439777 -0.0013847904211687048 0 -0.031107416289805508 -0.0016059296703648711 0 -0.030375653090200183 -0.00090797646285048039 0 -0.030330265713626223 -0.0009405487398182617 0 -0.030291171279229326 -0.00083556204320354684 0 -0.031017617106576943 -0.001881981378799044 0 -0.030968686377329125 -0.0017511925225078863 0 -0.03069732177754669 -0.0018969042639795284 0 -0.030181498418439777 -0.0013847904211687048 0 -0.030083146733653088 -0.0018359255175647278 0 -0.030083146733653088 -0.0018359255175647278 0 -0.03027807739107757 -0.0024708984144849108 0 -0.031823712833127529 -0.0023043275193411245 0 -0.030083146733653088 -0.0018359255175647278 0 -0.026076905098205719 -0.0033945477514244508 0 -0.02642107223645377 -0.0031975816571167318 0 -0.026072260969660904 -0.0029939978148280449 0 -0.026076905098205719 -0.0033945477514244508 0 -0.02642107223645377 -0.0031975816571167318 0 -0.026797376025065541 -0.0034601277291319357 0 -0.033543680361586031 -0.0024254878786089825 0 -0.033529037710235403 -0.0024119978871457036 0 -0.033564791799510545 -0.0024307030890204995 0 -0.02642107223645377 -0.0031975816571167318 0 -0.026797376025065541 -0.0034601277291319357 0 -0.026683187138560976 -0.0031424510441375483 0 -0.02694042545208419 -0.0030004066583747984 0 -0.026797376025065541 -0.0034601277291319357 0 -0.026683187138560976 -0.0031424510441375483 0 -0.02694042545208419 -0.0030004066583747984 0 -0.026683187138560976 -0.0031424510441375483 0 -0.026605437510625392 -0.0029298512523716152 0 -0.02642107223645377 -0.0031975816571167318 0 -0.026683187138560976 -0.0031424510441375483 0 -0.026605437510625392 -0.0029298512523716152 0 -0.026605437510625392 -0.0029298512523716152 0 -0.026315427855515237 -0.0028241222073042316 0 -0.026511397403866908 -0.0025878338017267955 0 -0.02694042545208419 -0.0030004066583747984 0 -0.026605437510625392 -0.0029298512523716152 0 -0.026826188743599676 -0.0027056783435194407 0 -0.02642107223645377 -0.0031975816571167318 0 -0.026072260969660904 -0.0029939978148280449 0 -0.026315427855515237 -0.0028241222073042316 0 -0.02642107223645377 -0.0031975816571167318 0 -0.026605437510625392 -0.0029298512523716152 0 -0.026315427855515237 -0.0028241222073042316 0 -0.026072260969660904 -0.0029939978148280449 0 -0.026315427855515237 -0.0028241222073042316 0 -0.026066494403668854 -0.0028058011822080235 0 -0.026315427855515237 -0.0028241222073042316 0 -0.026066494403668854 -0.0028058011822080235 0 -0.026153566858311193 -0.0025884252685719664 0 -0.026315427855515237 -0.0028241222073042316 0 -0.026153566858311193 -0.0025884252685719664 0 -0.026511397403866908 -0.0025878338017267955 0 -0.026153566858311193 -0.0025884252685719664 0 -0.026511397403866908 -0.0025878338017267955 0 -0.02633262082558226 -0.0023294749871551001 0 -0.026605437510625392 -0.0029298512523716152 0 -0.026826188743599676 -0.0027056783435194407 0 -0.026511397403866908 -0.0025878338017267955 0 -0.026803893266826112 -0.0024505353328816183 0 -0.026511397403866908 -0.0025878338017267955 0 -0.026589213365204315 -0.0022629442553036587 0 -0.026803893266826112 -0.0024505353328816183 0 -0.026826188743599676 -0.0027056783435194407 0 -0.026511397403866908 -0.0025878338017267955 0 -0.026912578882769458 -0.0021504355381720291 0 -0.026414894105558858 -0.0018857218276767456 0 -0.026589213365204315 -0.0022629442553036587 0 -0.026414894105558858 -0.0018857218276767456 0 -0.026589213365204315 -0.0022629442553036587 0 -0.02633262082558226 -0.0023294749871551001 0 -0.026511397403866908 -0.0025878338017267955 0 -0.026589213365204315 -0.0022629442553036587 0 -0.02633262082558226 -0.0023294749871551001 0 -0.026414894105558858 -0.0018857218276767456 0 -0.02633262082558226 -0.0023294749871551001 0 -0.025980261363228653 -0.0023206658233950045 0 -0.026414894105558858 -0.0018857218276767456 0 -0.025980261363228653 -0.0023206658233950045 0 -0.025806211482909642 -0.0020280193534502997 0 -0.026153566858311193 -0.0025884252685719664 0 -0.02633262082558226 -0.0023294749871551001 0 -0.025980261363228653 -0.0023206658233950045 0 -0.025980261363228653 -0.0023206658233950045 0 -0.025721224351158208 -0.002397139790749736 0 -0.025806211482909642 -0.0020280193534502997 0 -0.025721224351158208 -0.002397139790749736 0 -0.025806211482909642 -0.0020280193534502997 0 -0.02552520821342015 -0.0021931222926578364 0 -0.025521869241490171 -0.001914293910843957 0 -0.025806211482909642 -0.0020280193534502997 0 -0.02552520821342015 -0.0021931222926578364 0 -0.025521869241490171 -0.001914293910843957 0 -0.025194243967825842 -0.002113378521330657 0 -0.02552520821342015 -0.0021931222926578364 0 -0.025194243967825842 -0.002113378521330657 0 -0.02552520821342015 -0.0021931222926578364 0 -0.025425731707156708 -0.0024301691980265863 0 -0.025194243967825842 -0.002113378521330657 0 -0.025166603730957599 -0.0024084268115992071 0 -0.025425731707156708 -0.0024301691980265863 0 -0.025721224351158208 -0.002397139790749736 0 -0.02552520821342015 -0.0021931222926578364 0 -0.025425731707156708 -0.0024301691980265863 0 -0.025425731707156708 -0.0024301691980265863 0 -0.025433934897042574 -0.0026595754294434768 0 -0.025636854459035227 -0.0026203469645188532 0 -0.025721224351158208 -0.002397139790749736 0 -0.025425731707156708 -0.0024301691980265863 0 -0.025636854459035227 -0.0026203469645188532 0 -0.025262746907853469 -0.0025761617119994182 0 -0.025425731707156708 -0.0024301691980265863 0 -0.025433934897042574 -0.0026595754294434768 0 -0.025166603730957599 -0.0024084268115992071 0 -0.025262746907853469 -0.0025761617119994182 0 -0.025425731707156708 -0.0024301691980265863 0 -0.02520604265734017 -0.002748449395257235 0 -0.025262746907853469 -0.0025761617119994182 0 -0.025433934897042574 -0.0026595754294434768 0 -0.02520604265734017 -0.002748449395257235 0 -0.025295280039071902 -0.0028525459425470146 0 -0.025433934897042574 -0.0026595754294434768 0 -0.025516117759239482 -0.0028739756021107254 0 -0.025295280039071902 -0.0028525459425470146 0 -0.025433934897042574 -0.0026595754294434768 0 -0.025596128590281989 -0.002806368661160713 0 -0.025433934897042574 -0.0026595754294434768 0 -0.025636854459035227 -0.0026203469645188532 0 -0.025596128590281989 -0.002806368661160713 0 -0.025526319209355018 -0.0028432746935586482 0 -0.025433934897042574 -0.0026595754294434768 0 -0.028632761558388682 -0.0018393614766888024 0 -0.028537867136784474 -0.0018416873241849658 0 -0.025596128590281989 -0.002806368661160713 0 -0.025636854459035227 -0.0026203469645188532 0 -0.025739285643732675 -0.0027510001272754679 0 -0.025636854459035227 -0.0026203469645188532 0 -0.025739285643732675 -0.0027510001272754679 0 -0.025873801782606776 -0.0026343861650270739 0 -0.025894424190078862 -0.0028165805345165655 0 -0.025739285643732675 -0.0027510001272754679 0 -0.025873801782606776 -0.0026343861650270739 0 -0.025894424190078862 -0.0028165805345165655 0 -0.026066494403668854 -0.0028058011822080235 0 -0.025873801782606776 -0.0026343861650270739 0 -0.026066494403668854 -0.0028058011822080235 0 -0.026153566858311193 -0.0025884252685719664 0 -0.025873801782606776 -0.0026343861650270739 0 -0.026153566858311193 -0.0025884252685719664 0 -0.025980261363228653 -0.0023206658233950045 0 -0.025873801782606776 -0.0026343861650270739 0 -0.025980261363228653 -0.0023206658233950045 0 -0.025721224351158208 -0.002397139790749736 0 -0.025873801782606776 -0.0026343861650270739 0 -0.025721224351158208 -0.002397139790749736 0 -0.025636854459035227 -0.0026203469645188532 0 -0.025873801782606776 -0.0026343861650270739 0 -0.027652031704247744 9.0725485643623619e-05 0 -0.029522174166691621 -2.3499592720573596e-07 0 -0.025482162416451983 1.5292107267777006e-06 0 -0.027652031704247744 9.0725485643623619e-05 0 -0.026706561103267506 0.00012789052792804809 0 -0.026518822380078192 0.0001001864659961812 0 -0.028732895618617648 0.00043483818991691412 0 -0.028338470232528532 0.00043690558789135394 0 -0.027652031704247744 9.0725485643623619e-05 0 -0.028444530323959886 9.9623908382826795e-05 0 -0.026706561103267506 0.00012789052792804809 0 -0.026704062508248763 0.00016305635712195868 0 -0.026648771356974431 0.00025571285895890114 0 -0.026706561103267506 0.00012789052792804809 0 -0.026704062508248763 0.00016305635712195868 0 -0.026648771356974431 0.00025571285895890114 0 -0.026828902330880727 0.00033471598341898012 0 -0.027652031704247744 9.0725485643623619e-05 0 -0.028444530323959886 9.9623908382826795e-05 0 -0.029474889285609863 9.1866498653926464e-05 0 -0.028444530323959886 9.9623908382826795e-05 0 -0.030008307407173921 0.00017446942308307512 0 -0.029474889285609863 9.1866498653926464e-05 0 -0.026671443421353247 0.00051535078114627476 0 -0.026849807888182486 0.00054298686952863483 0 -0.026828902330880727 0.00033471598341898012 0 -0.028732895618617648 0.00043483818991691412 0 -0.029808076874163321 0.00028921902149902723 0 -0.026648771356974431 0.00025571285895890114 0 -0.026671443421353247 0.00051535078114627476 0 -0.026828902330880727 0.00033471598341898012 0 -0.030008307407173921 0.00017446942308307512 0 -0.030731906270907158 4.4651606958202038e-05 0 -0.030750434158445032 -0.00026500419052641355 0 -0.029808076874163321 0.00028921902149902723 0 -0.031745295370412936 -0.00034842985558225661 0 -0.026671443421353247 0.00051535078114627476 0 -0.026783394067187088 0.00068451667806333186 0 -0.026694223989330992 0.00085821190352529104 0 -0.026671443421353247 0.00051535078114627476 0 -0.026783394067187088 0.00068451667806333186 0 -0.026849807888182486 0.00054298686952863483 0 -0.030008307407173921 0.00017446942308307512 0 -0.030731906270907158 4.4651606958202038e-05 0 -0.029474889285609863 9.1866498653926464e-05 0 -0.029474889285609863 9.1866498653926464e-05 0 -0.029522174166691621 -2.3499592720573596e-07 0 -0.031006385887090714 -6.0672466267713944e-05 0 -0.030731906270907158 4.4651606958202038e-05 0 -0.029474889285609863 9.1866498653926464e-05 0 -0.031006385887090714 -6.0672466267713944e-05 0 -0.027652031704247744 9.0725485643623619e-05 0 -0.029474889285609863 9.1866498653926464e-05 0 -0.029522174166691621 -2.3499592720573596e-07 0 -0.029522174166691621 -2.3499592720573596e-07 0 -0.031006385887090714 -6.0672466267713944e-05 0 -0.033599253488827037 3.6778991581808314e-05 0 -0.029522174166691621 -2.3499592720573596e-07 0 -0.034997766378434589 1.3073910982394806e-07 0 -0.033599253488827037 3.6778991581808314e-05 0 -0.031006385887090714 -6.0672466267713944e-05 0 -0.033599253488827037 3.6778991581808314e-05 0 -0.031735220310705831 -0.00025132781114066801 0 -0.034997766378434589 1.3073910982394806e-07 0 -0.033599253488827037 3.6778991581808314e-05 0 -0.034996512144109461 2.8698926789247181e-07 0 -0.033599253488827037 3.6778991581808314e-05 0 -0.033750535014800541 9.5569707141077078e-05 0 -0.033004231023338264 -1.9850701155621225e-05 0 -0.033599253488827037 3.6778991581808314e-05 0 -0.034996512144109461 2.8698926789247181e-07 0 -0.033750535014800541 9.5569707141077078e-05 0 -0.034999966681473905 3.9834652574375153e-09 0 -0.034973120722946213 -9.0383945305441433e-06 0 -0.034990503470349453 -4.443261077095135e-06 0 -0.034997535211744209 5.7256908998030217e-07 0 -0.033637170511333879 0.00011748237265915165 0 -0.033750535014800541 9.5569707141077078e-05 0 -0.033004231023338264 -1.9850701155621225e-05 0 -0.033009968595189954 -0.000442063238684694 0 -0.033637170511333879 0.00011748237265915165 0 -0.031745295370412936 -0.00034842985558225661 0 -0.034973120722946213 -9.0383945305441433e-06 0 -0.034951568068431742 -3.5511244669378629e-05 0 -0.034974203388180934 -1.978711098019416e-05 0 -0.034951568068431742 -3.5511244669378629e-05 0 -0.034967618644787715 -3.5608554912475909e-05 0 -0.034974203388180934 -1.978711098019416e-05 0 -0.033599253488827037 3.6778991581808314e-05 0 -0.033004231023338264 -1.9850701155621225e-05 0 -0.031735220310705831 -0.00025132781114066801 0 -0.033004231023338264 -1.9850701155621225e-05 0 -0.031735220310705831 -0.00025132781114066801 0 -0.033009968595189954 -0.000442063238684694 0 -0.031777394707299053 -0.00034328437635930756 0 -0.031745295370412936 -0.00034842985558225661 0 -0.030731906270907158 4.4651606958202038e-05 0 -0.031735220310705831 -0.00025132781114066801 0 -0.030750434158445032 -0.00026500419052641355 0 -0.030731906270907158 4.4651606958202038e-05 0 -0.031006385887090714 -6.0672466267713944e-05 0 -0.031735220310705831 -0.00025132781114066801 0 -0.026694223989330992 0.00085821190352529104 0 -0.02679901980430956 0.00082010804868724429 0 -0.026838773784835256 0.00086466824797937528 0 -0.031745295370412936 -0.00034842985558225661 0 -0.032154045129426038 -0.00013652736825016542 0 -0.026783394067187088 0.00068451667806333186 0 -0.026694223989330992 0.00085821190352529104 0 -0.02679901980430956 0.00082010804868724429 0 -0.027084631073124126 0.00082373298659236247 0 -0.026811993598084456 0.00089364429642470485 0 -0.027452432788455331 0.00095883061418575112 0 -0.032154045129426038 -0.00013652736825016542 0 -0.031567241349265078 0.00010563314398535685 0 -0.026919461607268082 0.00070212726083820811 0 -0.027084631073124126 0.00082373298659236247 0 -0.026811993598084456 0.00089364429642470485 0 -0.026783394067187088 0.00068451667806333186 0 -0.02679901980430956 0.00082010804868724429 0 -0.026919461607268082 0.00070212726083820811 0 -0.02679901980430956 0.00082010804868724429 0 -0.026919461607268082 0.00070212726083820811 0 -0.026811993598084456 0.00089364429642470485 0 -0.032067040679610387 -0.00017825467824738193 0 -0.032154045129426038 -0.00013652736825016542 0 -0.027084631073124126 0.00082373298659236247 0 -0.027452432788455331 0.00095883061418575112 0 -0.027363421726534106 1.6442090401350508e-05 0 -0.034898458808514984 -7.3854455555522966e-05 0 -0.034881494382820961 -2.6261349164749168e-05 0 -0.034941360520973387 -3.000841930385841e-05 0 -0.032154045129426038 -0.00013652736825016542 0 -0.03381301926701992 0.00025624925291889428 0 -0.034821533941235799 -8.1720592158916381e-05 0 -0.034898458808514984 -7.3854455555522966e-05 0 -0.034881494382820961 -2.6261349164749168e-05 0 -0.034967618644787715 -3.5608554912475909e-05 0 -0.034989134082709213 -1.596513618750361e-05 0 -0.034974203388180934 -1.978711098019416e-05 0 -0.034973120722946213 -9.0383945305441433e-06 0 -0.034974203388180934 -1.978711098019416e-05 0 -0.034990503470349453 -4.443261077095135e-06 0 -0.034989134082709213 -1.596513618750361e-05 0 -0.034974203388180934 -1.978711098019416e-05 0 -0.034990503470349453 -4.443261077095135e-06 0 -0.034881494382820961 -2.6261349164749168e-05 0 -0.034941330848849969 2.1528669247857129e-06 0 -0.034941360520973387 -3.000841930385841e-05 0 -0.03381301926701992 0.00025624925291889428 0 -0.034548217694948986 0.00016622737702410087 0 -0.034989134082709213 -1.596513618750361e-05 0 -0.034990503470349453 -4.443261077095135e-06 0 -0.03499935257507835 -3.3971582425363097e-06 0 -0.03499935257507835 -3.3971582425363097e-06 0 -0.034999998834603509 -1.4434687430411009e-09 0 -0.035000001906440682 -4.076642917683662e-10 0 -0.034990503470349453 -4.443261077095135e-06 0 -0.03499935257507835 -3.3971582425363097e-06 0 -0.034999998834603509 -1.4434687430411009e-09 0 -0.034999966681473905 3.9834652574375153e-09 0 -0.034990503470349453 -4.443261077095135e-06 0 -0.034999998834603509 -1.4434687430411009e-09 0 -0.034990221209094688 3.0410622832782868e-06 0 -0.034999864266304762 6.3026237635128145e-08 0 -0.034977488626359181 -3.8977482327889015e-06 0 -0.034990221209094688 3.0410622832782868e-06 0 -0.034999864266304762 6.3026237635128145e-08 0 -0.03500008442798061 -4.6495665967283142e-08 0 -0.034941330848849969 2.1528669247857129e-06 0 -0.034999864266304762 6.3026237635128145e-08 0 -0.034977488626359181 -3.8977482327889015e-06 0 -0.034548217694948986 0.00016622737702410087 0 -0.034999135580389799 4.9661314631407227e-07 0 -0.034941330848849969 2.1528669247857129e-06 0 -0.034977488626359181 -3.8977482327889015e-06 0 -0.034941360520973387 -3.000841930385841e-05 0 -0.034990221209094688 3.0410622832782868e-06 0 -0.034977488626359181 -3.8977482327889015e-06 0 -0.034985687005487466 1.2845218847181933e-05 0 -0.034977488626359181 -3.8977482327889015e-06 0 -0.034969049592034264 -3.1268977407778824e-05 0 -0.034941360520973387 -3.000841930385841e-05 0 -0.034977488626359181 -3.8977482327889015e-06 0 -0.034969049592034264 -3.1268977407778824e-05 0 -0.03498586501900644 -1.8300936402342708e-05 0 -0.034898458808514984 -7.3854455555522966e-05 0 -0.034941360520973387 -3.000841930385841e-05 0 -0.034949090982313386 -5.6951346963250032e-05 0 -0.034969049592034264 -3.1268977407778824e-05 0 -0.034941360520973387 -3.000841930385841e-05 0 -0.034949090982313386 -5.6951346963250032e-05 0 -0.027452432788455331 0.00095883061418575112 0 -0.028329978995734275 0.00098157517327181155 0 -0.027907854189916748 0.00050859560840999202 0 -0.031567241349265078 0.00010563314398535685 0 -0.031685840490276874 0.00021841116292842521 0 -0.028329978995734275 0.00098157517327181155 0 -0.028381137811974981 0.00062250542137817896 0 -0.027907854189916748 0.00050859560840999202 0 -0.028329978995734275 0.00098157517327181155 0 -0.028381137811974981 0.00062250542137817896 0 -0.028976290685122259 0.000942720015299376 0 -0.031685840490276874 0.00021841116292842521 0 -0.031906734664408395 0.00023761525757418287 0 -0.028329978995734275 0.00098157517327181155 0 -0.028976290685122259 0.000942720015299376 0 -0.029174838847188748 0.00097199127790719895 0 -0.028381137811974981 0.00062250542137817896 0 -0.028976290685122259 0.000942720015299376 0 -0.028305538101603512 5.8094018825162366e-05 0 -0.034969049592034264 -3.1268977407778824e-05 0 -0.034949090982313386 -5.6951346963250032e-05 0 -0.034978444681533424 -4.6590465859701672e-05 0 -0.028976290685122259 0.000942720015299376 0 -0.028992556954247482 0.00018697294169839687 0 -0.028483762638571417 0.00019385142275615903 0 -0.028197620008017135 0.00082552977485381629 0 -0.02774830231044734 0.00053893635821977844 0 -0.028992556954247482 0.00018697294169839687 0 -0.02870634076793022 -0.0001648265662592772 0 -0.028835824064308534 -0.00053836325871106227 0 -0.030624480912074453 -0.00010240133252765173 0 -0.030223385738882527 -0.00035919604331781764 0 -0.028992556954247482 0.00018697294169839687 0 -0.02870634076793022 -0.0001648265662592772 0 -0.028483762638571417 0.00019385142275615903 0 -0.029016578374767919 0.00010935267633968846 0 -0.028835824064308534 -0.00053836325871106227 0 -0.029034554031781817 -0.00055056715301430366 0 -0.02870634076793022 -0.0001648265662592772 0 -0.028469852680062784 -0.00033028222942606131 0 -0.028641147392451553 -0.0004040121212268315 0 -0.02870634076793022 -0.0001648265662592772 0 -0.028835824064308534 -0.00053836325871106227 0 -0.028641147392451553 -0.0004040121212268315 0 -0.028469852680062784 -0.00033028222942606131 0 -0.028483762638571417 0.00019385142275615903 0 -0.028010586051515518 -0.00049384077892240818 0 -0.02774830231044734 0.00053893635821977844 0 -0.026711901977695848 0.00035372807606177519 0 -0.02870634076793022 -0.0001648265662592772 0 -0.028469852680062784 -0.00033028222942606131 0 -0.028483762638571417 0.00019385142275615903 0 -0.028305538101603512 5.8094018825162366e-05 0 -0.027907854189916748 0.00050859560840999202 0 -0.027363421726534106 1.6442090401350508e-05 0 -0.028381137811974981 0.00062250542137817896 0 -0.028305538101603512 5.8094018825162366e-05 0 -0.027907854189916748 0.00050859560840999202 0 -0.027452432788455331 0.00095883061418575112 0 -0.027907854189916748 0.00050859560840999202 0 -0.027363421726534106 1.6442090401350508e-05 0 -0.026916702656377526 0.00046649381341002565 0 -0.026914217658098788 0.0003111367458046575 0 -0.026919461607268082 0.00070212726083820811 0 -0.027084631073124126 0.00082373298659236247 0 -0.02703410434831259 0.00052220300643630543 0 -0.026919461607268082 0.00070212726083820811 0 -0.02703410434831259 0.00052220300643630543 0 -0.026849807888182486 0.00054298686952863483 0 -0.026783394067187088 0.00068451667806333186 0 -0.026919461607268082 0.00070212726083820811 0 -0.026849807888182486 0.00054298686952863483 0 -0.02703410434831259 0.00052220300643630543 0 -0.026849807888182486 0.00054298686952863483 0 -0.026828902330880727 0.00033471598341898012 0 -0.028305538101603512 5.8094018825162366e-05 0 -0.027363421726534106 1.6442090401350508e-05 0 -0.027669806459737888 -0.00080365363032626242 0 -0.02703410434831259 0.00052220300643630543 0 -0.027054713726079264 0.00032063020089254107 0 -0.026828902330880727 0.00033471598341898012 0 -0.026914217658098788 0.0003111367458046575 0 -0.026711901977695848 0.00035372807606177519 0 -0.026711901977695848 0.00035372807606177519 0 -0.025954872784251223 0.00070378104868953559 0 -0.027054713726079264 0.00032063020089254107 0 -0.026828902330880727 0.00033471598341898012 0 -0.026833633060505065 0.00013575056465512487 0 -0.026704062508248763 0.00016305635712195868 0 -0.026828902330880727 0.00033471598341898012 0 -0.026833633060505065 0.00013575056465512487 0 -0.024834828825600667 0.0022756938643984322 0 -0.024451920734622278 0.001775366659751724 0 -0.025033729721354932 0.0017451086053075556 0 -0.028295600588897577 -0.0012158220506322997 0 -0.028495350439493992 -0.00087222921431596556 0 -0.028789876639391865 -0.0012413120324094925 0 -0.028010586051515518 -0.00049384077892240818 0 -0.028295600588897577 -0.0012158220506322997 0 -0.028495350439493992 -0.00087222921431596556 0 -0.026711901977695848 0.00035372807606177519 0 -0.026884709209551192 9.9253701552700203e-05 0 -0.028789876639391865 -0.0012413120324094925 0 -0.028743102188885192 -0.00075761068392450712 0 -0.029034554031781817 -0.00055056715301430366 0 -0.028495350439493992 -0.00087222921431596556 0 -0.028789876639391865 -0.0012413120324094925 0 -0.028743102188885192 -0.00075761068392450712 0 -0.028695736729532684 -0.0021204517408373378 0 -0.029751711362365565 -0.0018860175245962484 0 -0.030389612697747974 -0.0047834364031824443 0 -0.030885350626548385 -0.0036338186568799849 0 -0.030988234056037282 -0.0041852669104823683 0 -0.028743102188885192 -0.00075761068392450712 0 -0.028835824064308534 -0.00053836325871106227 0 -0.028554250561382995 -0.00058154761391805709 0 -0.028495350439493992 -0.00087222921431596556 0 -0.028743102188885192 -0.00075761068392450712 0 -0.028554250561382995 -0.00058154761391805709 0 -0.028743102188885192 -0.00075761068392450712 0 -0.028835824064308534 -0.00053836325871106227 0 -0.029034554031781817 -0.00055056715301430366 0 -0.028835824064308534 -0.00053836325871106227 0 -0.028641147392451553 -0.0004040121212268315 0 -0.028554250561382995 -0.00058154761391805709 0 -0.028469852680062784 -0.00033028222942606131 0 -0.028641147392451553 -0.0004040121212268315 0 -0.028554250561382995 -0.00058154761391805709 0 -0.028010586051515518 -0.00049384077892240818 0 -0.028495350439493992 -0.00087222921431596556 0 -0.028554250561382995 -0.00058154761391805709 0 -0.028469852680062784 -0.00033028222942606131 0 -0.028010586051515518 -0.00049384077892240818 0 -0.028554250561382995 -0.00058154761391805709 0 -0.032171110291806838 -0.0041470882044436878 0 -0.032815663059129245 -0.0035813406077343868 0 -0.03334871217992199 -0.0032581447531747081 0 -0.030442413175022769 -0.004773669623963004 0 -0.030386282621807016 -0.0047559791385502429 0 -0.030367547958995267 -0.0048099999250066387 0 -0.031517799488937903 -0.0036325545052787816 0 -0.032510846209502495 -0.0025209494066760468 0 -0.032171110291806838 -0.0041470882044436878 0 -0.032058662920055214 -0.0036722800078942673 0 -0.031485855375174752 -0.0040420562339319316 0 -0.032171110291806838 -0.0041470882044436878 0 -0.032815663059129245 -0.0035813406077343868 0 -0.032058662920055214 -0.0036722800078942673 0 -0.030442413175022769 -0.004773669623963004 0 -0.030386282621807016 -0.0047559791385502429 0 -0.030401777429748797 -0.0047119690544773695 0 -0.032815663059129245 -0.0035813406077343868 0 -0.03232687564283547 -0.0033294587347039504 0 -0.032660840557408144 -0.0031085942496091516 0 -0.032815663059129245 -0.0035813406077343868 0 -0.032993966353477185 -0.0031526979747611332 0 -0.032660840557408144 -0.0031085942496091516 0 -0.032815663059129245 -0.0035813406077343868 0 -0.03232687564283547 -0.0033294587347039504 0 -0.032058662920055214 -0.0036722800078942673 0 -0.03232687564283547 -0.0033294587347039504 0 -0.032058662920055214 -0.0036722800078942673 0 -0.031931066092338228 -0.0033214171015293857 0 -0.031931066092338228 -0.0033214171015293857 0 -0.03153932225181777 -0.0033428878604135721 0 -0.031582120345560419 -0.003641045292873546 0 -0.03153932225181777 -0.0033428878604135721 0 -0.031582120345560419 -0.003641045292873546 0 -0.03125838726277827 -0.0037917526605755446 0 -0.032058662920055214 -0.0036722800078942673 0 -0.031931066092338228 -0.0033214171015293857 0 -0.031582120345560419 -0.003641045292873546 0 -0.03153932225181777 -0.0033428878604135721 0 -0.030885350626548385 -0.0036338186568799849 0 -0.03125838726277827 -0.0037917526605755446 0 -0.030885350626548385 -0.0036338186568799849 0 -0.03125838726277827 -0.0037917526605755446 0 -0.030988234056037282 -0.0041852669104823683 0 -0.03125838726277827 -0.0037917526605755446 0 -0.031485855375174752 -0.0040420562339319316 0 -0.030988234056037282 -0.0041852669104823683 0 -0.032058662920055214 -0.0036722800078942673 0 -0.031582120345560419 -0.003641045292873546 0 -0.031485855375174752 -0.0040420562339319316 0 -0.031582120345560419 -0.003641045292873546 0 -0.03125838726277827 -0.0037917526605755446 0 -0.031485855375174752 -0.0040420562339319316 0 -0.032171110291806838 -0.0041470882044436878 0 -0.031485855375174752 -0.0040420562339319316 0 -0.030684985541641414 -0.0046932614340469874 0 -0.030684985541641414 -0.0046932614340469874 0 -0.030425647759664963 -0.0046674808676011549 0 -0.030435638339156929 -0.0046408795232224234 0 -0.030442413175022769 -0.004773669623963004 0 -0.030684985541641414 -0.0046932614340469874 0 -0.030425647759664963 -0.0046674808676011549 0 -0.031517799488937903 -0.0036325545052787816 0 -0.031214626273568486 -0.0039538820877459248 0 -0.031485855375174752 -0.0040420562339319316 0 -0.030988234056037282 -0.0041852669104823683 0 -0.030684985541641414 -0.0046932614340469874 0 -0.030389612697747974 -0.0047834364031824443 0 -0.030988234056037282 -0.0041852669104823683 0 -0.030684985541641414 -0.0046932614340469874 0 -0.030425647759664963 -0.0046674808676011549 0 -0.030401777429748797 -0.0047119690544773695 0 -0.030367084307349763 -0.004669619696945156 0 -0.030442413175022769 -0.004773669623963004 0 -0.030425647759664963 -0.0046674808676011549 0 -0.030401777429748797 -0.0047119690544773695 0 -0.032092580813739689 -0.002337827650682267 0 -0.032199570908780013 -0.002328951197320401 0 -0.032234145204626682 -0.0021599028752348247 0 -0.030386282621807016 -0.0047559791385502429 0 -0.030401777429748797 -0.0047119690544773695 0 -0.030367084307349763 -0.004669619696945156 0 -0.032709826479672729 -0.0019634560246021547 0 -0.032673795370466316 -0.0020381030020171424 0 -0.032199570908780013 -0.002328951197320401 0 -0.032234145204626682 -0.0021599028752348247 0 -0.032356080656021483 -0.0023773670767019066 0 -0.03247218689776623 -0.0020824840397592206 0 -0.032178700292483223 -0.001935326789514157 0 -0.032356080656021483 -0.0023773670767019066 0 -0.03247218689776623 -0.0020824840397592206 0 -0.032356080656021483 -0.0023773670767019066 0 -0.032505819135400869 -0.0024079131768823957 0 -0.032178700292483223 -0.001935326789514157 0 -0.032386156643799666 -0.0015700379119327136 0 -0.031957346396756209 -0.0014108125781273995 0 -0.03247218689776623 -0.0020824840397592206 0 -0.032620947569957821 -0.0017363133144859902 0 -0.032178700292483223 -0.001935326789514157 0 -0.032620947569957821 -0.0017363133144859902 0 -0.032178700292483223 -0.001935326789514157 0 -0.032386156643799666 -0.0015700379119327136 0 -0.032620947569957821 -0.0017363133144859902 0 -0.032386156643799666 -0.0015700379119327136 0 -0.032635188771314737 -0.0014382743007389771 0 -0.031646855692901869 -0.0033179729681394876 0 -0.03274562429655381 -0.0022325262105616739 0 -0.032709826479672729 -0.0019634560246021547 0 -0.032954743379359122 -0.0019900053826284909 0 -0.032234145204626682 -0.0021599028752348247 0 -0.032116724040917664 -0.0019498487082507546 0 -0.032140574458194016 -0.0019306205579161079 0 -0.032092580813739689 -0.002337827650682267 0 -0.032234145204626682 -0.0021599028752348247 0 -0.032116724040917664 -0.0019498487082507546 0 -0.030386282621807016 -0.0047559791385502429 0 -0.030367084307349763 -0.004669619696945156 0 -0.030356805771439826 -0.0048195215350276561 0 -0.030386282621807016 -0.0047559791385502429 0 -0.030367547958995267 -0.0048099999250066387 0 -0.030356805771439826 -0.0048195215350276561 0 -0.032512323525497461 -0.0025579643508899163 0 -0.032510846209502495 -0.0025209494066760468 0 -0.032815663059129245 -0.0035813406077343868 0 -0.033243156865001705 -0.0032749277955702143 0 -0.032993966353477185 -0.0031526979747611332 0 -0.032993966353477185 -0.0031526979747611332 0 -0.033127234087178936 -0.0029678871047245244 0 -0.033222857773175817 -0.0030946659543638292 0 -0.033243156865001705 -0.0032749277955702143 0 -0.032993966353477185 -0.0031526979747611332 0 -0.033222857773175817 -0.0030946659543638292 0 -0.032993966353477185 -0.0031526979747611332 0 -0.033127234087178936 -0.0029678871047245244 0 -0.03289335131485227 -0.0028396997561682988 0 -0.033127234087178936 -0.0029678871047245244 0 -0.033363754440501825 -0.0028737740579560097 0 -0.033119788800025252 -0.0028037754497434548 0 -0.033127234087178936 -0.0029678871047245244 0 -0.033119788800025252 -0.0028037754497434548 0 -0.03289335131485227 -0.0028396997561682988 0 -0.033127234087178936 -0.0029678871047245244 0 -0.033363754440501825 -0.0028737740579560097 0 -0.033222857773175817 -0.0030946659543638292 0 -0.033002541043189837 -0.0019890716689765857 0 -0.03274562429655381 -0.0022325262105616739 0 -0.033363754440501825 -0.0028737740579560097 0 -0.033222857773175817 -0.0030946659543638292 0 -0.033366969447793146 -0.0031610811803602754 0 -0.033061454620631987 -0.002459777906712997 0 -0.033153111609024448 -0.0011465248495762974 0 -0.032672142370213361 -0.0015401057149706699 0 -0.03274562429655381 -0.0022325262105616739 0 -0.032954743379359122 -0.0019900053826284909 0 -0.033243156865001705 -0.0032749277955702143 0 -0.033222857773175817 -0.0030946659543638292 0 -0.033366969447793146 -0.0031610811803602754 0 -0.032510846209502495 -0.0025209494066760468 0 -0.03274562429655381 -0.0022325262105616739 0 -0.033002541043189837 -0.0019890716689765857 0 -0.032954743379359122 -0.0019900053826284909 0 -0.032954743379359122 -0.0019900053826284909 0 -0.033714389312811989 -0.0010385550751858305 0 -0.034977338543422769 0.00055293159353759027 0 -0.034960121160914064 0.00048803004470809847 0 -0.034899406225188959 0.0004951330142413282 0 -0.034986067524282884 0.00053395962509415089 0 -0.034977338543422769 0.00055293159353759027 0 -0.034960121160914064 0.00048803004470809847 0 -0.033363754440501825 -0.0028737740579560097 0 -0.033051362694099411 -0.0025279144442077028 0 -0.033119788800025252 -0.0028037754497434548 0 -0.033051362694099411 -0.0025279144442077028 0 -0.033119788800025252 -0.0028037754497434548 0 -0.03289335131485227 -0.0028396997561682988 0 -0.031957346396756209 -0.0014108125781273995 0 -0.032491114390977127 -0.001110935885488572 0 -0.032547847739161466 -0.0010346159728367818 0 -0.031957346396756209 -0.0014108125781273995 0 -0.032428235609199857 -0.0013469727983121652 0 -0.032491114390977127 -0.001110935885488572 0 -0.032954743379359122 -0.0019900053826284909 0 -0.033436387844577552 -0.0011171659043617708 0 -0.032978712349799093 -0.0016442166272245577 0 -0.033444184449727452 -0.0012537668956781275 0 -0.033654667595669416 -0.0012106019773129699 0 -0.032428235609199857 -0.0013469727983121652 0 -0.032635188771314737 -0.0014382743007389771 0 -0.032677855023355525 -0.0011877576589840388 0 -0.032386156643799666 -0.0015700379119327136 0 -0.032428235609199857 -0.0013469727983121652 0 -0.032635188771314737 -0.0014382743007389771 0 -0.032386156643799666 -0.0015700379119327136 0 -0.031957346396756209 -0.0014108125781273995 0 -0.032428235609199857 -0.0013469727983121652 0 -0.032428235609199857 -0.0013469727983121652 0 -0.032491114390977127 -0.001110935885488572 0 -0.032677855023355525 -0.0011877576589840388 0 -0.03342919442808847 -0.0011218664209742559 0 -0.033436387844577552 -0.0011171659043617708 0 -0.032491114390977127 -0.001110935885488572 0 -0.032550174876718921 -0.0010296222908878837 0 -0.032677855023355525 -0.0011877576589840388 0 -0.034899406225188959 0.0004951330142413282 0 -0.034893252109283193 0.00038341103999168846 0 -0.034799146778797675 0.00043363916054760997 0 -0.034899406225188959 0.0004951330142413282 0 -0.03493870078905071 0.00043635015750101641 0 -0.034893252109283193 0.00038341103999168846 0 -0.033444184449727452 -0.0012537668956781275 0 -0.033654667595669416 -0.0012106019773129699 0 -0.033909472631338915 -0.00086409923024009111 0 -0.033714389312811989 -0.0010385550751858305 0 -0.033827363359571566 -0.00068796368225351159 0 -0.034960121160914064 0.00048803004470809847 0 -0.034899406225188959 0.0004951330142413282 0 -0.03493870078905071 0.00043635015750101641 0 -0.03493870078905071 0.00043635015750101641 0 -0.035001465569288827 0.00038672709792061152 0 -0.034893252109283193 0.00038341103999168846 0 -0.034893252109283193 0.00038341103999168846 0 -0.034830027353024109 0.00037138102475443928 0 -0.034799146778797675 0.00043363916054760997 0 -0.033002541043189837 -0.0019890716689765857 0 -0.033904711392418498 -0.0010347752439827393 0 -0.034960121160914064 0.00048803004470809847 0 -0.03493870078905071 0.00043635015750101641 0 -0.035001465569288827 0.00038672709792061152 0 -0.033363754440501825 -0.0028737740579560097 0 -0.033051362694099411 -0.0025279144442077028 0 -0.032954402465697398 -0.0018809082118715675 0 -0.034986067524282884 0.00053395962509415089 0 -0.034960121160914064 0.00048803004470809847 0 -0.035001465569288827 0.00038672709792061152 0 -0.033002541043189837 -0.0019890716689765857 0 -0.033199596838931096 -0.0020032486952834563 0 -0.034512698262843422 -0.0036704318486924662 0 -0.034631014825199841 -0.002258326507620419 0 -0.033997119686397133 -0.0024454229862054047 0 -0.032954402465697398 -0.0018809082118715675 0 -0.032671355771880052 -0.0020242894837196727 0 -0.032782033102152212 -0.0022355788438731209 0 -0.032954402465697398 -0.0018809082118715675 0 -0.032588677317952293 -0.0018318162362090267 0 -0.032723348618767856 -0.0016257880006916767 0 -0.032588677317952293 -0.0018318162362090267 0 -0.032671355771880052 -0.0020242894837196727 0 -0.032362892456221405 -0.0021349013447018337 0 -0.032954402465697398 -0.0018809082118715675 0 -0.032588677317952293 -0.0018318162362090267 0 -0.032671355771880052 -0.0020242894837196727 0 -0.032671355771880052 -0.0020242894837196727 0 -0.032504374743080322 -0.0022673279193210195 0 -0.032782033102152212 -0.0022355788438731209 0 -0.032671355771880052 -0.0020242894837196727 0 -0.032362892456221405 -0.0021349013447018337 0 -0.032504374743080322 -0.0022673279193210195 0 -0.032362892456221405 -0.0021349013447018337 0 -0.032504374743080322 -0.0022673279193210195 0 -0.032165400677535663 -0.0023973197054914797 0 -0.033051362694099411 -0.0025279144442077028 0 -0.032954402465697398 -0.0018809082118715675 0 -0.032782033102152212 -0.0022355788438731209 0 -0.032504374743080322 -0.0022673279193210195 0 -0.032782033102152212 -0.0022355788438731209 0 -0.032724988321910592 -0.0025217510519042895 0 -0.033051362694099411 -0.0025279144442077028 0 -0.032782033102152212 -0.0022355788438731209 0 -0.032724988321910592 -0.0025217510519042895 0 -0.033051362694099411 -0.0025279144442077028 0 -0.032724988321910592 -0.0025217510519042895 0 -0.03289335131485227 -0.0028396997561682988 0 -0.032724988321910592 -0.0025217510519042895 0 -0.03289335131485227 -0.0028396997561682988 0 -0.032617544410190359 -0.0028232487913802274 0 -0.032504374743080322 -0.0022673279193210195 0 -0.032724988321910592 -0.0025217510519042895 0 -0.032308885237154451 -0.0026346705120028793 0 -0.032504374743080322 -0.0022673279193210195 0 -0.032308885237154451 -0.0026346705120028793 0 -0.032165400677535663 -0.0023973197054914797 0 -0.032724988321910592 -0.0025217510519042895 0 -0.032308885237154451 -0.0026346705120028793 0 -0.032617544410190359 -0.0028232487913802274 0 -0.032308885237154451 -0.0026346705120028793 0 -0.03231692355761985 -0.0029821173509316772 0 -0.032617544410190359 -0.0028232487913802274 0 -0.03231692355761985 -0.0029821173509316772 0 -0.032660840557408144 -0.0031085942496091516 0 -0.032617544410190359 -0.0028232487913802274 0 -0.032308885237154451 -0.0026346705120028793 0 -0.03231692355761985 -0.0029821173509316772 0 -0.031923440469254369 -0.0029835532189516805 0 -0.031931066092338228 -0.0033214171015293857 0 -0.03231692355761985 -0.0029821173509316772 0 -0.031923440469254369 -0.0029835532189516805 0 -0.03232687564283547 -0.0033294587347039504 0 -0.031931066092338228 -0.0033214171015293857 0 -0.03231692355761985 -0.0029821173509316772 0 -0.03232687564283547 -0.0033294587347039504 0 -0.03231692355761985 -0.0029821173509316772 0 -0.032660840557408144 -0.0031085942496091516 0 -0.032993966353477185 -0.0031526979747611332 0 -0.032660840557408144 -0.0031085942496091516 0 -0.03289335131485227 -0.0028396997561682988 0 -0.032660840557408144 -0.0031085942496091516 0 -0.03289335131485227 -0.0028396997561682988 0 -0.032617544410190359 -0.0028232487913802274 0 -0.029016578374767919 0.00010935267633968846 0 -0.029034554031781817 -0.00055056715301430366 0 -0.029285321172533373 0.00010336370161548592 0 -0.029751711362365565 -0.0018860175245962484 0 -0.03081198365125884 -0.0011155216502663635 0 -0.030885350626548385 -0.0036338186568799849 0 -0.031788216064220096 -0.0028549370930112195 0 -0.031836161089729705 -0.0022146436356379855 0 -0.03153932225181777 -0.0033428878604135721 0 -0.030885350626548385 -0.0036338186568799849 0 -0.031788216064220096 -0.0028549370930112195 0 -0.03153932225181777 -0.0033428878604135721 0 -0.031923440469254369 -0.0029835532189516805 0 -0.031788216064220096 -0.0028549370930112195 0 -0.031931066092338228 -0.0033214171015293857 0 -0.03153932225181777 -0.0033428878604135721 0 -0.031923440469254369 -0.0029835532189516805 0 -0.032308885237154451 -0.0026346705120028793 0 -0.031788216064220096 -0.0028549370930112195 0 -0.032165400677535663 -0.0023973197054914797 0 -0.031788216064220096 -0.0028549370930112195 0 -0.031836161089729705 -0.0022146436356379855 0 -0.032165400677535663 -0.0023973197054914797 0 -0.032308885237154451 -0.0026346705120028793 0 -0.031923440469254369 -0.0029835532189516805 0 -0.031788216064220096 -0.0028549370930112195 0 -0.030624480912074453 -0.00010240133252765173 0 -0.031906734664408395 0.00023761525757418287 0 -0.029016578374767919 0.00010935267633968846 0 -0.029285321172533373 0.00010336370161548592 0 -0.029174991605865577 0.00076094290651203701 0 -0.03081198365125884 -0.0011155216502663635 0 -0.03219153801650302 0.00019690201512858585 0 -0.032588677317952293 -0.0018318162362090267 0 -0.031836161089729705 -0.0022146436356379855 0 -0.032723348618767856 -0.0016257880006916767 0 -0.032588677317952293 -0.0018318162362090267 0 -0.032362892456221405 -0.0021349013447018337 0 -0.031836161089729705 -0.0022146436356379855 0 -0.032362892456221405 -0.0021349013447018337 0 -0.031836161089729705 -0.0022146436356379855 0 -0.032165400677535663 -0.0023973197054914797 0 -0.029285321172533373 0.00010336370161548592 0 -0.029174991605865577 0.00076094290651203701 0 -0.029519419480060441 0.00076085761169256464 0 -0.028976290685122259 0.000942720015299376 0 -0.028992556954247482 0.00018697294169839687 0 -0.029174838847188748 0.00097199127790719895 0 -0.031836161089729705 -0.0022146436356379855 0 -0.032723348618767856 -0.0016257880006916767 0 -0.032848229530044189 -0.0013347563021664647 0 -0.031906734664408395 0.00023761525757418287 0 -0.03219153801650302 0.00019690201512858585 0 -0.034956344980212939 3.7282011847151989e-05 0 -0.034956986755719351 3.7167068922902086e-05 0 -0.034961560699613987 3.5913223785297957e-05 0 -0.033997119686397133 -0.0024454229862054047 0 -0.033330514607559182 -0.0011174385369829179 0 -0.034188919711869124 -0.0015176908162268694 0 -0.033199596838931096 -0.0020032486952834563 0 -0.033131672706528989 -0.0016652109545313336 0 -0.032954402465697398 -0.0018809082118715675 0 -0.032990747202256053 -0.0013504766555328023 0 -0.033330514607559182 -0.0011174385369829179 0 -0.032954402465697398 -0.0018809082118715675 0 -0.032723348618767856 -0.0016257880006916767 0 -0.032990747202256053 -0.0013504766555328023 0 -0.032723348618767856 -0.0016257880006916767 0 -0.032990747202256053 -0.0013504766555328023 0 -0.032848229530044189 -0.0013347563021664647 0 -0.032195937652827578 0.00019424297440086437 0 -0.03219153801650302 0.00019690201512858585 0 -0.032990747202256053 -0.0013504766555328023 0 -0.032881272639679701 -0.0013725660177177914 0 -0.033330514607559182 -0.0011174385369829179 0 -0.032881272639679701 -0.0013725660177177914 0 -0.033330514607559182 -0.0011174385369829179 0 -0.034023142605662297 -0.00034937828971337928 0 -0.03219153801650302 0.00019690201512858585 0 -0.033164429964285605 1.477927492229422e-05 0 -0.034956986755719351 3.7167068922902086e-05 0 -0.034961560699613987 3.5913223785297957e-05 0 -0.034965313858192057 3.1963591594104392e-05 0 -0.034072876525109312 -0.00091384573836854994 0 -0.033330514607559182 -0.0011174385369829179 0 -0.034023142605662297 -0.00034937828971337928 0 -0.034072876525109312 -0.00091384573836854994 0 -0.033330514607559182 -0.0011174385369829179 0 -0.034188919711869124 -0.0015176908162268694 0 -0.034968441175120268 3.3476517036244062e-05 0 -0.034961560699613987 3.5913223785297957e-05 0 -0.034965313858192057 3.1963591594104392e-05 0 -0.034969049592034264 -3.1268977407778824e-05 0 -0.034978444681533424 -4.6590465859701672e-05 0 -0.03498586501900644 -1.8300936402342708e-05 0 -0.031906734664408395 0.00023761525757418287 0 -0.032745668397035035 0.00031017788006635337 0 -0.034956344980212939 3.7282011847151989e-05 0 -0.034968441175120268 3.3476517036244062e-05 0 -0.034961560699613987 3.5913223785297957e-05 0 -0.034977488626359181 -3.8977482327889015e-06 0 -0.03498586501900644 -1.8300936402342708e-05 0 -0.034985687005487466 1.2845218847181933e-05 0 -0.034968441175120268 3.3476517036244062e-05 0 -0.034985687005487466 1.2845218847181933e-05 0 -0.034965313858192057 3.1963591594104392e-05 0 -0.032745668397035035 0.00031017788006635337 0 -0.033001057860699172 0.00031726470777880154 0 -0.033164429964285605 1.477927492229422e-05 0 -0.03350917922529878 5.6806824198332763e-05 0 -0.034965313858192057 3.1963591594104392e-05 0 -0.034967499887593387 2.0781171597648e-05 0 -0.03492307991427715 2.4724353779888874e-05 0 -0.034985687005487466 1.2845218847181933e-05 0 -0.034965313858192057 3.1963591594104392e-05 0 -0.034967499887593387 2.0781171597648e-05 0 -0.034985687005487466 1.2845218847181933e-05 0 -0.034979173962983404 7.5176559863815352e-06 0 -0.034967499887593387 2.0781171597648e-05 0 -0.034979173962983404 7.5176559863815352e-06 0 -0.03500008442798061 -4.6495665967283142e-08 0 -0.034999606466179577 1.4762213708033093e-07 0 -0.034979173962983404 7.5176559863815352e-06 0 -0.034967499887593387 2.0781171597648e-05 0 -0.03492307991427715 2.4724353779888874e-05 0 -0.034979173962983404 7.5176559863815352e-06 0 -0.03492307991427715 2.4724353779888874e-05 0 -0.034999606466179577 1.4762213708033093e-07 0 -0.034990221209094688 3.0410622832782868e-06 0 -0.034985687005487466 1.2845218847181933e-05 0 -0.03500008442798061 -4.6495665967283142e-08 0 -0.034985687005487466 1.2845218847181933e-05 0 -0.034979173962983404 7.5176559863815352e-06 0 -0.03500008442798061 -4.6495665967283142e-08 0 -0.034951265796976022 -1.9940956932974259e-05 0 -0.034999944249251215 -9.6607283585473693e-08 0 -0.034955402959703154 -2.5735168254554268e-05 0 -0.034951265796976022 -1.9940956932974259e-05 0 -0.034999944249251215 -9.6607283585473693e-08 0 -0.034920888471703 -4.8737441735486098e-05 0 -0.034999944249251215 -9.6607283585473693e-08 0 -0.034999606466179577 1.4762213708033093e-07 0 -0.034955402959703154 -2.5735168254554268e-05 0 -0.03492307991427715 2.4724353779888874e-05 0 -0.034999606466179577 1.4762213708033093e-07 0 -0.034955402959703154 -2.5735168254554268e-05 0 -0.034459978134681463 -0.00021399451815084519 0 -0.034328545298389905 -0.00045148709517754779 0 -0.034023142605662297 -0.00034937828971337928 0 -0.03492307991427715 2.4724353779888874e-05 0 -0.034955402959703154 -2.5735168254554268e-05 0 -0.034023142605662297 -0.00034937828971337928 0 -0.034955402959703154 -2.5735168254554268e-05 0 -0.034702346422737111 -0.00082658900897956782 0 -0.034955402959703154 -2.5735168254554268e-05 0 -0.03492203290686495 7.1130734539362215e-05 0 -0.035014977406108615 0.00017718743310303318 0 -0.034951265796976022 -1.9940956932974259e-05 0 -0.034955402959703154 -2.5735168254554268e-05 0 -0.03492203290686495 7.1130734539362215e-05 0 -0.034951265796976022 -1.9940956932974259e-05 0 -0.03492203290686495 7.1130734539362215e-05 0 -0.034920888471703 -4.8737441735486098e-05 0 -0.03492203290686495 7.1130734539362215e-05 0 -0.03485357324454344 0.00017487403711385189 0 -0.035014977406108615 0.00017718743310303318 0 -0.03485357324454344 0.00017487403711385189 0 -0.035014977406108615 0.00017718743310303318 0 -0.034860434757322173 0.00027809284039492777 0 -0.034072876525109312 -0.00091384573836854994 0 -0.034023142605662297 -0.00034937828971337928 0 -0.034702346422737111 -0.00082658900897956782 0 -0.034072876525109312 -0.00091384573836854994 0 -0.034702346422737111 -0.00082658900897956782 0 -0.034188919711869124 -0.0015176908162268694 0 -0.033904711392418498 -0.0010347752439827393 0 -0.034328545298389905 -0.00045148709517754779 0 -0.034631014825199841 -0.002258326507620419 0 -0.034702346422737111 -0.00082658900897956782 0 -0.034188919711869124 -0.0015176908162268694 0 -0.035001465569288827 0.00038672709792061152 0 -0.035014977406108615 0.00017718743310303318 0 -0.034893252109283193 0.00038341103999168846 0 -0.034631014825199841 -0.002258326507620419 0 -0.033997119686397133 -0.0024454229862054047 0 -0.034188919711869124 -0.0015176908162268694 0 -0.035014977406108615 0.00017718743310303318 0 -0.034860434757322173 0.00027809284039492777 0 -0.034893252109283193 0.00038341103999168846 0 -0.034860434757322173 0.00027809284039492777 0 -0.034893252109283193 0.00038341103999168846 0 -0.034830027353024109 0.00037138102475443928 0 -0.033808345261393195 -0.00065118463581460536 0 -0.033827363359571566 -0.00068796368225351159 0 -0.034088173469334591 -0.00025390136156358659 0 -0.033827363359571566 -0.00068796368225351159 0 -0.034774457002565609 0.00035193746586040833 0 -0.034670535500317186 0.00033631284285890069 0 -0.034799146778797675 0.00043363916054760997 0 -0.034830027353024109 0.00037138102475443928 0 -0.034774457002565609 0.00035193746586040833 0 -0.034799146778797675 0.00043363916054760997 0 -0.033736499485426535 -0.00042522059346225761 0 -0.033690404761231113 -0.00038097495699220213 0 -0.03354130555713801 -0.0005920740485182923 0 -0.034860434757322173 0.00027809284039492777 0 -0.034830027353024109 0.00037138102475443928 0 -0.034774457002565609 0.00035193746586040833 0 -0.034774457002565609 0.00035193746586040833 0 -0.034726237824453859 0.00030963917617071724 0 -0.03476261525772982 0.00025853787595946087 0 -0.034774457002565609 0.00035193746586040833 0 -0.034726237824453859 0.00030963917617071724 0 -0.034670535500317186 0.00033631284285890069 0 -0.034700017555478177 0.00028763044476876905 0 -0.034726237824453859 0.00030963917617071724 0 -0.034670535500317186 0.00033631284285890069 0 -0.034700017555478177 0.00028763044476876905 0 -0.034726237824453859 0.00030963917617071724 0 -0.03476261525772982 0.00025853787595946087 0 -0.034860434757322173 0.00027809284039492777 0 -0.034774457002565609 0.00035193746586040833 0 -0.03476261525772982 0.00025853787595946087 0 -0.033676770653561283 -0.00071383561733214342 0 -0.033551099453674973 -0.00084588958040313425 0 -0.033736499485426535 -0.00042522059346225761 0 -0.033883197954976498 -0.0004001152141555706 0 -0.033697246175796509 -0.00052767248158974039 0 -0.033883197954976498 -0.0004001152141555706 0 -0.033582097486867538 -0.00070694400009269629 0 -0.033211923524498838 -0.00063854571177860786 0 -0.033690404761231113 -0.00038097495699220213 0 -0.033771672622537462 -0.00036908241430453996 0 -0.03381703118137501 -0.00031320493958179369 0 -0.033736499485426535 -0.00042522059346225761 0 -0.033690404761231113 -0.00038097495699220213 0 -0.033771672622537462 -0.00036908241430453996 0 -0.033736499485426535 -0.00042522059346225761 0 -0.033771672622537462 -0.00036908241430453996 0 -0.033883197954976498 -0.0004001152141555706 0 -0.033771672622537462 -0.00036908241430453996 0 -0.03381703118137501 -0.00031320493958179369 0 -0.033883197954976498 -0.0004001152141555706 0 -0.033690404761231113 -0.00038097495699220213 0 -0.03381703118137501 -0.00031320493958179369 0 -0.033886029830165573 -0.00018475920310371768 0 -0.034670535500317186 0.00033631284285890069 0 -0.034633355590043428 0.00023187985014669444 0 -0.034432033527535932 0.00019377272826033936 0 -0.034088173469334591 -0.00025390136156358659 0 -0.034137320467644922 -0.00014379349193023529 0 -0.034700017555478177 0.00028763044476876905 0 -0.034670535500317186 0.00033631284285890069 0 -0.034633355590043428 0.00023187985014669444 0 -0.034633355590043428 0.00023187985014669444 0 -0.034618215918675095 0.0001371626842270739 0 -0.034432033527535932 0.00019377272826033936 0 -0.03485357324454344 0.00017487403711385189 0 -0.034860434757322173 0.00027809284039492777 0 -0.03476261525772982 0.00025853787595946087 0 -0.034700017555478177 0.00028763044476876905 0 -0.034633355590043428 0.00023187985014669444 0 -0.03476261525772982 0.00025853787595946087 0 -0.034633355590043428 0.00023187985014669444 0 -0.03476261525772982 0.00025853787595946087 0 -0.034763236327774533 0.00014855369354897831 0 -0.034633355590043428 0.00023187985014669444 0 -0.034618215918675095 0.0001371626842270739 0 -0.034763236327774533 0.00014855369354897831 0 -0.03492203290686495 7.1130734539362215e-05 0 -0.03485357324454344 0.00017487403711385189 0 -0.034763236327774533 0.00014855369354897831 0 -0.03485357324454344 0.00017487403711385189 0 -0.03476261525772982 0.00025853787595946087 0 -0.034763236327774533 0.00014855369354897831 0 -0.034782112588790562 5.4738001815136701e-05 0 -0.034571193481260996 1.7163331980059452e-05 0 -0.034920888471703 -4.8737441735486098e-05 0 -0.03492203290686495 7.1130734539362215e-05 0 -0.034763236327774533 0.00014855369354897831 0 -0.034782112588790562 5.4738001815136701e-05 0 -0.03492203290686495 7.1130734539362215e-05 0 -0.034782112588790562 5.4738001815136701e-05 0 -0.034920888471703 -4.8737441735486098e-05 0 -0.034618215918675095 0.0001371626842270739 0 -0.034763236327774533 0.00014855369354897831 0 -0.034782112588790562 5.4738001815136701e-05 0 -0.034618215918675095 0.0001371626842270739 0 -0.034432033527535932 0.00019377272826033936 0 -0.034571193481260996 1.7163331980059452e-05 0 -0.034571193481260996 1.7163331980059452e-05 0 -0.03431601247037009 -0.00020618475462124154 0 -0.034920888471703 -4.8737441735486098e-05 0 -0.034618215918675095 0.0001371626842270739 0 -0.034782112588790562 5.4738001815136701e-05 0 -0.034571193481260996 1.7163331980059452e-05 0 -0.034432033527535932 0.00019377272826033936 0 -0.034362985433991564 -2.307470748840019e-05 0 -0.034571193481260996 1.7163331980059452e-05 0 -0.034362985433991564 -2.307470748840019e-05 0 -0.034571193481260996 1.7163331980059452e-05 0 -0.03431601247037009 -0.00020618475462124154 0 -0.034999923146932371 6.3684342835631228e-09 0 -0.035005993238546751 -1.6248459301590268e-05 0 -0.034920888471703 -4.8737441735486098e-05 0 -0.034689123978449601 -6.2663107611575161e-05 0 -0.034761982009354299 -6.1930034083608276e-05 0 -0.034999944249251215 -9.6607283585473693e-08 0 -0.034999923146932371 6.3684342835631228e-09 0 -0.034920888471703 -4.8737441735486098e-05 0 -0.034999700513779132 -1.0523063525582794e-07 0 -0.03500016636299589 4.0416667992143568e-08 0 -0.035023245084306875 1.4371768456612923e-05 0 -0.03431601247037009 -0.00020618475462124154 0 -0.03406764408287815 -7.2827307577202761e-05 0 -0.034141389023158941 -0.00010886138542000228 0 -0.035005993238546751 -1.6248459301590268e-05 0 -0.03500016636299589 4.0416667992143568e-08 0 -0.035023245084306875 1.4371768456612923e-05 0 -0.034689123978449601 -6.2663107611575161e-05 0 -0.03464793914883775 -4.5694494719801752e-05 0 -0.034999923146932371 6.3684342835631228e-09 0 -0.035005993238546751 -1.6248459301590268e-05 0 -0.03500016636299589 4.0416667992143568e-08 0 -0.034137320467644922 -0.00014379349193023529 0 -0.034134434643387279 -0.00013873053073853989 0 -0.034432033527535932 0.00019377272826033936 0 -0.034362985433991564 -2.307470748840019e-05 0 -0.034146360849300582 -0.00010749397599242141 0 -0.033853885144346729 -0.00020180583193416684 0 -0.033771915996817822 -0.00032012386008474768 0 -0.03431601247037009 -0.00020618475462124154 0 -0.034141389023158941 -0.00010886138542000228 0 -0.034146360849300582 -0.00010749397599242141 0 -0.034141389023158941 -0.00010886138542000228 0 -0.034146360849300582 -0.00010749397599242141 0 -0.03405712418462415 -0.00015289161536971661 0 -0.033886029830165573 -0.00018475920310371768 0 -0.034146360849300582 -0.00010749397599242141 0 -0.03405712418462415 -0.00015289161536971661 0 -0.034141389023158941 -0.00010886138542000228 0 -0.03413362426135607 -0.00023824541431610036 0 -0.034075609948156879 -0.00031138428684538593 0 -0.034141389023158941 -0.00010886138542000228 0 -0.03405712418462415 -0.00015289161536971661 0 -0.034021841255493679 -0.00022304145230264013 0 -0.034362985433991564 -2.307470748840019e-05 0 -0.03431601247037009 -0.00020618475462124154 0 -0.034146360849300582 -0.00010749397599242141 0 -0.03406764408287815 -7.2827307577202761e-05 0 -0.034141389023158941 -0.00010886138542000228 0 -0.034133929817088446 -0.00017897074120409428 0 -0.034141389023158941 -0.00010886138542000228 0 -0.03413362426135607 -0.00023824541431610036 0 -0.034133929817088446 -0.00017897074120409428 0 -0.034240230577585594 -0.00020415215469958729 0 -0.03406764408287815 -7.2827307577202761e-05 0 -0.034133929817088446 -0.00017897074120409428 0 -0.034240230577585594 -0.00020415215469958729 0 -0.034133929817088446 -0.00017897074120409428 0 -0.034172321854173592 -0.00027237623952096259 0 -0.03413362426135607 -0.00023824541431610036 0 -0.034133929817088446 -0.00017897074120409428 0 -0.034172321854173592 -0.00027237623952096259 0 -0.03413362426135607 -0.00023824541431610036 0 -0.034172321854173592 -0.00027237623952096259 0 -0.034149409716939749 -0.0003230141775888618 0 -0.03413362426135607 -0.00023824541431610036 0 -0.034149409716939749 -0.0003230141775888618 0 -0.034075609948156879 -0.00031138428684538593 0 -0.034149409716939749 -0.0003230141775888618 0 -0.034075609948156879 -0.00031138428684538593 0 -0.034131884860782752 -0.00035557679177815641 0 -0.03381703118137501 -0.00031320493958179369 0 -0.033886029830165573 -0.00018475920310371768 0 -0.034021841255493679 -0.00022304145230264013 0 -0.03381703118137501 -0.00031320493958179369 0 -0.034021841255493679 -0.00022304145230264013 0 -0.033883197954976498 -0.0004001152141555706 0 -0.033886029830165573 -0.00018475920310371768 0 -0.03405712418462415 -0.00015289161536971661 0 -0.034021841255493679 -0.00022304145230264013 0 -0.033771915996817822 -0.00032012386008474768 0 -0.033511700023256645 -0.00066919799465406686 0 -0.034075609948156879 -0.00031138428684538593 0 -0.034131884860782752 -0.00035557679177815641 0 -0.034073175731879159 -0.00039171515625145296 0 -0.034021841255493679 -0.00022304145230264013 0 -0.033883197954976498 -0.0004001152141555706 0 -0.033924593954812315 -0.00065256574151205133 0 -0.033883197954976498 -0.0004001152141555706 0 -0.033924593954812315 -0.00065256574151205133 0 -0.033582097486867538 -0.00070694400009269629 0 -0.034163060661223446 -0.00034574628113811937 0 -0.034149409716939749 -0.0003230141775888618 0 -0.034131884860782752 -0.00035557679177815641 0 -0.034168386894788502 -0.00033113658132487121 0 -0.034131884860782752 -0.00035557679177815641 0 -0.034125398902938205 -0.00042334091177925618 0 -0.033361651818456524 -0.0008839897194713671 0 -0.033140696794436098 -0.0011536355946985394 0 -0.034131884860782752 -0.00035557679177815641 0 -0.034125398902938205 -0.00042334091177925618 0 -0.034073175731879159 -0.00039171515625145296 0 -0.031902683228314015 -0.0015784722145433788 0 -0.031519563834897076 -0.002043642233554039 0 -0.031914188503326314 -0.0020890879968612675 0 -0.032490387697685599 -0.001717919131576738 0 -0.031902683228314015 -0.0015784722145433788 0 -0.031914188503326314 -0.0020890879968612675 0 -0.032937436273887545 -0.0015235282206280498 0 -0.033511700023256645 -0.00066919799465406686 0 -0.033140696794436098 -0.0011536355946985394 0 -0.032937436273887545 -0.0015235282206280498 0 -0.034125398902938205 -0.00042334091177925618 0 -0.034053405268731407 -0.00049539364065971268 0 -0.034073175731879159 -0.00039171515625145296 0 -0.033820662450412146 -0.0014051271854149255 0 -0.033924593954812315 -0.00065256574151205133 0 -0.033573896678458545 -0.00099077787889834861 0 -0.033924593954812315 -0.00065256574151205133 0 -0.033582097486867538 -0.00070694400009269629 0 -0.033573896678458545 -0.00099077787889834861 0 -0.033582097486867538 -0.00070694400009269629 0 -0.033211923524498838 -0.00063854571177860786 0 -0.033303141958145072 -0.00092266159075998658 0 -0.033582097486867538 -0.00070694400009269629 0 -0.033303141958145072 -0.00092266159075998658 0 -0.033573896678458545 -0.00099077787889834861 0 -0.033436387844577552 -0.0011171659043617708 0 -0.033551099453674973 -0.00084588958040313425 0 -0.032550174876718921 -0.0010296222908878837 0 -0.033211923524498838 -0.00063854571177860786 0 -0.032990400934309362 -0.0010061769151267208 0 -0.033736499485426535 -0.00042522059346225761 0 -0.033697246175796509 -0.00052767248158974039 0 -0.03357749962591168 -0.00056025066717990679 0 -0.033504952644488675 -0.00066183100041417953 0 -0.033697246175796509 -0.00052767248158974039 0 -0.03357749962591168 -0.00056025066717990679 0 -0.033211923524498838 -0.00063854571177860786 0 -0.033303141958145072 -0.00092266159075998658 0 -0.032990400934309362 -0.0010061769151267208 0 -0.033436387844577552 -0.0011171659043617708 0 -0.033827363359571566 -0.00068796368225351159 0 -0.032990400934309362 -0.0010061769151267208 0 -0.032677855023355525 -0.0011877576589840388 0 -0.032935500889757857 -0.0014431831652703003 0 -0.032550174876718921 -0.0010296222908878837 0 -0.032990400934309362 -0.0010061769151267208 0 -0.032677855023355525 -0.0011877576589840388 0 -0.032990400934309362 -0.0010061769151267208 0 -0.032935500889757857 -0.0014431831652703003 0 -0.033328647467689272 -0.001308335990616982 0 -0.032635188771314737 -0.0014382743007389771 0 -0.032677855023355525 -0.0011877576589840388 0 -0.032935500889757857 -0.0014431831652703003 0 -0.033820662450412146 -0.0014051271854149255 0 -0.033573896678458545 -0.00099077787889834861 0 -0.033328647467689272 -0.001308335990616982 0 -0.033303141958145072 -0.00092266159075998658 0 -0.033573896678458545 -0.00099077787889834861 0 -0.033328647467689272 -0.001308335990616982 0 -0.033303141958145072 -0.00092266159075998658 0 -0.032990400934309362 -0.0010061769151267208 0 -0.033328647467689272 -0.001308335990616982 0 -0.0315685662855252 -0.0024441298667125192 0 -0.03161744024068875 -0.0025084249942431327 0 -0.031569643663094324 -0.0024304095696353299 0 -0.032937436273887545 -0.0015235282206280498 0 -0.032473647053807932 -0.0020610664240420214 0 -0.032935500889757857 -0.0014431831652703003 0 -0.033328647467689272 -0.001308335990616982 0 -0.033180561565364516 -0.0019435588066746264 0 -0.033820662450412146 -0.0014051271854149255 0 -0.033328647467689272 -0.001308335990616982 0 -0.033180561565364516 -0.0019435588066746264 0 -0.03247218689776623 -0.0020824840397592206 0 -0.032620947569957821 -0.0017363133144859902 0 -0.033180561565364516 -0.0019435588066746264 0 -0.032620947569957821 -0.0017363133144859902 0 -0.032935500889757857 -0.0014431831652703003 0 -0.033180561565364516 -0.0019435588066746264 0 -0.032620947569957821 -0.0017363133144859902 0 -0.032635188771314737 -0.0014382743007389771 0 -0.032935500889757857 -0.0014431831652703003 0 -0.03161744024068875 -0.0025084249942431327 0 -0.031676571342569494 -0.0025509834011015172 0 -0.031786277516976186 -0.0026010173938245036 0 -0.03247218689776623 -0.0020824840397592206 0 -0.033180561565364516 -0.0019435588066746264 0 -0.032505819135400869 -0.0024079131768823957 0 -0.032473647053807932 -0.0020610664240420214 0 -0.032249723898919759 -0.0023180790508967263 0 -0.03161744024068875 -0.0025084249942431327 0 -0.031676571342569494 -0.0025509834011015172 0 -0.031604584317033384 -0.002537851793768843 0 -0.03161744024068875 -0.0025084249942431327 0 -0.031604584317033384 -0.002537851793768843 0 -0.031569643663094324 -0.0024304095696353299 0 -0.031604584317033384 -0.002537851793768843 0 -0.031636083589317146 -0.0025676024265356488 0 -0.031569643663094324 -0.0024304095696353299 0 -0.031636083589317146 -0.0025676024265356488 0 -0.031738249940492895 -0.0023713833203507827 0 -0.031569643663094324 -0.0024304095696353299 0 -0.031898544406461699 -0.0024239803921831549 0 -0.031636083589317146 -0.0025676024265356488 0 -0.031738249940492895 -0.0023713833203507827 0 -0.031898544406461699 -0.0024239803921831549 0 -0.031636083589317146 -0.0025676024265356488 0 -0.031622452038144788 -0.0027095302747273111 0 -0.031519563834897076 -0.002043642233554039 0 -0.031914188503326314 -0.0020890879968612675 0 -0.031738249940492895 -0.0023713833203507827 0 -0.031898544406461699 -0.0024239803921831549 0 -0.031914188503326314 -0.0020890879968612675 0 -0.031738249940492895 -0.0023713833203507827 0 -0.031519563834897076 -0.002043642233554039 0 -0.031738249940492895 -0.0023713833203507827 0 -0.031569643663094324 -0.0024304095696353299 0 -0.032937436273887545 -0.0015235282206280498 0 -0.032779658948602415 -0.0018184222497356103 0 -0.03158294173305333 -0.0025632017690609748 0 -0.031622452038144788 -0.0027095302747273111 0 -0.031410958107310614 -0.0024585622294060363 0 -0.031636083589317146 -0.0025676024265356488 0 -0.03158294173305333 -0.0025632017690609748 0 -0.031622452038144788 -0.0027095302747273111 0 -0.031604584317033384 -0.002537851793768843 0 -0.031636083589317146 -0.0025676024265356488 0 -0.03158294173305333 -0.0025632017690609748 0 -0.031676571342569494 -0.0025509834011015172 0 -0.031604584317033384 -0.002537851793768843 0 -0.031658119722182854 -0.0025425529666464556 0 -0.031604584317033384 -0.002537851793768843 0 -0.03158294173305333 -0.0025632017690609748 0 -0.031658119722182854 -0.0025425529666464556 0 -0.031676571342569494 -0.0025509834011015172 0 -0.031729662949874539 -0.0025523957161906843 0 -0.031786277516976186 -0.0026010173938245036 0 -0.031729662949874539 -0.0025523957161906843 0 -0.031829738675308229 -0.0025275337255534296 0 -0.031786277516976186 -0.0026010173938245036 0 -0.031676571342569494 -0.0025509834011015172 0 -0.031658119722182854 -0.0025425529666464556 0 -0.031729662949874539 -0.0025523957161906843 0 -0.031658119722182854 -0.0025425529666464556 0 -0.031729662949874539 -0.0025523957161906843 0 -0.031753397359803086 -0.0025090163423266308 0 -0.031658119722182854 -0.0025425529666464556 0 -0.031753397359803086 -0.0025090163423266308 0 -0.031688066293443416 -0.0024852212590293415 0 -0.031729662949874539 -0.0025523957161906843 0 -0.031753397359803086 -0.0025090163423266308 0 -0.031829738675308229 -0.0025275337255534296 0 -0.031753397359803086 -0.0025090163423266308 0 -0.031688066293443416 -0.0024852212590293415 0 -0.031811488433604748 -0.0024037431864754521 0 -0.031753397359803086 -0.0025090163423266308 0 -0.031811488433604748 -0.0024037431864754521 0 -0.031875308612761374 -0.0024744077269052275 0 -0.031753397359803086 -0.0025090163423266308 0 -0.031875308612761374 -0.0024744077269052275 0 -0.031829738675308229 -0.0025275337255534296 0 -0.03158294173305333 -0.0025632017690609748 0 -0.031658119722182854 -0.0025425529666464556 0 -0.031688066293443416 -0.0024852212590293415 0 -0.03158294173305333 -0.0025632017690609748 0 -0.031688066293443416 -0.0024852212590293415 0 -0.03165687801564649 -0.0023485327548853113 0 -0.031688066293443416 -0.0024852212590293415 0 -0.03165687801564649 -0.0023485327548853113 0 -0.031811488433604748 -0.0024037431864754521 0 -0.03165687801564649 -0.0023485327548853113 0 -0.031581173340565788 -0.0021328391476225215 0 -0.031501261334981462 -0.0023372194806392261 0 -0.031537165880984527 -0.0022236580001188328 0 -0.031451079346452505 -0.0020852589314395232 0 -0.031811488433604748 -0.0024037431864754521 0 -0.03179914468143883 -0.0022034050268610211 0 -0.031919740012373445 -0.0023446618403737906 0 -0.03165687801564649 -0.0023485327548853113 0 -0.031811488433604748 -0.0024037431864754521 0 -0.031867689857981427 -0.0020951611332602981 0 -0.03165687801564649 -0.0023485327548853113 0 -0.031867689857981427 -0.0020951611332602981 0 -0.031581173340565788 -0.0021328391476225215 0 -0.031867689857981427 -0.0020951611332602981 0 -0.031581173340565788 -0.0021328391476225215 0 -0.031631976538628509 -0.0019325595405880749 0 -0.031581173340565788 -0.0021328391476225215 0 -0.031292250565659645 -0.0020514993526848345 0 -0.031501261334981462 -0.0023372194806392261 0 -0.031581173340565788 -0.0021328391476225215 0 -0.031292250565659645 -0.0020514993526848345 0 -0.031631976538628509 -0.0019325595405880749 0 -0.03158294173305333 -0.0025632017690609748 0 -0.03165687801564649 -0.0023485327548853113 0 -0.031501261334981462 -0.0023372194806392261 0 -0.03158294173305333 -0.0025632017690609748 0 -0.031501261334981462 -0.0023372194806392261 0 -0.031410958107310614 -0.0024585622294060363 0 -0.031292250565659645 -0.0020514993526848345 0 -0.031501261334981462 -0.0023372194806392261 0 -0.031410958107310614 -0.0024585622294060363 0 -0.031112129267686049 -0.0021411684661612113 0 -0.031292250565659645 -0.0020514993526848345 0 -0.031410958107310614 -0.0024585622294060363 0 -0.031112129267686049 -0.0021411684661612113 0 -0.031292250565659645 -0.0020514993526848345 0 -0.03103091636247984 -0.0017723599888354743 0 -0.031292250565659645 -0.0020514993526848345 0 -0.03103091636247984 -0.0017723599888354743 0 -0.031132651249801538 -0.001688406745037784 0 -0.031292250565659645 -0.0020514993526848345 0 -0.031132651249801538 -0.001688406745037784 0 -0.031174316175116543 -0.0016699701025812729 0 -0.031199131976239618 -0.0018876790401591184 0 -0.0312489585417451 -0.0018056261784978008 0 -0.031132651249801538 -0.001688406745037784 0 -0.031110934900599931 -0.0015824721849354909 0 -0.031174316175116543 -0.0016699701025812729 0 -0.031132651249801538 -0.001688406745037784 0 -0.031110934900599931 -0.0015824721849354909 0 -0.031009648440469217 -0.0014633628555994448 0 -0.03103091636247984 -0.0017723599888354743 0 -0.031132651249801538 -0.001688406745037784 0 -0.031009648440469217 -0.0014633628555994448 0 -0.03103091636247984 -0.0017723599888354743 0 -0.030565879076800563 -0.0014666251605300346 0 -0.030676108484840512 -0.0015483856347726325 0 -0.030565879076800563 -0.0014666251605300346 0 -0.030676108484840512 -0.0015483856347726325 0 -0.030374576761389081 -0.0013651591636628297 0 -0.031110934900599931 -0.0015824721849354909 0 -0.031009648440469217 -0.0014633628555994448 0 -0.031068412225179542 -0.001476439567557921 0 -0.030772656412623344 -0.0015916677768775115 0 -0.030784465874759873 -0.001428730806173027 0 -0.030854155344680615 -0.0015181186721381736 0 -0.03103091636247984 -0.0017723599888354743 0 -0.030676108484840512 -0.0015483856347726325 0 -0.029807700950322365 -0.0016762290242097115 0 -0.030676108484840512 -0.0015483856347726325 0 -0.030374576761389081 -0.0013651591636628297 0 -0.030157907105960981 -0.0015550837222935367 0 -0.030422078090792282 -0.0015336662542490764 0 -0.029807700950322365 -0.0016762290242097115 0 -0.030134729802820642 -0.0011416308268705393 0 -0.030374576761389081 -0.0013651591636628297 0 -0.030134729802820642 -0.0011416308268705393 0 -0.030374576761389081 -0.0013651591636628297 0 -0.03040074685224187 -0.0011209274504963662 0 -0.030784465874759873 -0.001428730806173027 0 -0.030854999450033206 -0.0010979853683421136 0 -0.030565879076800563 -0.0014666251605300346 0 -0.03040074685224187 -0.0011209274504963662 0 -0.030599722836841693 -0.00099627814468974257 0 -0.030565879076800563 -0.0014666251605300346 0 -0.030374576761389081 -0.0013651591636628297 0 -0.03040074685224187 -0.0011209274504963662 0 -0.031009648440469217 -0.0014633628555994448 0 -0.031035284595150321 -0.0013621297310801486 0 -0.031068412225179542 -0.001476439567557921 0 -0.03040074685224187 -0.0011209274504963662 0 -0.030189801671272255 -0.00087513869967911567 0 -0.030599722836841693 -0.00099627814468974257 0 -0.030134729802820642 -0.0011416308268705393 0 -0.03040074685224187 -0.0011209274504963662 0 -0.030189801671272255 -0.00087513869967911567 0 -0.029917042585293575 -0.00088258827943172116 0 -0.030134729802820642 -0.0011416308268705393 0 -0.030189801671272255 -0.00087513869967911567 0 -0.031043647269945171 -0.0010895112569688169 0 -0.031045000760260948 -0.0012466181152662346 0 -0.031137034598860656 -0.0012167724985474254 0 -0.031043647269945171 -0.0010895112569688169 0 -0.031137034598860656 -0.0012167724985474254 0 -0.031148387821405648 -0.0011169116603191285 0 -0.031137034598860656 -0.0012167724985474254 0 -0.031148387821405648 -0.0011169116603191285 0 -0.031165012141251107 -0.0011744394986057329 0 -0.031043647269945171 -0.0010895112569688169 0 -0.031148387821405648 -0.0011169116603191285 0 -0.031154571038497295 -0.0010035073562709191 0 -0.031043647269945171 -0.0010895112569688169 0 -0.03091621728616447 -0.0011440927115037173 0 -0.031045000760260948 -0.0012466181152662346 0 -0.031045000760260948 -0.0012466181152662346 0 -0.031084826793539449 -0.0013634369143714629 0 -0.031111408418321822 -0.0013246323091801195 0 -0.031009648440469217 -0.0014633628555994448 0 -0.03091621728616447 -0.0011440927115037173 0 -0.031035284595150321 -0.0013621297310801486 0 -0.031045000760260948 -0.0012466181152662346 0 -0.031035284595150321 -0.0013621297310801486 0 -0.031084826793539449 -0.0013634369143714629 0 -0.03091621728616447 -0.0011440927115037173 0 -0.031045000760260948 -0.0012466181152662346 0 -0.031035284595150321 -0.0013621297310801486 0 -0.031035284595150321 -0.0013621297310801486 0 -0.031068412225179542 -0.001476439567557921 0 -0.031102087072064046 -0.0014560356603002702 0 -0.031035284595150321 -0.0013621297310801486 0 -0.031084826793539449 -0.0013634369143714629 0 -0.031102087072064046 -0.0014560356603002702 0 -0.031084826793539449 -0.0013634369143714629 0 -0.031133973203296247 -0.0014226194870413942 0 -0.031102087072064046 -0.0014560356603002702 0 -0.031133973203296247 -0.0014226194870413942 0 -0.031159763349453883 -0.0013797028664377712 0 -0.031172968945696242 -0.0014390560742642102 0 -0.031159763349453883 -0.0013797028664377712 0 -0.031201107193664441 -0.0013538302963860538 0 -0.031172968945696242 -0.0014390560742642102 0 -0.031159763349453883 -0.0013797028664377712 0 -0.031111408418321822 -0.0013246323091801195 0 -0.031172807736424422 -0.0013224940736003671 0 -0.031133973203296247 -0.0014226194870413942 0 -0.031159763349453883 -0.0013797028664377712 0 -0.031111408418321822 -0.0013246323091801195 0 -0.031084826793539449 -0.0013634369143714629 0 -0.031133973203296247 -0.0014226194870413942 0 -0.031111408418321822 -0.0013246323091801195 0 -0.031045000760260948 -0.0012466181152662346 0 -0.031111408418321822 -0.0013246323091801195 0 -0.031137034598860656 -0.0012167724985474254 0 -0.031137034598860656 -0.0012167724985474254 0 -0.031125201775602129 -0.0012486116848374571 0 -0.031171840808494795 -0.001217300713903566 0 -0.031137034598860656 -0.0012167724985474254 0 -0.031172807736424422 -0.0013224940736003671 0 -0.031203645708594699 -0.0013500920276589016 0 -0.030972100605312667 -0.0016763375260784529 0 -0.030967481213729286 -0.0017149752559300919 0 -0.031111408418321822 -0.0013246323091801195 0 -0.031137034598860656 -0.0012167724985474254 0 -0.031172807736424422 -0.0013224940736003671 0 -0.030967481213729286 -0.0017149752559300919 0 -0.030820813582971784 -0.0018230099818378671 0 -0.031159763349453883 -0.0013797028664377712 0 -0.031172807736424422 -0.0013224940736003671 0 -0.031201107193664441 -0.0013538302963860538 0 -0.030967252433819977 -0.0017135089877733944 0 -0.030967481213729286 -0.0017149752559300919 0 -0.030967481213729286 -0.0017149752559300919 0 -0.031132581484125378 -0.0017710290936197698 0 -0.031044980516661803 -0.0016920043947204109 0 -0.031043306524691783 -0.0019869936668470301 0 -0.031191520061117507 -0.0018842892278724715 0 -0.031164048784866866 -0.0015166844940042578 0 -0.031219438379117982 -0.0015108441806391949 0 -0.031174316175116543 -0.0016699701025812729 0 -0.031201107193664441 -0.0013538302963860538 0 -0.031172968945696242 -0.0014390560742642102 0 -0.031219438379117982 -0.0015108441806391949 0 -0.031132581484125378 -0.0017710290936197698 0 -0.030820813582971784 -0.0018230099818378671 0 -0.031172968945696242 -0.0014390560742642102 0 -0.031164048784866866 -0.0015166844940042578 0 -0.031219438379117982 -0.0015108441806391949 0 -0.031133973203296247 -0.0014226194870413942 0 -0.031172968945696242 -0.0014390560742642102 0 -0.031164048784866866 -0.0015166844940042578 0 -0.031068412225179542 -0.001476439567557921 0 -0.031102087072064046 -0.0014560356603002702 0 -0.03112486002126625 -0.0015452609663697834 0 -0.031133973203296247 -0.0014226194870413942 0 -0.031164048784866866 -0.0015166844940042578 0 -0.031102087072064046 -0.0014560356603002702 0 -0.031164048784866866 -0.0015166844940042578 0 -0.031102087072064046 -0.0014560356603002702 0 -0.03112486002126625 -0.0015452609663697834 0 -0.031164048784866866 -0.0015166844940042578 0 -0.03112486002126625 -0.0015452609663697834 0 -0.031174316175116543 -0.0016699701025812729 0 -0.031110934900599931 -0.0015824721849354909 0 -0.03112486002126625 -0.0015452609663697834 0 -0.031174316175116543 -0.0016699701025812729 0 -0.031110934900599931 -0.0015824721849354909 0 -0.031068412225179542 -0.001476439567557921 0 -0.03112486002126625 -0.0015452609663697834 0 -0.03179914468143883 -0.0022034050268610211 0 -0.031791303048516781 -0.0019807636424799238 0 -0.031879387397409607 -0.0021079185401864553 0 -0.031451079346452505 -0.0020852589314395232 0 -0.031132581484125378 -0.0017710290936197698 0 -0.031132581484125378 -0.0017710290936197698 0 -0.0312489585417451 -0.0018056261784978008 0 -0.031867689857981427 -0.0020951611332602981 0 -0.031871623589143992 -0.0017706123322610466 0 -0.031631976538628509 -0.0019325595405880749 0 -0.030275768240273407 -0.0020519882552808297 0 -0.030646410786427238 -0.0018022868641410594 0 -0.031879387397409607 -0.0021079185401864553 0 -0.031986927223287005 -0.0021058162779357945 0 -0.031939751297292568 -0.0022115888293146009 0 -0.031879387397409607 -0.0021079185401864553 0 -0.031986927223287005 -0.0021058162779357945 0 -0.031864633627797539 -0.0020079674096458678 0 -0.028874688516747501 -0.001091238444600308 0 -0.028509517863951561 -0.0011847321031416705 0 -0.028556689980983065 -0.00068325316849056328 0 -0.028874688516747501 -0.001091238444600308 0 -0.028717530475374051 -0.0014824241171083 0 -0.028509517863951561 -0.0011847321031416705 0 -0.028874688516747501 -0.001091238444600308 0 -0.028717530475374051 -0.0014824241171083 0 -0.028952028065197737 -0.0015521830317612095 0 -0.028717530475374051 -0.0014824241171083 0 -0.028416431370535782 -0.0017288396086569391 0 -0.028509517863951561 -0.0011847321031416705 0 -0.028952028065197737 -0.0015521830317612095 0 -0.028785738955383614 -0.0017520591053527131 0 -0.029057943398562023 -0.0018139948460485032 0 -0.028717530475374051 -0.0014824241171083 0 -0.028952028065197737 -0.0015521830317612095 0 -0.028785738955383614 -0.0017520591053527131 0 -0.028717530475374051 -0.0014824241171083 0 -0.028785738955383614 -0.0017520591053527131 0 -0.028416431370535782 -0.0017288396086569391 0 -0.028874688516747501 -0.001091238444600308 0 -0.028952028065197737 -0.0015521830317612095 0 -0.029217030956476906 -0.0015291352821031944 0 -0.031986927223287005 -0.0021058162779357945 0 -0.031883590408694429 -0.001971218910502376 0 -0.031864633627797539 -0.0020079674096458678 0 -0.031883713184360632 -0.0019707241896082437 0 -0.031864633627797539 -0.0020079674096458678 0 -0.031855947266082894 -0.0019346103172395949 0 -0.031791303048516781 -0.0019807636424799238 0 -0.031879387397409607 -0.0021079185401864553 0 -0.031864633627797539 -0.0020079674096458678 0 -0.031791303048516781 -0.0019807636424799238 0 -0.031864633627797539 -0.0020079674096458678 0 -0.031855947266082894 -0.0019346103172395949 0 -0.030646410786427238 -0.0018022868641410594 0 -0.030664008943697897 -0.0017937769271060583 0 -0.028952028065197737 -0.0015521830317612095 0 -0.029217030956476906 -0.0015291352821031944 0 -0.029057943398562023 -0.0018139948460485032 0 -0.030646410786427238 -0.0018022868641410594 0 -0.030358039691421607 -0.0018861061011870262 0 -0.030820813582971784 -0.0018230099818378671 0 -0.030358039691421607 -0.0018861061011870262 0 -0.0304194512306016 -0.0019085105095581244 0 -0.030323288519668746 -0.0017824210206781187 0 -0.030586472112433545 -0.0016000824578996195 0 -0.030646410786427238 -0.0018022868641410594 0 -0.030820813582971784 -0.0018230099818378671 0 -0.031125201775602129 -0.0012486116848374571 0 -0.031170052401358259 -0.0013287874871497965 0 -0.031177694618946417 -0.001264778066078395 0 -0.031170052401358259 -0.0013287874871497965 0 -0.031177694618946417 -0.001264778066078395 0 -0.031246775395819812 -0.0012890164793632798 0 -0.031125201775602129 -0.0012486116848374571 0 -0.031177694618946417 -0.001264778066078395 0 -0.031171840808494795 -0.001217300713903566 0 -0.031225118744299302 -0.0011941281308964706 0 -0.031246775395819812 -0.0012890164793632798 0 -0.031325712678802256 -0.0010433981913028918 0 -0.031137034598860656 -0.0012167724985474254 0 -0.031171840808494795 -0.001217300713903566 0 -0.031165012141251107 -0.0011744394986057329 0 -0.031177694618946417 -0.001264778066078395 0 -0.031171840808494795 -0.001217300713903566 0 -0.031225118744299302 -0.0011941281308964706 0 -0.031171840808494795 -0.001217300713903566 0 -0.031165012141251107 -0.0011744394986057329 0 -0.031213679989546845 -0.0011396748721811882 0 -0.031171840808494795 -0.001217300713903566 0 -0.031225118744299302 -0.0011941281308964706 0 -0.031213679989546845 -0.0011396748721811882 0 -0.031177694618946417 -0.001264778066078395 0 -0.031225118744299302 -0.0011941281308964706 0 -0.031246775395819812 -0.0012890164793632798 0 -0.030358039691421607 -0.0018861061011870262 0 -0.029731274784479948 -0.0020509082262430414 0 -0.030358039691421607 -0.0018861061011870262 0 -0.029873394917809062 -0.0020984961230237028 0 -0.028785738955383614 -0.0017520591053527131 0 -0.029057943398562023 -0.0018139948460485032 0 -0.028691640154253059 -0.0021126644540774286 0 -0.029618623278984197 -0.0014738765874677132 0 -0.028691640154253059 -0.0021126644540774286 0 -0.029026193698272511 -0.0026297635275672497 0 -0.028785738955383614 -0.0017520591053527131 0 -0.028691640154253059 -0.0021126644540774286 0 -0.028416431370535782 -0.0017288396086569391 0 -0.029026193698272511 -0.0026297635275672497 0 -0.028167066882623586 -0.0029619660392140156 0 -0.028420353474045888 -0.0040286246055488383 0 -0.029026193698272511 -0.0026297635275672497 0 -0.028167066882623586 -0.0029619660392140156 0 -0.028422966659687247 -0.0023631308347656665 0 -0.028691640154253059 -0.0021126644540774286 0 -0.029026193698272511 -0.0026297635275672497 0 -0.028422966659687247 -0.0023631308347656665 0 -0.031325712678802256 -0.0010433981913028918 0 -0.031249037369449655 -0.0010492212012347334 0 -0.031290590933580407 -0.0010717823899736656 0 -0.031249037369449655 -0.0010492212012347334 0 -0.031148387821405648 -0.0011169116603191285 0 -0.031154571038497295 -0.0010035073562709191 0 -0.031249037369449655 -0.0010492212012347334 0 -0.031148387821405648 -0.0011169116603191285 0 -0.031213679989546845 -0.0011396748721811882 0 -0.031148387821405648 -0.0011169116603191285 0 -0.031165012141251107 -0.0011744394986057329 0 -0.031213679989546845 -0.0011396748721811882 0 -0.031225118744299302 -0.0011941281308964706 0 -0.031325712678802256 -0.0010433981913028918 0 -0.031213679989546845 -0.0011396748721811882 0 -0.031325712678802256 -0.0010433981913028918 0 -0.031249037369449655 -0.0010492212012347334 0 -0.031213679989546845 -0.0011396748721811882 0 -0.026574806980392659 -0.0022092145359910438 0 -0.027320440714142434 -0.0028821465249712279 0 -0.027797773212499537 -0.0020549363690560499 0 -0.026574806980392659 -0.0022092145359910438 0 -0.026349112594579085 -0.0031356426645038371 0 -0.027320440714142434 -0.0028821465249712279 0 -0.026349112594579085 -0.0031356426645038371 0 -0.027320440714142434 -0.0028821465249712279 0 -0.027259452705053828 -0.0037614633167577329 0 -0.027320440714142434 -0.0028821465249712279 0 -0.028167066882623586 -0.0029619660392140156 0 -0.027259452705053828 -0.0037614633167577329 0 -0.028167066882623586 -0.0029619660392140156 0 -0.028422966659687247 -0.0023631308347656665 0 -0.027797773212499537 -0.0020549363690560499 0 -0.027320440714142434 -0.0028821465249712279 0 -0.028167066882623586 -0.0029619660392140156 0 -0.027797773212499537 -0.0020549363690560499 0 -0.027797773212499537 -0.0020549363690560499 0 -0.028254929762371053 -0.0018208415126705457 0 -0.028732850777987901 -0.0017433227463351177 0 -0.028422966659687247 -0.0023631308347656665 0 -0.027797773212499537 -0.0020549363690560499 0 -0.028254929762371053 -0.0018208415126705457 0 -0.028691640154253059 -0.0021126644540774286 0 -0.028422966659687247 -0.0023631308347656665 0 -0.028254929762371053 -0.0018208415126705457 0 -0.028691640154253059 -0.0021126644540774286 0 -0.028254929762371053 -0.0018208415126705457 0 -0.028416431370535782 -0.0017288396086569391 0 -0.027980696237177794 -0.0017628311583142231 0 -0.027911933095200882 -0.0014781795694823329 0 -0.027797773212499537 -0.0020549363690560499 0 -0.026874020206348038 -0.00039740604981576322 0 -0.026237618572414672 -0.0012202904678611827 0 -0.026574806980392659 -0.0022092145359910438 0 -0.027797773212499537 -0.0020549363690560499 0 -0.026237618572414672 -0.0012202904678611827 0 -0.026874020206348038 -0.00039740604981576322 0 -0.026229586261732343 -0.00054184033692762808 0 -0.026237618572414672 -0.0012202904678611827 0 -0.028732850777987901 -0.0017433227463351177 0 -0.028492389112569193 -0.0018244987235140001 0 -0.028827756124554387 -0.0021807719567399136 0 -0.026874020206348038 -0.00039740604981576322 0 -0.026278225591643764 0.0001407980874609738 0 -0.026229586261732343 -0.00054184033692762808 0 -0.029402036674643542 -0.0019729060842268932 0 -0.029555965320285985 -0.0021042533053855575 0 -0.028416431370535782 -0.0017288396086569391 0 -0.028492389112569193 -0.0018244987235140001 0 -0.028305696049005714 -0.0021203031620305899 0 -0.028254929762371053 -0.0018208415126705457 0 -0.028416431370535782 -0.0017288396086569391 0 -0.028492389112569193 -0.0018244987235140001 0 -0.028254929762371053 -0.0018208415126705457 0 -0.028732850777987901 -0.0017433227463351177 0 -0.028492389112569193 -0.0018244987235140001 0 -0.028305696049005714 -0.0021203031620305899 0 -0.028670799617570405 -0.0025313904646337977 0 -0.028827756124554387 -0.0021807719567399136 0 -0.028492389112569193 -0.0018244987235140001 0 -0.028305696049005714 -0.0021203031620305899 0 -0.028827756124554387 -0.0021807719567399136 0 -0.029555965320285985 -0.0021042533053855575 0 -0.030057492604415183 -0.0027252062808248165 0 -0.028305696049005714 -0.0021203031620305899 0 -0.028670799617570405 -0.0025313904646337977 0 -0.028213689528202752 -0.0029574426040898808 0 -0.028670799617570405 -0.0025313904646337977 0 -0.028827756124554387 -0.0021807719567399136 0 -0.029128021147811638 -0.0026055495616865679 0 -0.028732850777987901 -0.0017433227463351177 0 -0.028827756124554387 -0.0021807719567399136 0 -0.029599880008815992 -0.0024247019847484061 0 -0.027911933095200882 -0.0014781795694823329 0 -0.027844478167231134 -0.0012159245753225116 0 -0.026874020206348038 -0.00039740604981576322 0 -0.026279327562644641 0.0006357800442343632 0 -0.026278225591643764 0.0001407980874609738 0 -0.028827756124554387 -0.0021807719567399136 0 -0.029599880008815992 -0.0024247019847484061 0 -0.029128021147811638 -0.0026055495616865679 0 -0.029599880008815992 -0.0024247019847484061 0 -0.029128021147811638 -0.0026055495616865679 0 -0.029521039373773168 -0.0029994092347490771 0 -0.029128021147811638 -0.0026055495616865679 0 -0.029026156904304178 -0.0030213170185246171 0 -0.029521039373773168 -0.0029994092347490771 0 -0.029026156904304178 -0.0030213170185246171 0 -0.029521039373773168 -0.0029994092347490771 0 -0.029583537592001306 -0.0034640183392389951 0 -0.029521039373773168 -0.0029994092347490771 0 -0.029583537592001306 -0.0034640183392389951 0 -0.030295104772966312 -0.003494406537640805 0 -0.029026156904304178 -0.0030213170185246171 0 -0.029583537592001306 -0.0034640183392389951 0 -0.029035139400569624 -0.0039009696935229836 0 -0.029583537592001306 -0.0034640183392389951 0 -0.029943408878595337 -0.0040307955825445762 0 -0.030295104772966312 -0.003494406537640805 0 -0.029583537592001306 -0.0034640183392389951 0 -0.029943408878595337 -0.0040307955825445762 0 -0.029035139400569624 -0.0039009696935229836 0 -0.03013789028900583 -0.0036055411668027325 0 -0.030057492604415183 -0.0027252062808248165 0 -0.030351361922459054 -0.0047000222814724503 0 -0.030390113622535481 -0.0047387705825749343 0 -0.030396445168921968 -0.0046491285640516081 0 -0.029026156904304178 -0.0030213170185246171 0 -0.029035139400569624 -0.0039009696935229836 0 -0.028213689528202752 -0.0029574426040898808 0 -0.028670799617570405 -0.0025313904646337977 0 -0.029026156904304178 -0.0030213170185246171 0 -0.028213689528202752 -0.0029574426040898808 0 -0.028670799617570405 -0.0025313904646337977 0 -0.029128021147811638 -0.0026055495616865679 0 -0.029026156904304178 -0.0030213170185246171 0 -0.030275768240273407 -0.0020519882552808297 0 -0.030057492604415183 -0.0027252062808248165 0 -0.031986927223287005 -0.0021058162779357945 0 -0.032088977083081914 -0.0022396448526283011 0 -0.031939751297292568 -0.0022115888293146009 0 -0.032088977083081914 -0.0022396448526283011 0 -0.031939751297292568 -0.0022115888293146009 0 -0.031919740012373445 -0.0023446618403737906 0 -0.03179914468143883 -0.0022034050268610211 0 -0.031879387397409607 -0.0021079185401864553 0 -0.031939751297292568 -0.0022115888293146009 0 -0.03179914468143883 -0.0022034050268610211 0 -0.031939751297292568 -0.0022115888293146009 0 -0.031919740012373445 -0.0023446618403737906 0 -0.032088977083081914 -0.0022396448526283011 0 -0.032002497823458112 -0.0024228271952643032 0 -0.032059429403494731 -0.0024993453926163344 0 -0.032088977083081914 -0.0022396448526283011 0 -0.031919740012373445 -0.0023446618403737906 0 -0.032002497823458112 -0.0024228271952643032 0 -0.030057492604415183 -0.0027252062808248165 0 -0.030939226616624654 -0.0033821281229848136 0 -0.032059429403494731 -0.0024993453926163344 0 -0.032066297722913722 -0.0024978835532236733 0 -0.032132356249755335 -0.0024202387656567211 0 -0.032002497823458112 -0.0024228271952643032 0 -0.032059429403494731 -0.0024993453926163344 0 -0.032066297722913722 -0.0024978835532236733 0 -0.031919740012373445 -0.0023446618403737906 0 -0.032002497823458112 -0.0024228271952643032 0 -0.031875308612761374 -0.0024744077269052275 0 -0.031811488433604748 -0.0024037431864754521 0 -0.031919740012373445 -0.0023446618403737906 0 -0.031875308612761374 -0.0024744077269052275 0 -0.032066297722913722 -0.0024978835532236733 0 -0.031875308612761374 -0.0024744077269052275 0 -0.031829738675308229 -0.0025275337255534296 0 -0.032002497823458112 -0.0024228271952643032 0 -0.032066297722913722 -0.0024978835532236733 0 -0.031875308612761374 -0.0024744077269052275 0 -0.032066297722913722 -0.0024978835532236733 0 -0.031829738675308229 -0.0025275337255534296 0 -0.031786277516976186 -0.0026010173938245036 0 -0.032182331702802477 -0.0023888804790324438 0 -0.032249723898919759 -0.0023180790508967263 0 -0.032066297722913722 -0.0024978835532236733 0 -0.032356080656021483 -0.0023773670767019066 0 -0.032505819135400869 -0.0024079131768823957 0 -0.032199570908780013 -0.002328951197320401 0 -0.032356080656021483 -0.0023773670767019066 0 -0.032132356249755335 -0.0024202387656567211 0 -0.032092580813739689 -0.002337827650682267 0 -0.032059429403494731 -0.0024993453926163344 0 -0.032132356249755335 -0.0024202387656567211 0 -0.032066297722913722 -0.0024978835532236733 0 -0.032356080656021483 -0.0023773670767019066 0 -0.032132356249755335 -0.0024202387656567211 0 -0.031646855692901869 -0.0033179729681394876 0 -0.030939226616624654 -0.0033821281229848136 0 -0.032092580813739689 -0.002337827650682267 0 -0.032199570908780013 -0.002328951197320401 0 -0.032132356249755335 -0.0024202387656567211 0 -0.030367084307349763 -0.004669619696945156 0 -0.030396445168921968 -0.0046491285640516081 0 -0.030399291778224511 -0.0046297140379664712 0 -0.030425647759664963 -0.0046674808676011549 0 -0.030367084307349763 -0.004669619696945156 0 -0.030399291778224511 -0.0046297140379664712 0 -0.030425647759664963 -0.0046674808676011549 0 -0.030399291778224511 -0.0046297140379664712 0 -0.030435638339156929 -0.0046408795232224234 0 -0.030399291778224511 -0.0046297140379664712 0 -0.030435638339156929 -0.0046408795232224234 0 -0.030208009290598536 -0.004619569547651089 0 -0.030684985541641414 -0.0046932614340469874 0 -0.030435638339156929 -0.0046408795232224234 0 -0.030385204884717465 -0.0047085332320124232 0 -0.030435638339156929 -0.0046408795232224234 0 -0.030208009290598536 -0.004619569547651089 0 -0.030385204884717465 -0.0047085332320124232 0 -0.030399291778224511 -0.0046297140379664712 0 -0.030208009290598536 -0.004619569547651089 0 -0.030357383227221608 -0.0046522745344966783 0 -0.029943408878595337 -0.0040307955825445762 0 -0.029035139400569624 -0.0039009696935229836 0 -0.030208009290598536 -0.004619569547651089 0 -0.030351361922459054 -0.0047000222814724503 0 -0.030208009290598536 -0.004619569547651089 0 -0.030357383227221608 -0.0046522745344966783 0 -0.03013789028900583 -0.0036055411668027325 0 -0.030212738288145208 -0.0039015905184880532 0 -0.030351361922459054 -0.0047000222814724503 0 -0.030396445168921968 -0.0046491285640516081 0 -0.030357383227221608 -0.0046522745344966783 0 -0.030396445168921968 -0.0046491285640516081 0 -0.030399291778224511 -0.0046297140379664712 0 -0.030357383227221608 -0.0046522745344966783 0 -0.025248619079481793 0.0011950943277090759 0 -0.024828975472498481 0.00136589302883061 0 -0.02485959234261181 0.0009702518504711038 0 -0.029943408878595337 -0.0040307955825445762 0 -0.030208009290598536 -0.004619569547651089 0 -0.030647224776692857 -0.0044453982666676443 0 -0.028695736729532684 -0.0021204517408373378 0 -0.027439033434165247 -0.00091070196209385031 0 -0.030389612697747974 -0.0047834364031824443 0 -0.030647224776692857 -0.0044453982666676443 0 -0.030385204884717465 -0.0047085332320124232 0 -0.030208009290598536 -0.004619569547651089 0 -0.030647224776692857 -0.0044453982666676443 0 -0.030385204884717465 -0.0047085332320124232 0 -0.030389612697747974 -0.0047834364031824443 0 -0.030684985541641414 -0.0046932614340469874 0 -0.030385204884717465 -0.0047085332320124232 0 -0.026884709209551192 9.9253701552700203e-05 0 -0.027439033434165247 -0.00091070196209385031 0 -0.028295600588897577 -0.0012158220506322997 0 -0.028789876639391865 -0.0012413120324094925 0 -0.028561541429965743 -0.001914872465110881 0 -0.025033729721354932 0.0017451086053075556 0 -0.025248619079481793 0.0011950943277090759 0 -0.024828975472498481 0.00136589302883061 0 -0.024451920734622278 0.001775366659751724 0 -0.025033729721354932 0.0017451086053075556 0 -0.024828975472498481 0.00136589302883061 0 -0.024451920734622278 0.001775366659751724 0 -0.024828975472498481 0.00136589302883061 0 -0.024454721677102231 0.001376743374717376 0 -0.024451920734622278 0.001775366659751724 0 -0.024454721677102231 0.001376743374717376 0 -0.024033537941597606 0.001267329739940594 0 -0.025954872784251223 0.00070378104868953559 0 -0.025318259094785023 0.00067065443877592653 0 -0.024540539287029619 0.0010697276541626864 0 -0.024178530570457261 0.00072908564918682049 0 -0.024033537941597606 0.001267329739940594 0 -0.024454721677102231 0.001376743374717376 0 -0.024540539287029619 0.0010697276541626864 0 -0.024033537941597606 0.001267329739940594 0 -0.024828975472498481 0.00136589302883061 0 -0.024540539287029619 0.0010697276541626864 0 -0.02485959234261181 0.0009702518504711038 0 -0.024828975472498481 0.00136589302883061 0 -0.024454721677102231 0.001376743374717376 0 -0.024540539287029619 0.0010697276541626864 0 -0.02485959234261181 0.0009702518504711038 0 -0.024630943485156744 0.00064739181234620645 0 -0.025045812691336405 0.00056995463615919727 0 -0.024540539287029619 0.0010697276541626864 0 -0.02485959234261181 0.0009702518504711038 0 -0.024630943485156744 0.00064739181234620645 0 -0.024540539287029619 0.0010697276541626864 0 -0.024630943485156744 0.00064739181234620645 0 -0.024178530570457261 0.00072908564918682049 0 -0.024630943485156744 0.00064739181234620645 0 -0.024178530570457261 0.00072908564918682049 0 -0.024279644019380615 0.00024802604607946461 0 -0.024630943485156744 0.00064739181234620645 0 -0.024724647051736139 0.00033066997702056977 0 -0.025045812691336405 0.00056995463615919727 0 -0.024630943485156744 0.00064739181234620645 0 -0.024724647051736139 0.00033066997702056977 0 -0.024279644019380615 0.00024802604607946461 0 -0.025280154583224482 0.0011800484724977694 0 -0.025580691263731255 0.00065374733187124434 0 -0.025351969990138518 0.00038106081164728683 0 -0.025280154583224482 0.0011800484724977694 0 -0.025843774169509504 0.00089809791014178577 0 -0.025580691263731255 0.00065374733187124434 0 -0.025646221829244129 0.0021667288696489615 0 -0.025280154583224482 0.0011800484724977694 0 -0.025936751856319929 0.0013974140860742647 0 -0.025248619079481793 0.0011950943277090759 0 -0.02485959234261181 0.0009702518504711038 0 -0.025045812691336405 0.00056995463615919727 0 -0.027439033434165247 -0.00091070196209385031 0 -0.026352648509862003 0.00023687326763996444 0 -0.027439033434165247 -0.00091070196209385031 0 -0.027750056628717015 -0.0011256991932245778 0 -0.029943408878595337 -0.0040307955825445762 0 -0.030647224776692857 -0.0044453982666676443 0 -0.030295104772966312 -0.003494406537640805 0 -0.029599880008815992 -0.0024247019847484061 0 -0.029521039373773168 -0.0029994092347490771 0 -0.030295104772966312 -0.003494406537640805 0 -0.027844478167231134 -0.0012159245753225116 0 -0.027750056628717015 -0.0011256991932245778 0 -0.025280154583224482 0.0011800484724977694 0 -0.025936751856319929 0.0013974140860742647 0 -0.025843774169509504 0.00089809791014178577 0 -0.026279327562644641 0.0006357800442343632 0 -0.025936751856319929 0.0013974140860742647 0 -0.025843774169509504 0.00089809791014178577 0 -0.026279327562644641 0.0006357800442343632 0 -0.025843774169509504 0.00089809791014178577 0 -0.025794937220632162 0.00040974225496358301 0 -0.026279327562644641 0.0006357800442343632 0 -0.025794937220632162 0.00040974225496358301 0 -0.026278225591643764 0.0001407980874609738 0 -0.025794937220632162 0.00040974225496358301 0 -0.026278225591643764 0.0001407980874609738 0 -0.025083702070160797 -0.00024253683143101367 0 -0.025843774169509504 0.00089809791014178577 0 -0.025794937220632162 0.00040974225496358301 0 -0.025580691263731255 0.00065374733187124434 0 -0.025280154583224482 0.0011800484724977694 0 -0.025351969990138518 0.00038106081164728683 0 -0.02487990983425404 -4.8990152405003931e-05 0 -0.026352648509862003 0.00023687326763996444 0 -0.025910719270400607 6.8239824316389502e-05 0 -0.025794937220632162 0.00040974225496358301 0 -0.025351969990138518 0.00038106081164728683 0 -0.025083702070160797 -0.00024253683143101367 0 -0.025794937220632162 0.00040974225496358301 0 -0.025580691263731255 0.00065374733187124434 0 -0.025351969990138518 0.00038106081164728683 0 -0.025351969990138518 0.00038106081164728683 0 -0.025083702070160797 -0.00024253683143101367 0 -0.02487990983425404 -4.8990152405003931e-05 0 -0.02417015539338379 -0.0001821164870922962 0 -0.025135125943042395 -0.00046840980403892575 0 -0.024532038221604262 -0.0011392377337316785 0 -0.02553186425467998 -0.00076175359311987081 0 -0.025135125943042395 -0.00046840980403892575 0 -0.024532038221604262 -0.0011392377337316785 0 -0.02417015539338379 -0.0001821164870922962 0 -0.024532038221604262 -0.0011392377337316785 0 -0.023442997922734028 -0.001087618041039011 0 -0.025261189257620321 8.4331655911480731e-05 0 -0.024414819742733688 -7.1412726735964606e-05 0 -0.026278225591643764 0.0001407980874609738 0 -0.02417015539338379 -0.0001821164870922962 0 -0.025135125943042395 -0.00046840980403892575 0 -0.026278225591643764 0.0001407980874609738 0 -0.02553186425467998 -0.00076175359311987081 0 -0.026229586261732343 -0.00054184033692762808 0 -0.026278225591643764 0.0001407980874609738 0 -0.02553186425467998 -0.00076175359311987081 0 -0.025135125943042395 -0.00046840980403892575 0 -0.02553186425467998 -0.00076175359311987081 0 -0.026229586261732343 -0.00054184033692762808 0 -0.026237618572414672 -0.0012202904678611827 0 -0.02553186425467998 -0.00076175359311987081 0 -0.026237618572414672 -0.0012202904678611827 0 -0.025521316431217262 -0.0019590636131561917 0 -0.02553186425467998 -0.00076175359311987081 0 -0.025521316431217262 -0.0019590636131561917 0 -0.024532038221604262 -0.0011392377337316785 0 -0.026574806980392659 -0.0022092145359910438 0 -0.026237618572414672 -0.0012202904678611827 0 -0.025521316431217262 -0.0019590636131561917 0 -0.024532038221604262 -0.0011392377337316785 0 -0.024535249605626638 -0.0023111041921733688 0 -0.023666620451809468 -0.001953750927938386 0 -0.025521316431217262 -0.0019590636131561917 0 -0.024532038221604262 -0.0011392377337316785 0 -0.024535249605626638 -0.0023111041921733688 0 -0.024535249605626638 -0.0023111041921733688 0 -0.025148848921875508 -0.0031668573619311156 0 -0.023819324764630521 -0.0033286055415485973 0 -0.024535249605626638 -0.0023111041921733688 0 -0.023666620451809468 -0.001953750927938386 0 -0.023819324764630521 -0.0033286055415485973 0 -0.026349112594579085 -0.0031356426645038371 0 -0.025521316431217262 -0.0019590636131561917 0 -0.025148848921875508 -0.0031668573619311156 0 -0.025521316431217262 -0.0019590636131561917 0 -0.024535249605626638 -0.0023111041921733688 0 -0.025148848921875508 -0.0031668573619311156 0 -0.026574806980392659 -0.0022092145359910438 0 -0.026349112594579085 -0.0031356426645038371 0 -0.025521316431217262 -0.0019590636131561917 0 -0.022712502937176825 -0.0027173885846952001 0 -0.021370513268604528 -0.0022662763183987581 0 -0.021859369983375173 -0.0038888615931431422 0 -0.022712502937176825 -0.0027173885846952001 0 -0.022687557063058826 -0.0016613821092688729 0 -0.021370513268604528 -0.0022662763183987581 0 -0.022712502937176825 -0.0027173885846952001 0 -0.023666620451809468 -0.001953750927938386 0 -0.023819324764630521 -0.0033286055415485973 0 -0.022712502937176825 -0.0027173885846952001 0 -0.023666620451809468 -0.001953750927938386 0 -0.022687557063058826 -0.0016613821092688729 0 -0.023442997922734028 -0.001087618041039011 0 -0.022687557063058826 -0.0016613821092688729 0 -0.022055893248729447 -0.00072767526731464763 0 -0.023666620451809468 -0.001953750927938386 0 -0.023442997922734028 -0.001087618041039011 0 -0.022687557063058826 -0.0016613821092688729 0 -0.024532038221604262 -0.0011392377337316785 0 -0.023666620451809468 -0.001953750927938386 0 -0.023442997922734028 -0.001087618041039011 0 -0.022687557063058826 -0.0016613821092688729 0 -0.022055893248729447 -0.00072767526731464763 0 -0.021370513268604528 -0.0022662763183987581 0 -0.024270423672466259 -0.00049698830229020228 0 -0.024419782281502111 -4.758434240271783e-05 0 -0.023869088986589796 -0.00034029784659898816 0 -0.024414819742733688 -7.1412726735964606e-05 0 -0.02281580678362689 -0.00026982017366919127 0 -0.02417015539338379 -0.0001821164870922962 0 -0.023442997922734028 -0.001087618041039011 0 -0.022055893248729447 -0.00072767526731464763 0 -0.024270423672466259 -0.00049698830229020228 0 -0.02487990983425404 -4.8990152405003931e-05 0 -0.024419782281502111 -4.758434240271783e-05 0 -0.025083702070160797 -0.00024253683143101367 0 -0.024270423672466259 -0.00049698830229020228 0 -0.02487990983425404 -4.8990152405003931e-05 0 -0.024724647051736139 0.00033066997702056977 0 -0.025045812691336405 0.00056995463615919727 0 -0.02487990983425404 -4.8990152405003931e-05 0 -0.024724647051736139 0.00033066997702056977 0 -0.02487990983425404 -4.8990152405003931e-05 0 -0.024419782281502111 -4.758434240271783e-05 0 -0.024724647051736139 0.00033066997702056977 0 -0.024419782281502111 -4.758434240271783e-05 0 -0.024279644019380615 0.00024802604607946461 0 -0.024419782281502111 -4.758434240271783e-05 0 -0.024279644019380615 0.00024802604607946461 0 -0.023869088986589796 -0.00034029784659898816 0 -0.024279644019380615 0.00024802604607946461 0 -0.023774692628007039 -0.00015725826129140097 0 -0.0238190168805936 0.00033280079394825383 0 -0.023535860450569556 0.00036502278203388725 0 -0.023146423105922773 0.00028360088377840425 0 -0.024279644019380615 0.00024802604607946461 0 -0.023599615746799876 1.3996612971673661e-05 0 -0.023869088986589796 -0.00034029784659898816 0 -0.023774692628007039 -0.00015725826129140097 0 -0.023060028983028637 -0.00062667820151820965 0 -0.022998809402511308 1.011685851135079e-05 0 -0.023774692628007039 -0.00015725826129140097 0 -0.022998809402511308 1.011685851135079e-05 0 -0.0238190168805936 0.00033280079394825383 0 -0.023421482813610749 -0.00050161043968626807 0 -0.023110034799570543 -0.00063361513585551892 0 -0.02284686934995727 -0.0003003398371602471 0 -0.023146423105922773 0.00028360088377840425 0 -0.022123496287639457 0.00017084593492943688 0 -0.023599615746799876 1.3996612971673661e-05 0 -0.023421482813610749 -0.00050161043968626807 0 -0.02284686934995727 -0.0003003398371602471 0 -0.023421482813610749 -0.00050161043968626807 0 -0.023110034799570543 -0.00063361513585551892 0 -0.023391989569455322 -0.00081938229792891018 0 -0.024270423672466259 -0.00049698830229020228 0 -0.023869088986589796 -0.00034029784659898816 0 -0.02339823250337213 -0.0007690590397592431 0 -0.023599615746799876 1.3996612971673661e-05 0 -0.023421482813610749 -0.00050161043968626807 0 -0.023869088986589796 -0.00034029784659898816 0 -0.023421482813610749 -0.00050161043968626807 0 -0.023869088986589796 -0.00034029784659898816 0 -0.02339823250337213 -0.0007690590397592431 0 -0.02281580678362689 -0.00026982017366919127 0 -0.020060172250719443 -0.00045424114094342249 0 -0.022055893248729447 -0.00072767526731464763 0 -0.020030723054187415 -0.0012689596397070836 0 -0.021370513268604528 -0.0022662763183987581 0 -0.020155072118831916 -0.0004444682426549615 0 -0.020060172250719443 -0.00045424114094342249 0 -0.023110034799570543 -0.00063361513585551892 0 -0.023391989569455322 -0.00081938229792891018 0 -0.02280818531470475 -0.00076843527232897928 0 -0.020060172250719443 -0.00045424114094342249 0 -0.018582643078211936 -0.0014280229682929898 0 -0.016139276276211402 -0.00062905361957197811 0 -0.016185003334722638 -3.2461711325045375e-05 0 -0.016457534125033552 -0.00034441200331029382 0 -0.016185003334722638 -3.2461711325045375e-05 0 -0.016564603715690743 1.7427543244122782e-06 0 -0.016457534125033552 -0.00034441200331029382 0 -0.019868854656439273 -0.0029754821661905069 0 -0.021370513268604528 -0.0022662763183987581 0 -0.020656103872477884 -0.0038531446913038741 0 -0.020030723054187415 -0.0012689596397070836 0 -0.019868854656439273 -0.0029754821661905069 0 -0.021370513268604528 -0.0022662763183987581 0 -0.017766161629648624 -3.6553935764306165e-05 0 -0.017778133553853059 6.8266021003833705e-07 0 -0.018373869128645276 -6.6510860143207011e-05 0 -0.017766161629648624 -3.6553935764306165e-05 0 -0.017239245409191636 1.5705129658471025e-05 0 -0.017551657865325868 -0.00015371007233831873 0 -0.017766161629648624 -3.6553935764306165e-05 0 -0.017778133553853059 6.8266021003833705e-07 0 -0.017239245409191636 1.5705129658471025e-05 0 -0.019105623974045308 0.00025702096433179004 0 -0.019678382067354633 -0.00015913077321718139 0 -0.016564603715690743 1.7427543244122782e-06 0 -0.016824273602377256 -0.00037143437121227036 0 -0.016457534125033552 -0.00034441200331029382 0 -0.017239245409191636 1.5705129658471025e-05 0 -0.016564603715690743 1.7427543244122782e-06 0 -0.017551657865325868 -0.00015371007233831873 0 -0.016139276276211402 -0.00062905361957197811 0 -0.016457534125033552 -0.00034441200331029382 0 -0.01687011533732129 -0.00043984437929516982 0 -0.020060172250719443 -0.00045424114094342249 0 -0.01991479491533274 -0.00033486611849424731 0 -0.023391989569455322 -0.00081938229792891018 0 -0.02280818531470475 -0.00076843527232897928 0 -0.022337772870674538 -0.0011065127750914344 0 -0.016824273602377256 -0.00037143437121227036 0 -0.016457534125033552 -0.00034441200331029382 0 -0.01687011533732129 -0.00043984437929516982 0 -0.023110034799570543 -0.00063361513585551892 0 -0.02280818531470475 -0.00076843527232897928 0 -0.022785430035405348 -0.00059537735642097749 0 -0.02280818531470475 -0.00076843527232897928 0 -0.022460507998940588 -0.00071152334039764316 0 -0.022785430035405348 -0.00059537735642097749 0 -0.02280818531470475 -0.00076843527232897928 0 -0.022460507998940588 -0.00071152334039764316 0 -0.022337772870674538 -0.0011065127750914344 0 -0.01991479491533274 -0.00033486611849424731 0 -0.020088819554030683 7.1643839044309903e-06 0 -0.017775822795708288 -0.00015444921759373388 0 -0.018373869128645276 -6.6510860143207011e-05 0 -0.018638008296676389 -0.00052520614508187985 0 -0.022460507998940588 -0.00071152334039764316 0 -0.022337772870674538 -0.0011065127750914344 0 -0.022047480400953626 -0.00068036671927286258 0 -0.017778133553853059 6.8266021003833705e-07 0 -0.018373869128645276 -6.6510860143207011e-05 0 -0.019417514456554694 -1.7733821465229328e-06 0 -0.017551657865325868 -0.00015371007233831873 0 -0.017775822795708288 -0.00015444921759373388 0 -0.018373869128645276 -6.6510860143207011e-05 0 -0.017766161629648624 -3.6553935764306165e-05 0 -0.017551657865325868 -0.00015371007233831873 0 -0.018373869128645276 -6.6510860143207011e-05 0 -0.019678382067354633 -0.00015913077321718139 0 -0.01991479491533274 -0.00033486611849424731 0 -0.018373869128645276 -6.6510860143207011e-05 0 -0.018638008296676389 -0.00052520614508187985 0 -0.019417514456554694 -1.7733821465229328e-06 0 -0.020088819554030683 7.1643839044309903e-06 0 -0.019422389116094622 -9.1167750778876473e-07 0 -0.019645652154961238 4.936709917034878e-07 0 -0.019421059150733635 2.5563065605426572e-09 0 -0.020311734024250919 -5.8481982783385202e-10 0 -0.020970231776395298 -0.0011203624246794628 0 -0.020319446108123043 -3.0076579636150417e-06 0 -0.023060028983028637 -0.00062667820151820965 0 -0.020088819554030683 7.1643839044309903e-06 0 -0.020312245043786124 -1.8683053372645655e-07 0 -0.020319446108123043 -3.0076579636150417e-06 0 -0.023060028983028637 -0.00062667820151820965 0 -0.022998809402511308 1.011685851135079e-05 0 -0.020088819554030683 7.1643839044309903e-06 0 -0.022123496287639457 0.00017084593492943688 0 -0.022460507998940588 -0.00071152334039764316 0 -0.022047480400953626 -0.00068036671927286258 0 -0.02284686934995727 -0.0003003398371602471 0 -0.023110034799570543 -0.00063361513585551892 0 -0.022785430035405348 -0.00059537735642097749 0 -0.02284686934995727 -0.0003003398371602471 0 -0.022460507998940588 -0.00071152334039764316 0 -0.022785430035405348 -0.00059537735642097749 0 -0.02284686934995727 -0.0003003398371602471 0 -0.020319446108123043 -3.0076579636150417e-06 0 -0.022998809402511308 1.011685851135079e-05 0 -0.025482162416451983 1.5292107267777006e-06 0 -0.022998809402511308 1.011685851135079e-05 0 -0.025118618256223257 -3.0449657101170449e-05 0 -0.025482162416451983 1.5292107267777006e-06 0 -0.024221547500757858 0.00022574015917269422 0 -0.024654669645123063 0.00045204879312024058 0 -0.022998809402511308 1.011685851135079e-05 0 -0.0238190168805936 0.00033280079394825383 0 -0.023559641692105299 0.00071760896706608152 0 -0.024178530570457261 0.00072908564918682049 0 -0.024279644019380615 0.00024802604607946461 0 -0.0238190168805936 0.00033280079394825383 0 -0.024178530570457261 0.00072908564918682049 0 -0.0238190168805936 0.00033280079394825383 0 -0.023559641692105299 0.00071760896706608152 0 -0.024654669645123063 0.00045204879312024058 0 -0.025318259094785023 0.00067065443877592653 0 -0.024178530570457261 0.00072908564918682049 0 -0.023559641692105299 0.00071760896706608152 0 -0.024033537941597606 0.001267329739940594 0 -0.025118618256223257 -3.0449657101170449e-05 0 -0.025967093590200208 5.77455160584765e-05 0 -0.026494134464416036 6.1281394019018962e-05 0 -0.026704062508248763 0.00016305635712195868 0 -0.026494134464416036 6.1281394019018962e-05 0 -0.026706561103267506 0.00012789052792804809 0 -0.026704062508248763 0.00016305635712195868 0 -0.026833633060505065 0.00013575056465512487 0 -0.026494134464416036 6.1281394019018962e-05 0 -0.025967093590200208 5.77455160584765e-05 0 -0.026494134464416036 6.1281394019018962e-05 0 -0.026706561103267506 0.00012789052792804809 0 -0.025967093590200208 5.77455160584765e-05 0 -0.026706561103267506 0.00012789052792804809 0 -0.026518822380078192 0.0001001864659961812 0 -0.025118618256223257 -3.0449657101170449e-05 0 -0.025967093590200208 5.77455160584765e-05 0 -0.025482162416451983 1.5292107267777006e-06 0 -0.027652031704247744 9.0725485643623619e-05 0 -0.026518822380078192 0.0001001864659961812 0 -0.025482162416451983 1.5292107267777006e-06 0 -0.025967093590200208 5.77455160584765e-05 0 -0.026518822380078192 0.0001001864659961812 0 -0.025482162416451983 1.5292107267777006e-06 0 -0.0079957826474782306 -0.00040281990316605904 0 -0.0082368912392075198 -0.00070993854480417358 0 -0.007926663344849455 -0.001087583378761646 0 -0.01135077888728883 -0.0016371714403744431 0 -0.011716080322303032 -0.0020627325461822672 0 -0.0083180832169659265 -0.00048049030792291343 0 -0.0087757557403230751 -0.00050978028408495081 0 -0.0082824124827438252 -0.00040379355468581665 0 -0.0087757557403230751 -0.00050978028408495081 0 -0.0093217750431905545 -0.00023229096164521101 0 -0.0082824124827438252 -0.00040379355468581665 0 -0.0083180832169659265 -0.00048049030792291343 0 -0.0079957826474782306 -0.00040281990316605904 0 -0.0082368912392075198 -0.00070993854480417358 0 -0.0083180832169659265 -0.00048049030792291343 0 -0.0079957826474782306 -0.00040281990316605904 0 -0.0082824124827438252 -0.00040379355468581665 0 -0.0082368912392075198 -0.00070993854480417358 0 -0.008531859936331064 -0.0010077479509646276 0 -0.007926663344849455 -0.001087583378761646 0 -0.0082368912392075198 -0.00070993854480417358 0 -0.0087757557403230751 -0.00050978028408495081 0 -0.008531859936331064 -0.0010077479509646276 0 -0.0083180832169659265 -0.00048049030792291343 0 -0.0082368912392075198 -0.00070993854480417358 0 -0.0087757557403230751 -0.00050978028408495081 0 -0.0087757557403230751 -0.00050978028408495081 0 -0.0091160643343474578 -0.00077991199539005835 0 -0.008531859936331064 -0.0010077479509646276 0 -0.0087757557403230751 -0.00050978028408495081 0 -0.0091160643343474578 -0.00077991199539005835 0 -0.009476669180714041 -0.00040520030870747043 0 -0.0091160643343474578 -0.00077991199539005835 0 -0.009476669180714041 -0.00040520030870747043 0 -0.010529509495664193 -0.00031115915476620553 0 -0.0087757557403230751 -0.00050978028408495081 0 -0.009476669180714041 -0.00040520030870747043 0 -0.0093217750431905545 -0.00023229096164521101 0 -0.009476669180714041 -0.00040520030870747043 0 -0.010529509495664193 -0.00031115915476620553 0 -0.0093217750431905545 -0.00023229096164521101 0 -0.01081742850262 -9.462910853077059e-07 0 -0.0093217750431905545 -0.00023229096164521101 0 -0.0087792933257577303 -9.0524183826161001e-07 0 -0.01081742850262 -9.462910853077059e-07 0 -0.010529509495664193 -0.00031115915476620553 0 -0.0093217750431905545 -0.00023229096164521101 0 -0.0093217750431905545 -0.00023229096164521101 0 -0.0087792933257577303 -9.0524183826161001e-07 0 -0.0082545767369157728 -0.00036594030462551436 0 -0.0093217750431905545 -0.00023229096164521101 0 -0.0082545767369157728 -0.00036594030462551436 0 -0.0082824124827438252 -0.00040379355468581665 0 -0.0082545767369157728 -0.00036594030462551436 0 -0.007572932764658335 -0.00071575270136026376 0 -0.0072317625832577781 -0.00059702369603413215 0 -0.007572932764658335 -0.00071575270136026376 0 -0.0080499795584645928 -0.00041378933422987898 0 -0.0065606344071406815 -0.0014896844159156897 0 -0.0082545767369157728 -0.00036594030462551436 0 -0.0082824124827438252 -0.00040379355468581665 0 -0.007572932764658335 -0.00071575270136026376 0 -0.0079957826474782306 -0.00040281990316605904 0 -0.0082824124827438252 -0.00040379355468581665 0 -0.007572932764658335 -0.00071575270136026376 0 -0.0079957826474782306 -0.00040281990316605904 0 -0.007572932764658335 -0.00071575270136026376 0 -0.0080499795584645928 -0.00041378933422987898 0 -0.005082724087807038 -0.002899722406295342 0 -0.0062084973617304974 -0.0054866910228388212 0 -0.0065606344071406815 -0.0014896844159156897 0 -0.0092970192305186806 -0.0033241099202282911 0 -0.0089780933729169485 -0.002677826518368879 0 -0.005082724087807038 -0.002899722406295342 0 -0.0050267181303788842 -0.0046932354924566228 0 -0.0042135416628448028 -0.0045260962232723054 0 -0.0050267181303788842 -0.0046932354924566228 0 -0.0042135416628448028 -0.0045260962232723054 0 -0.0046657981762486941 -0.0057783570522614682 0 -0.0050267181303788842 -0.0046932354924566228 0 -0.0062084973617304974 -0.0054866910228388212 0 -0.0046657981762486941 -0.0057783570522614682 0 -0.005082724087807038 -0.002899722406295342 0 -0.0050267181303788842 -0.0046932354924566228 0 -0.0062084973617304974 -0.0054866910228388212 0 -0.005082724087807038 -0.002899722406295342 0 -0.0042135416628448028 -0.0045260962232723054 0 -0.0029708939491440677 -0.003359908537001795 0 -0.0042135416628448028 -0.0045260962232723054 0 -0.0028027312559046635 -0.0054471214403937034 0 -0.0038114962847911726 -0.0055923242571575939 0 -0.0042135416628448028 -0.0045260962232723054 0 -0.0038114962847911726 -0.0055923242571575939 0 -0.0046657981762486941 -0.0057783570522614682 0 -0.0028027312559046635 -0.0054471214403937034 0 -0.0015428715842740563 -0.0050104397570764668 0 -0.0029708939491440677 -0.003359908537001795 0 -0.0042135416628448028 -0.0045260962232723054 0 -0.0028027312559046635 -0.0054471214403937034 0 -0.0029708939491440677 -0.003359908537001795 0 -0.0028027312559046635 -0.0054471214403937034 0 -0.0036117369052356451 -0.0065868963498235279 0 -0.0025219607307113896 -0.0067898804988566494 0 -0.0036117369052356451 -0.0065868963498235279 0 -0.0046657981762486941 -0.0057783570522614682 0 -0.0046647659993877145 -0.0070832786839611526 0 -0.0028027312559046635 -0.0054471214403937034 0 -0.0038114962847911726 -0.0055923242571575939 0 -0.0036117369052356451 -0.0065868963498235279 0 -0.0038114962847911726 -0.0055923242571575939 0 -0.0036117369052356451 -0.0065868963498235279 0 -0.0046657981762486941 -0.0057783570522614682 0 -0.0036117369052356451 -0.0065868963498235279 0 -0.0046647659993877145 -0.0070832786839611526 0 -0.0034879628916447587 -0.0078148738010032446 0 -0.0025219607307113896 -0.0067898804988566494 0 -0.0034879628916447587 -0.0078148738010032446 0 -0.0019528532537051379 -0.0080299111254618655 0 -0.0036117369052356451 -0.0065868963498235279 0 -0.0025219607307113896 -0.0067898804988566494 0 -0.0034879628916447587 -0.0078148738010032446 0 -0.0080499795584645928 -0.00041378933422987898 0 -0.0080085078106468983 -0.00059512484724550101 0 -0.0080866828385778768 -0.00055007087065674109 0 -0.0079957826474782306 -0.00040281990316605904 0 -0.0080499795584645928 -0.00041378933422987898 0 -0.0080866828385778768 -0.00055007087065674109 0 -0.0092970192305186806 -0.0033241099202282911 0 -0.010391885843896942 -0.0044521532139040676 0 -0.0062084973617304974 -0.0054866910228388212 0 -0.0046647659993877145 -0.0070832786839611526 0 -0.005578457931818534 -0.008264163584881622 0 -0.0062084973617304974 -0.0054866910228388212 0 -0.0046657981762486941 -0.0057783570522614682 0 -0.0046647659993877145 -0.0070832786839611526 0 -0.005578457931818534 -0.008264163584881622 0 -0.0037111790438220989 -0.0093049016894072543 0 -0.0051306928785698671 -0.010847110782485561 0 -0.010391885843896942 -0.0044521532139040676 0 -0.01286494640762138 -0.0049547753154124937 0 -0.0080085078106468983 -0.00059512484724550101 0 -0.0081070893903303094 -0.00080256455655353727 0 -0.0080866828385778768 -0.00055007087065674109 0 -0.0046647659993877145 -0.0070832786839611526 0 -0.005578457931818534 -0.008264163584881622 0 -0.0043585571781273504 -0.0081241131992849259 0 -0.005578457931818534 -0.008264163584881622 0 -0.0043585571781273504 -0.0081241131992849259 0 -0.0037111790438220989 -0.0093049016894072543 0 -0.0034879628916447587 -0.0078148738010032446 0 -0.0037111790438220989 -0.0093049016894072543 0 -0.0019528532537051379 -0.0080299111254618655 0 -0.0046647659993877145 -0.0070832786839611526 0 -0.0043585571781273504 -0.0081241131992849259 0 -0.0034879628916447587 -0.0078148738010032446 0 -0.0043585571781273504 -0.0081241131992849259 0 -0.0034879628916447587 -0.0078148738010032446 0 -0.0037111790438220989 -0.0093049016894072543 0 -0.013165467963664636 -0.0050811908317934598 0 -0.011953368774110377 -0.0070732361348952314 0 -0.019698002666608934 -0.0081424962195501289 0 -0.021083880421265026 -0.0071130206346729855 0 -0.021791307583141972 -0.0081516967954261936 0 -0.0037111790438220989 -0.0093049016894072543 0 -0.0048739235805443926 -0.011040208113211256 0 -0.0015752838351688618 -0.010901185861216507 0 -0.0080085078106468983 -0.00059512484724550101 0 -0.0081070893903303094 -0.00080256455655353727 0 -0.0079762893885829515 -0.00091723563102102642 0 -0.012896045375183379 -0.0033910076700407422 0 -0.01286494640762138 -0.0049547753154124937 0 -0.012896045375183379 -0.0033910076700407422 0 -0.013812564517964714 -0.0036909696880659585 0 -0.0037111790438220989 -0.0093049016894072543 0 -0.0051306928785698671 -0.010847110782485561 0 -0.0048739235805443926 -0.011040208113211256 0 -0.01286494640762138 -0.0049547753154124937 0 -0.013165467963664636 -0.0050811908317934598 0 -0.013272040085756127 -0.0043562056938786162 0 -0.013182800197747764 -0.0049417285989432781 0 -0.012523102174855647 -0.004931172191745558 0 -0.01286494640762138 -0.0049547753154124937 0 -0.01313923578813728 -0.0049219122092386573 0 -0.01313923578813728 -0.0049219122092386573 0 -0.013165467963664636 -0.0050811908317934598 0 -0.013122125645553566 -0.0044488406776022199 0 -0.013703592698235352 -0.0040029009717045937 0 -0.013175271225685938 -0.0038932181360634157 0 -0.01313923578813728 -0.0049219122092386573 0 -0.013812564517964714 -0.0036909696880659585 0 -0.013703592698235352 -0.0040029009717045937 0 -0.013718777890871578 -0.0039028591915113678 0 -0.013175271225685938 -0.0038932181360634157 0 -0.01560392687813961 -0.00069142686512406655 0 -0.014728651329945547 -0.00068186471026836204 0 -0.015248060084018217 -0.00017920559268674472 0 -0.013812564517964714 -0.0036909696880659585 0 -0.013305558797412281 -0.0016988449841332986 0 -0.011449198594826498 -0.0001935212101820225 0 -0.011631636019198501 -0.00020637192745748931 0 -0.011552748352492479 -9.8180710705789764e-05 0 -0.011465885924363138 -0.00010331621933552556 0 -0.011449198594826498 -0.0001935212101820225 0 -0.011552748352492479 -9.8180710705789764e-05 0 -0.012896045375183379 -0.0033910076700407422 0 -0.011716080322303032 -0.0020627325461822672 0 -0.012896045375183379 -0.0033910076700407422 0 -0.01217003170089564 -0.0028875894382347474 0 -0.0077586744742163876 -0.0026226196416972289 0 -0.0087967053336231362 -0.0018378425301197562 0 -0.007926663344849455 -0.001087583378761646 0 -0.011465885924363138 -0.00010331621933552556 0 -0.011552748352492479 -9.8180710705789764e-05 0 -0.011559886121383025 -4.3361574606542571e-05 0 -0.011552748352492479 -9.8180710705789764e-05 0 -0.011559886121383025 -4.3361574606542571e-05 0 -0.011613571871876517 3.1881852473737971e-05 0 -0.0091160643343474578 -0.00077991199539005835 0 -0.0087967053336231362 -0.0018378425301197562 0 -0.008531859936331064 -0.0010077479509646276 0 -0.0087967053336231362 -0.0018378425301197562 0 -0.008531859936331064 -0.0010077479509646276 0 -0.007926663344849455 -0.001087583378761646 0 -0.01081742850262 -9.462910853077059e-07 0 -0.011613571871876517 3.1881852473737971e-05 0 -0.012852299941686461 -3.4044830700508099e-07 0 -0.01081742850262 -9.462910853077059e-07 0 -0.010529509495664193 -0.00031115915476620553 0 -0.011613571871876517 3.1881852473737971e-05 0 -0.010529509495664193 -0.00031115915476620553 0 -0.011559886121383025 -4.3361574606542571e-05 0 -0.011613571871876517 3.1881852473737971e-05 0 -0.012041787388854142 -0.0026435820432515887 0 -0.01217003170089564 -0.0028875894382347474 0 -0.0091160643343474578 -0.00077991199539005835 0 -0.010529509495664193 -0.00031115915476620553 0 -0.0087967053336231362 -0.0018378425301197562 0 -0.013305558797412281 -0.0016988449841332986 0 -0.012855469679710563 -5.0052475662751128e-06 0 -0.011631636019198501 -0.00020637192745748931 0 -0.011613571871876517 3.1881852473737971e-05 0 -0.012852299941686461 -3.4044830700508099e-07 0 -0.011631636019198501 -0.00020637192745748931 0 -0.011552748352492479 -9.8180710705789764e-05 0 -0.011613571871876517 3.1881852473737971e-05 0 -0.014728651329945547 -0.00068186471026836204 0 -0.012857490861530655 -2.1474625033957209e-06 0 -0.014693271352288186 3.8055955878977087e-05 0 -0.012857490861530655 -2.1474625033957209e-06 0 -0.014693271352288186 3.8055955878977087e-05 0 -0.014495970331563756 9.5785258416122078e-07 0 -0.01560392687813961 -0.00069142686512406655 0 -0.015248060084018217 -0.00017920559268674472 0 -0.0157300674183262 0.00018434289165042062 0 -0.014728651329945547 -0.00068186471026836204 0 -0.014693271352288186 3.8055955878977087e-05 0 -0.015248060084018217 -0.00017920559268674472 0 -0.014693271352288186 3.8055955878977087e-05 0 -0.015248060084018217 -0.00017920559268674472 0 -0.015387101107397209 0.00016102029967205261 0 -0.015248060084018217 -0.00017920559268674472 0 -0.015387101107397209 0.00016102029967205261 0 -0.0157300674183262 0.00018434289165042062 0 -0.014693271352288186 3.8055955878977087e-05 0 -0.015387101107397209 0.00016102029967205261 0 -0.015432714114383671 0.00020210772202698283 0 -0.015387101107397209 0.00016102029967205261 0 -0.015754146320402569 0.00028719064261794523 0 -0.0157300674183262 0.00018434289165042062 0 -0.015387101107397209 0.00016102029967205261 0 -0.015754146320402569 0.00028719064261794523 0 -0.015432714114383671 0.00020210772202698283 0 -0.014495970331563756 9.5785258416122078e-07 0 -0.015432714114383671 0.00020210772202698283 0 -0.016137336001660424 2.9220603073721803e-07 0 -0.014693271352288186 3.8055955878977087e-05 0 -0.014495970331563756 9.5785258416122078e-07 0 -0.015432714114383671 0.00020210772202698283 0 -0.015432714114383671 0.00020210772202698283 0 -0.016137336001660424 2.9220603073721803e-07 0 -0.016362826566938743 0.00022496809031646232 0 -0.015754146320402569 0.00028719064261794523 0 -0.016362826566938743 0.00022496809031646232 0 -0.015974785443110873 0.00032210540074341436 0 -0.015754146320402569 0.00028719064261794523 0 -0.015432714114383671 0.00020210772202698283 0 -0.016362826566938743 0.00022496809031646232 0 -0.017239245409191636 1.5705129658471025e-05 0 -0.016564603715690743 1.7427543244122782e-06 0 -0.016362826566938743 0.00022496809031646232 0 -0.016564603715690743 1.7427543244122782e-06 0 -0.016362826566938743 0.00022496809031646232 0 -0.015974785443110873 0.00032210540074341436 0 -0.017778133553853059 6.8266021003833705e-07 0 -0.016137336001660424 2.9220603073721803e-07 0 -0.016362826566938743 0.00022496809031646232 0 -0.017778133553853059 6.8266021003833705e-07 0 -0.017239245409191636 1.5705129658471025e-05 0 -0.016362826566938743 0.00022496809031646232 0 -0.021370513268604528 -0.0022662763183987581 0 -0.020656103872477884 -0.0038531446913038741 0 -0.021859369983375173 -0.0038888615931431422 0 -0.020656103872477884 -0.0038531446913038741 0 -0.021151576163794827 -0.0050674747328405909 0 -0.021859369983375173 -0.0038888615931431422 0 -0.018582643078211936 -0.0014280229682929898 0 -0.017402681224080296 -0.0021395371209849186 0 -0.019868854656439273 -0.0029754821661905069 0 -0.020656103872477884 -0.0038531446913038741 0 -0.019704988218092138 -0.0046542038948188206 0 -0.016185003334722638 -3.2461711325045375e-05 0 -0.016564603715690743 1.7427543244122782e-06 0 -0.015974785443110873 0.00032210540074341436 0 -0.020656103872477884 -0.0038531446913038741 0 -0.019704988218092138 -0.0046542038948188206 0 -0.021151576163794827 -0.0050674747328405909 0 -0.019704988218092138 -0.0046542038948188206 0 -0.021151576163794827 -0.0050674747328405909 0 -0.020318451386743621 -0.0057446586213575198 0 -0.021151576163794827 -0.0050674747328405909 0 -0.021057574693323304 -0.006146233523249299 0 -0.020318451386743621 -0.0057446586213575198 0 -0.021057574693323304 -0.006146233523249299 0 -0.020318451386743621 -0.0057446586213575198 0 -0.020174366748699865 -0.0064568706741676115 0 -0.019704988218092138 -0.0046542038948188206 0 -0.020318451386743621 -0.0057446586213575198 0 -0.019544561721617143 -0.0062908199644469169 0 -0.015754146320402569 0.00028719064261794523 0 -0.015974785443110873 0.00032210540074341436 0 -0.0157300674183262 0.00018434289165042062 0 -0.017402681224080296 -0.0021395371209849186 0 -0.016003720978256371 -0.0029314285830407982 0 -0.020318451386743621 -0.0057446586213575198 0 -0.020174366748699865 -0.0064568706741676115 0 -0.019544561721617143 -0.0062908199644469169 0 -0.019908542618606102 -0.0079738194923643282 0 -0.020035374105375568 -0.007976339112496407 0 -0.020174366748699865 -0.0064568706741676115 0 -0.01313923578813728 -0.0049219122092386573 0 -0.014228700578888304 -0.0055565848693251221 0 -0.019374345107104816 -0.0078080349883305998 0 -0.020174366748699865 -0.0064568706741676115 0 -0.019544561721617143 -0.0062908199644469169 0 -0.019920577071543103 -0.0078162250516673193 0 -0.019374345107104816 -0.0078080349883305998 0 -0.020174366748699865 -0.0064568706741676115 0 -0.013812564517964714 -0.0036909696880659585 0 -0.016003720978256371 -0.0029314285830407982 0 -0.013165467963664636 -0.0050811908317934598 0 -0.017432790534085266 -0.0045970548676381815 0 -0.020035374105375568 -0.007976339112496407 0 -0.020174366748699865 -0.0064568706741676115 0 -0.021246903825713728 -0.0070800734203645592 0 -0.021057574693323304 -0.006146233523249299 0 -0.020174366748699865 -0.0064568706741676115 0 -0.021246903825713728 -0.0070800734203645592 0 -0.017432790534085266 -0.0045970548676381815 0 -0.018752722286289877 -0.0044187842739405441 0 -0.021083880421265026 -0.0071130206346729855 0 -0.02259023858392015 -0.0072407428593303938 0 -0.021791307583141972 -0.0081516967954261936 0 -0.021083880421265026 -0.0071130206346729855 0 -0.02259023858392015 -0.0072407428593303938 0 -0.02243924703040158 -0.0062024923113674262 0 -0.02259023858392015 -0.0072407428593303938 0 -0.02243924703040158 -0.0062024923113674262 0 -0.023794773724986874 -0.0066488360487593021 0 -0.02259023858392015 -0.0072407428593303938 0 -0.023794773724986874 -0.0066488360487593021 0 -0.023724072010054796 -0.0080832111047544983 0 -0.02243924703040158 -0.0062024923113674262 0 -0.023777584736171396 -0.0051199968911539041 0 -0.023794773724986874 -0.0066488360487593021 0 -0.021057574693323304 -0.006146233523249299 0 -0.021246903825713728 -0.0070800734203645592 0 -0.02243924703040158 -0.0062024923113674262 0 -0.021151576163794827 -0.0050674747328405909 0 -0.021057574693323304 -0.006146233523249299 0 -0.02243924703040158 -0.0062024923113674262 0 -0.021151576163794827 -0.0050674747328405909 0 -0.02243924703040158 -0.0062024923113674262 0 -0.022398828678408846 -0.0049562141860167511 0 -0.021151576163794827 -0.0050674747328405909 0 -0.022398828678408846 -0.0049562141860167511 0 -0.021859369983375173 -0.0038888615931431422 0 -0.02243924703040158 -0.0062024923113674262 0 -0.022398828678408846 -0.0049562141860167511 0 -0.023777584736171396 -0.0051199968911539041 0 -0.022398828678408846 -0.0049562141860167511 0 -0.023777584736171396 -0.0051199968911539041 0 -0.022963825391421541 -0.00408899266349443 0 -0.022712502937176825 -0.0027173885846952001 0 -0.022963825391421541 -0.00408899266349443 0 -0.023819324764630521 -0.0033286055415485973 0 -0.023777584736171396 -0.0051199968911539041 0 -0.022963825391421541 -0.00408899266349443 0 -0.023819324764630521 -0.0033286055415485973 0 -0.022712502937176825 -0.0027173885846952001 0 -0.022963825391421541 -0.00408899266349443 0 -0.021859369983375173 -0.0038888615931431422 0 -0.022398828678408846 -0.0049562141860167511 0 -0.022963825391421541 -0.00408899266349443 0 -0.021859369983375173 -0.0038888615931431422 0 -0.025916028002946644 -0.0040296149773981433 0 -0.024725983711220648 -0.0041458873840615482 0 -0.025280206144769488 -0.0050478579432524529 0 -0.025148848921875508 -0.0031668573619311156 0 -0.025916028002946644 -0.0040296149773981433 0 -0.024725983711220648 -0.0041458873840615482 0 -0.026349112594579085 -0.0031356426645038371 0 -0.025148848921875508 -0.0031668573619311156 0 -0.025916028002946644 -0.0040296149773981433 0 -0.025148848921875508 -0.0031668573619311156 0 -0.023819324764630521 -0.0033286055415485973 0 -0.024725983711220648 -0.0041458873840615482 0 -0.023777584736171396 -0.0051199968911539041 0 -0.023819324764630521 -0.0033286055415485973 0 -0.024725983711220648 -0.0041458873840615482 0 -0.023777584736171396 -0.0051199968911539041 0 -0.025280206144769488 -0.0050478579432524529 0 -0.02504227586738635 -0.006124241234649018 0 -0.023777584736171396 -0.0051199968911539041 0 -0.024725983711220648 -0.0041458873840615482 0 -0.025280206144769488 -0.0050478579432524529 0 -0.025280206144769488 -0.0050478579432524529 0 -0.025906873539356671 -0.0056325317733938668 0 -0.026593401632002085 -0.0047498832072107476 0 -0.025916028002946644 -0.0040296149773981433 0 -0.025280206144769488 -0.0050478579432524529 0 -0.026593401632002085 -0.0047498832072107476 0 -0.025280206144769488 -0.0050478579432524529 0 -0.025906873539356671 -0.0056325317733938668 0 -0.02504227586738635 -0.006124241234649018 0 -0.025906873539356671 -0.0056325317733938668 0 -0.02504227586738635 -0.006124241234649018 0 -0.026254397381333793 -0.0062508195722424664 0 -0.02504227586738635 -0.006124241234649018 0 -0.02600755002337354 -0.0070493322805488231 0 -0.026254397381333793 -0.0062508195722424664 0 -0.023777584736171396 -0.0051199968911539041 0 -0.02504227586738635 -0.006124241234649018 0 -0.023794773724986874 -0.0066488360487593021 0 -0.023794773724986874 -0.0066488360487593021 0 -0.024832001317050233 -0.0071702029579729524 0 -0.023724072010054796 -0.0080832111047544983 0 -0.02504227586738635 -0.006124241234649018 0 -0.023794773724986874 -0.0066488360487593021 0 -0.024832001317050233 -0.0071702029579729524 0 -0.02504227586738635 -0.006124241234649018 0 -0.024832001317050233 -0.0071702029579729524 0 -0.02600755002337354 -0.0070493322805488231 0 -0.024832001317050233 -0.0071702029579729524 0 -0.025489574837628245 -0.0079586463701540183 0 -0.02600755002337354 -0.0070493322805488231 0 0.0038189762136030853 -0.010039507261813949 0 0.0030275340844148936 -0.0087355248314703766 0 0.0046512401946808011 -0.0087343756710408504 0 0.0030275340844148936 -0.0087355248314703766 0 0.0043291378715559336 -0.0076173986222676238 0 0.0032244548342533698 -0.0074623219430203641 0 0.0030275340844148936 -0.0087355248314703766 0 0.0043291378715559336 -0.0076173986222676238 0 0.0046512401946808011 -0.0087343756710408504 0 0.0030275340844148936 -0.0087355248314703766 0 0.0011897098327645214 -0.008902431503189475 0 0.0019543657749123817 -0.0078092486232075181 0 0.0030275340844148936 -0.0087355248314703766 0 0.0014716462336459147 -0.010521866105631775 0 0.0011897098327645214 -0.008902431503189475 0 0.0030275340844148936 -0.0087355248314703766 0 0.0032244548342533698 -0.0074623219430203641 0 0.0019543657749123817 -0.0078092486232075181 0 0.0038189762136030853 -0.010039507261813949 0 0.0030275340844148936 -0.0087355248314703766 0 0.0014716462336459147 -0.010521866105631775 0 -0.011004511210120381 -0.0074892666264154122 0 -0.011343418700352643 -0.007718238682609453 0 -0.024832001317050233 -0.0071702029579729524 0 -0.025489574837628245 -0.0079586463701540183 0 -0.023724072010054796 -0.0080832111047544983 0 -0.011343418700352643 -0.007718238682609453 0 -0.011953368774110377 -0.0070732361348952314 0 0.0014716462336459147 -0.010521866105631775 0 -0.00069826113731693477 -0.0092957635723053267 0 0.0011897098327645214 -0.008902431503189475 0 -0.02259023858392015 -0.0072407428593303938 0 -0.023724072010054796 -0.0080832111047544983 0 -0.021791307583141972 -0.0081516967954261936 0 0.0014716462336459147 -0.010521866105631775 0 -0.0015752838351688618 -0.010901185861216507 0 -0.00069826113731693477 -0.0092957635723053267 0 -0.0037111790438220989 -0.0093049016894072543 0 -0.0015752838351688618 -0.010901185861216507 0 -0.00069826113731693477 -0.0092957635723053267 0 -0.0037111790438220989 -0.0093049016894072543 0 -0.00069826113731693477 -0.0092957635723053267 0 -0.0019528532537051379 -0.0080299111254618655 0 -0.00069826113731693477 -0.0092957635723053267 0 -0.0019528532537051379 -0.0080299111254618655 0 0.00013840696828026192 -0.0077709328500022243 0 -0.00069826113731693477 -0.0092957635723053267 0 0.0011897098327645214 -0.008902431503189475 0 0.00013840696828026192 -0.0077709328500022243 0 0.0011897098327645214 -0.008902431503189475 0 0.00013840696828026192 -0.0077709328500022243 0 0.0019543657749123817 -0.0078092486232075181 0 0.00013840696828026192 -0.0077709328500022243 0 0.0012144006632711076 -0.0069662673041517012 0 0.0019543657749123817 -0.0078092486232075181 0 0.00013840696828026192 -0.0077709328500022243 0 0.00019865861840651945 -0.0066090701499529328 0 -0.0012095002682767104 -0.0064417551222302029 0 0.00013840696828026192 -0.0077709328500022243 0 0.00019865861840651945 -0.0066090701499529328 0 0.0012144006632711076 -0.0069662673041517012 0 0.00019865861840651945 -0.0066090701499529328 0 0.0012144006632711076 -0.0069662673041517012 0 0.0010882865001146074 -0.0059607968852179258 0 -0.0019528532537051379 -0.0080299111254618655 0 0.00013840696828026192 -0.0077709328500022243 0 -0.0012095002682767104 -0.0064417551222302029 0 -0.0025219607307113896 -0.0067898804988566494 0 -0.0019528532537051379 -0.0080299111254618655 0 -0.0012095002682767104 -0.0064417551222302029 0 0.00019865861840651945 -0.0066090701499529328 0 -0.0012095002682767104 -0.0064417551222302029 0 -0.00025964817670215022 -0.0053562648808861742 0 -0.0028027312559046635 -0.0054471214403937034 0 -0.0025219607307113896 -0.0067898804988566494 0 -0.0012095002682767104 -0.0064417551222302029 0 -0.0015428715842740563 -0.0050104397570764668 0 -0.00098134569227110264 -0.0037616192169185338 0 -0.0029708939491440677 -0.003359908537001795 0 -0.0028027312559046635 -0.0054471214403937034 0 -0.0012095002682767104 -0.0064417551222302029 0 -0.0015428715842740563 -0.0050104397570764668 0 -0.0012095002682767104 -0.0064417551222302029 0 -0.0015428715842740563 -0.0050104397570764668 0 -0.00025964817670215022 -0.0053562648808861742 0 -0.0015428715842740563 -0.0050104397570764668 0 -0.00025964817670215022 -0.0053562648808861742 0 -0.00098134569227110264 -0.0037616192169185338 0 0.0010882865001146074 -0.0059607968852179258 0 -0.00025964817670215022 -0.0053562648808861742 0 0.00089572795970802878 -0.0044459464357131844 0 0.00019865861840651945 -0.0066090701499529328 0 0.0010882865001146074 -0.0059607968852179258 0 -0.00025964817670215022 -0.0053562648808861742 0 -0.00025964817670215022 -0.0053562648808861742 0 0.00089572795970802878 -0.0044459464357131844 0 -0.00098134569227110264 -0.0037616192169185338 0 0.0010882865001146074 -0.0059607968852179258 0 0.00089572795970802878 -0.0044459464357131844 0 0.0020782989227577965 -0.0057437703357490419 0 0.0035200252833508081 -0.0057739952848202174 0 0.0039529112519418406 -0.0065846002542105436 0 0.0026560847996846089 -0.0066632466443784276 0 0.00089572795970802878 -0.0044459464357131844 0 0.0020782989227577965 -0.0057437703357490419 0 0.0035200252833508081 -0.0057739952848202174 0 0.0020782989227577965 -0.0057437703357490419 0 0.0035200252833508081 -0.0057739952848202174 0 0.0026560847996846089 -0.0066632466443784276 0 0.0010882865001146074 -0.0059607968852179258 0 0.0020782989227577965 -0.0057437703357490419 0 0.0026560847996846089 -0.0066632466443784276 0 0.0035200252833508081 -0.0057739952848202174 0 0.0039529112519418406 -0.0065846002542105436 0 0.0045462791869354102 -0.0057510952944518027 0 0.0035200252833508081 -0.0057739952848202174 0 0.0045462791869354102 -0.0057510952944518027 0 0.0037783356806571585 -0.0059284122060963588 0 0.0039529112519418406 -0.0065846002542105436 0 0.0032244548342533698 -0.0074623219430203641 0 0.0026560847996846089 -0.0066632466443784276 0 0.0039529112519418406 -0.0065846002542105436 0 0.0043291378715559336 -0.0076173986222676238 0 0.0032244548342533698 -0.0074623219430203641 0 0.0032244548342533698 -0.0074623219430203641 0 0.0019543657749123817 -0.0078092486232075181 0 0.0026560847996846089 -0.0066632466443784276 0 0.0012144006632711076 -0.0069662673041517012 0 0.0019543657749123817 -0.0078092486232075181 0 0.0026560847996846089 -0.0066632466443784276 0 0.0012144006632711076 -0.0069662673041517012 0 0.0010882865001146074 -0.0059607968852179258 0 0.0026560847996846089 -0.0066632466443784276 0 0.0064598861560335999 -0.0070306356331072857 0 0.0057437265022417675 -0.0078152465029354915 0 0.0051680159895209441 -0.0067915355678149882 0 0.0064598861560335999 -0.0070306356331072857 0 0.0057437265022417675 -0.0078152465029354915 0 0.006702756090742684 -0.007811992919704417 0 0.0039529112519418406 -0.0065846002542105436 0 0.0043291378715559336 -0.0076173986222676238 0 0.0051680159895209441 -0.0067915355678149882 0 0.0043291378715559336 -0.0076173986222676238 0 0.0057437265022417675 -0.0078152465029354915 0 0.0051680159895209441 -0.0067915355678149882 0 0.0051680159895209441 -0.0067915355678149882 0 0.0045462791869354102 -0.0057510952944518027 0 0.0061516177400071951 -0.0059948450942043383 0 0.0057820070203991073 -0.0063613306655196794 0 0.0065094230145030562 -0.0064477731040163307 0 0.0039529112519418406 -0.0065846002542105436 0 0.0051680159895209441 -0.0067915355678149882 0 0.0045462791869354102 -0.0057510952944518027 0 0.0064598861560335999 -0.0070306356331072857 0 0.0051680159895209441 -0.0067915355678149882 0 0.0061516177400071951 -0.0059948450942043383 0 0.0065094230145030562 -0.0064477731040163307 0 0.0052722171995631976 -0.0061341427949279537 0 0.0064598861560335999 -0.0070306356331072857 0 0.0061516177400071951 -0.0059948450942043383 0 0.0077325374702646547 -0.0062966369043109139 0 0.0088505687024105339 -0.0074144238255783859 0 0.010099224383750376 -0.0073563078374795704 0 0.0094452923975773383 -0.0064153256377494942 0 0.010048393985095957 -0.0065610233761567308 0 0.010120521724267174 -0.0064940949519107548 0 0.009916776083997542 -0.0065071240106410458 0 0.010048393985095957 -0.0065610233761567308 0 0.009916776083997542 -0.0065071240106410458 0 0.010148276807615188 -0.0064842302309011963 0 0.010048393985095957 -0.0065610233761567308 0 0.010120521724267174 -0.0064940949519107548 0 0.010103532612679897 -0.0066556047345362928 0 0.0052722171995631976 -0.0061341427949279537 0 0.0055496353135127355 -0.0061939372314463552 0 0.0096943928993849637 -0.0066251889354054152 0 0.009916776083997542 -0.0065071240106410458 0 0.009655124807474106 -0.0065302566431018911 0 0.0052722171995631976 -0.0061341427949279537 0 0.0063499561559144605 -0.0063049140119304653 0 0.009655124807474106 -0.0065302566431018911 0 0.0095104399916595816 -0.0064182298130032065 0 0.010158951646317586 -0.0066900293570288077 0 0.0096943928993849637 -0.0066251889354054152 0 0.009655124807474106 -0.0065302566431018911 0 0.0097846064260089082 -0.00620364654980614 0 0.0052722171995631976 -0.0061341427949279537 0 -0.00077892768262302723 -0.0056178470412038654 0 0.009655124807474106 -0.0065302566431018911 0 0.0095104399916595816 -0.0064182298130032065 0 0.0097846064260089082 -0.00620364654980614 0 0.0095104399916595816 -0.0064182298130032065 0 0.0083914629894826249 -0.005676352907132357 0 0.0074462681786699398 -0.0062171021024065663 0 0.0064598861560335999 -0.0070306356331072857 0 0.0077325374702646547 -0.0062966369043109139 0 0.007113144584824792 -0.0072798073393218208 0 0.0077325374702646547 -0.0062966369043109139 0 0.007113144584824792 -0.0072798073393218208 0 0.0075552039239376702 -0.0079796541756948069 0 0.007113144584824792 -0.0072798073393218208 0 0.006702756090742684 -0.007811992919704417 0 0.0075552039239376702 -0.0079796541756948069 0 0.0064598861560335999 -0.0070306356331072857 0 0.007113144584824792 -0.0072798073393218208 0 0.006702756090742684 -0.007811992919704417 0 -0.00077892768262302723 -0.0056178470412038654 0 -0.011418180446627204 -0.0040147717368305318 0 0.006702756090742684 -0.007811992919704417 0 0.0075552039239376702 -0.0079796541756948069 0 0.0065715406496460738 -0.0087359291287609324 0 0.0075552039239376702 -0.0079796541756948069 0 0.0065715406496460738 -0.0087359291287609324 0 0.0073429980924686429 -0.0096378272782528408 0 0.0097846064260089082 -0.00620364654980614 0 0.0090931001033924732 -0.0043575976334925895 0 0.010212887355573803 -0.0028897124713250398 0 0.0083914629894826249 -0.005676352907132357 0 0.0084265821190211282 -0.00500744571818427 0 0.0074850140375333921 -0.0050958066312723734 0 0.0095104399916595816 -0.0064182298130032065 0 0.0083914629894826249 -0.005676352907132357 0 0.0090666810492994084 -0.0056565234157037372 0 0.0083914629894826249 -0.005676352907132357 0 0.0090666810492994084 -0.0056565234157037372 0 0.0084265821190211282 -0.00500744571818427 0 0.0097846064260089082 -0.00620364654980614 0 0.0090666810492994084 -0.0056565234157037372 0 0.0090931001033924732 -0.0043575976334925895 0 0.0095104399916595816 -0.0064182298130032065 0 0.0097846064260089082 -0.00620364654980614 0 0.0090666810492994084 -0.0056565234157037372 0 0.0084265821190211282 -0.00500744571818427 0 0.0075552930431027178 -0.0039492982655884613 0 0.0074850140375333921 -0.0050958066312723734 0 0.0090931001033924732 -0.0043575976334925895 0 0.0084265821190211282 -0.00500744571818427 0 0.0075552930431027178 -0.0039492982655884613 0 0.0090666810492994084 -0.0056565234157037372 0 0.0090931001033924732 -0.0043575976334925895 0 0.0084265821190211282 -0.00500744571818427 0 -0.011933651238030136 -0.0028286109216122861 0 -0.009776246475280196 -0.0016540232302621829 0 0.0090931001033924732 -0.0043575976334925895 0 0.0085793270111122165 -0.0029187781838060402 0 0.0075552930431027178 -0.0039492982655884613 0 0.0090931001033924732 -0.0043575976334925895 0 0.0085793270111122165 -0.0029187781838060402 0 0.010212887355573803 -0.0028897124713250398 0 -0.011933651238030136 -0.0028286109216122861 0 -0.019858273755584764 -0.0041047903770312704 0 -0.011933651238030136 -0.0028286109216122861 0 -0.011418180446627204 -0.0040147717368305318 0 -0.015254323792935816 -0.0011850554667294784 0 -0.016494682740687834 -0.0012088650280875127 0 -0.016616349009847309 -0.0025498502234508327 0 -0.011418180446627204 -0.0040147717368305318 0 -0.010909281331569268 -0.0064131354843845042 0 -0.028274669392945567 -0.0077335566890543135 0 -0.027006473873171753 -0.0078032246232000828 0 -0.028020403144852601 -0.0071467366527486536 0 0.0065715406496460738 -0.0087359291287609324 0 0.0073429980924686429 -0.0096378272782528408 0 0.0056358583184482319 -0.0097419894648748707 0 -0.011418180446627204 -0.0040147717368305318 0 -0.019858273755584764 -0.0041047903770312704 0 0.0057437265022417675 -0.0078152465029354915 0 0.0065715406496460738 -0.0087359291287609324 0 0.0056358583184482319 -0.0097419894648748707 0 0.0057437265022417675 -0.0078152465029354915 0 0.006702756090742684 -0.007811992919704417 0 0.0065715406496460738 -0.0087359291287609324 0 0.0043291378715559336 -0.0076173986222676238 0 0.0057437265022417675 -0.0078152465029354915 0 0.0046512401946808011 -0.0087343756710408504 0 0.0057437265022417675 -0.0078152465029354915 0 0.0056358583184482319 -0.0097419894648748707 0 0.0046512401946808011 -0.0087343756710408504 0 -0.011004511210120381 -0.0074892666264154122 0 -0.010909281331569268 -0.0064131354843845042 0 -0.025489574837628245 -0.0079586463701540183 0 -0.027006473873171753 -0.0078032246232000828 0 -0.02600755002337354 -0.0070493322805488231 0 0.0038189762136030853 -0.010039507261813949 0 0.0056358583184482319 -0.0097419894648748707 0 0.0046512401946808011 -0.0087343756710408504 0 -0.027006473873171753 -0.0078032246232000828 0 -0.02600755002337354 -0.0070493322805488231 0 -0.026905211837286315 -0.0067466322622597224 0 -0.02600755002337354 -0.0070493322805488231 0 -0.026905211837286315 -0.0067466322622597224 0 -0.026254397381333793 -0.0062508195722424664 0 -0.027006473873171753 -0.0078032246232000828 0 -0.027395676215857326 -0.0070169935330723033 0 -0.028020403144852601 -0.0071467366527486536 0 -0.027006473873171753 -0.0078032246232000828 0 -0.027395676215857326 -0.0070169935330723033 0 -0.026905211837286315 -0.0067466322622597224 0 -0.027395676215857326 -0.0070169935330723033 0 -0.026905211837286315 -0.0067466322622597224 0 -0.02764359687774471 -0.0063781258647668563 0 -0.02764359687774471 -0.0063781258647668563 0 -0.026841817255903181 -0.0060342954210536844 0 -0.027037375929537623 -0.0056727038444422317 0 -0.026905211837286315 -0.0067466322622597224 0 -0.02764359687774471 -0.0063781258647668563 0 -0.026841817255903181 -0.0060342954210536844 0 -0.026557020445834655 -0.0045830390379580583 0 -0.026584737855883844 -0.0044781225695787004 0 -0.031084697382675754 -0.0016107506376783433 0 -0.030929650851600984 -0.001441061410537896 0 -0.031103008471875956 -0.0014022109245364876 0 -0.024737368318575044 -0.0050223512846340494 0 -0.026584737855883844 -0.0044781225695787004 0 -0.026905211837286315 -0.0067466322622597224 0 -0.026254397381333793 -0.0062508195722424664 0 -0.026841817255903181 -0.0060342954210536844 0 -0.026841817255903181 -0.0060342954210536844 0 -0.026551191705891753 -0.0054788258377705913 0 -0.027150480397832438 -0.0055464653674473239 0 -0.026254397381333793 -0.0062508195722424664 0 -0.026841817255903181 -0.0060342954210536844 0 -0.026551191705891753 -0.0054788258377705913 0 -0.025906873539356671 -0.0056325317733938668 0 -0.026254397381333793 -0.0062508195722424664 0 -0.026551191705891753 -0.0054788258377705913 0 -0.025906873539356671 -0.0056325317733938668 0 -0.026593401632002085 -0.0047498832072107476 0 -0.026551191705891753 -0.0054788258377705913 0 -0.026593401632002085 -0.0047498832072107476 0 -0.027563636378939011 -0.0056870341798581445 0 -0.027464524638885324 -0.0045445184168521552 0 -0.026593401632002085 -0.0047498832072107476 0 -0.026551191705891753 -0.0054788258377705913 0 -0.027150480397832438 -0.0055464653674473239 0 -0.026685150553954283 -0.0046074629139382876 0 -0.026584737855883844 -0.0044781225695787004 0 -0.030929650851600984 -0.001441061410537896 0 -0.031103008471875956 -0.0014022109245364876 0 -0.031160757212136656 -0.0011533942209193584 0 -0.026584737855883844 -0.0044781225695787004 0 -0.028659872938674363 -0.0027615226850241687 0 -0.027563636378939011 -0.0056870341798581445 0 -0.027464524638885324 -0.0045445184168521552 0 -0.028420353474045888 -0.0040286246055488383 0 -0.027464524638885324 -0.0045445184168521552 0 -0.028420353474045888 -0.0040286246055488383 0 -0.027259452705053828 -0.0037614633167577329 0 -0.028167066882623586 -0.0029619660392140156 0 -0.028420353474045888 -0.0040286246055488383 0 -0.027259452705053828 -0.0037614633167577329 0 -0.026349112594579085 -0.0031356426645038371 0 -0.025916028002946644 -0.0040296149773981433 0 -0.027259452705053828 -0.0037614633167577329 0 -0.025916028002946644 -0.0040296149773981433 0 -0.026593401632002085 -0.0047498832072107476 0 -0.027259452705053828 -0.0037614633167577329 0 -0.026593401632002085 -0.0047498832072107476 0 -0.027464524638885324 -0.0045445184168521552 0 -0.027259452705053828 -0.0037614633167577329 0 -0.031237738736931905 -0.00081924639700403353 0 -0.031154571038497295 -0.0010035073562709191 0 -0.03084841540664179 -0.00069711330518365067 0 -0.031237738736931905 -0.00081924639700403353 0 -0.031154571038497295 -0.0010035073562709191 0 -0.031242727756800402 -0.00098672452488763772 0 -0.031249037369449655 -0.0010492212012347334 0 -0.031154571038497295 -0.0010035073562709191 0 -0.031242727756800402 -0.00098672452488763772 0 -0.026763019677099559 -0.0015625808481489708 0 -0.025284541722217821 -0.0019387048339758971 0 -0.031249037369449655 -0.0010492212012347334 0 -0.031242727756800402 -0.00098672452488763772 0 -0.031290590933580407 -0.0010717823899736656 0 -0.029731274784479948 -0.0020509082262430414 0 -0.028659872938674363 -0.0027615226850241687 0 -0.031237738736931905 -0.00081924639700403353 0 -0.031242727756800402 -0.00098672452488763772 0 -0.031290590933580407 -0.0010717823899736656 0 -0.031325712678802256 -0.0010433981913028918 0 -0.031160757212136656 -0.0011533942209193584 0 -0.031290590933580407 -0.0010717823899736656 0 -0.031237738736931905 -0.00081924639700403353 0 -0.031290590933580407 -0.0010717823899736656 0 -0.031386528744314045 -0.00054603277347368094 0 -0.031160757212136656 -0.0011533942209193584 0 -0.031290590933580407 -0.0010717823899736656 0 -0.031238209031144746 -0.0014028431491891484 0 -0.031103008471875956 -0.0014022109245364876 0 -0.031160757212136656 -0.0011533942209193584 0 -0.031238209031144746 -0.0014028431491891484 0 -0.031237738736931905 -0.00081924639700403353 0 -0.031100105678498847 -0.00049691979031162752 0 -0.03084841540664179 -0.00069711330518365067 0 -0.031237738736931905 -0.00081924639700403353 0 -0.031386528744314045 -0.00054603277347368094 0 -0.031100105678498847 -0.00049691979031162752 0 -0.031100105678498847 -0.00049691979031162752 0 -0.031163708297393063 -0.00022912393924818535 0 -0.030907102317035768 -0.00012672299737456351 0 -0.031386528744314045 -0.00054603277347368094 0 -0.031100105678498847 -0.00049691979031162752 0 -0.031163708297393063 -0.00022912393924818535 0 -0.031386528744314045 -0.00054603277347368094 0 -0.031163708297393063 -0.00022912393924818535 0 -0.03130093604984209 -3.9326123803298379e-05 0 -0.025284541722217821 -0.0019387048339758971 0 -0.019858273755584764 -0.0041047903770312704 0 -0.031084697382675754 -0.0016107506376783433 0 -0.031238209031144746 -0.0014028431491891484 0 -0.031204153720468506 -0.0017902837712776435 0 -0.031084697382675754 -0.0016107506376783433 0 -0.031103008471875956 -0.0014022109245364876 0 -0.031238209031144746 -0.0014028431491891484 0 -0.02764359687774471 -0.0063781258647668563 0 -0.028251932435603071 -0.0070787634712768735 0 -0.028020403144852601 -0.0071467366527486536 0 -0.024737368318575044 -0.0050223512846340494 0 -0.019858273755584764 -0.0041047903770312704 0 -0.027395676215857326 -0.0070169935330723033 0 -0.02764359687774471 -0.0063781258647668563 0 -0.028020403144852601 -0.0071467366527486536 0 -0.028274669392945567 -0.0077335566890543135 0 -0.028237150152018498 -0.007083151803010947 0 -0.028020403144852601 -0.0071467366527486536 0 -0.019858273755584764 -0.0041047903770312704 0 -0.020112533861351155 -0.0040815231260747532 0 -0.024468932892613968 -0.0026750236726111936 0 -0.023256719755480895 -0.0014877351391332371 0 -0.025533641568874228 -0.00086866725599666261 0 -0.031163708297393063 -0.00022912393924818535 0 -0.03130093604984209 -3.9326123803298379e-05 0 -0.030907102317035768 -0.00012672299737456351 0 -0.019858273755584764 -0.0041047903770312704 0 -0.026688646257499931 -0.0015833679747748952 0 -0.030907102317035768 -0.00012672299737456351 0 -0.030465420214019136 -0.00016227680976686062 0 -0.03084841540664179 -0.00069711330518365067 0 -0.031100105678498847 -0.00049691979031162752 0 -0.030907102317035768 -0.00012672299737456351 0 -0.03084841540664179 -0.00069711330518365067 0 -0.025533641568874228 -0.00086866725599666261 0 -0.02772662649846144 -0.00035766202575129771 0 -0.026958418375530389 -0.0026218841108363437 0 -0.02772662649846144 -0.00035766202575129771 0 -0.028555366280465594 -0.0014537085015555644 0 -0.026958418375530389 -0.0026218841108363437 0 -0.026688646257499931 -0.0015833679747748952 0 -0.028589512696947917 -0.00079852633163097358 0 -0.030465420214019136 -0.00016227680976686062 0 -0.03084841540664179 -0.00069711330518365067 0 -0.030276146331187193 -0.00049261508661499226 0 -0.03084841540664179 -0.00069711330518365067 0 -0.030508567472658579 -0.00072918434369030898 0 -0.030276146331187193 -0.00049261508661499226 0 -0.030599722836841693 -0.00099627814468974257 0 -0.03084841540664179 -0.00069711330518365067 0 -0.030508567472658579 -0.00072918434369030898 0 -0.030854999450033206 -0.0010979853683421136 0 -0.030919212347188016 -0.00089473204043424566 0 -0.031043647269945171 -0.0010895112569688169 0 -0.03091621728616447 -0.0011440927115037173 0 -0.03084841540664179 -0.00069711330518365067 0 -0.031043647269945171 -0.0010895112569688169 0 -0.031154571038497295 -0.0010035073562709191 0 -0.03084841540664179 -0.00069711330518365067 0 -0.030189801671272255 -0.00087513869967911567 0 -0.030226898153282136 -0.00069613364054195057 0 -0.029897834444021963 -0.00059931746332907295 0 -0.030226898153282136 -0.00069613364054195057 0 -0.029956824466446774 -0.00048593549333101699 0 -0.029897834444021963 -0.00059931746332907295 0 -0.029917042585293575 -0.00088258827943172116 0 -0.030189801671272255 -0.00087513869967911567 0 -0.029897834444021963 -0.00059931746332907295 0 -0.030599722836841693 -0.00099627814468974257 0 -0.030508567472658579 -0.00072918434369030898 0 -0.030226898153282136 -0.00069613364054195057 0 -0.030189801671272255 -0.00087513869967911567 0 -0.030599722836841693 -0.00099627814468974257 0 -0.030226898153282136 -0.00069613364054195057 0 -0.030226898153282136 -0.00069613364054195057 0 -0.030276146331187193 -0.00049261508661499226 0 -0.029956824466446774 -0.00048593549333101699 0 -0.030508567472658579 -0.00072918434369030898 0 -0.030226898153282136 -0.00069613364054195057 0 -0.030276146331187193 -0.00049261508661499226 0 -0.029956824466446774 -0.00048593549333101699 0 -0.02988693121361671 -0.00040148968273984322 0 -0.029897834444021963 -0.00059931746332907295 0 -0.030276146331187193 -0.00049261508661499226 0 -0.029956824466446774 -0.00048593549333101699 0 -0.029753807736527346 -0.00028806882524199957 0 -0.029956824466446774 -0.00048593549333101699 0 -0.029753807736527346 -0.00028806882524199957 0 -0.02988693121361671 -0.00040148968273984322 0 -0.029753807736527346 -0.00028806882524199957 0 -0.029563082616679622 -0.0010394356099276672 0 -0.030070861048419238 -0.00048883580024564565 0 -0.029753807736527346 -0.00028806882524199957 0 -0.029120994433285193 -0.00092775387925619608 0 -0.029563082616679622 -0.0010394356099276672 0 -0.028589512696947917 -0.00079852633163097358 0 -0.029104195926375354 -0.00059973772720036008 0 -0.030465420214019136 -0.00016227680976686062 0 -0.030276146331187193 -0.00049261508661499226 0 -0.029753807736527346 -0.00028806882524199957 0 -0.02772662649846144 -0.00035766202575129771 0 -0.029753807736527346 -0.00028806882524199957 0 -0.029120994433285193 -0.00092775387925619608 0 -0.02772662649846144 -0.00035766202575129771 0 -0.029120994433285193 -0.00092775387925619608 0 -0.028555366280465594 -0.0014537085015555644 0 -0.029120994433285193 -0.00092775387925619608 0 -0.028555366280465594 -0.0014537085015555644 0 -0.029194983776313906 -0.0015615960580848086 0 -0.028555366280465594 -0.0014537085015555644 0 -0.029194983776313906 -0.0015615960580848086 0 -0.029165493200703895 -0.0024210350463077898 0 -0.029563082616679622 -0.0010394356099276672 0 -0.029488981160680383 -0.0021501367605201807 0 -0.030070861048419238 -0.00048883580024564565 0 -0.021528711382312261 -0.00065359626182842916 0 -0.025454663466584222 0.00047585621604102337 0 -0.029563082616679622 -0.0010394356099276672 0 -0.029194983776313906 -0.0015615960580848086 0 -0.029488981160680383 -0.0021501367605201807 0 -0.021528711382312261 -0.00065359626182842916 0 -0.026959554876149285 0.00071346773247686005 0 -0.029120994433285193 -0.00092775387925619608 0 -0.029563082616679622 -0.0010394356099276672 0 -0.029194983776313906 -0.0015615960580848086 0 -0.017816695478252681 -0.0018900109761928745 0 -0.014572396600924565 -0.0018303980871253319 0 0.0017565940522707463 -0.0032873283130600739 0 0.0013760164693261026 -0.0043179628728251228 0 -0.00085689400581292661 -0.0034790352438087164 0 -0.025558350641977864 -0.00036967560134442567 0 -0.025429763547651762 -0.00046302741870272269 0 -0.026191572186157211 -0.00039982740434399769 0 -0.029194983776313906 -0.0015615960580848086 0 -0.029488981160680383 -0.0021501367605201807 0 -0.029165493200703895 -0.0024210350463077898 0 -0.021528711382312261 -0.00065359626182842916 0 -0.017816695478252681 -0.0018900109761928745 0 0.0017565940522707463 -0.0032873283130600739 0 0.0013760164693261026 -0.0043179628728251228 0 0.0022170416011504015 -0.0035217388076787394 0 0.0013760164693261026 -0.0043179628728251228 0 0.0023466124872090067 -0.0051552616031217196 0 0.00068590019683831532 -0.006119493248920623 0 0.0013760164693261026 -0.0043179628728251228 0 0.00068590019683831532 -0.006119493248920623 0 -0.00085689400581292661 -0.0034790352438087164 0 0.0023466124872090067 -0.0051552616031217196 0 0.0038870710339670629 -0.0052606091144283135 0 0.0029063604810486391 -0.006293096890425471 0 0.0013760164693261026 -0.0043179628728251228 0 0.0023466124872090067 -0.0051552616031217196 0 0.0022334415958866738 -0.0043450634800564622 0 0.0023466124872090067 -0.0051552616031217196 0 0.0022334415958866738 -0.0043450634800564622 0 0.0030022439209369195 -0.0044895772291057975 0 0.0023466124872090067 -0.0051552616031217196 0 0.0030022439209369195 -0.0044895772291057975 0 0.0038870710339670629 -0.0052606091144283135 0 0.0030022439209369195 -0.0044895772291057975 0 0.0040899141574537159 -0.0042022985780887315 0 0.0038870710339670629 -0.0052606091144283135 0 -0.017816695478252681 -0.0018900109761928745 0 -0.012254099276875227 -0.0024416977359727082 0 0.0016690175462884267 -0.0031988804209887537 0 0.0022170416011504015 -0.0035217388076787394 0 0.0050362725132903101 -0.0029879474162011893 0 0.0030022439209369195 -0.0044895772291057975 0 0.0022170416011504015 -0.0035217388076787394 0 0.0040899141574537159 -0.0042022985780887315 0 -0.028555366280465594 -0.0014537085015555644 0 -0.029165493200703895 -0.0024210350463077898 0 -0.026958418375530389 -0.0026218841108363437 0 0.0013760164693261026 -0.0043179628728251228 0 0.0022334415958866738 -0.0043450634800564622 0 0.0022170416011504015 -0.0035217388076787394 0 0.0022334415958866738 -0.0043450634800564622 0 0.0030022439209369195 -0.0044895772291057975 0 0.0022170416011504015 -0.0035217388076787394 0 -0.017816695478252681 -0.0018900109761928745 0 -0.017160649222089968 -0.0021936108938312724 0 0.0022170416011504015 -0.0035217388076787394 0 0.0050362725132903101 -0.0029879474162011893 0 0.0040899141574537159 -0.0042022985780887315 0 0.0050362725132903101 -0.0029879474162011893 0 0.0058505612229181334 -0.0049077417890738594 0 0.0040899141574537159 -0.0042022985780887315 0 -0.011933651238030136 -0.0028286109216122861 0 -0.012254099276875227 -0.0024416977359727082 0 0.0085377787404951368 -0.0029287272399602556 0 0.0050362725132903101 -0.0029879474162011893 0 0.0075552930431027178 -0.0039492982655884613 0 0.0050362725132903101 -0.0029879474162011893 0 0.0075552930431027178 -0.0039492982655884613 0 0.0058505612229181334 -0.0049077417890738594 0 -0.024468932892613968 -0.0026750236726111936 0 -0.025533641568874228 -0.00086866725599666261 0 -0.026958418375530389 -0.0026218841108363437 0 0.0058505612229181334 -0.0049077417890738594 0 0.0047316270901492557 -0.006351548680604063 0 0.0074462681786699398 -0.0062171021024065663 0 0.0075552930431027178 -0.0039492982655884613 0 0.0058505612229181334 -0.0049077417890738594 0 0.0074850140375333921 -0.0050958066312723734 0 0.0058505612229181334 -0.0049077417890738594 0 0.0074850140375333921 -0.0050958066312723734 0 0.0074462681786699398 -0.0062171021024065663 0 0.0083914629894826249 -0.005676352907132357 0 0.0074850140375333921 -0.0050958066312723734 0 0.0074462681786699398 -0.0062171021024065663 0 0.0058505612229181334 -0.0049077417890738594 0 0.0040899141574537159 -0.0042022985780887315 0 0.0038870710339670629 -0.0052606091144283135 0 0.0058505612229181334 -0.0049077417890738594 0 0.0038870710339670629 -0.0052606091144283135 0 0.0047316270901492557 -0.006351548680604063 0 0.0079019951030150446 -0.0065185646739437525 0 0.0066754580571419097 -0.0065229104644296222 0 0.0038870710339670629 -0.0052606091144283135 0 0.0047316270901492557 -0.006351548680604063 0 0.0029063604810486391 -0.006293096890425471 0 0.0047316270901492557 -0.006351548680604063 0 0.0058845970286407574 -0.007306239518763376 0 0.0028380974798462976 -0.0077291611700654158 0 0.0047316270901492557 -0.006351548680604063 0 0.0058845970286407574 -0.007306239518763376 0 0.0074462681786699398 -0.0062171021024065663 0 0.0086180535600516028 -0.0064061042841157875 0 0.0079019951030150446 -0.0065185646739437525 0 0.009916776083997542 -0.0065071240106410458 0 0.009655124807474106 -0.0065302566431018911 0 0.010158951646317586 -0.0066900293570288077 0 0.0095104399916595816 -0.0064182298130032065 0 0.0058845970286407574 -0.007306239518763376 0 0.0074462681786699398 -0.0062171021024065663 0 0.009916776083997542 -0.0065071240106410458 0 0.010285601955735645 -0.0064619061897313217 0 0.010148276807615188 -0.0064842302309011963 0 0.009916776083997542 -0.0065071240106410458 0 0.010158951646317586 -0.0066900293570288077 0 0.010285601955735645 -0.0064619061897313217 0 0.010158951646317586 -0.0066900293570288077 0 0.010285601955735645 -0.0064619061897313217 0 0.010525044002673577 -0.0065867276742284332 0 0.010285601955735645 -0.0064619061897313217 0 0.010525044002673577 -0.0065867276742284332 0 0.010508854660788193 -0.0063796105136706702 0 0.0066754580571419097 -0.0065229104644296222 0 0.0055350391010695844 -0.0061443635148755249 0 0.010525044002673577 -0.0065867276742284332 0 0.010675281465759743 -0.0063516547732824996 0 0.010718988029130823 -0.0064814423420132767 0 0.0028380974798462976 -0.0077291611700654158 0 0.00068590019683831532 -0.006119493248920623 0 0.00024920776670637204 -0.0081438771292360185 0 0.0023466124872090067 -0.0051552616031217196 0 0.00068590019683831532 -0.006119493248920623 0 0.0029063604810486391 -0.006293096890425471 0 0.0028380974798462976 -0.0077291611700654158 0 0.00068590019683831532 -0.006119493248920623 0 0.0029063604810486391 -0.006293096890425471 0 0.0047316270901492557 -0.006351548680604063 0 0.0028380974798462976 -0.0077291611700654158 0 0.0029063604810486391 -0.006293096890425471 0 0.010613976807112175 -0.006273470244346312 0 0.010562262193258894 -0.0062363947819013459 0 0.010508854660788193 -0.0063796105136706702 0 0.010613976807112175 -0.006273470244346312 0 0.010562262193258894 -0.0062363947819013459 0 0.010630900752996712 -0.0061831923824588429 0 0.010613976807112175 -0.006273470244346312 0 0.010688817551372843 -0.0062267717965739759 0 0.010675281465759743 -0.0063516547732824996 0 0.010613976807112175 -0.006273470244346312 0 0.010688817551372843 -0.0062267717965739759 0 0.010630900752996712 -0.0061831923824588429 0 0.010688817551372843 -0.0062267717965739759 0 0.010675281465759743 -0.0063516547732824996 0 0.010762874064539348 -0.006252676748160586 0 0.010525044002673577 -0.0065867276742284332 0 0.010675281465759743 -0.0063516547732824996 0 0.010508854660788193 -0.0063796105136706702 0 0.010613976807112175 -0.006273470244346312 0 0.010675281465759743 -0.0063516547732824996 0 0.010508854660788193 -0.0063796105136706702 0 0.010285601955735645 -0.0064619061897313217 0 0.010308932919163911 -0.0063770853812939957 0 0.010432777247414853 -0.0063225988332325858 0 0.010285601955735645 -0.0064619061897313217 0 0.010508854660788193 -0.0063796105136706702 0 0.010432777247414853 -0.0063225988332325858 0 0.010285601955735645 -0.0064619061897313217 0 0.010148276807615188 -0.0064842302309011963 0 0.010308932919163911 -0.0063770853812939957 0 0.010148276807615188 -0.0064842302309011963 0 0.010308932919163911 -0.0063770853812939957 0 0.010257816223689747 -0.0063465818715089314 0 0.010308932919163911 -0.0063770853812939957 0 0.010257816223689747 -0.0063465818715089314 0 0.0104082517549646 -0.00627767186530851 0 0.010308932919163911 -0.0063770853812939957 0 0.0104082517549646 -0.00627767186530851 0 0.010432777247414853 -0.0063225988332325858 0 0.0104082517549646 -0.00627767186530851 0 0.010532659517063357 -0.0062091409401528689 0 0.010513799528803812 -0.0061861196263861967 0 0.010257816223689747 -0.0063465818715089314 0 0.0104082517549646 -0.00627767186530851 0 0.010365179453969814 -0.006209880639835256 0 0.010562262193258894 -0.0062363947819013459 0 0.010508854660788193 -0.0063796105136706702 0 0.010432777247414853 -0.0063225988332325858 0 0.0104082517549646 -0.00627767186530851 0 0.010432777247414853 -0.0063225988332325858 0 0.010532659517063357 -0.0062091409401528689 0 0.010562262193258894 -0.0062363947819013459 0 0.010432777247414853 -0.0063225988332325858 0 0.010532659517063357 -0.0062091409401528689 0 0.010562262193258894 -0.0062363947819013459 0 0.010532659517063357 -0.0062091409401528689 0 0.010613066969927263 -0.006150070910839839 0 0.010532659517063357 -0.0062091409401528689 0 0.010613066969927263 -0.006150070910839839 0 0.010640301326429021 -0.0061282136750775516 0 0.010532659517063357 -0.0062091409401528689 0 0.010640301326429021 -0.0061282136750775516 0 0.010513799528803812 -0.0061861196263861967 0 0.010613066969927263 -0.006150070910839839 0 0.010640301326429021 -0.0061282136750775516 0 0.010691063283100972 -0.0061286358501840069 0 0.010365179453969814 -0.006209880639835256 0 0.010599943925767567 -0.0061559051560167097 0 0.010328282667486347 -0.0061229333785281555 0 0.010365179453969814 -0.006209880639835256 0 0.010513799528803812 -0.0061861196263861967 0 0.010599943925767567 -0.0061559051560167097 0 0.0104082517549646 -0.00627767186530851 0 0.010365179453969814 -0.006209880639835256 0 0.010513799528803812 -0.0061861196263861967 0 0.010640301326429021 -0.0061282136750775516 0 0.010513799528803812 -0.0061861196263861967 0 0.010599943925767567 -0.0061559051560167097 0 0.011356739199084346 -0.0042840932892251448 0 0.010880601737924243 -0.0048607237572216282 0 0.010599943925767567 -0.0061559051560167097 0 0.01098684532193364 -0.0060576190979596328 0 0.010328282667486347 -0.0061229333785281555 0 0.01098684532193364 -0.0060576190979596328 0 0.010953896610280994 -0.0052071931584187457 0 0.010328282667486347 -0.0061229333785281555 0 0.010640301326429021 -0.0061282136750775516 0 0.010599943925767567 -0.0061559051560167097 0 0.01098684532193364 -0.0060576190979596328 0 0.011982596974243523 -0.0064288279921827949 0 0.013870545013031926 -0.0061589111124399215 0 0.012747868104095873 -0.0049943906483035502 0 0.010640301326429021 -0.0061282136750775516 0 0.01098684532193364 -0.0060576190979596328 0 0.010691063283100972 -0.0061286358501840069 0 0.012091533736663478 -0.0043344195311871949 0 0.012175756821004056 -0.0042902132410484297 0 0.01098684532193364 -0.0060576190979596328 0 0.011982596974243523 -0.0064288279921827949 0 0.011838976190841068 -0.0055071226159552544 0 0.010613066969927263 -0.006150070910839839 0 0.010691063283100972 -0.0061286358501840069 0 0.010634029230642831 -0.0061259851515823105 0 0.012175756821004056 -0.0042902132410484297 0 0.013195573606619739 -0.0040766902990184177 0 0.012175756821004056 -0.0042902132410484297 0 0.012009657084360855 -0.0041507964409017439 0 0.012342070950215465 -0.0033912484115889911 0 0.012798611319953072 -0.0033099597975636309 0 0.012872691626063568 -0.0035127307045922148 0 0.010613066969927263 -0.006150070910839839 0 0.010634029230642831 -0.0061259851515823105 0 0.010630900752996712 -0.0061831923824588429 0 0.010562262193258894 -0.0062363947819013459 0 0.010613066969927263 -0.006150070910839839 0 0.010630900752996712 -0.0061831923824588429 0 0.010634029230642831 -0.0061259851515823105 0 0.010700309063538856 -0.0061455887132243446 0 0.010772165283352175 -0.0061138867529324341 0 0.012009657084360855 -0.0041507964409017439 0 0.012170409455256067 -0.0036574850421634457 0 0.010688817551372843 -0.0062267717965739759 0 0.010700309063538856 -0.0061455887132243446 0 0.010753561228017265 -0.0061873408941136437 0 0.010688817551372843 -0.0062267717965739759 0 0.010630900752996712 -0.0061831923824588429 0 0.010700309063538856 -0.0061455887132243446 0 0.010634029230642831 -0.0061259851515823105 0 0.010630900752996712 -0.0061831923824588429 0 0.010700309063538856 -0.0061455887132243446 0 0.012872691626063568 -0.0035127307045922148 0 0.013254844301227982 -0.003230805567909147 0 0.013401119073719926 -0.0036348828110507247 0 0.012798611319953072 -0.0033099597975636309 0 0.012872691626063568 -0.0035127307045922148 0 0.013254844301227982 -0.003230805567909147 0 0.013195573606619739 -0.0040766902990184177 0 0.014155173614791534 -0.0035932421587453363 0 0.013870545013031926 -0.0061589111124399215 0 0.014181794899887816 -0.0046473397911263991 0 0.015387306282823003 -0.0059033608834618964 0 0.014181794899887816 -0.0046473397911263991 0 0.015387306282823003 -0.0059033608834618964 0 0.015698651750152417 -0.0047793070001401223 0 0.013870545013031926 -0.0061589111124399215 0 0.014181794899887816 -0.0046473397911263991 0 0.012747868104095873 -0.0049943906483035502 0 0.014181794899887816 -0.0046473397911263991 0 0.012439380404278427 -0.0035563097716029318 0 0.012747868104095873 -0.0049943906483035502 0 0.014181794899887816 -0.0046473397911263991 0 0.013903851506804829 -0.0031941762349018193 0 0.012439380404278427 -0.0035563097716029318 0 0.014181794899887816 -0.0046473397911263991 0 0.015084075902587578 -0.003779596367249026 0 0.013903851506804829 -0.0031941762349018193 0 0.014181794899887816 -0.0046473397911263991 0 0.015084075902587578 -0.003779596367249026 0 0.015698651750152417 -0.0047793070001401223 0 0.015084075902587578 -0.003779596367249026 0 0.013903851506804829 -0.0031941762349018193 0 0.014984083960066128 -0.0026184703449056049 0 0.013903851506804829 -0.0031941762349018193 0 0.012776657926104249 -0.0028150689036968413 0 0.014085184170086501 -0.0021584048724235614 0 0.013903851506804829 -0.0031941762349018193 0 0.014984083960066128 -0.0026184703449056049 0 0.014085184170086501 -0.0021584048724235614 0 0.014984083960066128 -0.0026184703449056049 0 0.015020311381869244 -0.0018110115492051076 0 0.014085184170086501 -0.0021584048724235614 0 0.012052447180244952 -0.0025543973634237055 0 0.012776657926104249 -0.0028150689036968413 0 0.013016986897745072 -0.0018368896529240902 0 0.012776657926104249 -0.0028150689036968413 0 0.013016986897745072 -0.0018368896529240902 0 0.014085184170086501 -0.0021584048724235614 0 0.013903851506804829 -0.0031941762349018193 0 0.012776657926104249 -0.0028150689036968413 0 0.012439380404278427 -0.0035563097716029318 0 0.012052447180244952 -0.0025543973634237055 0 0.012776657926104249 -0.0028150689036968413 0 0.011766018700807382 -0.0033381071224178904 0 0.012776657926104249 -0.0028150689036968413 0 0.012439380404278427 -0.0035563097716029318 0 0.011766018700807382 -0.0033381071224178904 0 0.01165885856851951 -0.0039234762191845416 0 0.011356739199084346 -0.0042840932892251448 0 0.012439380404278427 -0.0035563097716029318 0 0.01174209356413477 -0.003468768488704073 0 0.011766018700807382 -0.0033381071224178904 0 0.012439380404278427 -0.0035563097716029318 0 0.012747868104095873 -0.0049943906483035502 0 0.010953896610280994 -0.0052071931584187457 0 0.012747868104095873 -0.0049943906483035502 0 0.011838976190841068 -0.0055071226159552544 0 0.010953896610280994 -0.0052071931584187457 0 0.011982596974243523 -0.0064288279921827949 0 0.012747868104095873 -0.0049943906483035502 0 0.011838976190841068 -0.0055071226159552544 0 0.01098684532193364 -0.0060576190979596328 0 0.011838976190841068 -0.0055071226159552544 0 0.010953896610280994 -0.0052071931584187457 0 0.011349136871703674 -0.0033454091903862282 0 0.011382418194160034 -0.003353011566423366 0 0.010693864162765767 -0.0032465620082071634 0 0.01174209356413477 -0.003468768488704073 0 0.011349136871703674 -0.0033454091903862282 0 0.011766018700807382 -0.0033381071224178904 0 0.01062853229399045 -0.00076191879914875693 0 0.0091923165560110608 -0.0025490252977576869 0 0.010693864162765767 -0.0032465620082071634 0 0.01113849512130847 -0.0021775388750952711 0 0.011047578712098069 -0.0027473094499629643 0 0.01113849512130847 -0.0021775388750952711 0 0.011362203942032271 -0.0014432389537413098 0 0.011382418194160034 -0.003353011566423366 0 0.011766018700807382 -0.0033381071224178904 0 0.011354313301550794 -0.0028924748900386863 0 0.011349136871703674 -0.0033454091903862282 0 0.011382418194160034 -0.003353011566423366 0 0.011766018700807382 -0.0033381071224178904 0 0.012052447180244952 -0.0025543973634237055 0 0.011766018700807382 -0.0033381071224178904 0 0.011354313301550794 -0.0028924748900386863 0 0.010527514981650341 0.00045143237047528981 0 0.010509264563155801 0.00041219704628197906 0 0.0095879170522778986 0.00031362597679545354 0 0.01062853229399045 -0.00076191879914875693 0 0.010527514981650341 0.00045143237047528981 0 0.0095879170522778986 0.00031362597679545354 0 0.010527514981650341 0.00045143237047528981 0 0.010509264563155801 0.00041219704628197906 0 0.01080456234252904 -3.1036638581631691e-05 0 0.011362203942032271 -0.0014432389537413098 0 0.01184265877361085 -0.0012880984795612164 0 0.010527514981650341 0.00045143237047528981 0 0.01080456234252904 -3.1036638581631691e-05 0 0.010729829893783885 -7.6262568580622874e-05 0 0.011354313301550794 -0.0028924748900386863 0 0.011669383455262444 -0.0023171750049864872 0 0.011291946908433381 -0.0018296569818734394 0 0.012052447180244952 -0.0025543973634237055 0 0.011354313301550794 -0.0028924748900386863 0 0.011669383455262444 -0.0023171750049864872 0 0.012052447180244952 -0.0025543973634237055 0 0.011669383455262444 -0.0023171750049864872 0 0.011994865160041609 -0.0019448078345097328 0 0.0091107175334712368 0.00069315416472897067 0 0.007866260250241449 0.0006941762982228684 0 0.010111879538259467 0.00076095569974247046 0 0.0082746662418755196 0.00075706631210185362 0 0.0082789261800101516 0.0012397841531585686 0 0.010111879538259467 0.00076095569974247046 0 0.011882890943210904 0.00046968261048991531 0 0.011308652587466123 -0.00015293871215503785 0 0.010111879538259467 0.00076095569974247046 0 0.010509264563155801 0.00041219704628197906 0 0.010756377634647391 3.8959374428541921e-05 0 0.010111879538259467 0.00076095569974247046 0 0.010509264563155801 0.00041219704628197906 0 0.0095879170522778986 0.00031362597679545354 0 0.0095879170522778986 0.00031362597679545354 0 0.0082746662418755196 0.00075706631210185362 0 0.0077039567673986139 -0.00045451546220313358 0 0.010111879538259467 0.00076095569974247046 0 0.0095879170522778986 0.00031362597679545354 0 0.0082746662418755196 0.00075706631210185362 0 0.0095879170522778986 0.00031362597679545354 0 0.0077039567673986139 -0.00045451546220313358 0 0.0086744488377371899 -0.0012426546804742437 0 0.01062853229399045 -0.00076191879914875693 0 0.0095879170522778986 0.00031362597679545354 0 0.0086744488377371899 -0.0012426546804742437 0 0.01062853229399045 -0.00076191879914875693 0 0.0086744488377371899 -0.0012426546804742437 0 0.0091923165560110608 -0.0025490252977576869 0 0.0077039567673986139 -0.00045451546220313358 0 0.0086744488377371899 -0.0012426546804742437 0 0.0067525475025998231 -0.0016132521601339566 0 0.0086744488377371899 -0.0012426546804742437 0 0.0076264635325648724 -0.0026414550022206083 0 0.0067525475025998231 -0.0016132521601339566 0 0.0076264635325648724 -0.0026414550022206083 0 0.0067256841640521261 -0.0038155669523854702 0 0.0060235503075988066 -0.002763826795880706 0 0.0076264635325648724 -0.0026414550022206083 0 0.0060235503075988066 -0.002763826795880706 0 0.0067525475025998231 -0.0016132521601339566 0 0.0076264635325648724 -0.0026414550022206083 0 0.0067256841640521261 -0.0038155669523854702 0 0.0083552850969993916 -0.0038136943739411296 0 0.0067256841640521261 -0.0038155669523854702 0 0.0083552850969993916 -0.0038136943739411296 0 0.0077229017915645464 -0.0050789840557606859 0 0.0083552850969993916 -0.0038136943739411296 0 0.0091923165560110608 -0.0025490252977576869 0 0.0097008436788079515 -0.0040282021830800388 0 0.0083552850969993916 -0.0038136943739411296 0 0.0097008436788079515 -0.0040282021830800388 0 0.0090247427386851084 -0.0050657805770037267 0 0.0076264635325648724 -0.0026414550022206083 0 0.0083552850969993916 -0.0038136943739411296 0 0.0091923165560110608 -0.0025490252977576869 0 0.0086744488377371899 -0.0012426546804742437 0 0.0076264635325648724 -0.0026414550022206083 0 0.0091923165560110608 -0.0025490252977576869 0 0.0091923165560110608 -0.0025490252977576869 0 0.010693864162765767 -0.0032465620082071634 0 0.0097008436788079515 -0.0040282021830800388 0 0.011349136871703674 -0.0033454091903862282 0 0.010693864162765767 -0.0032465620082071634 0 0.011382402183575682 -0.0034733421226250355 0 0.01174209356413477 -0.003468768488704073 0 0.011349136871703674 -0.0033454091903862282 0 0.011382402183575682 -0.0034733421226250355 0 0.010693864162765767 -0.0032465620082071634 0 0.011382402183575682 -0.0034733421226250355 0 0.010662527640380925 -0.0046863318496516617 0 0.010365179453969814 -0.006209880639835256 0 0.010328282667486347 -0.0061229333785281555 0 0.01006054038013522 -0.0061667366936336895 0 0.010880601737924243 -0.0048607237572216282 0 0.010394584616534096 -0.0054909494583497455 0 0.010693864162765767 -0.0032465620082071634 0 0.0097008436788079515 -0.0040282021830800388 0 0.010662527640380925 -0.0046863318496516617 0 0.0097008436788079515 -0.0040282021830800388 0 0.010662527640380925 -0.0046863318496516617 0 0.0090247427386851084 -0.0050657805770037267 0 0.010394584616534096 -0.0054909494583497455 0 0.010091706172244839 -0.0059019318721362088 0 0.01006054038013522 -0.0061667366936336895 0 0.010050011703730363 -0.006377170479329751 0 0.0094452923975773383 -0.0064153256377494942 0 0.010662527640380925 -0.0046863318496516617 0 0.0094452923975773383 -0.0064153256377494942 0 0.0090247427386851084 -0.0050657805770037267 0 0.010257816223689747 -0.0063465818715089314 0 0.010365179453969814 -0.006209880639835256 0 0.01006054038013522 -0.0061667366936336895 0 0.010257816223689747 -0.0063465818715089314 0 0.01006054038013522 -0.0061667366936336895 0 0.010050011703730363 -0.006377170479329751 0 0.010257816223689747 -0.0063465818715089314 0 0.010150145752244629 -0.006484186529841251 0 0.010050011703730363 -0.006377170479329751 0 0.010148276807615188 -0.0064842302309011963 0 0.010257816223689747 -0.0063465818715089314 0 0.010150145752244629 -0.006484186529841251 0 0.010150145752244629 -0.006484186529841251 0 0.010050011703730363 -0.006377170479329751 0 0.010103532612679897 -0.0066556047345362928 0 0.010048393985095957 -0.0065610233761567308 0 0.010150145752244629 -0.006484186529841251 0 0.010103532612679897 -0.0066556047345362928 0 0.010048393985095957 -0.0065610233761567308 0 0.010148276807615188 -0.0064842302309011963 0 0.010150145752244629 -0.006484186529841251 0 0.010050011703730363 -0.006377170479329751 0 0.010103532612679897 -0.0066556047345362928 0 0.0094452923975773383 -0.0064153256377494942 0 0.010099224383750376 -0.0073563078374795704 0 0.010103532612679897 -0.0066556047345362928 0 0.0094452923975773383 -0.0064153256377494942 0 0.0065835164680582911 -0.0072220488560836285 0 0.0088505687024105339 -0.0074144238255783859 0 0.008185743757741672 -0.0063149782545116285 0 0.0094452923975773383 -0.0064153256377494942 0 0.008185743757741672 -0.0063149782545116285 0 0.0090247427386851084 -0.0050657805770037267 0 0.0088505687024105339 -0.0074144238255783859 0 0.0094452923975773383 -0.0064153256377494942 0 0.008185743757741672 -0.0063149782545116285 0 0.0065835164680582911 -0.0072220488560836285 0 0.008185743757741672 -0.0063149782545116285 0 0.0068261251353032735 -0.0058416722504300266 0 0.0065835164680582911 -0.0072220488560836285 0 0.0068261251353032735 -0.0058416722504300266 0 0.0053736375254964264 -0.0057368575997089446 0 0.0068261251353032735 -0.0058416722504300266 0 0.0077229017915645464 -0.0050789840557606859 0 0.0059368957246715591 -0.0049052171724898513 0 0.008185743757741672 -0.0063149782545116285 0 0.0068261251353032735 -0.0058416722504300266 0 0.0077229017915645464 -0.0050789840557606859 0 0.0067256841640521261 -0.0038155669523854702 0 0.0077229017915645464 -0.0050789840557606859 0 0.0059368957246715591 -0.0049052171724898513 0 0.0083552850969993916 -0.0038136943739411296 0 0.0077229017915645464 -0.0050789840557606859 0 0.0090247427386851084 -0.0050657805770037267 0 0.008185743757741672 -0.0063149782545116285 0 0.0077229017915645464 -0.0050789840557606859 0 0.0090247427386851084 -0.0050657805770037267 0 0.0041374276077985649 -0.0052210459462512775 0 0.0028276744128561495 -0.0058520603713989212 0 0.003016845850508531 -0.0044184103540840861 0 0.0041374276077985649 -0.0052210459462512775 0 0.0059368957246715591 -0.0049052171724898513 0 0.0053736375254964264 -0.0057368575997089446 0 0.0041374276077985649 -0.0052210459462512775 0 0.0059368957246715591 -0.0049052171724898513 0 0.0047263978671413806 -0.0037281332915844144 0 0.0068261251353032735 -0.0058416722504300266 0 0.0059368957246715591 -0.0049052171724898513 0 0.0053736375254964264 -0.0057368575997089446 0 0.0065835164680582911 -0.0072220488560836285 0 0.0053736375254964264 -0.0057368575997089446 0 0.0037783356806571585 -0.0059284122060963588 0 0.0041374276077985649 -0.0052210459462512775 0 0.0053736375254964264 -0.0057368575997089446 0 0.0037783356806571585 -0.0059284122060963588 0 0.0057820070203991073 -0.0063613306655196794 0 0.0051835762426861737 -0.0062522900173625634 0 0.0041374276077985649 -0.0052210459462512775 0 0.0037783356806571585 -0.0059284122060963588 0 0.0028276744128561495 -0.0058520603713989212 0 0.0020913221564939364 -0.0047177678925922166 0 0.0011199040757153913 -0.0038622698614181649 0 0.0035200252833508081 -0.0057739952848202174 0 0.0037783356806571585 -0.0059284122060963588 0 0.0028276744128561495 -0.0058520603713989212 0 0.00089572795970802878 -0.0044459464357131844 0 0.00035260938804287343 -0.0018924827744471549 0 -0.00098134569227110264 -0.0037616192169185338 0 0.00089572795970802878 -0.0044459464357131844 0 0.0035200252833508081 -0.0057739952848202174 0 0.00035260938804287343 -0.0018924827744471549 0 0.00035260938804287343 -0.0018924827744471549 0 -0.002124846959925208 -0.0019327285521231251 0 -0.00098134569227110264 -0.0037616192169185338 0 -0.002124846959925208 -0.0019327285521231251 0 -0.00098134569227110264 -0.0037616192169185338 0 -0.0029708939491440677 -0.003359908537001795 0 0.0011199040757153913 -0.0038622698614181649 0 -0.000568331627146 -0.0024666967672682437 0 0.00035260938804287343 -0.0018924827744471549 0 -0.002124846959925208 -0.0019327285521231251 0 -0.002565480346134668 -0.00040498885351654033 0 0.0028276744128561495 -0.0058520603713989212 0 0.003016845850508531 -0.0044184103540840861 0 0.00031776622088382537 -0.0042892644405668279 0 0.003016845850508531 -0.0044184103540840861 0 0.00031776622088382537 -0.0042892644405668279 0 0.0025930456912265504 -0.0026508376628273109 0 0.00031776622088382537 -0.0042892644405668279 0 0.00052982296561906593 -0.0014578596364194813 0 0.0025930456912265504 -0.0026508376628273109 0 0.00052982296561906593 -0.0014578596364194813 0 0.0025930456912265504 -0.0026508376628273109 0 0.0025628516557298403 -0.00057549345204903617 0 0.0025930456912265504 -0.0026508376628273109 0 0.0045672349108835447 -0.001970356025341726 0 0.0047263978671413806 -0.0037281332915844144 0 0.003016845850508531 -0.0044184103540840861 0 0.0025930456912265504 -0.0026508376628273109 0 0.0047263978671413806 -0.0037281332915844144 0 0.0041374276077985649 -0.0052210459462512775 0 0.003016845850508531 -0.0044184103540840861 0 0.0047263978671413806 -0.0037281332915844144 0 0.0067256841640521261 -0.0038155669523854702 0 0.0059368957246715591 -0.0049052171724898513 0 0.0047263978671413806 -0.0037281332915844144 0 0.0067256841640521261 -0.0038155669523854702 0 0.0047263978671413806 -0.0037281332915844144 0 0.0060235503075988066 -0.002763826795880706 0 0.0045672349108835447 -0.001970356025341726 0 0.0047263978671413806 -0.0037281332915844144 0 0.0060235503075988066 -0.002763826795880706 0 0.0045672349108835447 -0.001970356025341726 0 0.0060235503075988066 -0.002763826795880706 0 0.0067525475025998231 -0.0016132521601339566 0 0.0077039567673986139 -0.00045451546220313358 0 0.0067525475025998231 -0.0016132521601339566 0 0.0055958241028236533 -0.00049249907520266362 0 0.0045672349108835447 -0.001970356025341726 0 0.0067525475025998231 -0.0016132521601339566 0 0.0055958241028236533 -0.00049249907520266362 0 0.0045672349108835447 -0.001970356025341726 0 0.0055958241028236533 -0.00049249907520266362 0 0.0025628516557298403 -0.00057549345204903617 0 0.0055958241028236533 -0.00049249907520266362 0 0.0040914699764015563 0.0013109779206263604 0 0.0025628516557298403 -0.00057549345204903617 0 0.0082746662418755196 0.00075706631210185362 0 0.0077039567673986139 -0.00045451546220313358 0 0.0055958241028236533 -0.00049249907520266362 0 0.0082746662418755196 0.00075706631210185362 0 0.0055958241028236533 -0.00049249907520266362 0 0.0040914699764015563 0.0013109779206263604 0 0.0082746662418755196 0.00075706631210185362 0 0.0040914699764015563 0.0013109779206263604 0 0.0059486683192330296 0.0038453238151497098 0 0.0040914699764015563 0.0013109779206263604 0 0.0059486683192330296 0.0038453238151497098 0 0.0025294757280804481 0.003562391172506956 0 0.007866260250241449 0.0006941762982228684 0 0.0048415549714844429 0.00097661214780046432 0 0.0077941944208747733 0.00093440405137449375 0 0.007866260250241449 0.0006941762982228684 0 -0.00010922940980629775 0.0027976669990560725 0 0.0025294757280804481 0.003562391172506956 0 0.00066555427757360966 0.0012552349533818971 0 0.0026388000867884221 0.00092712462646465227 0 0.0048415549714844429 0.00097661214780046432 0 0.0040914699764015563 0.0013109779206263604 0 0.0025294757280804481 0.003562391172506956 0 0.00066555427757360966 0.0012552349533818971 0 0.00066555427757360966 0.0012552349533818971 0 0.0025628516557298403 -0.00057549345204903617 0 -9.3900067380753787e-05 -0.00016051046486294877 0 0.0040914699764015563 0.0013109779206263604 0 0.00066555427757360966 0.0012552349533818971 0 0.0025628516557298403 -0.00057549345204903617 0 0.0025930456912265504 -0.0026508376628273109 0 0.0045672349108835447 -0.001970356025341726 0 0.0025628516557298403 -0.00057549345204903617 0 0.00052982296561906593 -0.0014578596364194813 0 0.0025628516557298403 -0.00057549345204903617 0 -9.3900067380753787e-05 -0.00016051046486294877 0 0.00052982296561906593 -0.0014578596364194813 0 -9.3900067380753787e-05 -0.00016051046486294877 0 -0.0027493039259291439 -0.00083039405597433913 0 -0.0014830116477110111 0.00048141415346468681 0 -0.0031630440006905998 0.00012003641317134595 0 -0.0027493039259291439 -0.00083039405597433913 0 -9.3900067380753787e-05 -0.00016051046486294877 0 -0.0014830116477110111 0.00048141415346468681 0 -0.0027493039259291439 -0.00083039405597433913 0 -0.0014830116477110111 0.00048141415346468681 0 -0.002039031430505107 0.00066750673526970179 0 -0.0031630440006905998 0.00012003641317134595 0 0.00066555427757360966 0.0012552349533818971 0 -9.3900067380753787e-05 -0.00016051046486294877 0 -0.0014830116477110111 0.00048141415346468681 0 -0.00010922940980629775 0.0027976669990560725 0 0.00066555427757360966 0.0012552349533818971 0 -0.0013530898025079846 0.0012819426167179969 0 0.00066555427757360966 0.0012552349533818971 0 -0.0014830116477110111 0.00048141415346468681 0 -0.0013530898025079846 0.0012819426167179969 0 -0.0014830116477110111 0.00048141415346468681 0 -0.0013530898025079846 0.0012819426167179969 0 -0.002039031430505107 0.00066750673526970179 0 -0.0013530898025079846 0.0012819426167179969 0 -0.0015590379762044067 0.00095885578856601164 0 -0.002039031430505107 0.00066750673526970179 0 -0.0013530898025079846 0.0012819426167179969 0 -0.0016544495063784857 0.001363609529298528 0 -0.0015590379762044067 0.00095885578856601164 0 -0.00010922940980629775 0.0027976669990560725 0 -0.0013530898025079846 0.0012819426167179969 0 -0.0016544495063784857 0.001363609529298528 0 0.0026388000867884221 0.00092712462646465227 0 0.0011427700360007638 0.00073484954185100415 0 -0.00063242057695121333 4.2816916305273975e-07 0 -0.00029364367667600961 4.2878309782371283e-05 0 -0.0013724803243838602 0.00042466601147423018 0 -0.00029364367667600961 4.2878309782371283e-05 0 -0.0015590379762044067 0.00095885578856601164 0 -0.0013724803243838602 0.00042466601147423018 0 -0.0016544495063784857 0.001363609529298528 0 -0.00029364367667600961 4.2878309782371283e-05 0 -0.0015590379762044067 0.00095885578856601164 0 0.0011427700360007638 0.00073484954185100415 0 0.00062883187207864915 0.00062674973882862828 0 0.0020740255783182658 -0.00035042188783989011 0 -0.00029364367667600961 4.2878309782371283e-05 0 0.0009179764803880357 0.00024717279711502653 0 -0.0015590379762044067 0.00095885578856601164 0 -0.002039031430505107 0.00066750673526970179 0 -0.0013724803243838602 0.00042466601147423018 0 -0.002039031430505107 0.00066750673526970179 0 -0.0013724803243838602 0.00042466601147423018 0 -0.0026697452152304171 9.3004889142198154e-07 0 -0.00063242057695121333 4.2816916305273975e-07 0 -0.0013724803243838602 0.00042466601147423018 0 -0.0026697452152304171 9.3004889142198154e-07 0 -0.002039031430505107 0.00066750673526970179 0 -0.0026697452152304171 9.3004889142198154e-07 0 -0.0031630440006905998 0.00012003641317134595 0 -0.0026697452152304171 9.3004889142198154e-07 0 -0.0031630440006905998 0.00012003641317134595 0 -0.0047059789052839879 -2.0826143434703064e-07 0 -0.0031630440006905998 0.00012003641317134595 0 -0.0047059789052839879 -2.0826143434703064e-07 0 -0.0043637001586490677 -0.000227302653295574 0 -0.0047059789052839879 -2.0826143434703064e-07 0 -0.0043637001586490677 -0.000227302653295574 0 -0.0067431348566290347 -5.1057214712270946e-07 0 -0.0043637001586490677 -0.000227302653295574 0 -0.0067431348566290347 -5.1057214712270946e-07 0 -0.0050932855195244047 -0.00047421958167439063 0 -0.0031630440006905998 0.00012003641317134595 0 -0.0043637001586490677 -0.000227302653295574 0 -0.0027493039259291439 -0.00083039405597433913 0 -0.0027493039259291439 -0.00083039405597433913 0 -0.0041575763398993791 -0.00091381897736756508 0 -0.0050932855195244047 -0.00047421958167439063 0 -0.002565480346134668 -0.00040498885351654033 0 -0.0027493039259291439 -0.00083039405597433913 0 -0.0041575763398993791 -0.00091381897736756508 0 0.00031776622088382537 -0.0042892644405668279 0 0.00052982296561906593 -0.0014578596364194813 0 -0.0027493039259291439 -0.00083039405597433913 0 -0.000568331627146 -0.0024666967672682437 0 -0.0014911760205628673 -0.0016674846307589599 0 -0.0043637001586490677 -0.000227302653295574 0 -0.0027493039259291439 -0.00083039405597433913 0 -0.0050932855195244047 -0.00047421958167439063 0 -0.0041575763398993791 -0.00091381897736756508 0 -0.0065606344071406815 -0.0014896844159156897 0 -0.0050932855195244047 -0.00047421958167439063 0 -0.002124846959925208 -0.0019327285521231251 0 -0.002565480346134668 -0.00040498885351654033 0 -0.0041575763398993791 -0.00091381897736756508 0 -0.005082724087807038 -0.002899722406295342 0 -0.0041575763398993791 -0.00091381897736756508 0 -0.0029708939491440677 -0.003359908537001795 0 -0.002124846959925208 -0.0019327285521231251 0 -0.0041575763398993791 -0.00091381897736756508 0 -0.0029708939491440677 -0.003359908537001795 0 -0.005082724087807038 -0.002899722406295342 0 -0.0041575763398993791 -0.00091381897736756508 0 -0.0065606344071406815 -0.0014896844159156897 0 -0.007572932764658335 -0.00071575270136026376 0 -0.0065606344071406815 -0.0014896844159156897 0 -0.0072317625832577781 -0.00059702369603413215 0 -0.0065606344071406815 -0.0014896844159156897 0 -0.0072317625832577781 -0.00059702369603413215 0 -0.0050932855195244047 -0.00047421958167439063 0 -0.0087792933257577303 -9.0524183826161001e-07 0 -0.0072317625832577781 -0.00059702369603413215 0 -0.0067431348566290347 -5.1057214712270946e-07 0 -0.0087792933257577303 -9.0524183826161001e-07 0 -0.0082545767369157728 -0.00036594030462551436 0 -0.0072317625832577781 -0.00059702369603413215 0 -0.0072317625832577781 -0.00059702369603413215 0 -0.0067431348566290347 -5.1057214712270946e-07 0 -0.0050932855195244047 -0.00047421958167439063 0 0.011636644867167171 0.0040567670664149475 0 0.011520376380346732 0.0040697019478854717 0 0.011648003847847258 0.0041325066033606811 0 0.011520376380346732 0.0040697019478854717 0 0.011648003847847258 0.0041325066033606811 0 0.01146653706543076 0.0041511814603426974 0 0.011648003847847258 0.0041325066033606811 0 0.01146653706543076 0.0041511814603426974 0 0.01160404378392434 0.0042706621800255567 0 0.011648003847847258 0.0041325066033606811 0 0.011744010969505853 0.0040792065001124507 0 0.011808884235915151 0.0041972067704552155 0 0.011744010969505853 0.0040792065001124507 0 0.011808884235915151 0.0041972067704552155 0 0.011865933399512691 0.0040939465843894077 0 0.011744010969505853 0.0040792065001124507 0 0.011807899495263023 0.0040028958993500452 0 0.011865933399512691 0.0040939465843894077 0 0.011696648599695133 0.0040281282107620647 0 0.011744010969505853 0.0040792065001124507 0 0.011807899495263023 0.0040028958993500452 0 0.011636644867167171 0.0040567670664149475 0 0.011696648599695133 0.0040281282107620647 0 0.011744010969505853 0.0040792065001124507 0 0.011636644867167171 0.0040567670664149475 0 0.011648003847847258 0.0041325066033606811 0 0.011744010969505853 0.0040792065001124507 0 0.011807899495263023 0.0040028958993500452 0 0.011595872777691989 0.0039751472670763142 0 0.011923499833150336 0.0039678880426765985 0 -0.0075181669355212323 0.0037638818242504597 0 -0.0074997026231549413 0.0037520806869217145 0 -0.007529882702063213 0.0037622042936267313 0 0.00053754704442652093 0.0027775021245811035 0 0.0016132159984037176 0.0039689073441319207 0 0.011696648599695133 0.0040281282107620647 0 0.011807899495263023 0.0040028958993500452 0 0.011595872777691989 0.0039751472670763142 0 -0.0075181669355212323 0.0037638818242504597 0 -0.0075381061682727509 0.0037811129976497806 0 -0.0075334491550704506 0.0037904741566673916 0 -0.0075181669355212323 0.0037638818242504597 0 -0.0075072202984861154 0.0037900115701702554 0 -0.0075334491550704506 0.0037904741566673916 0 -0.0075181669355212323 0.0037638818242504597 0 -0.0075068176828786293 0.0037561301308852665 0 -0.0074997026231549413 0.0037520806869217145 0 -0.0075181669355212323 0.0037638818242504597 0 -0.0075068176828786293 0.0037561301308852665 0 -0.0075072202984861154 0.0037900115701702554 0 -0.0075068176828786293 0.0037561301308852665 0 -0.0074997460813380967 0.0037656157791811809 0 -0.0075072202984861154 0.0037900115701702554 0 -0.0075068176828786293 0.0037561301308852665 0 -0.0074997460813380967 0.0037656157791811809 0 -0.0075034362010948869 0.003745892615565878 0 -0.0075115117554820886 0.0037280360290792357 0 -0.0074997026231549413 0.0037520806869217145 0 -0.0076993909176267718 0.0037187957588406765 0 -0.0074997460813380967 0.0037656157791811809 0 -0.0075115117554820886 0.0037280360290792357 0 -0.0075034362010948869 0.003745892615565878 0 -0.0075068176828786293 0.0037561301308852665 0 -0.0075034362010948869 0.003745892615565878 0 -0.0074997026231549413 0.0037520806869217145 0 -0.0075115117554820886 0.0037280360290792357 0 -0.0075034362010948869 0.003745892615565878 0 -0.0074997026231549413 0.0037520806869217145 0 0.011636644867167171 0.0040567670664149475 0 0.011520376380346732 0.0040697019478854717 0 0.011595872777691989 0.0039751472670763142 0 0.011636644867167171 0.0040567670664149475 0 0.011696648599695133 0.0040281282107620647 0 0.011595872777691989 0.0039751472670763142 0 0.00053754704442652093 0.0027775021245811035 0 -0.0082357734378538661 0.00063777201605106661 0 0.011520376380346732 0.0040697019478854717 0 0.011595872777691989 0.0039751472670763142 0 0.011274704630579713 0.0040530231090361657 0 -0.0082357734378538661 0.00063777201605106661 0 -0.01421334292277189 0.0024433877900296233 0 -0.0075115117554820886 0.0037280360290792357 0 -0.0076993909176267718 0.0037187957588406765 0 -0.0075996123149755079 0.0036421152377697414 0 -0.026161508258490292 0.00047467295747052847 0 -0.026409221909324689 0.00024693241485381395 0 -0.026584058918365534 0.00036733507820601831 0 -0.0082357734378538661 0.00063777201605106661 0 -0.016038317292368386 -0.00067412850578754452 0 -0.0082357734378538661 0.00063777201605106661 0 -0.0022643923862615662 -0.0011390963851731614 0 0.011274704630579713 0.0040530231090361657 0 0.011316071821591743 0.0042576733638430156 0 0.011249289442693326 0.0042486092492259172 0 0.011274704630579713 0.0040530231090361657 0 0.01146653706543076 0.0041511814603426974 0 0.011316071821591743 0.0042576733638430156 0 0.011520376380346732 0.0040697019478854717 0 0.011274704630579713 0.0040530231090361657 0 0.01146653706543076 0.0041511814603426974 0 0.01146653706543076 0.0041511814603426974 0 0.011316071821591743 0.0042576733638430156 0 0.01160404378392434 0.0042706621800255567 0 0.011316071821591743 0.0042576733638430156 0 0.011457813599980689 0.004380503841745426 0 0.01160404378392434 0.0042706621800255567 0 0.011316071821591743 0.0042576733638430156 0 0.011224543237580452 0.004333222641039477 0 0.011304338937327787 0.0042940849317595429 0 0.011316071821591743 0.0042576733638430156 0 0.011249289442693326 0.0042486092492259172 0 0.011304338937327787 0.0042940849317595429 0 0.011224543237580452 0.004333222641039477 0 0.011304338937327787 0.0042940849317595429 0 0.011410008115307825 0.0041474789132971918 0 0.011224543237580452 0.004333222641039477 0 0.011457813599980689 0.004380503841745426 0 0.011512304792499078 0.0046130720694314807 0 0.011316071821591743 0.0042576733638430156 0 0.011224543237580452 0.004333222641039477 0 0.011457813599980689 0.004380503841745426 0 0.011457813599980689 0.004380503841745426 0 0.011759585928191601 0.0045486586351010973 0 0.011512304792499078 0.0046130720694314807 0 0.011457813599980689 0.004380503841745426 0 0.011759585928191601 0.0045486586351010973 0 0.01160404378392434 0.0042706621800255567 0 0.011648003847847258 0.0041325066033606811 0 0.01160404378392434 0.0042706621800255567 0 0.011808884235915151 0.0041972067704552155 0 0.01160404378392434 0.0042706621800255567 0 0.011808884235915151 0.0041972067704552155 0 0.011921096757990536 0.0043758096350913567 0 0.011759585928191601 0.0045486586351010973 0 0.01160404378392434 0.0042706621800255567 0 0.011921096757990536 0.0043758096350913567 0 0.011759585928191601 0.0045486586351010973 0 0.011921096757990536 0.0043758096350913567 0 0.012043591189238626 0.0045741629321096999 0 0.011921096757990536 0.0043758096350913567 0 0.012201958381548483 0.0044267250213734033 0 0.012043591189238626 0.0045741629321096999 0 0.012500664759863736 0.0052605071305907849 0 0.012450710594826992 0.0052489464455798256 0 0.012536936909643274 0.0052707492154881993 0 0.012500664759863736 0.0052605071305907849 0 0.012450710594826992 0.0052489464455798256 0 0.012453841790491022 0.0053170795424577529 0 0.012201958381548483 0.0044267250213734033 0 0.012003433431601316 0.0042207595280667658 0 0.012185588087612687 0.0041483960487508301 0 0.0090342895539987228 0.0045485745995588718 0 0.0057805629505196287 0.0050895548489314144 0 0.011921096757990536 0.0043758096350913567 0 0.012201958381548483 0.0044267250213734033 0 0.012003433431601316 0.0042207595280667658 0 0.011808884235915151 0.0041972067704552155 0 0.011921096757990536 0.0043758096350913567 0 0.012003433431601316 0.0042207595280667658 0 0.002080527228536288 0.0038703924720421678 0 0.0017621192799753933 0.0042896822257074141 0 0.012571316714912576 0.0052990423799113917 0 0.012450710594826992 0.0052489464455798256 0 0.01248034882591262 0.0049744387586807548 0 0.012571316714912576 0.0052990423799113917 0 0.012450710594826992 0.0052489464455798256 0 0.012536658822838142 0.0053051172006731272 0 0.012450710594826992 0.0052489464455798256 0 0.01248034882591262 0.0049744387586807548 0 0.012029198728995239 0.004811663044359731 0 0.0084628112113557773 0.0064207461315851913 0 0.0057805629505196287 0.0050895548489314144 0 -0.0072037140660068709 0.0019809326463598319 0 -0.0067442620148835371 0.0027826412953369998 0 -0.0072350428945285221 0.0026619385170306795 0 -0.0067442620148835371 0.0027826412953369998 0 -0.0072350428945285221 0.0026619385170306795 0 -0.0071092387024901012 0.0031381647904716219 0 -0.0074863223913631885 0.002990154958207431 0 -0.0072350428945285221 0.0026619385170306795 0 -0.0071092387024901012 0.0031381647904716219 0 -0.0067442620148835371 0.0027826412953369998 0 -0.0071092387024901012 0.0031381647904716219 0 -0.0067546879565191153 0.0033523208986191966 0 -0.0074839419357679692 0.0033124181898674036 0 -0.0071092387024901012 0.0031381647904716219 0 -0.0070852540605341905 0.0036540446357610766 0 -0.0071092387024901012 0.0031381647904716219 0 -0.0067546879565191153 0.0033523208986191966 0 -0.0070852540605341905 0.0036540446357610766 0 0.0017621192799753933 0.0042896822257074141 0 0.00050432325457797002 0.0045921296286296634 0 0.01248034882591262 0.0049744387586807548 0 0.012176400129787981 0.0044480628954882487 0 0.012029198728995239 0.004811663044359731 0 -0.0067442620148835371 0.0027826412953369998 0 -0.0067546879565191153 0.0033523208986191966 0 -0.006233841001665648 0.0036692248432425001 0 -0.006677592675752575 0.0034994879216703615 0 -0.0071437370548891876 0.0037901510799130626 0 -0.0074181919093783072 0.0035097677200600138 0 0.00050432325457797002 0.0045921296286296634 0 -0.0051458422806051479 0.0041732772516209658 0 -0.0067546879565191153 0.0033523208986191966 0 -0.006233841001665648 0.0036692248432425001 0 -0.0070852540605341905 0.0036540446357610766 0 -0.006677592675752575 0.0034994879216703615 0 -0.0063552372675333441 0.0041220259489941815 0 -0.0068528667630173212 0.0039499423959125585 0 -0.006677592675752575 0.0034994879216703615 0 -0.0071437370548891876 0.0037901510799130626 0 -0.0068528667630173212 0.0039499423959125585 0 -0.0071437370548891876 0.0037901510799130626 0 -0.0074321738876799194 0.0038453077398026185 0 -0.0074181919093783072 0.0035097677200600138 0 -0.0077050782538155508 0.0036746997138664295 0 -0.0074321738876799194 0.0038453077398026185 0 -0.0074181919093783072 0.0035097677200600138 0 0.012003433431601316 0.0042207595280667658 0 0.01201775446937501 0.0040718470363227191 0 0.012185588087612687 0.0041483960487508301 0 0.01201775446937501 0.0040718470363227191 0 0.011865933399512691 0.0040939465843894077 0 0.011967859297388344 0.0039326847931799337 0 0.011807899495263023 0.0040028958993500452 0 0.011865933399512691 0.0040939465843894077 0 0.011923499833150336 0.0039678880426765985 0 0.0031194003228206409 0.0030243060373244712 0 0.0016132159984037176 0.0039689073441319207 0 0.012003433431601316 0.0042207595280667658 0 0.01201775446937501 0.0040718470363227191 0 0.011865933399512691 0.0040939465843894077 0 0.011808884235915151 0.0041972067704552155 0 0.012003433431601316 0.0042207595280667658 0 0.011865933399512691 0.0040939465843894077 0 0.0057805629505196287 0.0050895548489314144 0 0.0026162342234846881 0.0043926734451769289 0 0.01201775446937501 0.0040718470363227191 0 0.012185588087612687 0.0041483960487508301 0 0.012035433274094294 0.0039352992257895006 0 0.012176400129787981 0.0044480628954882487 0 0.012029198728995239 0.004811663044359731 0 0.012074839687926482 0.0044462983377034334 0 0.0057805629505196287 0.0050895548489314144 0 0.0020648383615645407 0.0043220866911575385 0 0.004169437363504701 0.004326472976076059 0 0.0041375179043921725 0.0044412989990016043 0 0.0042320526589451459 0.004441579723533034 0 0.00050432325457797002 0.0045921296286296634 0 -0.0021417166430379025 0.0040974574407059133 0 -4.7296742917900459e-05 0.0044874769075436945 0 -0.00017442069466783487 0.0044967158810512928 0 -0.00013961741093554143 0.0045531772096037296 0 0.00012002989718323161 0.0045638111152725078 0 5.3412425633614992e-05 0.0045616580794671773 0 -3.1380360561455653e-05 0.0042799350619626289 0 5.3412425633614992e-05 0.0045616580794671773 0 -4.7296742917900459e-05 0.0044874769075436945 0 -3.1380360561455653e-05 0.0042799350619626289 0 5.3412425633614992e-05 0.0045616580794671773 0 -4.7296742917900459e-05 0.0044874769075436945 0 -0.00013961741093554143 0.0045531772096037296 0 0.0026162342234846881 0.0043926734451769289 0 0.0020648383615645407 0.0043220866911575385 0 0.00050432325457797002 0.0045921296286296634 0 0.0026162342234846881 0.0043926734451769289 0 -4.7296742917900459e-05 0.0044874769075436945 0 -0.00017442069466783487 0.0044967158810512928 0 -3.1380360561455653e-05 0.0042799350619626289 0 -0.0075364875231567867 0.0037657714591335144 0 -0.007529882702063213 0.0037622042936267313 0 -0.0075381061682727509 0.0037811129976497806 0 0.00072522585178600308 0.0039371931708968846 0 0.0020648383615645407 0.0043220866911575385 0 0.0020648383615645407 0.0043220866911575385 0 0.0016132159984037176 0.0039689073441319207 0 0.01201775446937501 0.0040718470363227191 0 0.012035433274094294 0.0039352992257895006 0 0.011967859297388344 0.0039326847931799337 0 0.00010524106391069404 0.0047558105344208297 0 -0.00070065731259732523 0.0033949030320370964 0 0.0010392544312020832 0.003421206906800455 0 0.00072522585178600308 0.0039371931708968846 0 0.0016132159984037176 0.0039689073441319207 0 -0.0075181669355212323 0.0037638818242504597 0 -0.007529882702063213 0.0037622042936267313 0 -0.0075381061682727509 0.0037811129976497806 0 -0.0075381061682727509 0.0037811129976497806 0 -0.0075702052989781434 0.0038354015794068142 0 -0.0075334491550704506 0.0037904741566673916 0 -0.0076673699669517698 0.0037838886532498821 0 -0.0076097541807166715 0.0039231704022627814 0 -0.0076916517885650577 0.0039223163190141028 0 -0.0075364875231567867 0.0037657714591335144 0 -0.0075381061682727509 0.0037811129976497806 0 -0.0075702052989781434 0.0038354015794068142 0 0.00072522585178600308 0.0039371931708968846 0 -0.0027969289524684571 0.0026592140382835677 0 -0.0076097541807166715 0.0039231704022627814 0 -0.0076916517885650577 0.0039223163190141028 0 -0.0076638504575360922 0.0039949688463779675 0 -0.0076673699669517698 0.0037838886532498821 0 -0.0076916517885650577 0.0039223163190141028 0 -0.0077727102467791106 0.0039063738709198279 0 0.00072522585178600308 0.0039371931708968846 0 -0.0021417166430379025 0.0040974574407059133 0 -0.0021417166430379025 0.0040974574407059133 0 -0.0050622269563183157 0.0046976968435148642 0 -0.0076916517885650577 0.0039223163190141028 0 -0.0077727102467791106 0.0039063738709198279 0 -0.0077527386121552045 0.0040087000656828164 0 -0.0021417166430379025 0.0040974574407059133 0 -0.0027113582248115831 0.0036958388382202661 0 -0.0077527386121552045 0.0040087000656828164 0 -0.0078338347829952498 0.0041113209974305807 0 -0.0079134165832947453 0.0040432628650900679 0 -0.0078002344874018416 0.00389687080114377 0 -0.0077527386121552045 0.0040087000656828164 0 -0.0079134165832947453 0.0040432628650900679 0 -0.0078338347829952498 0.0041113209974305807 0 -0.0079134165832947453 0.0040432628650900679 0 -0.007870820930207828 0.0042141337071607667 0 -0.0077527386121552045 0.0040087000656828164 0 -0.0078338347829952498 0.0041113209974305807 0 -0.0077925817638830469 0.0041646116647623185 0 -0.0077527386121552045 0.0040087000656828164 0 -0.0076720971444578798 0.0040994274711633177 0 -0.0077925817638830469 0.0041646116647623185 0 -0.0076720971444578798 0.0040994274711633177 0 -0.0076158632711440574 0.0040146823392487527 0 -0.0076638504575360922 0.0039949688463779675 0 -0.0076720971444578798 0.0040994274711633177 0 -0.0076158632711440574 0.0040146823392487527 0 -0.0075216147424122942 0.0040512137210759885 0 -0.0076097541807166715 0.0039231704022627814 0 -0.0076158632711440574 0.0040146823392487527 0 -0.0076638504575360922 0.0039949688463779675 0 -0.0076916517885650577 0.0039223163190141028 0 -0.0077527386121552045 0.0040087000656828164 0 -0.0076638504575360922 0.0039949688463779675 0 -0.0077527386121552045 0.0040087000656828164 0 -0.0076720971444578798 0.0040994274711633177 0 -0.0076638504575360922 0.0039949688463779675 0 -0.0079208280756644725 0.0042008181679548924 0 -0.0073196998107780452 0.004138754504018626 0 -0.0076511895309017324 0.0044741952711629613 0 -0.0077642035005613622 0.0039527306118251979 0 -0.0074321738876799194 0.0038453077398026185 0 -0.0073196998107780452 0.004138754504018626 0 -0.0071437370548891876 0.0037901510799130626 0 -0.0074321738876799194 0.0038453077398026185 0 -0.0073196998107780452 0.004138754504018626 0 -0.0073196998107780452 0.004138754504018626 0 -0.0069125065769339933 0.004293114814309767 0 -0.0072708118055576035 0.0046022119136234435 0 -0.0063552372675333441 0.0041220259489941815 0 -0.0069125065769339933 0.004293114814309767 0 -0.0066791065764357539 0.0045735265672026187 0 -0.0063552372675333441 0.0041220259489941815 0 -0.0069125065769339933 0.004293114814309767 0 -0.0068528667630173212 0.0039499423959125585 0 -0.0073196998107780452 0.004138754504018626 0 -0.0069125065769339933 0.004293114814309767 0 -0.0068528667630173212 0.0039499423959125585 0 -0.0071437370548891876 0.0037901510799130626 0 -0.0073196998107780452 0.004138754504018626 0 -0.0068528667630173212 0.0039499423959125585 0 -0.0066791065764357539 0.0045735265672026187 0 -0.0072708118055576035 0.0046022119136234435 0 -0.0070007892217237204 0.0050361753875612066 0 -0.0069125065769339933 0.004293114814309767 0 -0.0066791065764357539 0.0045735265672026187 0 -0.0072708118055576035 0.0046022119136234435 0 -0.0050622269563183157 0.0046976968435148642 0 -0.0069497118802338614 0.0047033801279021967 0 -0.0078034353711232971 0.004813494391850027 0 -0.0072708118055576035 0.0046022119136234435 0 -0.0076511895309017324 0.0044741952711629613 0 -0.0078034353711232971 0.004813494391850027 0 -0.0072708118055576035 0.0046022119136234435 0 -0.0070007892217237204 0.0050361753875612066 0 -0.0073196998107780452 0.004138754504018626 0 -0.0072708118055576035 0.0046022119136234435 0 -0.0076511895309017324 0.0044741952711629613 0 -0.008807298123871949 0.0043732193552830003 0 -0.0086619358896682548 0.0043208619882333498 0 -0.0086980280020949891 0.0044149137841215996 0 -0.0080008017708669155 0.0045158912213779847 0 -0.0069497118802338614 0.0047033801279021967 0 -0.0088944242493844972 0.0043591544649684904 0 -0.008807298123871949 0.0043732193552830003 0 -0.0086619358896682548 0.0043208619882333498 0 -0.00853417023827217 0.0041532459345541405 0 -0.0084094229226002355 0.0045092980019281956 0 -0.0086980280020949891 0.0044149137841215996 0 -0.0079134165832947453 0.0040432628650900679 0 -0.0080011879867975116 0.004173509269789359 0 -0.007870820930207828 0.0042141337071607667 0 -0.00853417023827217 0.0041532459345541405 0 -0.0084094229226002355 0.0045092980019281956 0 -0.0081851088619068774 0.0042237811114244055 0 -0.0069497118802338614 0.0047033801279021967 0 -0.0071236947468166223 0.0047745876249295771 0 -0.0069497118802338614 0.0047033801279021967 0 -0.0075382908805599301 0.004493394928352548 0 -0.0081636776236181877 0.0047591524741933192 0 -0.0086640160291963815 0.0047281814658029775 0 -0.0084094229226002355 0.0045092980019281956 0 -0.0086640160291963815 0.0047281814658029775 0 -0.0084094229226002355 0.0045092980019281956 0 -0.0086980280020949891 0.0044149137841215996 0 -0.0089358965166968229 0.0047500274380187198 0 -0.0086640160291963815 0.0047281814658029775 0 -0.0088482513576119502 0.0045161123022843227 0 -0.0086640160291963815 0.0047281814658029775 0 -0.0086980280020949891 0.0044149137841215996 0 -0.0088482513576119502 0.0045161123022843227 0 -0.008807298123871949 0.0043732193552830003 0 -0.0086980280020949891 0.0044149137841215996 0 -0.0088482513576119502 0.0045161123022843227 0 -0.0076720971444578798 0.0040994274711633177 0 -0.0076614328993732427 0.004286731968808904 0 -0.0075216147424122942 0.0040512137210759885 0 -0.0077930799072301864 0.004298448337436798 0 -0.0077324722856303013 0.0042069156972696867 0 -0.0077925817638830469 0.0041646116647623185 0 -0.0077930799072301864 0.004298448337436798 0 -0.0076614328993732427 0.004286731968808904 0 -0.0077324722856303013 0.0042069156972696867 0 -0.0076720971444578798 0.0040994274711633177 0 -0.0076614328993732427 0.004286731968808904 0 -0.0077324722856303013 0.0042069156972696867 0 -0.0076720971444578798 0.0040994274711633177 0 -0.0077324722856303013 0.0042069156972696867 0 -0.0077925817638830469 0.0041646116647623185 0 -0.0078338347829952498 0.0041113209974305807 0 -0.0077925817638830469 0.0041646116647623185 0 -0.007870820930207828 0.0042141337071607667 0 -0.0077930799072301864 0.004298448337436798 0 -0.0077925817638830469 0.0041646116647623185 0 -0.007870820930207828 0.0042141337071607667 0 -0.007643732466268708 0.0044506940090302842 0 -0.0075382908805599301 0.004493394928352548 0 -0.0081636776236181877 0.0047591524741933192 0 -0.0084094229226002355 0.0045092980019281956 0 -0.0081851088619068774 0.0042237811114244055 0 -0.0081636776236181877 0.0047591524741933192 0 -0.0077930799072301864 0.004298448337436798 0 -0.0081851088619068774 0.0042237811114244055 0 -0.0081636776236181877 0.0047591524741933192 0 -0.0077930799072301864 0.004298448337436798 0 -0.0076614328993732427 0.004286731968808904 0 -0.016266167197926177 0.0020561974178737044 0 -0.016284320816308803 0.0020429308325653249 0 -0.02433182406950048 -0.00055287948950817254 0 -0.02471064795996445 -0.00017933982685727629 0 -0.024764807625283845 -0.00049051176720029527 0 -0.02471064795996445 -0.00017933982685727629 0 -0.024764807625283845 -0.00049051176720029527 0 -0.024953916704241852 -0.00026797706375209212 0 -0.024948076759134352 -0.00076649112733918651 0 -0.024764807625283845 -0.00049051176720029527 0 -0.024953916704241852 -0.00026797706375209212 0 -0.025546313327864008 -0.00067431473061363 0 -0.025389112913308517 -0.00039100639500735636 0 -0.025687756892828102 -0.00028810758254421931 0 -0.025546313327864008 -0.00067431473061363 0 -0.025687756892828102 -0.00028810758254421931 0 -0.025902546461816278 -0.00050307397634420095 0 -0.025687756892828102 -0.00028810758254421931 0 -0.025538693434979758 2.9548260014592274e-05 0 -0.025943908476275986 -0.00011999815425614095 0 -0.025687756892828102 -0.00028810758254421931 0 -0.025943908476275986 -0.00011999815425614095 0 -0.025902546461816278 -0.00050307397634420095 0 -0.016284320816308803 0.0020429308325653249 0 -0.016442226886330565 0.0020985233211968063 0 -0.025389112913308517 -0.00039100639500735636 0 -0.025687756892828102 -0.00028810758254421931 0 -0.025538693434979758 2.9548260014592274e-05 0 -0.02471064795996445 -0.00017933982685727629 0 -0.024953916704241852 -0.00026797706375209212 0 -0.02498080488082834 0.00014142104543967145 0 -0.0076614328993732427 0.004286731968808904 0 -0.007463279608780988 0.0040097104018090145 0 -0.0075216147424122942 0.0040512137210759885 0 -0.020757269345208881 0.00058673800889589287 0 -0.016442226886330565 0.0020985233211968063 0 -0.0076097541807166715 0.0039231704022627814 0 -0.0076158632711440574 0.0040146823392487527 0 -0.0075216147424122942 0.0040512137210759885 0 -0.0075702052989781434 0.0038354015794068142 0 -0.0075100868368712433 0.0039007687289673593 0 -0.0075216147424122942 0.0040512137210759885 0 -0.0027969289524684571 0.0026592140382835677 0 -0.0037022660289494531 0.0025280016496063945 0 -0.016442226886330565 0.0020985233211968063 0 -0.014425268326265461 0.0024133860951982347 0 -0.0075100868368712433 0.0039007687289673593 0 -0.007463279608780988 0.0040097104018090145 0 -0.0074543436294636682 0.0038418587511702467 0 -0.0075100868368712433 0.0039007687289673593 0 -0.007463279608780988 0.0040097104018090145 0 -0.0075216147424122942 0.0040512137210759885 0 -0.025538693434979758 2.9548260014592274e-05 0 -0.025874299353528855 0.00027128525050885326 0 -0.025943908476275986 -0.00011999815425614095 0 -0.016442226886330565 0.0020985233211968063 0 -0.01421334292277189 0.0024433877900296233 0 -0.0075681402368914397 0.0035802499500362087 0 -0.00754993294831001 0.0036355118623199933 0 -0.0075996123149755079 0.0036421152377697414 0 -0.0075115117554820886 0.0037280360290792357 0 -0.00754993294831001 0.0036355118623199933 0 -0.0075996123149755079 0.0036421152377697414 0 -0.0074997460813380967 0.0037656157791811809 0 -0.0075115117554820886 0.0037280360290792357 0 -0.0074543436294636682 0.0038418587511702467 0 -0.013796467446457383 0.0025182458968563077 0 -0.014425268326265461 0.0024133860951982347 0 -0.0074997460813380967 0.0037656157791811809 0 -0.0074543436294636682 0.0038418587511702467 0 -0.0075072202984861154 0.0037900115701702554 0 -0.0075702052989781434 0.0038354015794068142 0 -0.0075072202984861154 0.0037900115701702554 0 -0.0075334491550704506 0.0037904741566673916 0 -0.0075702052989781434 0.0038354015794068142 0 -0.0075100868368712433 0.0039007687289673593 0 -0.0075072202984861154 0.0037900115701702554 0 -0.0075100868368712433 0.0039007687289673593 0 -0.0074543436294636682 0.0038418587511702467 0 -0.0075072202984861154 0.0037900115701702554 0 -0.026161508258490292 0.00047467295747052847 0 -0.026409221909324689 0.00024693241485381395 0 -0.025874299353528855 0.00027128525050885326 0 -0.026409221909324689 0.00024693241485381395 0 -0.025874299353528855 0.00027128525050885326 0 -0.02632976634506546 3.5602209111913544e-05 0 -0.025874299353528855 0.00027128525050885326 0 -0.02632976634506546 3.5602209111913544e-05 0 -0.025943908476275986 -0.00011999815425614095 0 -0.02632976634506546 3.5602209111913544e-05 0 -0.026317542915112461 -0.00032777159247366017 0 -0.026559641718952209 -0.0001476127506817547 0 -0.02632976634506546 3.5602209111913544e-05 0 -0.025943908476275986 -0.00011999815425614095 0 -0.026317542915112461 -0.00032777159247366017 0 -0.025943908476275986 -0.00011999815425614095 0 -0.025902546461816278 -0.00050307397634420095 0 -0.026317542915112461 -0.00032777159247366017 0 -0.026199336514229669 -0.00064757553413531752 0 -0.025902546461816278 -0.00050307397634420095 0 -0.026317542915112461 -0.00032777159247366017 0 -0.026555068947951566 -0.00078690723044987684 0 -0.026199336514229669 -0.00064757553413531752 0 -0.026317542915112461 -0.00032777159247366017 0 -0.026555068947951566 -0.00078690723044987684 0 -0.026317542915112461 -0.00032777159247366017 0 -0.026802619808516167 -0.00030733592210500937 0 -0.026802619808516167 -0.00030733592210500937 0 -0.026559641718952209 -0.0001476127506817547 0 -0.026762820368482335 -1.1773392332819284e-05 0 -0.026317542915112461 -0.00032777159247366017 0 -0.026802619808516167 -0.00030733592210500937 0 -0.026559641718952209 -0.0001476127506817547 0 -0.026802619808516167 -0.00030733592210500937 0 -0.027032816091443642 -0.00013768740409987379 0 -0.026762820368482335 -1.1773392332819284e-05 0 -0.026802619808516167 -0.00030733592210500937 0 -0.027262835754878801 -0.00039516394374806854 0 -0.027032816091443642 -0.00013768740409987379 0 -0.027028772283208762 -0.00073719903361276113 0 -0.026802619808516167 -0.00030733592210500937 0 -0.027262835754878801 -0.00039516394374806854 0 -0.027240676047441591 -8.306903872160188e-05 0 -0.027363992570824783 7.1814999854275045e-05 0 -0.027262835754878801 -0.00039516394374806854 0 -0.02704831268632843 -8.4650822658103678e-05 0 -0.027032816091443642 -0.00013768740409987379 0 -0.028214834296373878 -0.00092437261308323893 0 -0.027262835754878801 -0.00039516394374806854 0 -0.028137847226188555 -1.162168535516794e-05 0 -0.02704831268632843 -8.4650822658103678e-05 0 -0.026985619278908642 3.960984607392402e-06 0 -0.026897063804196868 5.6840937792023695e-05 0 -0.02704831268632843 -8.4650822658103678e-05 0 -0.027032816091443642 -0.00013768740409987379 0 -0.026985619278908642 3.960984607392402e-06 0 -0.027032816091443642 -0.00013768740409987379 0 -0.026985619278908642 3.960984607392402e-06 0 -0.026762820368482335 -1.1773392332819284e-05 0 -0.026985619278908642 3.960984607392402e-06 0 -0.026758063631008609 0.00014717417155325752 0 -0.026863077541729018 0.00016090404589875712 0 -0.026409221909324689 0.00024693241485381395 0 -0.026758063631008609 0.00014717417155325752 0 -0.026762820368482335 -1.1773392332819284e-05 0 -0.02632976634506546 3.5602209111913544e-05 0 -0.026559641718952209 -0.0001476127506817547 0 -0.026762820368482335 -1.1773392332819284e-05 0 -0.026409221909324689 0.00024693241485381395 0 -0.02632976634506546 3.5602209111913544e-05 0 -0.026762820368482335 -1.1773392332819284e-05 0 -0.026985619278908642 3.960984607392402e-06 0 -0.026758063631008609 0.00014717417155325752 0 -0.026762820368482335 -1.1773392332819284e-05 0 -0.02988693121361671 -0.00040148968273984322 0 -0.029557663455131816 -0.00038041412997400262 0 -0.030070861048419238 -0.00048883580024564565 0 -0.02988693121361671 -0.00040148968273984322 0 -0.029897834444021963 -0.00059931746332907295 0 -0.029557663455131816 -0.00038041412997400262 0 -0.029585083998091694 -0.0007567895362347954 0 -0.029917042585293575 -0.00088258827943172116 0 -0.029897834444021963 -0.00059931746332907295 0 -0.028920981107277949 -0.00065733161743237296 0 -0.029585083998091694 -0.0007567895362347954 0 -0.029557663455131816 -0.00038041412997400262 0 -0.029585083998091694 -0.0007567895362347954 0 -0.029897834444021963 -0.00059931746332907295 0 -0.029557663455131816 -0.00038041412997400262 0 -0.028920981107277949 -0.00065733161743237296 0 -0.028137847226188555 -1.162168535516794e-05 0 -0.02877107077179936 0.00026367688623759851 0 -0.028920981107277949 -0.00065733161743237296 0 -0.02922216086262678 3.1663219545689623e-05 0 -0.02877107077179936 0.00026367688623759851 0 -0.02922216086262678 3.1663219545689623e-05 0 -0.02877107077179936 0.00026367688623759851 0 -0.029149735129038495 0.0003598663398103491 0 -0.028425290642468629 -3.6586189542374368e-05 0 -0.028280094444799175 0.00030413453277633961 0 -0.027363992570824783 7.1814999854275045e-05 0 -0.027422125687116751 0.00033653482617719907 0 -0.026985619278908642 3.960984607392402e-06 0 -0.026897063804196868 5.6840937792023695e-05 0 -0.026822781107667077 -2.9450437454629799e-05 0 -0.026985619278908642 3.960984607392402e-06 0 -0.026822781107667077 -2.9450437454629799e-05 0 -0.026903979718758186 -4.4981084999671684e-05 0 -0.026822781107667077 -2.9450437454629799e-05 0 -0.026587258138752522 9.5592179279857292e-05 0 -0.026489454141323993 -0.00011922619800419178 0 -0.026822781107667077 -2.9450437454629799e-05 0 -0.026489454141323993 -0.00011922619800419178 0 -0.026683393904880184 -0.00024600152082108356 0 -0.026897063804196868 5.6840937792023695e-05 0 -0.026822781107667077 -2.9450437454629799e-05 0 -0.026587258138752522 9.5592179279857292e-05 0 -0.027422125687116751 0.00033653482617719907 0 -0.027044377163627512 0.00056119651506133963 0 -0.028280094444799175 0.00030413453277633961 0 -0.026959554876149285 0.00071346773247686005 0 -0.02922216086262678 3.1663219545689623e-05 0 -0.029149735129038495 0.0003598663398103491 0 -0.029251868081525037 0.00034603171278065059 0 -0.027044377163627512 0.00056119651506133963 0 -0.025454663466584222 0.00047585621604102337 0 -0.026587258138752522 9.5592179279857292e-05 0 -0.026489454141323993 -0.00011922619800419178 0 -0.026084299111069603 -5.7677208555073822e-05 0 -0.026489454141323993 -0.00011922619800419178 0 -0.026084299111069603 -5.7677208555073822e-05 0 -0.026191572186157211 -0.00039982740434399769 0 -0.029149735129038495 0.0003598663398103491 0 -0.029223443654534144 0.00033997868429857684 0 -0.029251868081525037 0.00034603171278065059 0 -0.029121225719991296 0.00032596094607495707 0 -0.029223443654534144 0.00033997868429857684 0 -0.029251868081525037 0.00034603171278065059 0 -0.029753807736527346 -0.00028806882524199957 0 -0.02988693121361671 -0.00040148968273984322 0 -0.030070861048419238 -0.00048883580024564565 0 0.00068590019683831532 -0.006119493248920623 0 -0.00085689400581292661 -0.0034790352438087164 0 -0.0017969017103958052 -0.0062630726548264922 0 -0.025558350641977864 -0.00036967560134442567 0 -0.026084299111069603 -5.7677208555073822e-05 0 -0.026191572186157211 -0.00039982740434399769 0 -0.00085689400581292661 -0.0034790352438087164 0 -0.0029834744647543863 -0.0052170111809530361 0 -0.0032356361937171791 -0.0036313992512548559 0 -0.026489454141323993 -0.00011922619800419178 0 -0.026191572186157211 -0.00039982740434399769 0 -0.026683393904880184 -0.00024600152082108356 0 -0.014572396600924565 -0.0018303980871253319 0 -0.015036006331829877 -0.0017631044779517387 0 -0.00085689400581292661 -0.0034790352438087164 0 -0.0029834744647543863 -0.0052170111809530361 0 -0.0017969017103958052 -0.0062630726548264922 0 -0.0029834744647543863 -0.0052170111809530361 0 -0.0032356361937171791 -0.0036313992512548559 0 -0.0055195415138552363 -0.0037168397888645731 0 -0.026822781107667077 -2.9450437454629799e-05 0 -0.026683393904880184 -0.00024600152082108356 0 -0.026903979718758186 -4.4981084999671684e-05 0 -0.015036006331829877 -0.0017631044779517387 0 -0.016046193862168642 -0.0016080631080883229 0 -0.0029834744647543863 -0.0052170111809530361 0 -0.0055195415138552363 -0.0037168397888645731 0 -0.0055553380613958935 -0.0055892981237976001 0 -0.003891489657900152 -0.0064932470583981168 0 -0.0055553380613958935 -0.0055892981237976001 0 -0.0059652768135590884 -0.0072752540789215838 0 -0.0029834744647543863 -0.0052170111809530361 0 -0.003891489657900152 -0.0064932470583981168 0 -0.0055553380613958935 -0.0055892981237976001 0 -0.0059652768135590884 -0.0072752540789215838 0 -0.0061692957377154859 -0.0085267719502778363 0 -0.0043109804254312647 -0.0090653143904672398 0 -0.003891489657900152 -0.0064932470583981168 0 -0.0059652768135590884 -0.0072752540789215838 0 -0.0043109804254312647 -0.0090653143904672398 0 -0.003891489657900152 -0.0064932470583981168 0 -0.0026861717347027381 -0.0077388577332991098 0 -0.0043109804254312647 -0.0090653143904672398 0 -0.0026861717347027381 -0.0077388577332991098 0 -0.0020951320754921251 -0.0085600867915444599 0 -0.0043109804254312647 -0.0090653143904672398 0 -0.0029834744647543863 -0.0052170111809530361 0 -0.003891489657900152 -0.0064932470583981168 0 -0.0017969017103958052 -0.0062630726548264922 0 -0.003891489657900152 -0.0064932470583981168 0 -0.0017969017103958052 -0.0062630726548264922 0 -0.0026861717347027381 -0.0077388577332991098 0 -0.0017969017103958052 -0.0062630726548264922 0 -0.0026861717347027381 -0.0077388577332991098 0 -0.0018784695138445058 -0.0074991302483415571 0 -0.0017969017103958052 -0.0062630726548264922 0 -0.0018784695138445058 -0.0074991302483415571 0 -0.0010676681393111973 -0.0075137987705091282 0 -0.0026861717347027381 -0.0077388577332991098 0 -0.0020951320754921251 -0.0085600867915444599 0 -0.0018784695138445058 -0.0074991302483415571 0 -0.0020951320754921251 -0.0085600867915444599 0 -0.0018784695138445058 -0.0074991302483415571 0 -0.0010676681393111973 -0.0075137987705091282 0 -0.0020951320754921251 -0.0085600867915444599 0 -0.0010676681393111973 -0.0075137987705091282 0 0.00024920776670637204 -0.0081438771292360185 0 0.0050961850812376117 -0.0049204470060050381 0 0.0055350391010695844 -0.0061443635148755249 0 0.00068590019683831532 -0.006119493248920623 0 -0.0017969017103958052 -0.0062630726548264922 0 -0.0010676681393111973 -0.0075137987705091282 0 0.00068590019683831532 -0.006119493248920623 0 -0.0010676681393111973 -0.0075137987705091282 0 0.00024920776670637204 -0.0081438771292360185 0 -0.0088905133035055862 -0.0050760539117624386 0 -0.010730734702253514 -0.0052247845624372362 0 -0.0093410603610282195 -0.0066850290543113951 0 -0.0088905133035055862 -0.0050760539117624386 0 -0.010730734702253514 -0.0052247845624372362 0 -0.0099386086503794688 -0.0037888238859329804 0 -0.012095306759703307 -0.0037904599037892036 0 -0.010730734702253514 -0.0052247845624372362 0 -0.0099386086503794688 -0.0037888238859329804 0 -0.026409221909324689 0.00024693241485381395 0 -0.026758063631008609 0.00014717417155325752 0 -0.026584058918365534 0.00036733507820601831 0 -0.0088905133035055862 -0.0050760539117624386 0 -0.0099386086503794688 -0.0037888238859329804 0 -0.007749192590554844 -0.0037630171325962734 0 -0.016038317292368386 -0.00067412850578754452 0 -0.016781121923943675 -0.0012952890033877372 0 -0.026758063631008609 0.00014717417155325752 0 -0.026584058918365534 0.00036733507820601831 0 -0.026863077541729018 0.00016090404589875712 0 -0.026985619278908642 3.960984607392402e-06 0 -0.026903979718758186 -4.4981084999671684e-05 0 -0.026863077541729018 0.00016090404589875712 0 -0.016046193862168642 -0.0016080631080883229 0 -0.016781121923943675 -0.0012952890033877372 0 -0.0055195415138552363 -0.0037168397888645731 0 -0.007749192590554844 -0.0037630171325962734 0 -0.0055553380613958935 -0.0055892981237976001 0 -0.007749192590554844 -0.0037630171325962734 0 -0.0055553380613958935 -0.0055892981237976001 0 -0.0075005222040724186 -0.0060366969931618273 0 -0.0088905133035055862 -0.0050760539117624386 0 -0.007749192590554844 -0.0037630171325962734 0 -0.0075005222040724186 -0.0060366969931618273 0 -0.0055553380613958935 -0.0055892981237976001 0 -0.0075005222040724186 -0.0060366969931618273 0 -0.0059652768135590884 -0.0072752540789215838 0 -0.0059652768135590884 -0.0072752540789215838 0 -0.0079165308217194232 -0.008158176720140289 0 -0.0061692957377154859 -0.0085267719502778363 0 -0.0075005222040724186 -0.0060366969931618273 0 -0.0059652768135590884 -0.0072752540789215838 0 -0.0079165308217194232 -0.008158176720140289 0 0.0029812838154333167 -0.001090360807109434 0 0.00065920527073567872 -0.0012990405161325571 0 0.011858959214721883 0.0040681722106350746 0 0.011499284461669392 0.0043219523181544147 0 0.011706665272009547 0.0039744691881143717 0 -0.0088905133035055862 -0.0050760539117624386 0 -0.0075005222040724186 -0.0060366969931618273 0 -0.0093410603610282195 -0.0066850290543113951 0 -0.0075005222040724186 -0.0060366969931618273 0 -0.0079165308217194232 -0.008158176720140289 0 -0.0093410603610282195 -0.0066850290543113951 0 0.011249289442693326 0.0042486092492259172 0 0.011499284461669392 0.0043219523181544147 0 0.011304338937327787 0.0042940849317595429 0 -0.0022643923862615662 -0.0011390963851731614 0 0.00065920527073567872 -0.0012990405161325571 0 0.011499284461669392 0.0043219523181544147 0 0.011410008115307825 0.0041474789132971918 0 0.011706665272009547 0.0039744691881143717 0 0.011499284461669392 0.0043219523181544147 0 0.011304338937327787 0.0042940849317595429 0 0.011410008115307825 0.0041474789132971918 0 0.011410008115307825 0.0041474789132971918 0 0.011545499386069059 0.0038599120001617821 0 0.011172827691551576 0.0037068414218212856 0 0.011410008115307825 0.0041474789132971918 0 0.011545499386069059 0.0038599120001617821 0 0.011706665272009547 0.0039744691881143717 0 0.010987709444187387 0.0048840834370194814 0 0.011027274356968464 0.0050411559048248056 0 0.011029412097623384 0.004984421304631878 0 0.011172827691551576 0.0037068414218212856 0 0.011622519549307323 0.003379534381899476 0 0.011530649135908604 0.0022869595570870118 0 0.011703530396731623 0.0042523348918479999 0 0.012406028074038416 0.0039091124396441876 0 0.011545499386069059 0.0038599120001617821 0 0.011172827691551576 0.0037068414218212856 0 0.011622519549307323 0.003379534381899476 0 0.011545499386069059 0.0038599120001617821 0 0.011622519549307323 0.003379534381899476 0 0.011858658430942089 0.0037677530450128589 0 0.01265585491911893 0.0029887497215982475 0 0.011958309979212881 0.003020358495114507 0 0.011858658430942089 0.0037677530450128589 0 0.011622519549307323 0.003379534381899476 0 0.011958309979212881 0.003020358495114507 0 0.011858658430942089 0.0037677530450128589 0 0.011858959214721883 0.0040681722106350746 0 0.011706665272009547 0.0039744691881143717 0 0.011859604246880278 0.0037505479656618026 0 0.011858658430942089 0.0037677530450128589 0 0.011706665272009547 0.0039744691881143717 0 0.011859604246880278 0.0037505479656618026 0 0.011545499386069059 0.0038599120001617821 0 0.011858658430942089 0.0037677530450128589 0 0.011706665272009547 0.0039744691881143717 0 -0.0079165308217194232 -0.008158176720140289 0 -0.0061692957377154859 -0.0085267719502778363 0 -0.0064749979946178895 -0.0096129302785125433 0 0.0058072518529367848 -0.00048688009227082198 0 0.0082439907560836519 0.00048752813611779053 0 0.0029812838154333167 -0.001090360807109434 0 0.0058072518529367848 -0.00048688009227082198 0 0.011858959214721883 0.0040681722106350746 0 0.012069276016685903 0.0038089316978500674 0 0.011859604246880278 0.0037505479656618026 0 -0.0061692957377154859 -0.0085267719502778363 0 -0.0064749979946178895 -0.0096129302785125433 0 -0.0043109804254312647 -0.0090653143904672398 0 0.011805283660875628 0.0036771624742590425 0 0.011844140193533735 0.0037289489615808811 0 0.011717825858762541 0.003716707093418696 0 0.011869164687368072 0.00091609087609352308 0 0.011241137071942351 -0.0010431244669729864 0 0.0058072518529367848 -0.00048688009227082198 0 0.011241137071942351 -0.0010431244669729864 0 0.013576491228942989 0.0035117752197068139 0 0.014324553441627736 0.0029110687167453854 0 0.015162395998806725 0.0030208281452682303 0 0.013576491228942989 0.0035117752197068139 0 0.013555129238560198 0.0026940813075244157 0 0.014324553441627736 0.0029110687167453854 0 0.01265585491911893 0.0029887497215982475 0 0.011858658430942089 0.0037677530450128589 0 0.013576491228942989 0.0035117752197068139 0 0.011858658430942089 0.0037677530450128589 0 0.011859604246880278 0.0037505479656618026 0 0.011844140193533735 0.0037289489615808811 0 0.011805283660875628 0.0036771624742590425 0 0.011859604246880278 0.0037505479656618026 0 0.011844140193533735 0.0037289489615808811 0 0.011803207076833525 0.0014888616325259539 0 0.011869164687368072 0.00091609087609352308 0 0.01265585491911893 0.0029887497215982475 0 0.013576491228942989 0.0035117752197068139 0 0.013555129238560198 0.0026940813075244157 0 0.01265585491911893 0.0029887497215982475 0 0.013555129238560198 0.0026940813075244157 0 0.012962427808832486 0.0023708067456571719 0 0.013555129238560198 0.0026940813075244157 0 0.013446153982941507 0.0020443553208821102 0 0.012962427808832486 0.0023708067456571719 0 0.013555129238560198 0.0026940813075244157 0 0.013446153982941507 0.0020443553208821102 0 0.014206542075987942 0.0021293759038303393 0 0.013446153982941507 0.0020443553208821102 0 0.012962427808832486 0.0023708067456571719 0 0.013021104338143566 0.0017062568339453004 0 0.014625851594702118 0.002162264132427831 0 0.015522874270357147 0.0029629720744607782 0 0.015426615152798605 0.0016532818628710543 0 0.01330222626258578 0.00096095692296020089 0 0.011241137071942351 -0.0010431244669729864 0 0.014324553441627736 0.0029110687167453854 0 0.014206542075987942 0.0021293759038303393 0 0.015162395998806725 0.0030208281452682303 0 0.013555129238560198 0.0026940813075244157 0 0.014324553441627736 0.0029110687167453854 0 0.014206542075987942 0.0021293759038303393 0 0.015185210223583817 0.00091900685305344688 0 0.014126229757628251 0.0013311590715524449 0 0.01594270412581698 0.0013858724991537459 0 0.014625851594702118 0.002162264132427831 0 0.014126229757628251 0.0013311590715524449 0 0.015426615152798605 0.0016532818628710543 0 0.014906528736494003 -0.00028590057811899561 0 0.014992614256283074 -0.00055740723533749537 0 0.015185210223583817 0.00091900685305344688 0 0.014126229757628251 0.0013311590715524449 0 0.014251850371011681 0.00068039531598814947 0 0.012962427808832486 0.0023708067456571719 0 0.013021104338143566 0.0017062568339453004 0 0.012406331374640631 0.0016956299633954653 0 0.013446153982941507 0.0020443553208821102 0 0.013021104338143566 0.0017062568339453004 0 0.013414255776376321 0.0011771463737973631 0 0.014625851594702118 0.002162264132427831 0 0.014126229757628251 0.0013311590715524449 0 0.013414255776376321 0.0011771463737973631 0 0.013446153982941507 0.0020443553208821102 0 0.014206542075987942 0.0021293759038303393 0 0.013414255776376321 0.0011771463737973631 0 0.01330222626258578 0.00096095692296020089 0 0.013496312012001866 0.001161389481289161 0 0.014126229757628251 0.0013311590715524449 0 0.013529447521812236 0.00069144141897176927 0 0.014251850371011681 0.00068039531598814947 0 0.014126229757628251 0.0013311590715524449 0 0.013414255776376321 0.0011771463737973631 0 0.013529447521812236 0.00069144141897176927 0 0.013414255776376321 0.0011771463737973631 0 0.012940064759756807 0.0011393166017599481 0 0.013529447521812236 0.00069144141897176927 0 0.013021104338143566 0.0017062568339453004 0 0.013414255776376321 0.0011771463737973631 0 0.012940064759756807 0.0011393166017599481 0 0.012406028074038416 0.0039091124396441876 0 0.014055126953334204 0.0033617490253040456 0 0.012940064759756807 0.0011393166017599481 0 0.012406331374640631 0.0016956299633954653 0 0.012370095865941058 0.00033617047208283832 0 0.012406331374640631 0.0016956299633954653 0 0.011530649135908604 0.0022869595570870118 0 0.012370095865941058 0.00033617047208283832 0 0.011027274356968464 0.0050411559048248056 0 0.011046636661633901 0.005000302571038606 0 0.011093314448019261 0.0049856095274174355 0 0.013021104338143566 0.0017062568339453004 0 0.012940064759756807 0.0011393166017599481 0 0.012406331374640631 0.0016956299633954653 0 0.011035818655667553 0.0050217381722160682 0 0.011027274356968464 0.0050411559048248056 0 0.011039123751490194 0.0050250292635955216 0 0.011035818655667553 0.0050217381722160682 0 0.011027274356968464 0.0050411559048248056 0 0.011046636661633901 0.005000302571038606 0 0.011035818655667553 0.0050217381722160682 0 0.011046636661633901 0.005000302571038606 0 0.011033354905441141 0.0050141973043706135 0 0.011027274356968464 0.0050411559048248056 0 0.011039123751490194 0.0050250292635955216 0 0.011029412097623384 0.004984421304631878 0 0.011622519549307323 0.003379534381899476 0 0.011958309979212881 0.003020358495114507 0 0.011530649135908604 0.0022869595570870118 0 0.011958309979212881 0.003020358495114507 0 0.011530649135908604 0.0022869595570870118 0 0.01223892519522205 0.0024512741134118782 0 0.01265585491911893 0.0029887497215982475 0 0.012962427808832486 0.0023708067456571719 0 0.01223892519522205 0.0024512741134118782 0 0.01265585491911893 0.0029887497215982475 0 0.011958309979212881 0.003020358495114507 0 0.01223892519522205 0.0024512741134118782 0 0.012962427808832486 0.0023708067456571719 0 0.012406331374640631 0.0016956299633954653 0 0.01223892519522205 0.0024512741134118782 0 0.012406331374640631 0.0016956299633954653 0 0.011530649135908604 0.0022869595570870118 0 0.01223892519522205 0.0024512741134118782 0 0.010762874064539348 -0.006252676748160586 0 0.010812459234566323 -0.0063205714780282278 0 0.010834890870580467 -0.0062013522660333562 0 0.010688817551372843 -0.0062267717965739759 0 0.010753561228017265 -0.0061873408941136437 0 0.010762874064539348 -0.006252676748160586 0 0.010753561228017265 -0.0061873408941136437 0 0.010762874064539348 -0.006252676748160586 0 0.010834890870580467 -0.0062013522660333562 0 0.010675281465759743 -0.0063516547732824996 0 0.010762874064539348 -0.006252676748160586 0 0.010812459234566323 -0.0063205714780282278 0 0.010675281465759743 -0.0063516547732824996 0 0.010718988029130823 -0.0064814423420132767 0 0.010812459234566323 -0.0063205714780282278 0 0.010881387734814113 -0.0064082807689129122 0 0.010718988029130823 -0.0064814423420132767 0 0.010812459234566323 -0.0063205714780282278 0 0.010812459234566323 -0.0063205714780282278 0 0.010906168608848439 -0.0063058554563321855 0 0.01091185266119277 -0.0062298689990914861 0 0.010881387734814113 -0.0064082807689129122 0 0.010906168608848439 -0.0063058554563321855 0 0.011051789704377346 -0.0062671497515955649 0 0.010881387734814113 -0.0064082807689129122 0 0.010812459234566323 -0.0063205714780282278 0 0.010906168608848439 -0.0063058554563321855 0 0.010812459234566323 -0.0063205714780282278 0 0.01091185266119277 -0.0062298689990914861 0 0.010834890870580467 -0.0062013522660333562 0 0.01091185266119277 -0.0062298689990914861 0 0.010834890870580467 -0.0062013522660333562 0 0.010945559930517847 -0.0061352987368567674 0 0.012094376107833671 -0.004312964793379382 0 0.012528926806869334 -0.0031900483233430347 0 0.011034739938708397 -0.0061295581295435653 0 0.011293644894155352 -0.0060345660768276275 0 0.010965858588480074 -0.0059767513571026632 0 0.01091185266119277 -0.0062298689990914861 0 0.011034739938708397 -0.0061295581295435653 0 0.010965858588480074 -0.0059767513571026632 0 0.011034739938708397 -0.0061295581295435653 0 0.011051789704377346 -0.0062671497515955649 0 0.011293644894155352 -0.0060345660768276275 0 0.01091185266119277 -0.0062298689990914861 0 0.011034739938708397 -0.0061295581295435653 0 0.011051789704377346 -0.0062671497515955649 0 0.0050961850812376117 -0.0049204470060050381 0 0.0026785095109134465 -0.0040023414833465507 0 0.0052211432850472403 -0.0038122513857982471 0 0.0063705137062986068 -0.0027071838629651188 0 0.0069925258845634644 -0.0032861001206453081 0 0.0050961850812376117 -0.0049204470060050381 0 0.0080566365689857984 -0.0034258634494148811 0 0.010906168608848439 -0.0063058554563321855 0 0.01091185266119277 -0.0062298689990914861 0 0.011051789704377346 -0.0062671497515955649 0 0.0058072518529367848 -0.00048688009227082198 0 0.0026785095109134465 -0.0040023414833465507 0 0.0063705137062986068 -0.0027071838629651188 0 0.0069925258845634644 -0.0032861001206453081 0 0.0074562074446003742 -0.0024098580430534145 0 0.0087446660850354144 -0.0027704684809403369 0 0.0069925258845634644 -0.0032861001206453081 0 0.0074562074446003742 -0.0024098580430534145 0 0.0080566365689857984 -0.0034258634494148811 0 0.011241137071942351 -0.0010431244669729864 0 0.0063705137062986068 -0.0027071838629651188 0 0.0074562074446003742 -0.0024098580430534145 0 0.007569537945581125 -0.0015783940813306717 0 0.0087446660850354144 -0.0027704684809403369 0 0.0074562074446003742 -0.0024098580430534145 0 0.007569537945581125 -0.0015783940813306717 0 0.011241137071942351 -0.0010431244669729864 0 0.013942379126321522 -0.0016995669850238407 0 0.015522874270357147 0.0029629720744607782 0 0.015426615152798605 0.0016532818628710543 0 0.016575714684990622 0.0018771587798356126 0 0.012145115179927002 -0.0014858951666647088 0 0.013375500055096867 -0.0027261193944763404 0 0.013014855615353101 -0.0020393801098344162 0 0.014992614256283074 -0.00055740723533749537 0 0.013942379126321522 -0.0016995669850238407 0 0.01594270412581698 0.0013858724991537459 0 0.015971185522632797 0.00099094580651057926 0 0.015986991703796229 0.0010756293227265202 0 0.015185210223583817 0.00091900685305344688 0 0.01594270412581698 0.0013858724991537459 0 0.016225102497122279 0.0009588128279709614 0 0.01594270412581698 0.0013858724991537459 0 0.016225102497122279 0.0009588128279709614 0 0.015986991703796229 0.0010756293227265202 0 0.016225102497122279 0.0009588128279709614 0 0.015986991703796229 0.0010756293227265202 0 0.015685748210069867 0.0013173917686428076 0 0.015986991703796229 0.0010756293227265202 0 0.015949166113812412 0.0009870293074491466 0 0.015685748210069867 0.0013173917686428076 0 0.014677134713158374 -0.0022091456504540106 0 0.014884782319113846 -0.0024198728955303127 0 0.01459905577852985 -0.0024608944740907614 0 0.014058759260812254 -0.0017985537063284365 0 0.016243545317019617 -0.0012685674683627361 0 0.015971185522632797 0.00099094580651057926 0 0.015986991703796229 0.0010756293227265202 0 0.015949166113812412 0.0009870293074491466 0 0.014014587771499507 -0.0034586299400192187 0 0.01399966241351965 -0.0035042524718004466 0 0.01370881862481535 -0.0031536589084520737 0 0.014058759260812254 -0.0017985537063284365 0 0.013787754936137169 -0.0019388692498201146 0 0.013981637104214234 -0.0011050242394335546 0 0.014687834748308835 -0.0018189016701232797 0 0.014984715176549358 -0.00090324892379499216 0 0.013942379126321522 -0.0016995669850238407 0 0.013787754936137169 -0.0019388692498201146 0 0.013942379126321522 -0.0016995669850238407 0 0.014058759260812254 -0.0017985537063284365 0 0.013787754936137169 -0.0019388692498201146 0 0.012528926806869334 -0.0031900483233430347 0 0.01354384254575188 -0.0026925637259764914 0 0.013014855615353101 -0.0020393801098344162 0 0.013814795204638446 -0.0018531281388888493 0 0.012145115179927002 -0.0014858951666647088 0 0.013014855615353101 -0.0020393801098344162 0 0.013814795204638446 -0.0018531281388888493 0 0.011241137071942351 -0.0010431244669729864 0 0.012528926806869334 -0.0031900483233430347 0 0.013375500055096867 -0.0027261193944763404 0 0.01354384254575188 -0.0026925637259764914 0 0.013014855615353101 -0.0020393801098344162 0 0.013787754936137169 -0.0019388692498201146 0 0.012170409455256067 -0.0036574850421634457 0 0.012528926806869334 -0.0031900483233430347 0 0.012170409455256067 -0.0036574850421634457 0 0.012464261024182405 -0.0032633075870834392 0 0.012494646026921484 -0.0031670949787274095 0 0.012693917007931092 -0.003223351399259191 0 0.010834890870580467 -0.0062013522660333562 0 0.010945559930517847 -0.0061352987368567674 0 0.010787684628060127 -0.0061115265653906101 0 0.01399966241351965 -0.0035042524718004466 0 0.013401119073719926 -0.0036348828110507247 0 0.01370881862481535 -0.0031536589084520737 0 0.014058759260812254 -0.0017985537063284365 0 0.015053848472561302 -0.0027062288289816964 0 0.013254844301227982 -0.003230805567909147 0 0.013401119073719926 -0.0036348828110507247 0 0.01370881862481535 -0.0031536589084520737 0 0.011751991191580191 -0.0038904997043582375 0 0.012170409455256067 -0.0036574850421634457 0 0.010753561228017265 -0.0061873408941136437 0 0.010834890870580467 -0.0062013522660333562 0 0.010787684628060127 -0.0061115265653906101 0 0.010700309063538856 -0.0061455887132243446 0 0.010753561228017265 -0.0061873408941136437 0 0.010787684628060127 -0.0061115265653906101 0 0.015084075902587578 -0.003779596367249026 0 0.016249681337323411 -0.0041062972489416105 0 0.015698651750152417 -0.0047793070001401223 0 0.016249681337323411 -0.0041062972489416105 0 0.015698651750152417 -0.0047793070001401223 0 0.016625204870355674 -0.0047587884532706778 0 0.015387306282823003 -0.0059033608834618964 0 0.015698651750152417 -0.0047793070001401223 0 0.016463580151430061 -0.005359782657734305 0 0.015387306282823003 -0.0059033608834618964 0 0.016463580151430061 -0.005359782657734305 0 0.016770294734922763 -0.0056667369165072819 0 0.014155173614791534 -0.0035932421587453363 0 0.015053848472561302 -0.0027062288289816964 0 0.015698651750152417 -0.0047793070001401223 0 0.016463580151430061 -0.005359782657734305 0 0.016625204870355674 -0.0047587884532706778 0 0.016463580151430061 -0.005359782657734305 0 0.01701663616329753 -0.005197771431774403 0 0.016625204870355674 -0.0047587884532706778 0 0.016463580151430061 -0.005359782657734305 0 0.016754172104271159 -0.0056211404750423615 0 0.01701663616329753 -0.005197771431774403 0 0.015194769378716447 -0.0028716064395741051 0 0.015053848472561302 -0.0027062288289816964 0 0.01701663616329753 -0.005197771431774403 0 0.016625204870355674 -0.0047587884532706778 0 0.017289347143337255 -0.0048284087799070566 0 0.016625204870355674 -0.0047587884532706778 0 0.01706841583039706 -0.00426827267688737 0 0.017289347143337255 -0.0048284087799070566 0 0.016249681337323411 -0.0041062972489416105 0 0.016625204870355674 -0.0047587884532706778 0 0.01706841583039706 -0.00426827267688737 0 0.016249681337323411 -0.0041062972489416105 0 0.01706841583039706 -0.00426827267688737 0 0.017205869473832833 -0.0036690186697170071 0 0.01706841583039706 -0.00426827267688737 0 0.017289347143337255 -0.0048284087799070566 0 0.018321995400539859 -0.0040476530562978414 0 0.017289347143337255 -0.0048284087799070566 0 0.017899515431104823 -0.005396591589140267 0 0.018321995400539859 -0.0040476530562978414 0 0.016754172104271159 -0.0056211404750423615 0 0.01701663616329753 -0.005197771431774403 0 0.017899515431104823 -0.005396591589140267 0 0.015053848472561302 -0.0027062288289816964 0 0.016243545317019617 -0.0012685674683627361 0 0.01701663616329753 -0.005197771431774403 0 0.017289347143337255 -0.0048284087799070566 0 0.017899515431104823 -0.005396591589140267 0 0.016225102497122279 0.0009588128279709614 0 0.015685748210069867 0.0013173917686428076 0 0.016944713940198083 0.0019992626081631825 0 0.020657324088351151 0.0024635402795173587 0 0.020295207553642808 0.0024177928109189806 0 0.020501725533042019 0.0018747808260932074 0 0.016243545317019617 -0.0012685674683627361 0 0.017933406166450522 -0.00025339643864123881 0 0.020295207553642808 0.0024177928109189806 0 0.020501725533042019 0.0018747808260932074 0 0.020167699593337158 0.0020577609848255818 0 0.016243545317019617 -0.0012685674683627361 0 0.018147376716905503 -0.00086219518118670221 0 0.018147376716905503 -0.00086219518118670221 0 0.019077380627293382 -0.0007174817960594812 0 0.020501725533042019 0.0018747808260932074 0 0.020462222855059258 0.0012860622506234811 0 0.020093521501346939 0.0017610992411461555 0 0.018321995400539859 -0.0040476530562978414 0 0.018750619195775156 -0.0030633332738971663 0 0.017873696181938799 -0.0031912936181790162 0 0.018750619195775156 -0.0030633332738971663 0 0.017873696181938799 -0.0031912936181790162 0 0.017895842829901733 -0.0024980227863191586 0 0.017873696181938799 -0.0031912936181790162 0 0.016843600328147662 -0.0028673224460529509 0 0.017895842829901733 -0.0024980227863191586 0 0.01706841583039706 -0.00426827267688737 0 0.018321995400539859 -0.0040476530562978414 0 0.017205869473832833 -0.0036690186697170071 0 0.018321995400539859 -0.0040476530562978414 0 0.017873696181938799 -0.0031912936181790162 0 0.017205869473832833 -0.0036690186697170071 0 0.016249681337323411 -0.0041062972489416105 0 0.017205869473832833 -0.0036690186697170071 0 0.015904269197725755 -0.0032436565383162624 0 0.016781813640447753 -0.0030806585128629088 0 0.016438431565150308 -0.0024805423342907197 0 0.017205869473832833 -0.0036690186697170071 0 0.015904269197725755 -0.0032436565383162624 0 0.016134887168444821 -0.0020802030975113862 0 0.017873696181938799 -0.0031912936181790162 0 0.017205869473832833 -0.0036690186697170071 0 0.016843600328147662 -0.0028673224460529509 0 0.014984083960066128 -0.0026184703449056049 0 0.016134887168444821 -0.0020802030975113862 0 0.015020311381869244 -0.0018110115492051076 0 0.014984083960066128 -0.0026184703449056049 0 0.015904269197725755 -0.0032436565383162624 0 0.016134887168444821 -0.0020802030975113862 0 0.015084075902587578 -0.003779596367249026 0 0.016249681337323411 -0.0041062972489416105 0 0.015904269197725755 -0.0032436565383162624 0 0.015084075902587578 -0.003779596367249026 0 0.014984083960066128 -0.0026184703449056049 0 0.015904269197725755 -0.0032436565383162624 0 0.01951668134448311 0.002235978185166171 0 0.019702318546646547 0.0021304989413898595 0 0.019458678433937334 0.0019927778490877691 0 0.01951668134448311 0.002235978185166171 0 0.019179131344452656 0.0021323470376301895 0 0.019458678433937334 0.0019927778490877691 0 0.017127125165143836 0.0029507268772624375 0 0.018112521235007811 0.0024959825755292756 0 0.017000296374227661 0.0029306627810501153 0 0.017127125165143836 0.0029507268772624375 0 0.015466497143798193 0.003329949202512558 0 0.015485243998098254 0.0033428074850293571 0 0.015475438465633075 0.0033298594835151213 0 0.015485243998098254 0.0033428074850293571 0 0.015475438465633075 0.0033298594835151213 0 0.015482980497958413 0.0033309691743947296 0 0.015475438465633075 0.0033298594835151213 0 0.015473846316992432 0.0033227117288495839 0 0.015467203834069361 0.0033249317485327984 0 0.015482980497958413 0.0033309691743947296 0 0.015473846316992432 0.0033227117288495839 0 0.015486125965732999 0.0033226978854683088 0 0.013707975227001887 0.0039655823028996104 0 0.013842133036410902 0.0044449754569186291 0 0.015475438465633075 0.0033298594835151213 0 0.015482980497958413 0.0033309691743947296 0 0.015473846316992432 0.0033227117288495839 0 0.015473846316992432 0.0033227117288495839 0 0.015467203834069361 0.0033249317485327984 0 0.015462453252293387 0.0033203197173351587 0 0.013707975227001887 0.0039655823028996104 0 0.014055126953334204 0.0033617490253040456 0 0.015466497143798193 0.003329949202512558 0 0.015475438465633075 0.0033298594835151213 0 0.015467203834069361 0.0033249317485327984 0 0.015466497143798193 0.003329949202512558 0 0.015467203834069361 0.0033249317485327984 0 0.015462043744655323 0.0033206413668216746 0 0.015467203834069361 0.0033249317485327984 0 0.015462043744655323 0.0033206413668216746 0 0.015462453252293387 0.0033203197173351587 0 0.014071984195839394 0.003348526541381425 0 0.014055126953334204 0.0033617490253040456 0 0.012370095865941058 0.00033617047208283832 0 0.013529447521812236 0.00069144141897176927 0 0.013978260278028025 -0.00010368058561881697 0 0.015462043744655323 0.0033206413668216746 0 0.01546266058295835 0.0033175354647309477 0 0.015450922510476963 0.0033124162701935519 0 0.015466497143798193 0.003329949202512558 0 0.015462043744655323 0.0033206413668216746 0 0.015450922510476963 0.0033124162701935519 0 0.017000296374227661 0.0029306627810501153 0 0.016003558175479968 0.0027314885781323118 0 0.014055126953334204 0.0033617490253040456 0 0.016003558175479968 0.0027314885781323118 0 0.012940064759756807 0.0011393166017599481 0 0.012370095865941058 0.00033617047208283832 0 0.013529447521812236 0.00069144141897176927 0 0.013529447521812236 0.00069144141897176927 0 0.013978260278028025 -0.00010368058561881697 0 0.014251850371011681 0.00068039531598814947 0 0.019900328449033347 0.0022693046854657265 0 0.019871672916948347 0.0022337871428651781 0 0.019702318546646547 0.0021304989413898595 0 0.019992802284554786 0.0022330015960502327 0 0.019900328449033347 0.0022693046854657265 0 0.019871672916948347 0.0022337871428651781 0 0.016033339602936587 0.0027259051831480248 0 0.016003558175479968 0.0027314885781323118 0 0.020295207553642808 0.0024177928109189806 0 0.019692041017867944 0.0023114690919307981 0 0.019950124940983232 0.0021976029012776297 0 0.016225102497122279 0.0009588128279709614 0 0.016944713940198083 0.0019992626081631825 0 0.019692041017867944 0.0023114690919307981 0 0.016225102497122279 0.0009588128279709614 0 0.019992802284554786 0.0022330015960502327 0 0.019692041017867944 0.0023114690919307981 0 0.015185210223583817 0.00091900685305344688 0 0.016225102497122279 0.0009588128279709614 0 0.013978260278028025 -0.00010368058561881697 0 0.016225102497122279 0.0009588128279709614 0 0.019992802284554786 0.0022330015960502327 0 0.020339322994377327 0.0021415835752893581 0 0.017933406166450522 -0.00025339643864123881 0 0.018474933773966851 6.4768618243066808e-05 0 0.016107688707681801 0.0022934164453636452 0 0.016003558175479968 0.0027314885781323118 0 0.015185210223583817 0.00091900685305344688 0 0.013978260278028025 -0.00010368058561881697 0 0.014251850371011681 0.00068039531598814947 0 0.019992802284554786 0.0022330015960502327 0 0.019871672916948347 0.0022337871428651781 0 0.019692041017867944 0.0023114690919307981 0 0.019871672916948347 0.0022337871428651781 0 0.019692041017867944 0.0023114690919307981 0 0.019950124940983232 0.0021976029012776297 0 0.020295207553642808 0.0024177928109189806 0 0.019950124940983232 0.0021976029012776297 0 0.020167699593337158 0.0020577609848255818 0 0.020501725533042019 0.0018747808260932074 0 0.020167699593337158 0.0020577609848255818 0 0.020093521501346939 0.0017610992411461555 0 0.019950124940983232 0.0021976029012776297 0 0.020167699593337158 0.0020577609848255818 0 0.019946669160633354 0.0020801622392340518 0 0.019871672916948347 0.0022337871428651781 0 0.019950124940983232 0.0021976029012776297 0 0.019946669160633354 0.0020801622392340518 0 0.019946669160633354 0.0020801622392340518 0 0.019877357079393834 0.0019505973255755677 0 0.020093521501346939 0.0017610992411461555 0 0.020167699593337158 0.0020577609848255818 0 0.019946669160633354 0.0020801622392340518 0 0.020093521501346939 0.0017610992411461555 0 0.01951668134448311 0.002235978185166171 0 0.019900328449033347 0.0022693046854657265 0 0.019702318546646547 0.0021304989413898595 0 0.019702318546646547 0.0021304989413898595 0 0.019877357079393834 0.0019505973255755677 0 0.019755447907797385 0.0017951899992715292 0 0.019871672916948347 0.0022337871428651781 0 0.019946669160633354 0.0020801622392340518 0 0.019702318546646547 0.0021304989413898595 0 0.019946669160633354 0.0020801622392340518 0 0.019702318546646547 0.0021304989413898595 0 0.019877357079393834 0.0019505973255755677 0 0.019877357079393834 0.0019505973255755677 0 0.019755447907797385 0.0017951899992715292 0 0.020093521501346939 0.0017610992411461555 0 0.019755447907797385 0.0017951899992715292 0 0.020093521501346939 0.0017610992411461555 0 0.019898069564631419 0.001272983731921631 0 0.020462222855059258 0.0012860622506234811 0 0.020093521501346939 0.0017610992411461555 0 0.019898069564631419 0.001272983731921631 0 0.019898069564631419 0.001272983731921631 0 0.019365565310824309 0.0014463212996253085 0 0.019176402980334847 0.00074865769333273271 0 0.019755447907797385 0.0017951899992715292 0 0.019898069564631419 0.001272983731921631 0 0.019365565310824309 0.0014463212996253085 0 0.019702318546646547 0.0021304989413898595 0 0.019755447907797385 0.0017951899992715292 0 0.019458678433937334 0.0019927778490877691 0 0.019755447907797385 0.0017951899992715292 0 0.019365565310824309 0.0014463212996253085 0 0.019458678433937334 0.0019927778490877691 0 0.018666231708104067 0.0026380810520281244 0 0.01885737002244298 0.0017689543607824652 0 0.01831845332604453 0.0021138217888996835 0 0.019365565310824309 0.0014463212996253085 0 0.019458678433937334 0.0019927778490877691 0 0.01885737002244298 0.0017689543607824652 0 0.018666231708104067 0.0026380810520281244 0 0.019458678433937334 0.0019927778490877691 0 0.01885737002244298 0.0017689543607824652 0 0.018916377471113837 0.0012815980127986453 0 0.018206347289588601 0.0012137444120188608 0 0.019176402980334847 0.00074865769333273271 0 0.019365565310824309 0.0014463212996253085 0 0.018916377471113837 0.0012815980127986453 0 0.019176402980334847 0.00074865769333273271 0 0.01885737002244298 0.0017689543607824652 0 0.018916377471113837 0.0012815980127986453 0 0.018206347289588601 0.0012137444120188608 0 0.019365565310824309 0.0014463212996253085 0 0.01885737002244298 0.0017689543607824652 0 0.018916377471113837 0.0012815980127986453 0 0.019396540789564452 0.0013951723156668419 0 0.018853235611810199 0.0013200788507709809 0 0.018761591943038163 0.0016153243111174608 0 0.019396540789564452 0.0013951723156668419 0 0.018853235611810199 0.0013200788507709809 0 0.019133729252933204 0.0011216111745439119 0 0.019396540789564452 0.0013951723156668419 0 0.018761591943038163 0.0016153243111174608 0 0.018826751336483732 0.0019823053848725737 0 0.016942531046045522 0.002769422170023472 0 0.017793562172437882 0.0020404026170031827 0 0.01698088423373156 0.0035593356395620616 0 0.01850340754963975 0.0014909215737966652 0 0.017257675942296463 0.0024818493332329568 0 0.018206347289588601 0.0012137444120188608 0 0.016648364201041634 0.0022998934500422252 0 0.017086214366214058 0.0022410669925043989 0 0.016462725748244398 0.0023817920908288629 0 0.016942531046045522 0.002769422170023472 0 0.01637355084869067 0.0033304716642457294 0 0.016462725748244398 0.0023817920908288629 0 0.016942531046045522 0.002769422170023472 0 0.017086214366214058 0.0022410669925043989 0 0.017257675942296463 0.0024818493332329568 0 0.017243521027882548 0.0024810644914834393 0 0.016942531046045522 0.002769422170023472 0 0.017086214366214058 0.0022410669925043989 0 0.017793562172437882 0.0020404026170031827 0 0.01831845332604453 0.0021138217888996835 0 0.017793562172437882 0.0020404026170031827 0 0.017985618903504943 0.0024923724873197237 0 0.018206347289588601 0.0012137444120188608 0 0.017086214366214058 0.0022410669925043989 0 0.017793562172437882 0.0020404026170031827 0 0.01885737002244298 0.0017689543607824652 0 0.018206347289588601 0.0012137444120188608 0 0.01831845332604453 0.0021138217888996835 0 0.018206347289588601 0.0012137444120188608 0 0.01831845332604453 0.0021138217888996835 0 0.017793562172437882 0.0020404026170031827 0 0.017730402454033654 0.003010587559727849 0 0.016345581505633623 0.0036510594296714533 0 0.016757159675010076 0.0029110297887028468 0 0.017154026968305206 0.0025466870163831264 0 0.017730402454033654 0.003010587559727849 0 0.017539631161534522 0.0019928180519857524 0 0.017154026968305206 0.0025466870163831264 0 0.016757159675010076 0.0029110297887028468 0 0.016552685445136141 0.0022664969791362142 0 0.017154026968305206 0.0025466870163831264 0 0.017730402454033654 0.003010587559727849 0 0.016757159675010076 0.0029110297887028468 0 0.018853235611810199 0.0013200788507709809 0 0.018188243013188186 0.001534690987460234 0 0.018749542744050076 0.00085839642353368283 0 0.018853235611810199 0.0013200788507709809 0 0.018761591943038163 0.0016153243111174608 0 0.018188243013188186 0.001534690987460234 0 0.018761591943038163 0.0016153243111174608 0 0.018188243013188186 0.001534690987460234 0 0.018503352780180529 0.0018349900897039236 0 0.018826751336483732 0.0019823053848725737 0 0.018503352780180529 0.0018349900897039236 0 0.018233124416367368 0.0021331263066337947 0 0.016088666025105915 0.0029256857633745172 0 0.014953041612545044 0.0032105837708990364 0 0.015385041962986297 0.0035882533956090958 0 0.018188243013188186 0.001534690987460234 0 0.018503352780180529 0.0018349900897039236 0 0.018233124416367368 0.0021331263066337947 0 0.017257675942296463 0.0024818493332329568 0 0.016591896570341359 0.0028759009634257951 0 0.018761591943038163 0.0016153243111174608 0 0.018826751336483732 0.0019823053848725737 0 0.018503352780180529 0.0018349900897039236 0 0.017257675942296463 0.0024818493332329568 0 0.016829259252324969 0.0028188466499669074 0 0.017509748194497826 0.002201258349630118 0 0.015834356380551817 0.0033490243022277133 0 0.018188243013188186 0.001534690987460234 0 0.018233124416367368 0.0021331263066337947 0 0.017614426518317926 0.0022756680446265323 0 0.017730402454033654 0.003010587559727849 0 0.016414286123914486 0.0047108326434513736 0 0.016345581505633623 0.0036510594296714533 0 0.016591896570341359 0.0028759009634257951 0 0.015834356380551817 0.0033490243022277133 0 0.014953041612545044 0.0032105837708990364 0 0.014257973117522483 0.0037993784414576308 0 0.013772099776237537 0.003695467862046665 0 0.01405504893497537 0.0042115443213551563 0 0.014257973117522483 0.0037993784414576308 0 0.01462139346945693 0.0038301604219293231 0 0.01405504893497537 0.0042115443213551563 0 0.01462139346945693 0.0038301604219293231 0 0.014447716153494463 0.0043315253512986249 0 0.01405504893497537 0.0042115443213551563 0 0.014257973117522483 0.0037993784414576308 0 0.013895198331242335 0.0040216069206927968 0 0.014953041612545044 0.0032105837708990364 0 0.014257973117522483 0.0037993784414576308 0 0.01462139346945693 0.0038301604219293231 0 0.01462139346945693 0.0038301604219293231 0 0.014447716153494463 0.0043315253512986249 0 0.014914270119174997 0.0041345775759116495 0 0.01462139346945693 0.0038301604219293231 0 0.014914270119174997 0.0041345775759116495 0 0.015385041962986297 0.0035882533956090958 0 0.014914270119174997 0.0041345775759116495 0 0.015385041962986297 0.0035882533956090958 0 0.015372768633289473 0.004349348837668591 0 0.014953041612545044 0.0032105837708990364 0 0.01462139346945693 0.0038301604219293231 0 0.015385041962986297 0.0035882533956090958 0 0.016462725748244398 0.0023817920908288629 0 0.015385041962986297 0.0035882533956090958 0 0.01637355084869067 0.0033304716642457294 0 0.015385041962986297 0.0035882533956090958 0 0.016178482302584663 0.0041012795122367159 0 0.01637355084869067 0.0033304716642457294 0 0.015385041962986297 0.0035882533956090958 0 0.016178482302584663 0.0041012795122367159 0 0.015372768633289473 0.004349348837668591 0 0.016178482302584663 0.0041012795122367159 0 0.015631793906083505 0.0051206923092440093 0 0.015372768633289473 0.004349348837668591 0 0.015631793906083505 0.0051206923092440093 0 0.015372768633289473 0.004349348837668591 0 0.014860064709769973 0.0047729437531421641 0 0.014914270119174997 0.0041345775759116495 0 0.015372768633289473 0.004349348837668591 0 0.014860064709769973 0.0047729437531421641 0 0.014860064709769973 0.0047729437531421641 0 0.013846015692049365 0.0054561090999526683 0 0.013909680186659692 0.0049970649136438306 0 0.015631793906083505 0.0051206923092440093 0 0.014860064709769973 0.0047729437531421641 0 0.013846015692049365 0.0054561090999526683 0 0.014447716153494463 0.0043315253512986249 0 0.014914270119174997 0.0041345775759116495 0 0.014860064709769973 0.0047729437531421641 0 0.014447716153494463 0.0043315253512986249 0 0.014860064709769973 0.0047729437531421641 0 0.014357600811642007 0.0046901236921819559 0 0.014860064709769973 0.0047729437531421641 0 0.014357600811642007 0.0046901236921819559 0 0.013909680186659692 0.0049970649136438306 0 0.014357600811642007 0.0046901236921819559 0 0.013965160791441637 0.0046731205432771223 0 0.013909680186659692 0.0049970649136438306 0 0.014447716153494463 0.0043315253512986249 0 0.014357600811642007 0.0046901236921819559 0 0.013965160791441637 0.0046731205432771223 0 0.01405504893497537 0.0042115443213551563 0 0.014447716153494463 0.0043315253512986249 0 0.013965160791441637 0.0046731205432771223 0 0.016102084388951554 0.0032109417841664207 0 0.01577364437875356 0.0037207127999877277 0 0.017793562172437882 0.0020404026170031827 0 0.018051909889669537 0.0029592754926182903 0 0.017985618903504943 0.0024923724873197237 0 0.015485243998098254 0.0033428074850293571 0 0.015482980497958413 0.0033309691743947296 0 0.015494434941359518 0.003338676446616398 0 0.017127125165143836 0.0029507268772624375 0 0.01577364437875356 0.0037207127999877277 0 0.017127125165143836 0.0029507268772624375 0 0.017349083744981505 0.0029729575067037046 0 0.0185418413362529 0.0026974786287344912 0 0.018051909889669537 0.0029592754926182903 0 0.017985618903504943 0.0024923724873197237 0 0.018666231708104067 0.0026380810520281244 0 0.01831845332604453 0.0021138217888996835 0 0.017985618903504943 0.0024923724873197237 0 0.017793562172437882 0.0020404026170031827 0 0.018089565480232595 0.0041159844849990987 0 0.01698088423373156 0.0035593356395620616 0 0.016178482302584663 0.0041012795122367159 0 0.018089565480232595 0.0041159844849990987 0 0.01698088423373156 0.0035593356395620616 0 0.016178482302584663 0.0041012795122367159 0 0.01698088423373156 0.0035593356395620616 0 0.01637355084869067 0.0033304716642457294 0 0.016942531046045522 0.002769422170023472 0 0.01698088423373156 0.0035593356395620616 0 0.01637355084869067 0.0033304716642457294 0 0.016178482302584663 0.0041012795122367159 0 0.015631793906083505 0.0051206923092440093 0 0.018089565480232595 0.0041159844849990987 0 0.015088353738387865 0.004573020970408459 0 0.01577364437875356 0.0037207127999877277 0 0.014626477470818827 0.0050765352455857393 0 0.015331363586172124 0.00472097135900338 0 0.015055016732065756 0.0050511109426504795 0 0.015055016732065756 0.0050511109426504795 0 0.014957570350420248 0.0052034706173490234 0 0.015425466624769494 0.0052599248452937326 0 0.014626477470818827 0.0050765352455857393 0 0.015055016732065756 0.0050511109426504795 0 0.014957570350420248 0.0052034706173490234 0 0.01577364437875356 0.0037207127999877277 0 0.013842133036410902 0.0044449754569186291 0 0.015482980497958413 0.0033309691743947296 0 0.015494434941359518 0.003338676446616398 0 0.015486125965732999 0.0033226978854683088 0 0.015331363586172124 0.00472097135900338 0 0.015055016732065756 0.0050511109426504795 0 0.015425466624769494 0.0052599248452937326 0 0.011035818655667553 0.0050217381722160682 0 0.011033354905441141 0.0050141973043706135 0 0.011039123751490194 0.0050250292635955216 0 0.011121234600918252 0.0056345559084399728 0 0.011061839431730237 0.0053366766711054449 0 0.011334474357897369 0.0054404942994150272 0 0.013842133036410902 0.0044449754569186291 0 0.013165385212162529 0.0046826908303179253 0 0.013165385212162529 0.0046826908303179253 0 0.012949685314342879 0.0047207769958255708 0 0.011061839431730237 0.0053366766711054449 0 0.011222052350424118 0.0050966380109050864 0 0.011029412097623384 0.004984421304631878 0 0.011061839431730237 0.0053366766711054449 0 0.011259099156727933 0.0052714890136350548 0 0.011222052350424118 0.0050966380109050864 0 0.011061839431730237 0.0053366766711054449 0 0.011259099156727933 0.0052714890136350548 0 0.011334474357897369 0.0054404942994150272 0 0.01141207079869324 0.0052118530456766593 0 0.01153921633928833 0.0053292276829606158 0 0.011582263466699614 0.0051352812267139959 0 0.011259099156727933 0.0052714890136350548 0 0.011222052350424118 0.0050966380109050864 0 0.01141207079869324 0.0052118530456766593 0 0.011259099156727933 0.0052714890136350548 0 0.01141207079869324 0.0052118530456766593 0 0.011334474357897369 0.0054404942994150272 0 0.01141207079869324 0.0052118530456766593 0 0.01153921633928833 0.0053292276829606158 0 0.011334474357897369 0.0054404942994150272 0 0.013842133036410902 0.0044449754569186291 0 0.013216037241362843 0.005056229443494176 0 0.01153921633928833 0.0053292276829606158 0 0.011334474357897369 0.0054404942994150272 0 0.011586235380217897 0.0055634045584748264 0 0.011121234600918252 0.0056345559084399728 0 0.011334474357897369 0.0054404942994150272 0 0.011586235380217897 0.0055634045584748264 0 0.014957570350420248 0.0052034706173490234 0 0.015425466624769494 0.0052599248452937326 0 0.014720923419714415 0.0054226015972248026 0 0.014626477470818827 0.0050765352455857393 0 0.014957570350420248 0.0052034706173490234 0 0.014720923419714415 0.0054226015972248026 0 0.013216037241362843 0.005056229443494176 0 0.013065682935002831 0.0052891819922368478 0 0.014626477470818827 0.0050765352455857393 0 0.014720923419714415 0.0054226015972248026 0 0.014292638190211773 0.0053950093017805685 0 0.014720923419714415 0.0054226015972248026 0 0.014292638190211773 0.0053950093017805685 0 0.013966030028813799 0.0056226259993874929 0 0.014626477470818827 0.0050765352455857393 0 0.014292638190211773 0.0053950093017805685 0 0.013846015692049365 0.0054561090999526683 0 0.011586235380217897 0.0055634045584748264 0 0.012118101175262557 0.0055560093403740725 0 0.011939959479629832 0.0054074188613955155 0 0.015088353738387865 0.004573020970408459 0 0.01450482166227586 0.0049666972085466565 0 0.014292638190211773 0.0053950093017805685 0 0.013966030028813799 0.0056226259993874929 0 0.013846015692049365 0.0054561090999526683 0 0.012043120662454497 0.0052184874406939006 0 0.01176457141202608 0.0052825694037029382 0 0.011708813902668687 0.0049183884936949123 0 0.011939959479629832 0.0054074188613955155 0 0.012043120662454497 0.0052184874406939006 0 0.012262172910295886 0.0053811355106344804 0 0.012118101175262557 0.0055560093403740725 0 0.011939959479629832 0.0054074188613955155 0 0.012262172910295886 0.0053811355106344804 0 0.011939959479629832 0.0054074188613955155 0 0.012043120662454497 0.0052184874406939006 0 0.01176457141202608 0.0052825694037029382 0 0.011586235380217897 0.0055634045584748264 0 0.011939959479629832 0.0054074188613955155 0 0.01176457141202608 0.0052825694037029382 0 0.01153921633928833 0.0053292276829606158 0 0.011586235380217897 0.0055634045584748264 0 0.01176457141202608 0.0052825694037029382 0 0.01153921633928833 0.0053292276829606158 0 0.01176457141202608 0.0052825694037029382 0 0.011582263466699614 0.0051352812267139959 0 0.011582263466699614 0.0051352812267139959 0 0.011708813902668687 0.0049183884936949123 0 0.011409444613327935 0.0049041933687200574 0 0.01176457141202608 0.0052825694037029382 0 0.011582263466699614 0.0051352812267139959 0 0.011708813902668687 0.0049183884936949123 0 0.011708813902668687 0.0049183884936949123 0 0.011512304792499078 0.0046130720694314807 0 0.011409444613327935 0.0049041933687200574 0 0.012043120662454497 0.0052184874406939006 0 0.011708813902668687 0.0049183884936949123 0 0.01203172099426306 0.0048465532659219086 0 0.011759585928191601 0.0045486586351010973 0 0.011708813902668687 0.0049183884936949123 0 0.01203172099426306 0.0048465532659219086 0 0.011759585928191601 0.0045486586351010973 0 0.01203172099426306 0.0048465532659219086 0 0.012043591189238626 0.0045741629321096999 0 0.011759585928191601 0.0045486586351010973 0 0.011708813902668687 0.0049183884936949123 0 0.011512304792499078 0.0046130720694314807 0 0.011224543237580452 0.004333222641039477 0 0.011512304792499078 0.0046130720694314807 0 0.011409444613327935 0.0049041933687200574 0 0.011224543237580452 0.004333222641039477 0 0.011410008115307825 0.0041474789132971918 0 0.011172827691551576 0.0037068414218212856 0 0.011224543237580452 0.004333222641039477 0 0.010987709444187387 0.0048840834370194814 0 0.011166358094636872 0.0048659419281945381 0 0.011224543237580452 0.004333222641039477 0 0.011166358094636872 0.0048659419281945381 0 0.011409444613327935 0.0049041933687200574 0 0.011538344366064927 0.0043318948263783878 0 0.011703530396731623 0.0042523348918479999 0 0.010987709444187387 0.0048840834370194814 0 0.011166358094636872 0.0048659419281945381 0 0.011029412097623384 0.004984421304631878 0 0.011222052350424118 0.0050966380109050864 0 0.011166358094636872 0.0048659419281945381 0 0.011029412097623384 0.004984421304631878 0 0.011222052350424118 0.0050966380109050864 0 0.011166358094636872 0.0048659419281945381 0 0.011409444613327935 0.0049041933687200574 0 0.011222052350424118 0.0050966380109050864 0 0.01141207079869324 0.0052118530456766593 0 0.011409444613327935 0.0049041933687200574 0 0.01141207079869324 0.0052118530456766593 0 0.011582263466699614 0.0051352812267139959 0 0.011409444613327935 0.0049041933687200574 0 0.012597683650944668 0.0053163751565285461 0 0.012643288590026946 0.0052826688033207232 0 0.012697209252501028 0.0053312071263413724 0 0.012597683650944668 0.0053163751565285461 0 0.012697209252501028 0.0053312071263413724 0 0.012556523526534588 0.0053236251717377007 0 0.012597683650944668 0.0053163751565285461 0 0.012536936909643274 0.0052707492154881993 0 0.012643288590026946 0.0052826688033207232 0 0.012597683650944668 0.0053163751565285461 0 0.012546862946892723 0.0053331451573848821 0 0.012556523526534588 0.0053236251717377007 0 0.012469554995880898 0.0053565790189511759 0 0.012546862946892723 0.0053331451573848821 0 0.012556523526534588 0.0053236251717377007 0 0.012597683650944668 0.0053163751565285461 0 0.012546862946892723 0.0053331451573848821 0 0.012536658822838142 0.0053051172006731272 0 0.012469554995880898 0.0053565790189511759 0 0.012571316714912576 0.0052990423799113917 0 0.012546862946892723 0.0053331451573848821 0 0.012571316714912576 0.0052990423799113917 0 0.012546862946892723 0.0053331451573848821 0 0.012536658822838142 0.0053051172006731272 0 0.012450710594826992 0.0052489464455798256 0 0.012536658822838142 0.0053051172006731272 0 0.012536936909643274 0.0052707492154881993 0 0.012597683650944668 0.0053163751565285461 0 0.012536658822838142 0.0053051172006731272 0 0.012536936909643274 0.0052707492154881993 0 0.012536936909643274 0.0052707492154881993 0 0.012547270065752625 0.0052424521256099399 0 0.012643288590026946 0.0052826688033207232 0 0.0090342895539987228 0.0045485745995588718 0 0.010435610256220447 0.0047153074549905073 0 0.012500664759863736 0.0052605071305907849 0 0.012536936909643274 0.0052707492154881993 0 0.012547270065752625 0.0052424521256099399 0 0.012201958381548483 0.0044267250213734033 0 0.012292801286330179 0.0047576888024842114 0 0.012043591189238626 0.0045741629321096999 0 0.01203172099426306 0.0048465532659219086 0 0.012292801286330179 0.0047576888024842114 0 0.012043591189238626 0.0045741629321096999 0 0.010435610256220447 0.0047153074549905073 0 0.010821264523432173 0.0048622568835261165 0 0.012043120662454497 0.0052184874406939006 0 0.01203172099426306 0.0048465532659219086 0 0.012432110501451482 0.0052608991011280351 0 0.01203172099426306 0.0048465532659219086 0 0.012292801286330179 0.0047576888024842114 0 0.012432110501451482 0.0052608991011280351 0 0.012547270065752625 0.0052424521256099399 0 0.012643288590026946 0.0052826688033207232 0 0.012432110501451482 0.0052608991011280351 0 0.012643288590026946 0.0052826688033207232 0 0.012830193821942771 0.0054375612419336923 0 0.012697209252501028 0.0053312071263413724 0 0.012643288590026946 0.0052826688033207232 0 0.012830193821942771 0.0054375612419336923 0 0.012432110501451482 0.0052608991011280351 0 0.012830193821942771 0.0054375612419336923 0 0.012432110501451482 0.0052608991011280351 0 0.012262172910295886 0.0053811355106344804 0 0.012118101175262557 0.0055560093403740725 0 0.012830193821942771 0.0054375612419336923 0 0.012262172910295886 0.0053811355106344804 0 0.012043120662454497 0.0052184874406939006 0 0.012432110501451482 0.0052608991011280351 0 0.012262172910295886 0.0053811355106344804 0 0.013966030028813799 0.0056226259993874929 0 0.012830193821942771 0.0054375612419336923 0 0.013478762788321755 0.0053614118319172078 0 0.013065682935002831 0.0052891819922368478 0 0.013009976452754283 0.0053409303761531579 0 0.013966030028813799 0.0056226259993874929 0 0.013846015692049365 0.0054561090999526683 0 0.013478762788321755 0.0053614118319172078 0 0.013478762788321755 0.0053614118319172078 0 0.01357496380178249 0.0051684594959907071 0 0.01320648988054645 0.0051288925758449467 0 0.013846015692049365 0.0054561090999526683 0 0.013478762788321755 0.0053614118319172078 0 0.01357496380178249 0.0051684594959907071 0 0.013846015692049365 0.0054561090999526683 0 0.01357496380178249 0.0051684594959907071 0 0.013909680186659692 0.0049970649136438306 0 0.012830193821942771 0.0054375612419336923 0 0.01320648988054645 0.0051288925758449467 0 0.012914641605053031 0.0050512711075759546 0 0.012830193821942771 0.0054375612419336923 0 0.012914641605053031 0.0050512711075759546 0 0.012765524552821031 0.0052319331155268132 0 0.012830193821942771 0.0054375612419336923 0 0.013478762788321755 0.0053614118319172078 0 0.01320648988054645 0.0051288925758449467 0 0.012914641605053031 0.0050512711075759546 0 0.012765524552821031 0.0052319331155268132 0 0.012777160651698146 0.0050613482126659077 0 0.012765524552821031 0.0052319331155268132 0 0.012622280291435559 0.0052476114048327915 0 0.012777160651698146 0.0050613482126659077 0 0.012830193821942771 0.0054375612419336923 0 0.012765524552821031 0.0052319331155268132 0 0.012697209252501028 0.0053312071263413724 0 0.012765524552821031 0.0052319331155268132 0 0.012697209252501028 0.0053312071263413724 0 0.012622280291435559 0.0052476114048327915 0 0.012697209252501028 0.0053312071263413724 0 0.012556523526534588 0.0053236251717377007 0 0.012622280291435559 0.0052476114048327915 0 0.012556523526534588 0.0053236251717377007 0 0.01250103046263679 0.0052497413045270785 0 0.012622280291435559 0.0052476114048327915 0 0.012441400900960674 0.0052875552737727182 0 0.012556523526534588 0.0053236251717377007 0 0.01250103046263679 0.0052497413045270785 0 0.01250103046263679 0.0052497413045270785 0 0.012622280291435559 0.0052476114048327915 0 0.012523131974495196 0.0051556823754208133 0 0.012523131974495196 0.0051556823754208133 0 0.012594495850795853 0.0050165013874527457 0 0.012777160651698146 0.0050613482126659077 0 0.012622280291435559 0.0052476114048327915 0 0.012523131974495196 0.0051556823754208133 0 0.012777160651698146 0.0050613482126659077 0 0.012594495850795853 0.0050165013874527457 0 0.012777160651698146 0.0050613482126659077 0 0.013025540510468987 0.0047996694953614961 0 0.012594495850795853 0.0050165013874527457 0 0.013025540510468987 0.0047996694953614961 0 0.012566187861459124 0.0047559835644339467 0 0.012914641605053031 0.0050512711075759546 0 0.013025540510468987 0.0047996694953614961 0 0.013114682714729401 0.0047622766720835036 0 0.012914641605053031 0.0050512711075759546 0 0.012777160651698146 0.0050613482126659077 0 0.013025540510468987 0.0047996694953614961 0 0.014083384604526867 0.0041129591270590059 0 0.014562281038734257 0.003922329247729916 0 0.013025540510468987 0.0047996694953614961 0 0.014766623071438929 0.0049437264203495319 0 0.01404361911586521 0.0041194353604046188 0 0.013025540510468987 0.0047996694953614961 0 0.013209655283221192 0.0041173556741570206 0 0.01404361911586521 0.0041194353604046188 0 0.013025540510468987 0.0047996694953614961 0 0.012725731739947536 0.0043369220449873541 0 0.013209655283221192 0.0041173556741570206 0 0.012725731739947536 0.0043369220449873541 0 0.012451329724683628 0.0044643567461330833 0 0.012566187861459124 0.0047559835644339467 0 0.012360284602892792 0.0041666214250108777 0 0.012725731739947536 0.0043369220449873541 0 0.012451329724683628 0.0044643567461330833 0 0.013025540510468987 0.0047996694953614961 0 0.012725731739947536 0.0043369220449873541 0 0.012566187861459124 0.0047559835644339467 0 0.01405504893497537 0.0042115443213551563 0 0.013686692159012368 0.0045111543385500906 0 0.013965160791441637 0.0046731205432771223 0 0.013686692159012368 0.0045111543385500906 0 0.013965160791441637 0.0046731205432771223 0 0.013473335942548513 0.0048342978563507884 0 0.01357496380178249 0.0051684594959907071 0 0.013909680186659692 0.0049970649136438306 0 0.013473335942548513 0.0048342978563507884 0 0.013965160791441637 0.0046731205432771223 0 0.013909680186659692 0.0049970649136438306 0 0.013473335942548513 0.0048342978563507884 0 0.01357496380178249 0.0051684594959907071 0 0.01320648988054645 0.0051288925758449467 0 0.013473335942548513 0.0048342978563507884 0 0.013686692159012368 0.0045111543385500906 0 0.013473335942548513 0.0048342978563507884 0 0.013434734577849824 0.0045005603339034221 0 0.013473335942548513 0.0048342978563507884 0 0.013114682714729401 0.0047622766720835036 0 0.013434734577849824 0.0045005603339034221 0 0.01320648988054645 0.0051288925758449467 0 0.013473335942548513 0.0048342978563507884 0 0.013114682714729401 0.0047622766720835036 0 0.01320648988054645 0.0051288925758449467 0 0.012914641605053031 0.0050512711075759546 0 0.013114682714729401 0.0047622766720835036 0 0.013025540510468987 0.0047996694953614961 0 0.013114682714729401 0.0047622766720835036 0 0.013139039217723214 0.0044313550883298145 0 0.013114682714729401 0.0047622766720835036 0 0.013139039217723214 0.0044313550883298145 0 0.013434734577849824 0.0045005603339034221 0 0.014562281038734257 0.003922329247729916 0 0.015834356380551817 0.0033490243022277133 0 0.013139039217723214 0.0044313550883298145 0 0.013609063683565119 0.0041217287801085896 0 0.013712400108698959 0.003920775649331072 0 0.013139039217723214 0.0044313550883298145 0 0.013434734577849824 0.0045005603339034221 0 0.013609063683565119 0.0041217287801085896 0 0.014766623071438929 0.0049437264203495319 0 0.016414286123914486 0.0047108326434513736 0 0.015704616535846719 0.0043029959745068845 0 0.013434734577849824 0.0045005603339034221 0 0.013609063683565119 0.0041217287801085896 0 0.013737437259369715 0.0042737301703811188 0 0.014257973117522483 0.0037993784414576308 0 0.013772099776237537 0.003695467862046665 0 0.013895198331242335 0.0040216069206927968 0 0.015764540331213699 0.0034119036639108347 0 0.015834356380551817 0.0033490243022277133 0 0.013609063683565119 0.0041217287801085896 0 0.013772099776237537 0.003695467862046665 0 0.013895198331242335 0.0040216069206927968 0 0.01405504893497537 0.0042115443213551563 0 0.013895198331242335 0.0040216069206927968 0 0.013737437259369715 0.0042737301703811188 0 0.013609063683565119 0.0041217287801085896 0 0.013895198331242335 0.0040216069206927968 0 0.013737437259369715 0.0042737301703811188 0 0.013686692159012368 0.0045111543385500906 0 0.013434734577849824 0.0045005603339034221 0 0.013737437259369715 0.0042737301703811188 0 0.01405504893497537 0.0042115443213551563 0 0.013686692159012368 0.0045111543385500906 0 0.013737437259369715 0.0042737301703811188 0 0.016414286123914486 0.0047108326434513736 0 0.016345581505633623 0.0036510594296714533 0 0.015704616535846719 0.0043029959745068845 0 0.016345581505633623 0.0036510594296714533 0 0.015704616535846719 0.0043029959745068845 0 0.015292704277970057 0.0039006050235889625 0 0.016345581505633623 0.0036510594296714533 0 0.015292704277970057 0.0039006050235889625 0 0.015810906725849234 0.0031238189777979455 0 0.015292704277970057 0.0039006050235889625 0 0.014624205491112232 0.0032885181482561038 0 0.015810906725849234 0.0031238189777979455 0 0.014766623071438929 0.0049437264203495319 0 0.015704616535846719 0.0043029959745068845 0 0.015292704277970057 0.0039006050235889625 0 0.014766623071438929 0.0049437264203495319 0 0.015292704277970057 0.0039006050235889625 0 0.01404361911586521 0.0041194353604046188 0 0.015292704277970057 0.0039006050235889625 0 0.014624205491112232 0.0032885181482561038 0 0.01404361911586521 0.0041194353604046188 0 0.014624205491112232 0.0032885181482561038 0 0.015464638867206292 0.0024338696399090823 0 0.01412987296268354 0.0021494704960084076 0 0.014624205491112232 0.0032885181482561038 0 0.015464638867206292 0.0024338696399090823 0 0.015810906725849234 0.0031238189777979455 0 0.015464638867206292 0.0024338696399090823 0 0.015810906725849234 0.0031238189777979455 0 0.016552685445136141 0.0022664969791362142 0 0.015810906725849234 0.0031238189777979455 0 0.016757159675010076 0.0029110297887028468 0 0.016552685445136141 0.0022664969791362142 0 0.016345581505633623 0.0036510594296714533 0 0.015810906725849234 0.0031238189777979455 0 0.016757159675010076 0.0029110297887028468 0 0.012885608707929888 0.0037800986776209615 0 0.012516848305746318 0.0037470068071881165 0 0.012972146591864075 0.0030637629461111801 0 0.012885608707929888 0.0037800986776209615 0 0.01343996054466505 0.0034498169663032016 0 0.012972146591864075 0.0030637629461111801 0 0.012885608707929888 0.0037800986776209615 0 0.012516848305746318 0.0037470068071881165 0 0.012609700616511083 0.0040079429491767099 0 0.012360284602892792 0.0041666214250108777 0 0.012516848305746318 0.0037470068071881165 0 0.012609700616511083 0.0040079429491767099 0 0.012360284602892792 0.0041666214250108777 0 0.012725731739947536 0.0043369220449873541 0 0.012609700616511083 0.0040079429491767099 0 0.012725731739947536 0.0043369220449873541 0 0.012885608707929888 0.0037800986776209615 0 0.012609700616511083 0.0040079429491767099 0 0.012725731739947536 0.0043369220449873541 0 0.012885608707929888 0.0037800986776209615 0 0.013209655283221192 0.0041173556741570206 0 0.013209655283221192 0.0041173556741570206 0 0.01404361911586521 0.0041194353604046188 0 0.01343996054466505 0.0034498169663032016 0 0.014624205491112232 0.0032885181482561038 0 0.01404361911586521 0.0041194353604046188 0 0.01343996054466505 0.0034498169663032016 0 0.012885608707929888 0.0037800986776209615 0 0.013209655283221192 0.0041173556741570206 0 0.01343996054466505 0.0034498169663032016 0 0.01421822618047144 0.004000297390386107 0 0.014185779352927426 0.0044151291795950032 0 0.01120039594481499 0.011089488872897943 0 0.011318533030894945 0.0096770433449167702 0 0.012966461187424064 0.010202308758553474 0 0.014624205491112232 0.0032885181482561038 0 0.01343996054466505 0.0034498169663032016 0 0.01412987296268354 0.0021494704960084076 0 0.011823891516530065 0.0058431420763297298 0 0.014185779352927426 0.0044151291795950032 0 0.01343996054466505 0.0034498169663032016 0 0.012972146591864075 0.0030637629461111801 0 0.013807292340162676 0.0026253185967071123 0 0.0096066773031477197 0.010938626359304574 0 0.01120039594481499 0.011089488872897943 0 0.0099096787898175515 0.010164821245760186 0 0.0096066773031477197 0.010938626359304574 0 0.0097780657379140639 0.011524294433403099 0 0.01120039594481499 0.011089488872897943 0 0.0096782227481316263 0.0067370681061948105 0 0.011823891516530065 0.0058431420763297298 0 0.0094842621474512962 0.011868904378743078 0 0.0097780657379140639 0.011524294433403099 0 0.01120039594481499 0.011089488872897943 0 0.01120039594481499 0.011089488872897943 0 0.011318533030894945 0.0096770433449167702 0 0.0099096787898175515 0.010164821245760186 0 0.012160230576606708 0.0035658170110659266 0 0.012516848305746318 0.0037470068071881165 0 0.012972146591864075 0.0030637629461111801 0 0.011318533030894945 0.0096770433449167702 0 0.0099096787898175515 0.010164821245760186 0 0.00894489580934737 0.0091353735301913635 0 0.011318533030894945 0.0096770433449167702 0 0.011524478961730844 0.0082331612551329592 0 0.00894489580934737 0.0091353735301913635 0 0.012966461187424064 0.010202308758553474 0 0.012506212610677621 0.008680802322880184 0 0.013996905425578075 0.0079698370440224736 0 0.011318533030894945 0.0096770433449167702 0 0.012966461187424064 0.010202308758553474 0 0.012506212610677621 0.008680802322880184 0 0.011318533030894945 0.0096770433449167702 0 0.012506212610677621 0.008680802322880184 0 0.011524478961730844 0.0082331612551329592 0 0.012506212610677621 0.008680802322880184 0 0.012711303166695977 0.0073384589527564596 0 0.011524478961730844 0.0082331612551329592 0 0.012506212610677621 0.008680802322880184 0 0.012711303166695977 0.0073384589527564596 0 0.013996905425578075 0.0079698370440224736 0 0.011524478961730844 0.0082331612551329592 0 0.010738770118661414 0.0067092729384757707 0 0.00894489580934737 0.0091353735301913635 0 0.012711303166695977 0.0073384589527564596 0 0.011524478961730844 0.0082331612551329592 0 0.010738770118661414 0.0067092729384757707 0 0.016552685445136141 0.0022664969791362142 0 0.016163941745853793 0.0013624256723668545 0 0.017539631161534522 0.0019928180519857524 0 0.015464638867206292 0.0024338696399090823 0 0.016552685445136141 0.0022664969791362142 0 0.016163941745853793 0.0013624256723668545 0 0.017755475554317085 0.0017363110398755863 0 0.018154991988725982 0.0015098350380238397 0 0.017951410570131617 0.0013560282461530264 0 0.014185779352927426 0.0044151291795950032 0 0.015198692960990395 0.0042249264938164456 0 0.015464638867206292 0.0024338696399090823 0 0.01412987296268354 0.0021494704960084076 0 0.016163941745853793 0.0013624256723668545 0 0.014185779352927426 0.0044151291795950032 0 0.016754465384654627 0.0024153585640339014 0 0.012711303166695977 0.0073384589527564596 0 0.013996905425578075 0.0079698370440224736 0 0.013522623681194983 0.0064916028069331166 0 0.018154991988725982 0.0015098350380238397 0 0.017951410570131617 0.0013560282461530264 0 0.0181270175439249 0.001394316928514699 0 0.017951410570131617 0.0013560282461530264 0 0.0181270175439249 0.001394316928514699 0 0.017980176267701681 0.0013098902937905635 0 0.0181270175439249 0.001394316928514699 0 0.01827597644428363 0.0012687092015650899 0 0.018246633774053656 0.0013708898744311875 0 0.018154991988725982 0.0015098350380238397 0 0.0181270175439249 0.001394316928514699 0 0.018246633774053656 0.0013708898744311875 0 0.017980176267701681 0.0013098902937905635 0 0.017963890706993627 0.0014754447773153198 0 0.017368776732028093 0.00187700922015636 0 0.017980176267701681 0.0013098902937905635 0 0.018598338333802495 0.00039408910184684051 0 0.018486484975478563 0.00094771309381875093 0 0.01827597644428363 0.0012687092015650899 0 0.017980176267701681 0.0013098902937905635 0 0.018486484975478563 0.00094771309381875093 0 0.0181270175439249 0.001394316928514699 0 0.01827597644428363 0.0012687092015650899 0 0.017980176267701681 0.0013098902937905635 0 0.015198692960990395 0.0042249264938164456 0 0.015964175588474308 0.0035059934700593567 0 0.017951410570131617 0.0013560282461530264 0 0.017980176267701681 0.0013098902937905635 0 0.017963890706993627 0.0014754447773153198 0 0.013996905425578075 0.0079698370440224736 0 0.01495491344719242 0.0058275628341636224 0 0.013522623681194983 0.0064916028069331166 0 0.01495491344719242 0.0058275628341636224 0 0.013522623681194983 0.0064916028069331166 0 0.013594297968441868 0.0054561408787387831 0 0.013594297968441868 0.0054561408787387831 0 0.014001435739548297 0.0043345736488878536 0 0.014430019752279559 0.0051572359000370029 0 0.013594297968441868 0.0054561408787387831 0 0.014001435739548297 0.0043345736488878536 0 0.012551842311723925 0.004550181676057129 0 0.014001435739548297 0.0043345736488878536 0 0.014430019752279559 0.0051572359000370029 0 0.014903275146497688 0.0044653729484672158 0 0.01495491344719242 0.0058275628341636224 0 0.014430019752279559 0.0051572359000370029 0 0.014903275146497688 0.0044653729484672158 0 0.01495491344719242 0.0058275628341636224 0 0.013594297968441868 0.0054561408787387831 0 0.014430019752279559 0.0051572359000370029 0 0.017963890706993627 0.0014754447773153198 0 0.017416229569555686 0.0019891585686399975 0 0.017368776732028093 0.00187700922015636 0 0.018077633869069215 0.0013278673092330354 0 0.018190334702227196 0.0011836568931032517 0 0.015964175588474308 0.0035059934700593567 0 0.016458546700858532 0.0027982209971671537 0 0.01495491344719242 0.0058275628341636224 0 0.014903275146497688 0.0044653729484672158 0 0.015909245478495534 0.0038749840158561499 0 0.010738770118661414 0.0067092729384757707 0 0.011079296181618497 0.0049042902284674953 0 0.008801018990307205 0.005797501330520166 0 0.010738770118661414 0.0067092729384757707 0 0.01232438996482382 0.0058836520487848274 0 0.011079296181618497 0.0049042902284674953 0 0.012711303166695977 0.0073384589527564596 0 0.010738770118661414 0.0067092729384757707 0 0.01232438996482382 0.0058836520487848274 0 0.012711303166695977 0.0073384589527564596 0 0.013522623681194983 0.0064916028069331166 0 0.01232438996482382 0.0058836520487848274 0 0.013522623681194983 0.0064916028069331166 0 0.013594297968441868 0.0054561408787387831 0 0.01232438996482382 0.0058836520487848274 0 0.012551842311723925 0.004550181676057129 0 0.011079296181618497 0.0049042902284674953 0 0.011913747977398555 0.0032200163918992808 0 0.01232438996482382 0.0058836520487848274 0 0.012551842311723925 0.004550181676057129 0 0.011079296181618497 0.0049042902284674953 0 0.013594297968441868 0.0054561408787387831 0 0.01232438996482382 0.0058836520487848274 0 0.012551842311723925 0.004550181676057129 0 0.011079296181618497 0.0049042902284674953 0 0.011913747977398555 0.0032200163918992808 0 0.010000200954515115 0.003430931402457418 0 0.010886940567217522 0.0021002169108776353 0 0.011913747977398555 0.0032200163918992808 0 0.010000200954515115 0.003430931402457418 0 0.010886940567217522 0.0021002169108776353 0 0.010675606870593176 0.00086607663331539201 0 0.01248747018806704 0.0012498488847990821 0 0.010886940567217522 0.0021002169108776353 0 0.011913747977398555 0.0032200163918992808 0 0.01248747018806704 0.0012498488847990821 0 0.011913747977398555 0.0032200163918992808 0 0.013491146774652582 0.0030664180284971925 0 0.01248747018806704 0.0012498488847990821 0 0.013491146774652582 0.0030664180284971925 0 0.014058209843437461 0.0019888732403117245 0 0.01248747018806704 0.0012498488847990821 0 0.012551842311723925 0.004550181676057129 0 0.011913747977398555 0.0032200163918992808 0 0.013491146774652582 0.0030664180284971925 0 0.014001435739548297 0.0043345736488878536 0 0.012551842311723925 0.004550181676057129 0 0.013491146774652582 0.0030664180284971925 0 0.014001435739548297 0.0043345736488878536 0 0.014691452636668443 0.0035973409095530462 0 0.013491146774652582 0.0030664180284971925 0 0.014001435739548297 0.0043345736488878536 0 0.014903275146497688 0.0044653729484672158 0 0.014691452636668443 0.0035973409095530462 0 0.014691452636668443 0.0035973409095530462 0 0.013491146774652582 0.0030664180284971925 0 0.01471941035723141 0.0026681597319886323 0 0.014903275146497688 0.0044653729484672158 0 0.014691452636668443 0.0035973409095530462 0 0.015218346995721211 0.0037773181894346381 0 0.014903275146497688 0.0044653729484672158 0 0.015909245478495534 0.0038749840158561499 0 0.015218346995721211 0.0037773181894346381 0 0.015909245478495534 0.0038749840158561499 0 0.015218346995721211 0.0037773181894346381 0 0.015362714814559189 0.0031735452490666734 0 0.014691452636668443 0.0035973409095530462 0 0.015218346995721211 0.0037773181894346381 0 0.015362714814559189 0.0031735452490666734 0 0.014691452636668443 0.0035973409095530462 0 0.015362714814559189 0.0031735452490666734 0 0.01471941035723141 0.0026681597319886323 0 0.015909245478495534 0.0038749840158561499 0 0.015362714814559189 0.0031735452490666734 0 0.016030464663831012 0.0026390407499975593 0 0.015909245478495534 0.0038749840158561499 0 0.016030464663831012 0.0026390407499975593 0 0.017037487571099734 0.0019351849735173197 0 0.016030464663831012 0.0026390407499975593 0 0.015573628701733466 0.0023776707566327891 0 0.016075654028359986 0.0017805129735836292 0 0.015362714814559189 0.0031735452490666734 0 0.015573628701733466 0.0023776707566327891 0 0.01471941035723141 0.0026681597319886323 0 0.015573628701733466 0.0023776707566327891 0 0.015144244774355678 0.0018137710354911992 0 0.01471941035723141 0.0026681597319886323 0 0.015362714814559189 0.0031735452490666734 0 0.016030464663831012 0.0026390407499975593 0 0.015573628701733466 0.0023776707566327891 0 0.015573628701733466 0.0023776707566327891 0 0.015144244774355678 0.0018137710354911992 0 0.016075654028359986 0.0017805129735836292 0 0.015144244774355678 0.0018137710354911992 0 0.016075654028359986 0.0017805129735836292 0 0.015848177846923998 0.0010443185572621447 0 0.016030464663831012 0.0026390407499975593 0 0.016075654028359986 0.0017805129735836292 0 0.017037487571099734 0.0019351849735173197 0 0.014058209843437461 0.0019888732403117245 0 0.01452469643541769 0.0010147029806080177 0 0.01248747018806704 0.0012498488847990821 0 0.013491146774652582 0.0030664180284971925 0 0.01471941035723141 0.0026681597319886323 0 0.014058209843437461 0.0019888732403117245 0 0.015144244774355678 0.0018137710354911992 0 0.01471941035723141 0.0026681597319886323 0 0.014058209843437461 0.0019888732403117245 0 0.015144244774355678 0.0018137710354911992 0 0.014058209843437461 0.0019888732403117245 0 0.01452469643541769 0.0010147029806080177 0 0.013688902410781913 0.00012619859094064456 0 0.01452469643541769 0.0010147029806080177 0 0.015763340752569719 -0.00028442514589252347 0 0.013688902410781913 0.00012619859094064456 0 0.01452469643541769 0.0010147029806080177 0 0.01248747018806704 0.0012498488847990821 0 0.01452469643541769 0.0010147029806080177 0 0.015848177846923998 0.0010443185572621447 0 0.015763340752569719 -0.00028442514589252347 0 0.015848177846923998 0.0010443185572621447 0 0.015763340752569719 -0.00028442514589252347 0 0.017209738670682095 0.00065515756346143806 0 0.016075654028359986 0.0017805129735836292 0 0.015848177846923998 0.0010443185572621447 0 0.016767370083954024 0.0013953823624997498 0 0.015144244774355678 0.0018137710354911992 0 0.01452469643541769 0.0010147029806080177 0 0.015848177846923998 0.0010443185572621447 0 0.013688902410781913 0.00012619859094064456 0 0.012704098044951057 -0.00083274455563973416 0 0.01428015591914639 -0.0016299992009543608 0 0.013688902410781913 0.00012619859094064456 0 0.015763340752569719 -0.00028442514589252347 0 0.01428015591914639 -0.0016299992009543608 0 0.012704098044951057 -0.00083274455563973416 0 0.011112268764101282 -0.00057866412550547364 0 0.01248747018806704 0.0012498488847990821 0 0.012704098044951057 -0.00083274455563973416 0 0.011112268764101282 -0.00057866412550547364 0 0.012617320108085243 -0.002497891709327306 0 0.011112268764101282 -0.00057866412550547364 0 0.010675606870593176 0.00086607663331539201 0 0.01248747018806704 0.0012498488847990821 0 0.013688902410781913 0.00012619859094064456 0 0.012704098044951057 -0.00083274455563973416 0 0.01248747018806704 0.0012498488847990821 0 0.020355095345161951 -0.00052809220963042746 0 0.020605364896436433 -0.00080613941485288315 0 0.020066530544894146 -0.00084125326693039871 0 0.020748789717302818 -0.0005759572733178822 0 0.02094577973029102 -0.0008331315046453602 0 0.020605364896436433 -0.00080613941485288315 0 0.020355095345161951 -0.00052809220963042746 0 0.020748789717302818 -0.0005759572733178822 0 0.020605364896436433 -0.00080613941485288315 0 0.020355095345161951 -0.00052809220963042746 0 0.020748789717302818 -0.0005759572733178822 0 0.020577062948829057 -0.00020428365224539326 0 0.020748789717302818 -0.0005759572733178822 0 0.02104134327482193 -0.00051935500606153581 0 0.020577062948829057 -0.00020428365224539326 0 0.020748789717302818 -0.0005759572733178822 0 0.02104134327482193 -0.00051935500606153581 0 0.0211686123363918 -0.0007526992321507652 0 0.02104134327482193 -0.00051935500606153581 0 0.0211686123363918 -0.0007526992321507652 0 0.021430932237499672 -0.00075732439793447441 0 0.020748789717302818 -0.0005759572733178822 0 0.0211686123363918 -0.0007526992321507652 0 0.02094577973029102 -0.0008331315046453602 0 0.0211686123363918 -0.0007526992321507652 0 0.02094577973029102 -0.0008331315046453602 0 0.021266626758186507 -0.00098293739798377563 0 0.02094577973029102 -0.0008331315046453602 0 0.021266626758186507 -0.00098293739798377563 0 0.020979903567567449 -0.0010105941475944957 0 0.0211686123363918 -0.0007526992321507652 0 0.021266626758186507 -0.00098293739798377563 0 0.021437254819288248 -0.00091906991156076438 0 0.021266626758186507 -0.00098293739798377563 0 0.02149590902945377 -0.0011463849673331893 0 0.021261127692585771 -0.0011410698685817664 0 0.021266626758186507 -0.00098293739798377563 0 0.021503547764838687 -0.0010363900838011757 0 0.02149590902945377 -0.0011463849673331893 0 0.021266626758186507 -0.00098293739798377563 0 0.021503547764838687 -0.0010363900838011757 0 0.021437254819288248 -0.00091906991156076438 0 0.021266626758186507 -0.00098293739798377563 0 0.020979903567567449 -0.0010105941475944957 0 0.021261127692585771 -0.0011410698685817664 0 0.020717236990589565 -0.001071396821249766 0 0.020605364896436433 -0.00080613941485288315 0 0.020066530544894146 -0.00084125326693039871 0 0.020979903567567449 -0.0010105941475944957 0 0.020717236990589565 -0.001071396821249766 0 0.021055273079607351 -0.0012759576509126873 0 0.020717236990589565 -0.001071396821249766 0 0.020066530544894146 -0.00084125326693039871 0 0.020582754946732593 -0.0015665354079841321 0 0.020979903567567449 -0.0010105941475944957 0 0.020717236990589565 -0.001071396821249766 0 0.020605364896436433 -0.00080613941485288315 0 0.02094577973029102 -0.0008331315046453602 0 0.020979903567567449 -0.0010105941475944957 0 0.020605364896436433 -0.00080613941485288315 0 0.018715340412148375 0.00031237294573409851 0 0.017707698763400039 -0.00054329560962517983 0 0.018814401562599666 -0.0012234504740235065 0 0.019304067777684727 -0.00035460849382525317 0 0.019772331995869575 -0.001075511762280565 0 0.018715340412148375 0.00031237294573409851 0 0.017707698763400039 -0.00054329560962517983 0 0.017209738670682095 0.00065515756346143806 0 0.015763340752569719 -0.00028442514589252347 0 0.017707698763400039 -0.00054329560962517983 0 0.017211212690705996 -0.0016374933391181668 0 0.015763340752569719 -0.00028442514589252347 0 0.017707698763400039 -0.00054329560962517983 0 0.017209738670682095 0.00065515756346143806 0 0.018715340412148375 0.00031237294573409851 0 0.017209738670682095 0.00065515756346143806 0 0.017318362043129636 0.0020813396473856141 0 0.017209738670682095 0.00065515756346143806 0 0.016767370083954024 0.0013953823624997498 0 0.017318362043129636 0.0020813396473856141 0 0.015848177846923998 0.0010443185572621447 0 0.017209738670682095 0.00065515756346143806 0 0.016767370083954024 0.0013953823624997498 0 0.019304067777684727 -0.00035460849382525317 0 0.018593690361818203 0.00067311956673269389 0 0.020066530544894146 -0.00084125326693039871 0 0.019894060455285065 -0.0003906340412671324 0 0.019395872267961935 -0.00031022105502510075 0 0.020355095345161951 -0.00052809220963042746 0 0.020066530544894146 -0.00084125326693039871 0 0.019894060455285065 -0.0003906340412671324 0 0.020355095345161951 -0.00052809220963042746 0 0.019894060455285065 -0.0003906340412671324 0 0.019995316724816331 -0.0001182206758278236 0 0.019894060455285065 -0.0003906340412671324 0 0.019645699097042873 -0.00010003591575166479 0 0.019395872267961935 -0.00031022105502510075 0 0.019894060455285065 -0.0003906340412671324 0 0.019645699097042873 -0.00010003591575166479 0 0.019995316724816331 -0.0001182206758278236 0 0.017416229569555686 0.0019891585686399975 0 0.017037487571099734 0.0019351849735173197 0 0.017318362043129636 0.0020813396473856141 0 0.016767370083954024 0.0013953823624997498 0 0.017037487571099734 0.0019351849735173197 0 0.017318362043129636 0.0020813396473856141 0 0.016075654028359986 0.0017805129735836292 0 0.016767370083954024 0.0013953823624997498 0 0.017037487571099734 0.0019351849735173197 0 0.017416229569555686 0.0019891585686399975 0 0.017318362043129636 0.0020813396473856141 0 0.017368776732028093 0.00187700922015636 0 0.016458546700858532 0.0027982209971671537 0 0.01668693799792511 0.0023833765406464542 0 0.019395872267961935 -0.00031022105502510075 0 0.019313945695469445 0.00016787225738908502 0 0.018598338333802495 0.00039408910184684051 0 0.018593690361818203 0.00067311956673269389 0 0.018190334702227196 0.0011836568931032517 0 0.019645699097042873 -0.00010003591575166479 0 0.019395872267961935 -0.00031022105502510075 0 0.019313945695469445 0.00016787225738908502 0 0.019995316724816331 -0.0001182206758278236 0 0.01969675874243906 0.00015348903040327867 0 0.019953929509536034 0.00019001239397558754 0 0.019645699097042873 -0.00010003591575166479 0 0.019995316724816331 -0.0001182206758278236 0 0.01969675874243906 0.00015348903040327867 0 0.019645699097042873 -0.00010003591575166479 0 0.019313945695469445 0.00016787225738908502 0 0.01969675874243906 0.00015348903040327867 0 0.019313945695469445 0.00016787225738908502 0 0.01969675874243906 0.00015348903040327867 0 0.019459774216242245 0.00041580778647883206 0 0.01969675874243906 0.00015348903040327867 0 0.019859387604875899 0.00038289500061599392 0 0.019459774216242245 0.00041580778647883206 0 0.01969675874243906 0.00015348903040327867 0 0.019953929509536034 0.00019001239397558754 0 0.019859387604875899 0.00038289500061599392 0 0.019953929509536034 0.00019001239397558754 0 0.020202593668117882 0.00012300364916113761 0 0.02014603911033272 0.00035684345220970726 0 0.019953929509536034 0.00019001239397558754 0 0.02014603911033272 0.00035684345220970726 0 0.019859387604875899 0.00038289500061599392 0 0.020202593668117882 0.00012300364916113761 0 0.020484401693420726 0.00010659715103589822 0 0.020410571952849003 0.00032644402887051504 0 0.020202593668117882 0.00012300364916113761 0 0.020410571952849003 0.00032644402887051504 0 0.02014603911033272 0.00035684345220970726 0 0.020202593668117882 0.00012300364916113761 0 0.020577062948829057 -0.00020428365224539326 0 0.020484401693420726 0.00010659715103589822 0 0.019995316724816331 -0.0001182206758278236 0 0.019953929509536034 0.00019001239397558754 0 0.020202593668117882 0.00012300364916113761 0 0.020355095345161951 -0.00052809220963042746 0 0.019995316724816331 -0.0001182206758278236 0 0.020577062948829057 -0.00020428365224539326 0 0.019995316724816331 -0.0001182206758278236 0 0.020202593668117882 0.00012300364916113761 0 0.020577062948829057 -0.00020428365224539326 0 0.020577062948829057 -0.00020428365224539326 0 0.020738148955484131 9.7647002975131733e-05 0 0.02107087706823535 -0.00027087993109294441 0 0.02104134327482193 -0.00051935500606153581 0 0.020577062948829057 -0.00020428365224539326 0 0.02107087706823535 -0.00027087993109294441 0 0.020577062948829057 -0.00020428365224539326 0 0.020738148955484131 9.7647002975131733e-05 0 0.020484401693420726 0.00010659715103589822 0 0.020738148955484131 9.7647002975131733e-05 0 0.020484401693420726 0.00010659715103589822 0 0.020410571952849003 0.00032644402887051504 0 0.020738148955484131 9.7647002975131733e-05 0 0.020410571952849003 0.00032644402887051504 0 0.020598107318743373 0.00041589989224379985 0 0.020738148955484131 9.7647002975131733e-05 0 0.020598107318743373 0.00041589989224379985 0 0.020686781836255125 0.00043323644918069593 0 0.020598107318743373 0.00041589989224379985 0 0.02068384800463096 0.00048606736592830824 0 0.020444513371640861 0.00053410946235134087 0 0.020598107318743373 0.00041589989224379985 0 0.02068384800463096 0.00048606736592830824 0 0.020686781836255125 0.00043323644918069593 0 0.02068384800463096 0.00048606736592830824 0 0.020444513371640861 0.00053410946235134087 0 0.020323796306720449 0.00078972333783923639 0 0.020410571952849003 0.00032644402887051504 0 0.020598107318743373 0.00041589989224379985 0 0.020444513371640861 0.00053410946235134087 0 0.020410571952849003 0.00032644402887051504 0 0.02014603911033272 0.00035684345220970726 0 0.020149834569496396 0.00059387345973965593 0 0.020410571952849003 0.00032644402887051504 0 0.020444513371640861 0.00053410946235134087 0 0.020149834569496396 0.00059387345973965593 0 0.019859387604875899 0.00038289500061599392 0 0.020149834569496396 0.00059387345973965593 0 0.019660022740419066 0.00067354412914744305 0 0.02014603911033272 0.00035684345220970726 0 0.019859387604875899 0.00038289500061599392 0 0.020149834569496396 0.00059387345973965593 0 0.020149834569496396 0.00059387345973965593 0 0.019899568896093713 0.00095690138218677248 0 0.019660022740419066 0.00067354412914744305 0 0.020149834569496396 0.00059387345973965593 0 0.020323796306720449 0.00078972333783923639 0 0.019899568896093713 0.00095690138218677248 0 0.020444513371640861 0.00053410946235134087 0 0.020149834569496396 0.00059387345973965593 0 0.020323796306720449 0.00078972333783923639 0 0.020323796306720449 0.00078972333783923639 0 0.019899568896093713 0.00095690138218677248 0 0.02037900624902042 0.0012471739894561703 0 0.019899568896093713 0.00095690138218677248 0 0.02037900624902042 0.0012471739894561703 0 0.019521447760646293 0.0014743848751729179 0 0.019538554064275449 0.00072459530057118087 0 0.019080227722263268 0.00095555734035143649 0 0.02068384800463096 0.00048606736592830824 0 0.020323796306720449 0.00078972333783923639 0 0.02037900624902042 0.0012471739894561703 0 0.019257482488211353 0.00028210539158600776 0 0.019599330200147935 0.00052507741021111788 0 0.01969851285931775 0.00025324238257766241 0 0.02068384800463096 0.00048606736592830824 0 0.021009139853235975 4.1438057451503589e-05 0 0.020597288101419961 0.00011010823944222414 0 0.019538554064275449 0.00072459530057118087 0 0.019922686502403256 0.00054827305742297095 0 0.019904745809478434 0.00048074561631656807 0 0.019538554064275449 0.00072459530057118087 0 0.018598338333802495 0.00039408910184684051 0 0.018818213210559345 0.00069139163932534448 0 0.018486484975478563 0.00094771309381875093 0 0.018818213210559345 0.00069139163932534448 0 0.018788220393653143 0.00089929491837220275 0 0.018486484975478563 0.00094771309381875093 0 0.018598338333802495 0.00039408910184684051 0 0.019050257681480567 0.00047484123720859683 0 0.018818213210559345 0.00069139163932534448 0 0.019313945695469445 0.00016787225738908502 0 0.018598338333802495 0.00039408910184684051 0 0.019050257681480567 0.00047484123720859683 0 0.018818213210559345 0.00069139163932534448 0 0.019153812593676607 0.00074381732068930153 0 0.018788220393653143 0.00089929491837220275 0 0.019050257681480567 0.00047484123720859683 0 0.018818213210559345 0.00069139163932534448 0 0.019153812593676607 0.00074381732068930153 0 0.019153812593676607 0.00074381732068930153 0 0.019660022740419066 0.00067354412914744305 0 0.019382654000638964 0.0010002434408193975 0 0.019153812593676607 0.00074381732068930153 0 0.019459774216242245 0.00041580778647883206 0 0.019660022740419066 0.00067354412914744305 0 0.019313945695469445 0.00016787225738908502 0 0.019050257681480567 0.00047484123720859683 0 0.019459774216242245 0.00041580778647883206 0 0.019050257681480567 0.00047484123720859683 0 0.019153812593676607 0.00074381732068930153 0 0.019459774216242245 0.00041580778647883206 0 0.019859387604875899 0.00038289500061599392 0 0.019459774216242245 0.00041580778647883206 0 0.019660022740419066 0.00067354412914744305 0 0.019899568896093713 0.00095690138218677248 0 0.019660022740419066 0.00067354412914744305 0 0.019382654000638964 0.0010002434408193975 0 0.019899568896093713 0.00095690138218677248 0 0.019382654000638964 0.0010002434408193975 0 0.019521447760646293 0.0014743848751729179 0 0.019382654000638964 0.0010002434408193975 0 0.018801722509779642 0.0011268134570712274 0 0.019521447760646293 0.0014743848751729179 0 0.019153812593676607 0.00074381732068930153 0 0.019382654000638964 0.0010002434408193975 0 0.018801722509779642 0.0011268134570712274 0 0.018801722509779642 0.0011268134570712274 0 0.018246633774053656 0.0013708898744311875 0 0.019521447760646293 0.0014743848751729179 0 0.019153812593676607 0.00074381732068930153 0 0.018788220393653143 0.00089929491837220275 0 0.018801722509779642 0.0011268134570712274 0 0.018788220393653143 0.00089929491837220275 0 0.018801722509779642 0.0011268134570712274 0 0.018520805048675967 0.0011422042376303648 0 0.01827597644428363 0.0012687092015650899 0 0.018520805048675967 0.0011422042376303648 0 0.018246633774053656 0.0013708898744311875 0 0.018801722509779642 0.0011268134570712274 0 0.018520805048675967 0.0011422042376303648 0 0.018246633774053656 0.0013708898744311875 0 0.01827597644428363 0.0012687092015650899 0 0.018520805048675967 0.0011422042376303648 0 0.018486484975478563 0.00094771309381875093 0 0.018788220393653143 0.00089929491837220275 0 0.018520805048675967 0.0011422042376303648 0 0.018486484975478563 0.00094771309381875093 0 0.018846930704613574 0.0010410861182396831 0 0.019080227722263268 0.00095555734035143649 0 0.016754465384654627 0.0024153585640339014 0 0.017423646928300271 0.0019209457134683164 0 0.018154991988725982 0.0015098350380238397 0 0.018246633774053656 0.0013708898744311875 0 0.018190009306458629 0.0012140512101932082 0 0.018246633774053656 0.0013708898744311875 0 0.018190009306458629 0.0012140512101932082 0 0.018269707871831336 0.0010509474109938843 0 0.016163941745853793 0.0013624256723668545 0 0.018190009306458629 0.0012140512101932082 0 0.017543966188478463 0.0015051947505740865 0 0.018190009306458629 0.0012140512101932082 0 0.017543966188478463 0.0015051947505740865 0 0.018079287518702081 0.001453310458391038 0 0.018079287518702081 0.001453310458391038 0 0.018269707871831336 0.0010509474109938843 0 0.018555518318636059 0.0017106668460742081 0 0.018190009306458629 0.0012140512101932082 0 0.018079287518702081 0.001453310458391038 0 0.018269707871831336 0.0010509474109938843 0 0.018079287518702081 0.001453310458391038 0 0.018555518318636059 0.0017106668460742081 0 0.017539631161534522 0.0019928180519857524 0 0.017730402454033654 0.003010587559727849 0 0.018555518318636059 0.0017106668460742081 0 0.017539631161534522 0.0019928180519857524 0 0.017509748194497826 0.002201258349630118 0 0.01857690749821924 0.0013926125006452907 0 0.016163941745853793 0.0013624256723668545 0 0.017543966188478463 0.0015051947505740865 0 0.017539631161534522 0.0019928180519857524 0 0.017543966188478463 0.0015051947505740865 0 0.018079287518702081 0.001453310458391038 0 0.017539631161534522 0.0019928180519857524 0 0.017154026968305206 0.0025466870163831264 0 0.016552685445136141 0.0022664969791362142 0 0.017539631161534522 0.0019928180519857524 0 0.019257482488211353 0.00028210539158600776 0 0.019599330200147935 0.00052507741021111788 0 0.019343196761603725 0.00081103621399017747 0 0.019599330200147935 0.00052507741021111788 0 0.019343196761603725 0.00081103621399017747 0 0.019891010458364708 0.00082474313568057069 0 0.019257482488211353 0.00028210539158600776 0 0.018749542744050076 0.00085839642353368283 0 0.019343196761603725 0.00081103621399017747 0 0.019538554064275449 0.00072459530057118087 0 0.01857690749821924 0.0013926125006452907 0 0.019049778988571679 0.00091423161537140384 0 0.018269707871831336 0.0010509474109938843 0 0.018555518318636059 0.0017106668460742081 0 0.018853235611810199 0.0013200788507709809 0 0.018749542744050076 0.00085839642353368283 0 0.019133729252933204 0.0011216111745439119 0 0.018749542744050076 0.00085839642353368283 0 0.019133729252933204 0.0011216111745439119 0 0.019343196761603725 0.00081103621399017747 0 0.019396540789564452 0.0013951723156668419 0 0.019133729252933204 0.0011216111745439119 0 0.019343196761603725 0.00081103621399017747 0 0.019396540789564452 0.0013951723156668419 0 0.019343196761603725 0.00081103621399017747 0 0.019891010458364708 0.00082474313568057069 0 0.01850340754963975 0.0014909215737966652 0 0.019239689400519063 0.00092305141468448622 0 0.019599330200147935 0.00052507741021111788 0 0.019891010458364708 0.00082474313568057069 0 0.019905231227378736 0.0004656335272831958 0 0.019599330200147935 0.00052507741021111788 0 0.019905231227378736 0.0004656335272831958 0 0.01969851285931775 0.00025324238257766241 0 0.019176402980334847 0.00074865769333273271 0 0.020034089882817498 0.00041335877428012413 0 0.02005850362234967 0.00076583998039036062 0 0.019891010458364708 0.00082474313568057069 0 0.019905231227378736 0.0004656335272831958 0 0.020034089882817498 0.00041335877428012413 0 0.019239689400519063 0.00092305141468448622 0 0.019540857263950013 0.00068716328094632119 0 0.019898069564631419 0.001272983731921631 0 0.019176402980334847 0.00074865769333273271 0 0.02005850362234967 0.00076583998039036062 0 0.020462222855059258 0.0012860622506234811 0 0.019898069564631419 0.001272983731921631 0 0.02005850362234967 0.00076583998039036062 0 0.020462222855059258 0.0012860622506234811 0 0.02005850362234967 0.00076583998039036062 0 0.02036811134329666 0.00064028013011575889 0 0.019077380627293382 -0.0007174817960594812 0 0.0196345743393034 -0.00051659362368105752 0 0.020034089882817498 0.00041335877428012413 0 0.02005850362234967 0.00076583998039036062 0 0.02036811134329666 0.00064028013011575889 0 0.020034089882817498 0.00041335877428012413 0 0.020277780236046757 0.00030431424077187317 0 0.020223160853878683 0.00031406521018913079 0 0.020034089882817498 0.00041335877428012413 0 0.02036811134329666 0.00064028013011575889 0 0.020277780236046757 0.00030431424077187317 0 0.0196345743393034 -0.00051659362368105752 0 0.020037042559493869 -0.00019856638617807173 0 0.019370593601581661 -0.0020627163613647619 0 0.020097501544395463 -0.00089597093957804921 0 0.019018571581236477 -0.001079682802718109 0 0.020097501544395463 -0.00089597093957804921 0 0.019949473555360187 -0.00022780551162869203 0 0.019018571581236477 -0.001079682802718109 0 0.020037042559493869 -0.00019856638617807173 0 0.020304259958185796 6.1117933362302151e-05 0 0.020097501544395463 -0.00089597093957804921 0 0.019949473555360187 -0.00022780551162869203 0 0.020648302689097297 0.00025989885797432597 0 0.020277780236046757 0.00030431424077187317 0 0.020327797052613627 0.00033496421906674216 0 0.020223160853878683 0.00031406521018913079 0 0.020277780236046757 0.00030431424077187317 0 0.020327797052613627 0.00033496421906674216 0 0.020427679556742614 0.00034515363039181417 0 0.020327797052613627 0.00033496421906674216 0 0.020223160853878683 0.00031406521018913079 0 0.020333860692505767 0.00035866044129297228 0 0.020223160853878683 0.00031406521018913079 0 0.02026727169372541 0.00033080294694018311 0 0.020333860692505767 0.00035866044129297228 0 0.02026727169372541 0.00033080294694018311 0 0.020333860692505767 0.00035866044129297228 0 0.020402899965739994 0.00036789063824485617 0 0.02026727169372541 0.00033080294694018311 0 0.020402899965739994 0.00036789063824485617 0 0.020138287128839541 0.00027984491647618955 0 0.020333860692505767 0.00035866044129297228 0 0.020459615676626176 0.00039097872239932211 0 0.020402899965739994 0.00036789063824485617 0 0.020459615676626176 0.00039097872239932211 0 0.020565042998691028 0.00041407773419638251 0 0.020402899965739994 0.00036789063824485617 0 0.02068384800463096 0.00048606736592830824 0 0.020565042998691028 0.00041407773419638251 0 0.020686781836255125 0.00043323644918069593 0 0.020459615676626176 0.00039097872239932211 0 0.020565042998691028 0.00041407773419638251 0 0.020686781836255125 0.00043323644918069593 0 0.02068384800463096 0.00048606736592830824 0 0.020565042998691028 0.00041407773419638251 0 0.020502835195705005 0.00032200005036176816 0 0.020565042998691028 0.00041407773419638251 0 0.020402899965739994 0.00036789063824485617 0 0.020502835195705005 0.00032200005036176816 0 0.019922686502403256 0.00054827305742297095 0 0.020013045731401075 0.00050293856251058539 0 0.020502835195705005 0.00032200005036176816 0 0.020597288101419961 0.00011010823944222414 0 0.020138287128839541 0.00027984491647618955 0 0.019905231227378736 0.0004656335272831958 0 0.01969851285931775 0.00025324238257766241 0 0.020138287128839541 0.00027984491647618955 0 0.020402899965739994 0.00036789063824485617 0 0.020502835195705005 0.00032200005036176816 0 0.020138287128839541 0.00027984491647618955 0 0.02068384800463096 0.00048606736592830824 0 0.020502835195705005 0.00032200005036176816 0 0.020597288101419961 0.00011010823944222414 0 0.019905231227378736 0.0004656335272831958 0 0.020034089882817498 0.00041335877428012413 0 0.020138287128839541 0.00027984491647618955 0 0.020034089882817498 0.00041335877428012413 0 0.020223160853878683 0.00031406521018913079 0 0.020138287128839541 0.00027984491647618955 0 0.020223160853878683 0.00031406521018913079 0 0.02026727169372541 0.00033080294694018311 0 0.020138287128839541 0.00027984491647618955 0 0.016123788465901668 -0.0018360148410673117 0 0.016843600328147662 -0.0028673224460529509 0 0.017185309029503982 -0.001974075677376451 0 0.015908691490267305 -0.0015696240460312573 0 0.016438431565150308 -0.0024805423342907197 0 0.015392083608760663 -0.0011263840513086936 0 0.016134887168444821 -0.0020802030975113862 0 0.015020311381869244 -0.0018110115492051076 0 0.016843600328147662 -0.0028673224460529509 0 0.017185309029503982 -0.001974075677376451 0 0.017895842829901733 -0.0024980227863191586 0 0.016123788465901668 -0.0018360148410673117 0 0.017185309029503982 -0.001974075677376451 0 0.017048612263178154 -0.0011433349639318317 0 0.017185309029503982 -0.001974075677376451 0 0.017895842829901733 -0.0024980227863191586 0 0.018029295923386122 -0.0014060103465814843 0 0.017895842829901733 -0.0024980227863191586 0 0.018544678138331112 -0.0019826740023191768 0 0.018029295923386122 -0.0014060103465814843 0 0.018750619195775156 -0.0030633332738971663 0 0.017895842829901733 -0.0024980227863191586 0 0.018544678138331112 -0.0019826740023191768 0 0.018750619195775156 -0.0030633332738971663 0 0.019370593601581661 -0.0020627163613647619 0 0.018544678138331112 -0.0019826740023191768 0 0.019370593601581661 -0.0020627163613647619 0 0.018544678138331112 -0.0019826740023191768 0 0.019018571581236477 -0.001079682802718109 0 0.018544678138331112 -0.0019826740023191768 0 0.019018571581236477 -0.001079682802718109 0 0.018029295923386122 -0.0014060103465814843 0 0.019018571581236477 -0.001079682802718109 0 0.018888424172479362 -0.0003007236730551108 0 0.018181493189666449 -0.00066404059116667536 0 0.019949473555360187 -0.00022780551162869203 0 0.019018571581236477 -0.001079682802718109 0 0.018888424172479362 -0.0003007236730551108 0 0.018813958509503268 -0.00067840476680354901 0 0.019047308464253947 -0.00051770260273267181 0 0.018888424172479362 -0.0003007236730551108 0 0.018181493189666449 -0.00066404059116667536 0 0.01823828754852122 0.00015288493517940567 0 0.018032390089011946 -0.00057749931442846122 0 0.016888548806003739 -2.6399411718003917e-05 0 0.01805193674573561 0.00026949227599117775 0 0.018032390089011946 -0.00057749931442846122 0 0.018029295923386122 -0.0014060103465814843 0 0.017048612263178154 -0.0011433349639318317 0 0.018813958509503268 -0.00067840476680354901 0 0.018736260948978341 -0.00085473721512421548 0 0.019018571581236477 -0.001079682802718109 0 0.018181493189666449 -0.00066404059116667536 0 0.018029295923386122 -0.0014060103465814843 0 0.017185309029503982 -0.001974075677376451 0 0.018029295923386122 -0.0014060103465814843 0 0.017048612263178154 -0.0011433349639318317 0 0.017048612263178154 -0.0011433349639318317 0 0.016888548806003739 -2.6399411718003917e-05 0 0.016146664988986665 -0.00090645009091206298 0 0.018032390089011946 -0.00057749931442846122 0 0.017048612263178154 -0.0011433349639318317 0 0.016888548806003739 -2.6399411718003917e-05 0 0.017716202815318251 -0.00071038861910188396 0 0.016835177703458316 -0.00086711814471969527 0 0.018139118709631242 -0.0011476962327257394 0 0.017114708444879403 -0.0013618634154029625 0 0.017121909527335468 -0.00084604355270858494 0 0.016888548806003739 -2.6399411718003917e-05 0 0.016146664988986665 -0.00090645009091206298 0 0.015594171237866883 -0.00043182607234260192 0 0.016123788465901668 -0.0018360148410673117 0 0.017048612263178154 -0.0011433349639318317 0 0.016146664988986665 -0.00090645009091206298 0 0.017895851270369561 -0.00024742869896316952 0 0.017561246878553961 -0.00054936345276306899 0 0.017295378037965513 -0.00011878577226640083 0 0.017895851270369561 -0.00024742869896316952 0 0.017561246878553961 -0.00054936345276306899 0 0.018338423867950957 -0.00052744129372061925 0 0.018139118709631242 -0.0011476962327257394 0 0.017561246878553961 -0.00054936345276306899 0 0.017121909527335468 -0.00084604355270858494 0 0.018139118709631242 -0.0011476962327257394 0 0.017561246878553961 -0.00054936345276306899 0 0.018338423867950957 -0.00052744129372061925 0 0.018139118709631242 -0.0011476962327257394 0 0.018338423867950957 -0.00052744129372061925 0 0.018780706783382718 -0.00094836307925909584 0 0.017716202815318251 -0.00071038861910188396 0 0.019047308464253947 -0.00051770260273267181 0 0.018338423867950957 -0.00052744129372061925 0 0.018766656680856499 -0.00034022856941432535 0 0.018780706783382718 -0.00094836307925909584 0 0.019675220095245742 -0.00030929039980349222 0 0.019047308464253947 -0.00051770260273267181 0 0.02169983769164981 -0.00022513261867179995 0 0.021738190817007022 0.00050823675723904091 0 0.021259931714615019 0.00039950987790926545 0 0.019949473555360187 -0.00022780551162869203 0 0.018888424172479362 -0.0003007236730551108 0 0.019270982896362074 0.00034761120215238457 0 0.019047308464253947 -0.00051770260273267181 0 0.019835795149634333 -0.00016466136461555899 0 0.018888424172479362 -0.0003007236730551108 0 0.01823828754852122 0.00015288493517940567 0 0.019270982896362074 0.00034761120215238457 0 0.02169983769164981 -0.00022513261867179995 0 0.021259931714615019 0.00039950987790926545 0 0.021151758464258721 -3.8509306760723438e-05 0 0.02169983769164981 -0.00022513261867179995 0 0.021151758464258721 -3.8509306760723438e-05 0 0.021275238763357265 -0.00046572155976790233 0 0.02169983769164981 -0.00022513261867179995 0 0.021530254450638886 -0.00081898666584468826 0 0.021275238763357265 -0.00046572155976790233 0 0.021530254450638886 -0.00081898666584468826 0 0.021275238763357265 -0.00046572155976790233 0 0.021410903597347632 -0.0009356849073690885 0 0.019675220095245742 -0.00030929039980349222 0 0.019983924336475264 -0.00026489941927360138 0 0.018766656680856499 -0.00034022856941432535 0 0.018895039949731858 -9.430618517418389e-05 0 0.018430676584765923 -6.5340515844402927e-05 0 0.017895851270369561 -0.00024742869896316952 0 0.018338423867950957 -0.00052744129372061925 0 0.018430676584765923 -6.5340515844402927e-05 0 0.018338423867950957 -0.00052744129372061925 0 0.018766656680856499 -0.00034022856941432535 0 0.018430676584765923 -6.5340515844402927e-05 0 0.018895039949731858 -9.430618517418389e-05 0 0.018430676584765923 -6.5340515844402927e-05 0 0.018933946599515201 -7.3782825563819854e-05 0 0.018430676584765923 -6.5340515844402927e-05 0 0.0182980302093744 6.0762427609282251e-05 0 0.017733440888224414 0.00011716098263953891 0 0.017895851270369561 -0.00024742869896316952 0 0.018430676584765923 -6.5340515844402927e-05 0 0.017733440888224414 0.00011716098263953891 0 0.020422040928274043 0.00019623752564872822 0 0.020256518307420743 0.00024013303236778151 0 0.020599920906203231 -0.00018124016658037815 0 0.020422040928274043 0.00019623752564872822 0 0.020256518307420743 0.00024013303236778151 0 0.020383580919429947 0.00032792988100329622 0 0.020738148955484131 9.7647002975131733e-05 0 0.02107087706823535 -0.00027087993109294441 0 0.021521668554549067 -0.00017875084486988901 0 0.02107087706823535 -0.00027087993109294441 0 0.021521668554549067 -0.00017875084486988901 0 0.021468370140805798 -0.00058396326164143124 0 0.020459615676626176 0.00039097872239932211 0 0.020686781836255125 0.00043323644918069593 0 0.020256518307420743 0.00024013303236778151 0 0.020738148955484131 9.7647002975131733e-05 0 0.020686781836255125 0.00043323644918069593 0 0.021521668554549067 -0.00017875084486988901 0 0.020897543712110122 1.3881665211939838e-05 0 0.020990479292018239 -0.00015762192726568764 0 0.020459615676626176 0.00039097872239932211 0 0.020256518307420743 0.00024013303236778151 0 0.020365502844111493 0.00034604910354818356 0 0.020333860692505767 0.00035866044129297228 0 0.020459615676626176 0.00039097872239932211 0 0.020365502844111493 0.00034604910354818356 0 0.020333860692505767 0.00035866044129297228 0 0.020365502844111493 0.00034604910354818356 0 0.020383580919429947 0.00032792988100329622 0 0.020256518307420743 0.00024013303236778151 0 0.020365502844111493 0.00034604910354818356 0 0.020383580919429947 0.00032792988100329622 0 0.020327797052613627 0.00033496421906674216 0 0.020333860692505767 0.00035866044129297228 0 0.020383580919429947 0.00032792988100329622 0 0.020327797052613627 0.00033496421906674216 0 0.020383580919429947 0.00032792988100329622 0 0.020427679556742614 0.00034515363039181417 0 0.020422040928274043 0.00019623752564872822 0 0.020383580919429947 0.00032792988100329622 0 0.020427679556742614 0.00034515363039181417 0 0.021259931714615019 0.00039950987790926545 0 0.020578456532561767 0.00028714185541600429 0 0.021151758464258721 -3.8509306760723438e-05 0 0.019949473555360187 -0.00022780551162869203 0 0.019270982896362074 0.00034761120215238457 0 0.020578456532561767 0.00028714185541600429 0 0.019835795149634333 -0.00016466136461555899 0 0.020054819849021677 -6.9942968725533888e-05 0 0.019949473555360187 -0.00022780551162869203 0 0.020648302689097297 0.00025989885797432597 0 0.020578456532561767 0.00028714185541600429 0 0.021151758464258721 -3.8509306760723438e-05 0 0.020823244655595631 -6.472587481029483e-05 0 0.021275238763357265 -0.00046572155976790233 0 0.020578456532561767 0.00028714185541600429 0 0.021151758464258721 -3.8509306760723438e-05 0 0.020823244655595631 -6.472587481029483e-05 0 0.020422040928274043 0.00019623752564872822 0 0.020427679556742614 0.00034515363039181417 0 0.020599920906203231 -0.00018124016658037815 0 0.020648302689097297 0.00025989885797432597 0 0.020823244655595631 -6.472587481029483e-05 0 0.020599920906203231 -0.00018124016658037815 0 0.020648302689097297 0.00025989885797432597 0 0.020578456532561767 0.00028714185541600429 0 0.020823244655595631 -6.472587481029483e-05 0 0.020304259958185796 6.1117933362302151e-05 0 0.020362011296339379 1.0014235943889815e-05 0 0.020823244655595631 -6.472587481029483e-05 0 0.021027901693009006 -0.00050588416216885057 0 0.020599920906203231 -0.00018124016658037815 0 0.021027901693009006 -0.00050588416216885057 0 0.020573566338139442 -0.00046618222981246489 0 0.020599920906203231 -0.00018124016658037815 0 0.020823244655595631 -6.472587481029483e-05 0 0.021027901693009006 -0.00050588416216885057 0 0.021275238763357265 -0.00046572155976790233 0 0.021027901693009006 -0.00050588416216885057 0 0.021531192635111135 -0.0010041477718856118 0 0.021410903597347632 -0.0009356849073690885 0 0.021027901693009006 -0.00050588416216885057 0 0.021275238763357265 -0.00046572155976790233 0 0.021410903597347632 -0.0009356849073690885 0 0.021027901693009006 -0.00050588416216885057 0 0.020573566338139442 -0.00046618222981246489 0 0.021531192635111135 -0.0010041477718856118 0 0.021900950263874799 -0.00089927731720213509 0 0.021807491485506113 -0.001021654275930205 0 0.021531192635111135 -0.0010041477718856118 0 0.021166069271052839 -0.00047354002188975335 0 0.02126003709709804 -0.00062654644912267304 0 0.021805667054891648 -0.00095988286344605262 0 0.021900950263874799 -0.00089927731720213509 0 0.021807491485506113 -0.001021654275930205 0 0.021765934463916999 -0.00099524638488816667 0 0.021805667054891648 -0.00095988286344605262 0 0.021807491485506113 -0.001021654275930205 0 0.021765934463916999 -0.00099524638488816667 0 0.021830652005251156 -0.0010670624885235471 0 0.021807491485506113 -0.001021654275930205 0 0.021805667054891648 -0.00095988286344605262 0 0.021900950263874799 -0.00089927731720213509 0 0.021688579654265065 -0.00085013909435241691 0 0.021765934463916999 -0.00099524638488816667 0 0.021805667054891648 -0.00095988286344605262 0 0.021688579654265065 -0.00085013909435241691 0 0.020990479292018239 -0.00015762192726568764 0 0.021166069271052839 -0.00047354002188975335 0 0.021900950263874799 -0.00089927731720213509 0 0.021688579654265065 -0.00085013909435241691 0 0.021468370140805798 -0.00058396326164143124 0 0.021521668554549067 -0.00017875084486988901 0 0.021900950263874799 -0.00089927731720213509 0 0.021468370140805798 -0.00058396326164143124 0 0.020256518307420743 0.00024013303236778151 0 0.020573566338139442 -0.00046618222981246489 0 0.020599920906203231 -0.00018124016658037815 0 0.02104134327482193 -0.00051935500606153581 0 0.021468370140805798 -0.00058396326164143124 0 0.021430932237499672 -0.00075732439793447441 0 0.02104134327482193 -0.00051935500606153581 0 0.02107087706823535 -0.00027087993109294441 0 0.021468370140805798 -0.00058396326164143124 0 0.021688579654265065 -0.00085013909435241691 0 0.021468370140805798 -0.00058396326164143124 0 0.021430932237499672 -0.00075732439793447441 0 0.021688579654265065 -0.00085013909435241691 0 0.021430932237499672 -0.00075732439793447441 0 0.021610426293402433 -0.00090924397169410648 0 0.0211686123363918 -0.0007526992321507652 0 0.021430932237499672 -0.00075732439793447441 0 0.021437254819288248 -0.00091906991156076438 0 0.021430932237499672 -0.00075732439793447441 0 0.021437254819288248 -0.00091906991156076438 0 0.021610426293402433 -0.00090924397169410648 0 0.021437254819288248 -0.00091906991156076438 0 0.021610426293402433 -0.00090924397169410648 0 0.02165353774163073 -0.0010071368488016341 0 0.021765934463916999 -0.00099524638488816667 0 0.021688579654265065 -0.00085013909435241691 0 0.021610426293402433 -0.00090924397169410648 0 0.021765934463916999 -0.00099524638488816667 0 0.02165353774163073 -0.0010071368488016341 0 0.021830652005251156 -0.0010670624885235471 0 0.021765934463916999 -0.00099524638488816667 0 0.021610426293402433 -0.00090924397169410648 0 0.02165353774163073 -0.0010071368488016341 0 0.021503547764838687 -0.0010363900838011757 0 0.021437254819288248 -0.00091906991156076438 0 0.02165353774163073 -0.0010071368488016341 0 0.021503547764838687 -0.0010363900838011757 0 0.02165353774163073 -0.0010071368488016341 0 0.021692319727718855 -0.001103955140589857 0 0.021692319727718855 -0.001103955140589857 0 0.021737653076281001 -0.0011883484470023807 0 0.02149590902945377 -0.0011463849673331893 0 0.021692319727718855 -0.001103955140589857 0 0.021853663930564808 -0.0011403191863861323 0 0.021737653076281001 -0.0011883484470023807 0 0.021692319727718855 -0.001103955140589857 0 0.021830652005251156 -0.0010670624885235471 0 0.021853663930564808 -0.0011403191863861323 0 0.02165353774163073 -0.0010071368488016341 0 0.021692319727718855 -0.001103955140589857 0 0.021830652005251156 -0.0010670624885235471 0 0.021853663930564808 -0.0011403191863861323 0 0.021974820311903349 -0.0012175617743611679 0 0.021991088701911885 -0.001081403322149746 0 0.021830652005251156 -0.0010670624885235471 0 0.021853663930564808 -0.0011403191863861323 0 0.021991088701911885 -0.001081403322149746 0 0.021853663930564808 -0.0011403191863861323 0 0.021737653076281001 -0.0011883484470023807 0 0.021974820311903349 -0.0012175617743611679 0 0.021974820311903349 -0.0012175617743611679 0 0.02236858431634841 -0.00099308294315083646 0 0.022185904661515481 -0.0012432018922947661 0 0.021974820311903349 -0.0012175617743611679 0 0.021991088701911885 -0.001081403322149746 0 0.02236858431634841 -0.00099308294315083646 0 0.021991088701911885 -0.001081403322149746 0 0.021946903580730915 -0.00093684993678033463 0 0.02236858431634841 -0.00099308294315083646 0 0.021946903580730915 -0.00093684993678033463 0 0.022160621432396541 -0.0007100762096450572 0 0.02236858431634841 -0.00099308294315083646 0 0.021991088701911885 -0.001081403322149746 0 0.021807491485506113 -0.001021654275930205 0 0.021946903580730915 -0.00093684993678033463 0 0.021830652005251156 -0.0010670624885235471 0 0.021991088701911885 -0.001081403322149746 0 0.021807491485506113 -0.001021654275930205 0 0.021807491485506113 -0.001021654275930205 0 0.021531192635111135 -0.0010041477718856118 0 0.021946903580730915 -0.00093684993678033463 0 0.021531192635111135 -0.0010041477718856118 0 0.021410903597347632 -0.0009356849073690885 0 0.02165441764029296 -0.00078450011478388025 0 0.021531192635111135 -0.0010041477718856118 0 0.02165441764029296 -0.00078450011478388025 0 0.021946903580730915 -0.00093684993678033463 0 0.02165441764029296 -0.00078450011478388025 0 0.021946903580730915 -0.00093684993678033463 0 0.022160621432396541 -0.0007100762096450572 0 0.022160621432396541 -0.0007100762096450572 0 0.022147200298982334 -0.00031778318868420252 0 0.022628406910674206 -0.00047914084975343626 0 0.02165441764029296 -0.00078450011478388025 0 0.022160621432396541 -0.0007100762096450572 0 0.022147200298982334 -0.00031778318868420252 0 0.02165441764029296 -0.00078450011478388025 0 0.022147200298982334 -0.00031778318868420252 0 0.021771425792485258 0.00016391944245758037 0 0.022147200298982334 -0.00031778318868420252 0 0.021771425792485258 0.00016391944245758037 0 0.022711737346074019 0.00028413126020502297 0 0.022147200298982334 -0.00031778318868420252 0 0.022628406910674206 -0.00047914084975343626 0 0.022711737346074019 0.00028413126020502297 0 0.022628406910674206 -0.00047914084975343626 0 0.023225779530137679 0.00020405253983967232 0 0.022711737346074019 0.00028413126020502297 0 0.022628406910674206 -0.00047914084975343626 0 0.023209875077203169 -0.00026980357040334288 0 0.023225779530137679 0.00020405253983967232 0 0.022628406910674206 -0.00047914084975343626 0 0.023209875077203169 -0.00026980357040334288 0 0.022651483258896071 -0.0011811273407749208 0 0.02236858431634841 -0.00099308294315083646 0 0.022651483258896071 -0.0011811273407749208 0 0.022185904661515481 -0.0012432018922947661 0 0.022628406910674206 -0.00047914084975343626 0 0.02236858431634841 -0.00099308294315083646 0 0.022651483258896071 -0.0011811273407749208 0 0.022160621432396541 -0.0007100762096450572 0 0.022628406910674206 -0.00047914084975343626 0 0.02236858431634841 -0.00099308294315083646 0 0.018551430535520136 1.3021664242053177e-05 0 0.018933946599515201 -7.3782825563819854e-05 0 0.019281023983235487 -0.00014403982216333545 0 0.018551430535520136 1.3021664242053177e-05 0 0.0182980302093744 6.0762427609282251e-05 0 0.018933946599515201 -7.3782825563819854e-05 0 0.018430676584765923 -6.5340515844402927e-05 0 0.0182980302093744 6.0762427609282251e-05 0 0.018933946599515201 -7.3782825563819854e-05 0 0.018933946599515201 -7.3782825563819854e-05 0 0.01940677550688346 -0.00017881283530477905 0 0.019281023983235487 -0.00014403982216333545 0 0.020156069722922308 -0.00013962647366860137 0 0.020234856450611103 7.5202168266458697e-06 0 0.018895039949731858 -9.430618517418389e-05 0 0.018933946599515201 -7.3782825563819854e-05 0 0.01940677550688346 -0.00017881283530477905 0 0.019983924336475264 -0.00026489941927360138 0 0.020156069722922308 -0.00013962647366860137 0 0.021530254450638886 -0.00081898666584468826 0 0.021410903597347632 -0.0009356849073690885 0 0.021126694261890143 -0.00090825019272302286 0 0.02165441764029296 -0.00078450011478388025 0 0.021126694261890143 -0.00090825019272302286 0 0.020607392058118852 -0.0002252668358867871 0 0.021410903597347632 -0.0009356849073690885 0 0.02165441764029296 -0.00078450011478388025 0 0.021126694261890143 -0.00090825019272302286 0 0.02165441764029296 -0.00078450011478388025 0 0.021771425792485258 0.00016391944245758037 0 0.020607392058118852 -0.0002252668358867871 0 0.021771425792485258 0.00016391944245758037 0 0.020607392058118852 -0.0002252668358867871 0 0.020963597392402954 0.00031600868611362501 0 0.020607392058118852 -0.0002252668358867871 0 0.019602328842282305 0.00010190311054985488 0 0.020963597392402954 0.00031600868611362501 0 0.01940677550688346 -0.00017881283530477905 0 0.020607392058118852 -0.0002252668358867871 0 0.019281023983235487 -0.00014403982216333545 0 0.020607392058118852 -0.0002252668358867871 0 0.019281023983235487 -0.00014403982216333545 0 0.019602328842282305 0.00010190311054985488 0 0.019602328842282305 0.00010190311054985488 0 0.020262375906306421 0.00050877019267396009 0 0.020963597392402954 0.00031600868611362501 0 0.019602328842282305 0.00010190311054985488 0 0.019075678141340358 0.00024300793194749232 0 0.019673159094677428 0.00050832512167082935 0 0.019602328842282305 0.00010190311054985488 0 0.019075678141340358 0.00024300793194749232 0 0.01887367170803567 -1.1458492699333841e-06 0 0.019281023983235487 -0.00014403982216333545 0 0.019602328842282305 0.00010190311054985488 0 0.01887367170803567 -1.1458492699333841e-06 0 0.018551430535520136 1.3021664242053177e-05 0 0.019281023983235487 -0.00014403982216333545 0 0.01887367170803567 -1.1458492699333841e-06 0 0.019252708288604523 0.0013759836590641408 0 0.019332370684503861 0.00085236468477504709 0 0.019764417507759549 0.0019754169659722512 0 0.021438997096533702 0.00076444334310436953 0 0.0223087378027234 0.0010295626383663185 0 0.019252708288604523 0.0013759836590641408 0 0.019332370684503861 0.00085236468477504709 0 0.01875698618926603 0.00077913874111332259 0 0.019075678141340358 0.00024300793194749232 0 0.019332370684503861 0.00085236468477504709 0 0.01875698618926603 0.00077913874111332259 0 0.019075678141340358 0.00024300793194749232 0 0.019673159094677428 0.00050832512167082935 0 0.019332370684503861 0.00085236468477504709 0 0.019602328842282305 0.00010190311054985488 0 0.019673159094677428 0.00050832512167082935 0 0.020262375906306421 0.00050877019267396009 0 0.019673159094677428 0.00050832512167082935 0 0.019332370684503861 0.00085236468477504709 0 0.020363153598775524 0.0010661928309920643 0 0.019673159094677428 0.00050832512167082935 0 0.020262375906306421 0.00050877019267396009 0 0.020363153598775524 0.0010661928309920643 0 0.019332370684503861 0.00085236468477504709 0 0.020363153598775524 0.0010661928309920643 0 0.02001482591606871 0.0020758657153810626 0 0.020262375906306421 0.00050877019267396009 0 0.020363153598775524 0.0010661928309920643 0 0.021393295310721358 0.00095371765066638891 0 0.020363153598775524 0.0010661928309920643 0 0.021393295310721358 0.00095371765066638891 0 0.021667879291236227 0.0018020766195792055 0 0.020262375906306421 0.00050877019267396009 0 0.021393295310721358 0.00095371765066638891 0 0.020963597392402954 0.00031600868611362501 0 0.021771425792485258 0.00016391944245758037 0 0.020963597392402954 0.00031600868611362501 0 0.022269397451314961 0.0007936080351936825 0 0.021393295310721358 0.00095371765066638891 0 0.020963597392402954 0.00031600868611362501 0 0.022269397451314961 0.0007936080351936825 0 0.021393295310721358 0.00095371765066638891 0 0.022269397451314961 0.0007936080351936825 0 0.022995255745789932 0.0014849141017017407 0 0.021393295310721358 0.00095371765066638891 0 0.021667879291236227 0.0018020766195792055 0 0.022995255745789932 0.0014849141017017407 0 0.023969359131465744 0.002612601469341779 0 0.021667879291236227 0.0018020766195792055 0 0.022995255745789932 0.0014849141017017407 0 0.023820744560584112 0.0020362082133594554 0 0.023866835567638491 0.0018014792202783094 0 0.023969359131465744 0.002612601469341779 0 0.021667879291236227 0.0018020766195792055 0 0.021382377925509288 0.003608381979067475 0 0.020363153598775524 0.0010661928309920643 0 0.021667879291236227 0.0018020766195792055 0 0.02001482591606871 0.0020758657153810626 0 0.0223087378027234 0.0010295626383663185 0 0.023866835567638491 0.0018014792202783094 0 0.022976736537749211 0.00099410924297704318 0 0.023396052555676384 0.0021788391068638864 0 0.023834121445410347 0.0020524962407962211 0 0.0223087378027234 0.0010295626383663185 0 0.024403883247718618 0.0015336172039865606 0 0.022867182663370855 0.00019723794235069407 0 0.022869030735137422 0.00020150853316353202 0 0.022879309744737116 0.00020917995177249126 0 0.021667879291236227 0.0018020766195792055 0 0.02001482591606871 0.0020758657153810626 0 0.021382377925509288 0.003608381979067475 0 0.022869030735137422 0.00020150853316353202 0 0.022860335494898999 0.00019627551258131218 0 0.022870900292196662 0.00020277124172936697 0 0.022867182663370855 0.00019723794235069407 0 0.022869030735137422 0.00020150853316353202 0 0.022860335494898999 0.00019627551258131218 0 0.022857592888932292 0.00019303077229303086 0 0.022867182663370855 0.00019723794235069407 0 0.022860335494898999 0.00019627551258131218 0 0.021469424654975262 0.00059736947492424592 0 0.0223087378027234 0.0010295626383663185 0 0.023635584374075581 0.00097722995455072148 0 0.024352320709059207 0.0013914303225721562 0 0.023969945426263167 0.00059869756126329856 0 0.023209875077203169 -0.00026980357040334288 0 0.023225779530137679 0.00020405253983967232 0 0.023969945426263167 0.00059869756126329856 0 0.023635584374075581 0.00097722995455072148 0 0.023225779530137679 0.00020405253983967232 0 0.023969945426263167 0.00059869756126329856 0 0.023635584374075581 0.00097722995455072148 0 0.023225779530137679 0.00020405253983967232 0 0.022711737346074019 0.00028413126020502297 0 0.021771425792485258 0.00016391944245758037 0 0.022269397451314961 0.0007936080351936825 0 0.022711737346074019 0.00028413126020502297 0 0.022269397451314961 0.0007936080351936825 0 0.022711737346074019 0.00028413126020502297 0 0.023083646652553819 0.0010014151582908477 0 0.022269397451314961 0.0007936080351936825 0 0.023083646652553819 0.0010014151582908477 0 0.022995255745789932 0.0014849141017017407 0 0.023635584374075581 0.00097722995455072148 0 0.023083646652553819 0.0010014151582908477 0 0.023792528555505909 0.0015321918066561625 0 0.023635584374075581 0.00097722995455072148 0 0.022711737346074019 0.00028413126020502297 0 0.023083646652553819 0.0010014151582908477 0 0.023083646652553819 0.0010014151582908477 0 0.023792528555505909 0.0015321918066561625 0 0.022995255745789932 0.0014849141017017407 0 0.023792528555505909 0.0015321918066561625 0 0.022995255745789932 0.0014849141017017407 0 0.023967615467038583 0.0020090787619623332 0 0.023969359131465744 0.002612601469341779 0 0.022995255745789932 0.0014849141017017407 0 0.023967615467038583 0.0020090787619623332 0 0.023969359131465744 0.002612601469341779 0 0.023967615467038583 0.0020090787619623332 0 0.024562846789891606 0.0022305710511077745 0 0.023792528555505909 0.0015321918066561625 0 0.024529533795305532 0.0020213700606770244 0 0.024414717672916239 0.0017268116360141857 0 0.023967615467038583 0.0020090787619623332 0 0.024529533795305532 0.0020213700606770244 0 0.024562846789891606 0.0022305710511077745 0 0.023792528555505909 0.0015321918066561625 0 0.023967615467038583 0.0020090787619623332 0 0.024529533795305532 0.0020213700606770244 0 0.024529533795305532 0.0020213700606770244 0 0.024766766168745163 0.0019485906599377711 0 0.024414717672916239 0.0017268116360141857 0 0.024766766168745163 0.0019485906599377711 0 0.024414717672916239 0.0017268116360141857 0 0.024823778380635937 0.001889058804765006 0 0.023635584374075581 0.00097722995455072148 0 0.023792528555505909 0.0015321918066561625 0 0.024414717672916239 0.0017268116360141857 0 0.023635584374075581 0.00097722995455072148 0 0.024414717672916239 0.0017268116360141857 0 0.024352320709059207 0.0013914303225721562 0 0.023897982430574217 -0.00034909627884008044 0 0.024628065854864805 6.4647875244069582e-05 0 0.024414717672916239 0.0017268116360141857 0 0.024352320709059207 0.0013914303225721562 0 0.024773915305665431 0.0018993325853571405 0 0.024414717672916239 0.0017268116360141857 0 0.024823778380635937 0.001889058804765006 0 0.024773915305665431 0.0018993325853571405 0 0.023465490832685062 -0.0021104278533696699 0 0.023556252014499748 -0.0020126006253503538 0 0.023406274387707961 -0.0018957200877862759 0 0.023556252014499748 -0.0020126006253503538 0 0.023547835559411947 -0.0018940241803909374 0 0.023406274387707961 -0.0018957200877862759 0 0.023556252014499748 -0.0020126006253503538 0 0.023689356866220691 -0.0018896598993212979 0 0.023547835559411947 -0.0018940241803909374 0 0.023556252014499748 -0.0020126006253503538 0 0.023676792912040605 -0.0020648338404055137 0 0.023689356866220691 -0.0018896598993212979 0 0.023676792912040605 -0.0020648338404055137 0 0.023595266028979791 -0.0021768686587852601 0 0.023725917044113976 -0.0021785575453467233 0 0.023556252014499748 -0.0020126006253503538 0 0.023676792912040605 -0.0020648338404055137 0 0.023595266028979791 -0.0021768686587852601 0 0.023465490832685062 -0.0021104278533696699 0 0.023556252014499748 -0.0020126006253503538 0 0.023595266028979791 -0.0021768686587852601 0 0.023595266028979791 -0.0021768686587852601 0 0.023605351407186007 -0.0023338410424817335 0 0.023544009935570594 -0.0023092180132867684 0 0.023465490832685062 -0.0021104278533696699 0 0.023595266028979791 -0.0021768686587852601 0 0.023544009935570594 -0.0023092180132867684 0 0.023897982430574217 -0.00034909627884008044 0 0.023266316575784526 -0.0011024569242331489 0 0.023605351407186007 -0.0023338410424817335 0 0.023528138480473925 -0.0024214894022191844 0 0.023556093161561424 -0.0025650862440210562 0 0.024368300756462655 -0.0024937489948589991 0 0.024597922643236878 -0.0023759880569492928 0 0.023595266028979791 -0.0021768686587852601 0 0.023605351407186007 -0.0023338410424817335 0 0.023725917044113976 -0.0021785575453467233 0 0.023605351407186007 -0.0023338410424817335 0 0.02352310486364427 -0.0023101967686752606 0 0.023602090031437647 -0.0023249254478977339 0 0.023266316575784526 -0.0011024569242331489 0 0.022502058696942048 -0.0026006980601515775 0 0.023605351407186007 -0.0023338410424817335 0 0.023544009935570594 -0.0023092180132867684 0 0.023602090031437647 -0.0023249254478977339 0 0.021164032313551701 -0.0041995393329055776 0 0.020337400384194685 -0.0047052715542568709 0 0.016984585671926265 -0.0075720311218800632 0 0.019403200677865148 -0.007704970652703055 0 0.017047078642043294 -0.0094100532074851573 0 0.02352310486364427 -0.0023101967686752606 0 0.023422745596382855 -0.0024975691301311015 0 0.023528138480473925 -0.0024214894022191844 0 0.023605351407186007 -0.0023338410424817335 0 0.02352310486364427 -0.0023101967686752606 0 0.023528138480473925 -0.0024214894022191844 0 0.02352310486364427 -0.0023101967686752606 0 0.023422745596382855 -0.0024975691301311015 0 0.023242748407062863 -0.0024712313157618073 0 0.023422745596382855 -0.0024975691301311015 0 0.023528138480473925 -0.0024214894022191844 0 0.023556093161561424 -0.0025650862440210562 0 0.023422745596382855 -0.0024975691301311015 0 0.023556093161561424 -0.0025650862440210562 0 0.023371260832568061 -0.0026810034231734732 0 0.023422745596382855 -0.0024975691301311015 0 0.023242748407062863 -0.0024712313157618073 0 0.023371260832568061 -0.0026810034231734732 0 0.020337400384194685 -0.0047052715542568709 0 0.02079387183901743 -0.0043235321886965104 0 0.023179019714623335 -0.0024005609941248028 0 0.023258351389909601 -0.0026795647318902894 0 0.023044816425655743 -0.0024992068185981306 0 0.024381862822972989 -0.0026991813088478524 0 0.021933257384161034 -0.003423877310421809 0 0.023179019714623335 -0.0024005609941248028 0 0.023258351389909601 -0.0026795647318902894 0 0.023371260832568061 -0.0026810034231734732 0 0.030482252741224132 -0.00056920818254898502 0 0.03061028988483867 -0.00057999329538541871 0 0.030605967657519492 -0.00066205460658086131 0 0.023258351389909601 -0.0026795647318902894 0 0.023371260832568061 -0.0026810034231734732 0 0.023450392774147483 -0.0028319211865517821 0 0.030482252741224132 -0.00056920818254898502 0 0.030126361470680301 -0.00028207923619839181 0 0.030479156772818358 -0.00026350962579494162 0 0.024381862822972989 -0.0026991813088478524 0 0.025540260669404121 -0.0016144762889011856 0 0.030482252741224132 -0.00056920818254898502 0 0.030603257639395028 -0.00039251877106935183 0 0.03061028988483867 -0.00057999329538541871 0 0.030482252741224132 -0.00056920818254898502 0 0.030603257639395028 -0.00039251877106935183 0 0.030479156772818358 -0.00026350962579494162 0 0.023676792912040605 -0.0020648338404055137 0 0.023725917044113976 -0.0021785575453467233 0 0.023817587966895346 -0.0020091140197993815 0 0.023556093161561424 -0.0025650862440210562 0 0.023371260832568061 -0.0026810034231734732 0 0.023450392774147483 -0.0028319211865517821 0 0.024597922643236878 -0.0023759880569492928 0 0.025540260669404121 -0.0016144762889011856 0 0.025540260669404121 -0.0016144762889011856 0 0.025880271844122213 -0.00020083610630664957 0 0.025871070837080189 -0.00019833381706499365 0 0.0255618784440216 -0.00086027511360100412 0 0.02656438748687678 -0.00082450988115911515 0 0.023676792912040605 -0.0020648338404055137 0 0.023817587966895346 -0.0020091140197993815 0 0.023689356866220691 -0.0018896598993212979 0 0.025540260669404121 -0.0016144762889011856 0 0.027885225734763312 6.8140523295985694e-05 0 0.030625994639080868 -0.00022102048620419981 0 0.030479156772818358 -0.00026350962579494162 0 0.030609571785331777 -6.6688602383930737e-05 0 0.030603257639395028 -0.00039251877106935183 0 0.030625994639080868 -0.00022102048620419981 0 0.030729185936114511 -0.00026329286926324763 0 0.030603257639395028 -0.00039251877106935183 0 0.030625994639080868 -0.00022102048620419981 0 0.030479156772818358 -0.00026350962579494162 0 0.030126361470680301 -0.00028207923619839181 0 0.030479156772818358 -0.00026350962579494162 0 0.030414788675021662 -8.725199897174263e-05 0 0.030414788675021662 -8.725199897174263e-05 0 0.030524686135226211 3.1873533908209606e-05 0 0.030319916556446707 0.00014492178717688287 0 0.030126361470680301 -0.00028207923619839181 0 0.030414788675021662 -8.725199897174263e-05 0 0.030319916556446707 0.00014492178717688287 0 0.030524686135226211 3.1873533908209606e-05 0 0.03069754568160022 3.369585807928127e-05 0 0.030578042273086865 0.00016359857032769462 0 0.030479156772818358 -0.00026350962579494162 0 0.030414788675021662 -8.725199897174263e-05 0 0.030609571785331777 -6.6688602383930737e-05 0 0.030414788675021662 -8.725199897174263e-05 0 0.030524686135226211 3.1873533908209606e-05 0 0.030609571785331777 -6.6688602383930737e-05 0 0.030625994639080868 -0.00022102048620419981 0 0.030609571785331777 -6.6688602383930737e-05 0 0.030706278589305053 -0.00011212470080334321 0 0.030609571785331777 -6.6688602383930737e-05 0 0.030707570649426436 -2.9806722737472346e-05 0 0.030706278589305053 -0.00011212470080334321 0 0.030609571785331777 -6.6688602383930737e-05 0 0.030707570649426436 -2.9806722737472346e-05 0 0.03069754568160022 3.369585807928127e-05 0 0.030524686135226211 3.1873533908209606e-05 0 0.030609571785331777 -6.6688602383930737e-05 0 0.03069754568160022 3.369585807928127e-05 0 0.030821439711887364 2.5843346527748915e-05 0 0.030706278589305053 -0.00011212470080334321 0 0.030729185936114511 -0.00026329286926324763 0 0.030821439711887364 2.5843346527748915e-05 0 0.030888483660943006 4.1739110785149305e-05 0 0.030856678415142252 -6.9994388644264385e-06 0 0.030821439711887364 2.5843346527748915e-05 0 0.030729185936114511 -0.00026329286926324763 0 0.030839321395746452 -0.00044089321689180896 0 0.026341001066480109 -0.0020783617088186985 0 0.025806195647138031 -0.0024787781753819751 0 0.03069754568160022 3.369585807928127e-05 0 0.030821439711887364 2.5843346527748915e-05 0 0.030858523189832274 0.00013145939108545314 0 0.030707570649426436 -2.9806722737472346e-05 0 0.03069754568160022 3.369585807928127e-05 0 0.030821439711887364 2.5843346527748915e-05 0 0.030707570649426436 -2.9806722737472346e-05 0 0.030821439711887364 2.5843346527748915e-05 0 0.030706278589305053 -0.00011212470080334321 0 0.030625994639080868 -0.00022102048620419981 0 0.030706278589305053 -0.00011212470080334321 0 0.030729185936114511 -0.00026329286926324763 0 0.030888483660943006 4.1739110785149305e-05 0 0.030911559625568564 3.3740487289883898e-05 0 0.030856678415142252 -6.9994388644264385e-06 0 0.030821439711887364 2.5843346527748915e-05 0 0.030888483660943006 4.1739110785149305e-05 0 0.030896423314218609 8.7837857856240192e-05 0 0.030888483660943006 4.1739110785149305e-05 0 0.030926302955312058 8.9255703618825027e-05 0 0.030896423314218609 8.7837857856240192e-05 0 0.030911559625568564 3.3740487289883898e-05 0 0.030956982502707234 1.7111328509054404e-05 0 0.030943724665929043 8.2793231279570926e-05 0 0.030911559625568564 3.3740487289883898e-05 0 0.030943724665929043 8.2793231279570926e-05 0 0.030926302955312058 8.9255703618825027e-05 0 0.030888483660943006 4.1739110785149305e-05 0 0.030911559625568564 3.3740487289883898e-05 0 0.030926302955312058 8.9255703618825027e-05 0 0.030896398648804405 -1.8409310785359747e-05 0 0.030956982502707234 1.7111328509054404e-05 0 0.030877808974053157 -9.2789428914416959e-05 0 0.030911559625568564 3.3740487289883898e-05 0 0.030896398648804405 -1.8409310785359747e-05 0 0.030956982502707234 1.7111328509054404e-05 0 0.030896398648804405 -1.8409310785359747e-05 0 0.030856678415142252 -6.9994388644264385e-06 0 0.030854632953438096 -7.0025521557848594e-05 0 0.030911559625568564 3.3740487289883898e-05 0 0.030896398648804405 -1.8409310785359747e-05 0 0.030856678415142252 -6.9994388644264385e-06 0 0.025806195647138031 -0.0024787781753819751 0 0.024047927974560353 -0.0037225914868110805 0 0.03061028988483867 -0.00057999329538541871 0 0.030839321395746452 -0.00044089321689180896 0 0.030959477928478571 -0.0008545640618119356 0 0.02567661844687277 -0.0039108575496053207 0 0.024047927974560353 -0.0037225914868110805 0 0.030603257639395028 -0.00039251877106935183 0 0.03061028988483867 -0.00057999329538541871 0 0.030699860270945241 -0.00042597830931563645 0 0.03061028988483867 -0.00057999329538541871 0 0.030699860270945241 -0.00042597830931563645 0 0.030839321395746452 -0.00044089321689180896 0 0.030603257639395028 -0.00039251877106935183 0 0.030729185936114511 -0.00026329286926324763 0 0.030699860270945241 -0.00042597830931563645 0 0.030729185936114511 -0.00026329286926324763 0 0.030699860270945241 -0.00042597830931563645 0 0.030839321395746452 -0.00044089321689180896 0 0.023652894475071708 -0.0029115193009951455 0 0.023837119715297048 -0.0029355394888044674 0 0.023857714178971656 -0.0026502166802580404 0 0.030956982502707234 1.7111328509054404e-05 0 0.030958940098274521 0.00010973043035866954 0 0.030988364630966041 9.6113904939482445e-05 0 0.023837119715297048 -0.0029355394888044674 0 0.023857714178971656 -0.0026502166802580404 0 0.023951468494039108 -0.0028026988319104526 0 0.02606169881720951 -0.0010789828711594473 0 0.027056493967739056 0.00015485217208222434 0 0.030956982502707234 1.7111328509054404e-05 0 0.030958940098274521 0.00010973043035866954 0 0.030943724665929043 8.2793231279570926e-05 0 0.02606169881720951 -0.0010789828711594473 0 0.02286688732898156 -0.0035914510514308325 0 0.023837119715297048 -0.0029355394888044674 0 0.023770940877865153 -0.0031158725274479976 0 0.023890565273919279 -0.0031192902667074515 0 0.023652894475071708 -0.0029115193009951455 0 0.023837119715297048 -0.0029355394888044674 0 0.023770940877865153 -0.0031158725274479976 0 0.023770940877865153 -0.0031158725274479976 0 0.023833692847648035 -0.003254280965926979 0 0.023890565273919279 -0.0031192902667074515 0 0.023770940877865153 -0.0031158725274479976 0 0.023736374541035995 -0.0032147585542123109 0 0.023635684403576149 -0.0031692039079884104 0 0.023770940877865153 -0.0031158725274479976 0 0.023736374541035995 -0.0032147585542123109 0 0.023833692847648035 -0.003254280965926979 0 0.023652894475071708 -0.0029115193009951455 0 0.023635684403576149 -0.0031692039079884104 0 0.023455985848412041 -0.0031581818008854499 0 0.023652894475071708 -0.0029115193009951455 0 0.023770940877865153 -0.0031158725274479976 0 0.023635684403576149 -0.0031692039079884104 0 0.023635684403576149 -0.0031692039079884104 0 0.023704993824800021 -0.0033187294828923184 0 0.023455985848412041 -0.0031581818008854499 0 0.012226233466845916 -0.007685832406916027 0 0.014761065649617058 -0.0082259466031764303 0 0.01262015460551391 -0.0064248944854990468 0 0.020814670954014899 -0.0044287182180947392 0 0.017728959541587663 -0.0040067807221931704 0 0.019219778645837567 -0.0041171766792611354 0 0.02286688732898156 -0.0035914510514308325 0 0.023736374541035995 -0.0032147585542123109 0 0.023635684403576149 -0.0031692039079884104 0 0.023704993824800021 -0.0033187294828923184 0 0.023704993824800021 -0.0033187294828923184 0 0.023833692847648035 -0.003254280965926979 0 0.023952846421745014 -0.0034296073449966093 0 0.023736374541035995 -0.0032147585542123109 0 0.023704993824800021 -0.0033187294828923184 0 0.023833692847648035 -0.003254280965926979 0 0.021933257384161034 -0.003423877310421809 0 0.021924331798046648 -0.004534298854763052 0 0.016033916065453204 -0.0090770651117708222 0 0.014944111475790051 -0.0081116717505553167 0 0.015666013528475447 -0.0080404045478247709 0 0.030605967657519492 -0.00066205460658086131 0 0.030605218756771052 -0.00067333840223807108 0 0.030585232256305769 -0.00067962398328773039 0 0.016743127941097481 -0.0085473626950746031 0 0.016033916065453204 -0.0090770651117708222 0 0.015666013528475447 -0.0080404045478247709 0 0.03061028988483867 -0.00057999329538541871 0 0.030605967657519492 -0.00066205460658086131 0 0.030605218756771052 -0.00067333840223807108 0 0.020337400384194685 -0.0047052715542568709 0 0.021933257384161034 -0.003423877310421809 0 0.030896398648804405 -1.8409310785359747e-05 0 0.030854632953438096 -7.0025521557848594e-05 0 0.030877808974053157 -9.2789428914416959e-05 0 0.024047927974560353 -0.0037225914868110805 0 0.02286688732898156 -0.0035914510514308325 0 0.030605218756771052 -0.00067333840223807108 0 0.030586170624557766 -0.00067942690248364403 0 0.030585232256305769 -0.00067962398328773039 0 0.014672220722661892 -0.0093027027312952912 0 0.015026000206984339 -0.0088647792213698787 0 0.014761065649617058 -0.0082259466031764303 0 0.024047927974560353 -0.0037225914868110805 0 0.022189079128092884 -0.0042364602495737905 0 0.023276053030199553 -0.0034971628301664888 0 0.022584353868110071 -0.0030240436141103005 0 0.02292140940226035 -0.0026096076827634876 0 0.02286688732898156 -0.0035914510514308325 0 0.022189079128092884 -0.0042364602495737905 0 0.022189079128092884 -0.0042364602495737905 0 0.021924331798046648 -0.004534298854763052 0 0.020814670954014899 -0.0044287182180947392 0 0.017813291804171738 -0.0045240823876816971 0 0.014939422912619408 -0.008116046805788037 0 0.014558720659048969 -0.0077838529138102297 0 0.015159812226487311 -0.0078432995816865737 0 0.014558720659048969 -0.0077838529138102297 0 0.014942428323453459 -0.0071434064584173429 0 0.015159812226487311 -0.0078432995816865737 0 0.021924331798046648 -0.004534298854763052 0 0.021787021920453988 -0.0046682252272957185 0 0.012226233466845916 -0.007685832406916027 0 0.014672220722661892 -0.0093027027312952912 0 0.014761065649617058 -0.0082259466031764303 0 0.014558720659048969 -0.0077838529138102297 0 0.014942428323453459 -0.0071434064584173429 0 0.014560729931080487 -0.0064446849570309927 0 0.021483094822311696 -0.0052773339105096828 0 0.021579348325219731 -0.0051586531030133097 0 0.021353441134820138 -0.0049561418855417075 0 0.022189079128092884 -0.0042364602495737905 0 0.020814670954014899 -0.0044287182180947392 0 0.021924331798046648 -0.004534298854763052 0 0.020814670954014899 -0.0044287182180947392 0 0.020337400384194685 -0.0047052715542568709 0 0.017300807454468096 -0.0053040480749569578 0 0.015666013528475447 -0.0080404045478247709 0 0.015159812226487311 -0.0078432995816865737 0 0.015453285026267007 -0.0066208664489465913 0 0.016743127941097481 -0.0085473626950746031 0 0.015666013528475447 -0.0080404045478247709 0 0.015453285026267007 -0.0066208664489465913 0 0.016984585671926265 -0.0075720311218800632 0 0.017047078642043294 -0.0094100532074851573 0 0.015481041987411711 -0.0069738941384169728 0 0.014942428323453459 -0.0071434064584173429 0 0.015159812226487311 -0.0078432995816865737 0 0.015453285026267007 -0.0066208664489465913 0 0.014944111475790051 -0.0081116717505553167 0 0.015666013528475447 -0.0080404045478247709 0 0.015159812226487311 -0.0078432995816865737 0 0.016470586168095484 -0.006174269310205923 0 0.015481041987411711 -0.0069738941384169728 0 0.015660495188450103 -0.0051350558148331076 0 0.016984585671926265 -0.0075720311218800632 0 0.016470586168095484 -0.006174269310205923 0 0.015481041987411711 -0.0069738941384169728 0 0.014560729931080487 -0.0064446849570309927 0 0.013761046554528646 -0.0059858768444551701 0 0.01409189097295184 -0.0046580140178153632 0 0.014942428323453459 -0.0071434064584173429 0 0.015453285026267007 -0.0066208664489465913 0 0.014560729931080487 -0.0064446849570309927 0 0.015453285026267007 -0.0066208664489465913 0 0.014560729931080487 -0.0064446849570309927 0 0.01409189097295184 -0.0046580140178153632 0 0.014558720659048969 -0.0077838529138102297 0 0.014560729931080487 -0.0064446849570309927 0 0.013761046554528646 -0.0059858768444551701 0 0.017300807454468096 -0.0053040480749569578 0 0.014967015821288563 -0.0040804292753178883 0 0.014013415776093729 -0.004599657047509473 0 0.015660495188450103 -0.0051350558148331076 0 0.015040167744712615 -0.0039616717994764468 0 0.015481041987411711 -0.0069738941384169728 0 0.014013415776093729 -0.004599657047509473 0 0.015660495188450103 -0.0051350558148331076 0 0.015660495188450103 -0.0051350558148331076 0 0.016148917941323178 -0.0038954094391366332 0 0.015040167744712615 -0.0039616717994764468 0 0.015660495188450103 -0.0051350558148331076 0 0.016148917941323178 -0.0038954094391366332 0 0.017156925677476731 -0.004928562133076202 0 0.016470586168095484 -0.006174269310205923 0 0.015660495188450103 -0.0051350558148331076 0 0.017156925677476731 -0.004928562133076202 0 0.01262015460551391 -0.0064248944854990468 0 0.011468751995679064 -0.0050459794918650902 0 0.0099288860780763835 -0.0061103075463362043 0 0.019219778645837567 -0.0041171766792611354 0 0.017325856807907099 -0.0041888073597474654 0 0.012226233466845916 -0.007685832406916027 0 0.01262015460551391 -0.0064248944854990468 0 0.0099288860780763835 -0.0061103075463362043 0 0.014585093758085641 -0.0081297098704900678 0 0.01374508982028242 -0.0061381863263554751 0 0.01262015460551391 -0.0064248944854990468 0 0.01374508982028242 -0.0061381863263554751 0 0.01262015460551391 -0.0064248944854990468 0 0.012648922055892402 -0.0053847126470222585 0 0.017813291804171738 -0.0045240823876816971 0 0.016747072236566463 -0.0040722120510655888 0 0.013761046554528646 -0.0059858768444551701 0 0.01409189097295184 -0.0046580140178153632 0 0.012874349187254283 -0.0041343849138052568 0 0.01374508982028242 -0.0061381863263554751 0 0.012648922055892402 -0.0053847126470222585 0 0.012874349187254283 -0.0041343849138052568 0 0.012648922055892402 -0.0053847126470222585 0 0.011468751995679064 -0.0050459794918650902 0 0.012874349187254283 -0.0041343849138052568 0 0.01262015460551391 -0.0064248944854990468 0 0.012648922055892402 -0.0053847126470222585 0 0.011468751995679064 -0.0050459794918650902 0 0.011468751995679064 -0.0050459794918650902 0 0.011672865416919642 -0.0034986343499116787 0 0.010542965983479962 -0.004044338107641981 0 0.011468751995679064 -0.0050459794918650902 0 0.011672865416919642 -0.0034986343499116787 0 0.012874349187254283 -0.0041343849138052568 0 0.011672865416919642 -0.0034986343499116787 0 0.010653224290239684 -0.0022358971456462244 0 0.010542965983479962 -0.004044338107641981 0 0.011672865416919642 -0.0034986343499116787 0 0.012607706085234913 -0.002598807894795053 0 0.010653224290239684 -0.0022358971456462244 0 0.014967015821288563 -0.0040804292753178883 0 0.013237895827253236 -0.002459310031439059 0 0.011672865416919642 -0.0034986343499116787 0 0.012874349187254283 -0.0041343849138052568 0 0.012607706085234913 -0.002598807894795053 0 0.01409189097295184 -0.0046580140178153632 0 0.012874349187254283 -0.0041343849138052568 0 0.012607706085234913 -0.002598807894795053 0 0.012704098044951057 -0.00083274455563973416 0 0.012617320108085243 -0.002497891709327306 0 0.01428015591914639 -0.0016299992009543608 0 0.012391601058520855 -0.0014730298322098402 0 0.013237895827253236 -0.002459310031439059 0 0.011112268764101282 -0.00057866412550547364 0 0.012607706085234913 -0.002598807894795053 0 0.010653224290239684 -0.0022358971456462244 0 0.015191354374852828 -0.0027547064812713995 0 0.016556778950491412 -0.002674635103189168 0 0.016148917941323178 -0.0038954094391366332 0 0.015191354374852828 -0.0027547064812713995 0 0.016148917941323178 -0.0038954094391366332 0 0.015040167744712615 -0.0039616717994764468 0 0.014013415776093729 -0.004599657047509473 0 0.012617320108085243 -0.002497891709327306 0 0.014223599630301129 -0.0030783831898986572 0 0.014013415776093729 -0.004599657047509473 0 0.015040167744712615 -0.0039616717994764468 0 0.014223599630301129 -0.0030783831898986572 0 0.015191354374852828 -0.0027547064812713995 0 0.015040167744712615 -0.0039616717994764468 0 0.014223599630301129 -0.0030783831898986572 0 0.015191354374852828 -0.0027547064812713995 0 0.014223599630301129 -0.0030783831898986572 0 0.01428015591914639 -0.0016299992009543608 0 0.012617320108085243 -0.002497891709327306 0 0.014223599630301129 -0.0030783831898986572 0 0.01428015591914639 -0.0016299992009543608 0 0.015763340752569719 -0.00028442514589252347 0 0.01428015591914639 -0.0016299992009543608 0 0.015795771320677124 -0.0017849399472864651 0 0.015763340752569719 -0.00028442514589252347 0 0.015795771320677124 -0.0017849399472864651 0 0.017211212690705996 -0.0016374933391181668 0 0.015191354374852828 -0.0027547064812713995 0 0.01428015591914639 -0.0016299992009543608 0 0.015795771320677124 -0.0017849399472864651 0 0.015191354374852828 -0.0027547064812713995 0 0.016556778950491412 -0.002674635103189168 0 0.015795771320677124 -0.0017849399472864651 0 0.016556778950491412 -0.002674635103189168 0 0.015795771320677124 -0.0017849399472864651 0 0.017211212690705996 -0.0016374933391181668 0 0.017707698763400039 -0.00054329560962517983 0 0.017211212690705996 -0.0016374933391181668 0 0.018145262831826294 -0.0018317257292226833 0 0.017211212690705996 -0.0016374933391181668 0 0.018145262831826294 -0.0018317257292226833 0 0.017689042882877329 -0.0026016826333461322 0 0.016556778950491412 -0.002674635103189168 0 0.017211212690705996 -0.0016374933391181668 0 0.017689042882877329 -0.0026016826333461322 0 0.016556778950491412 -0.002674635103189168 0 0.017689042882877329 -0.0026016826333461322 0 0.01730608998305978 -0.0035950603807902879 0 0.017689042882877329 -0.0026016826333461322 0 0.018083119829613609 -0.0032478003027973982 0 0.018791890291272585 -0.0027502559788789849 0 0.018145262831826294 -0.0018317257292226833 0 0.017689042882877329 -0.0026016826333461322 0 0.018791890291272585 -0.0027502559788789849 0 0.017689042882877329 -0.0026016826333461322 0 0.018083119829613609 -0.0032478003027973982 0 0.01730608998305978 -0.0035950603807902879 0 0.018083119829613609 -0.0032478003027973982 0 0.01730608998305978 -0.0035950603807902879 0 0.018494903360061533 -0.0039838423524478821 0 0.016556778950491412 -0.002674635103189168 0 0.016148917941323178 -0.0038954094391366332 0 0.01730608998305978 -0.0035950603807902879 0 0.019391234816270253 -0.0032518471874762355 0 0.020266318193940348 -0.0029270614350328022 0 0.01986970311521721 -0.004068290473103889 0 0.019391234816270253 -0.0032518471874762355 0 0.018494903360061533 -0.0039838423524478821 0 0.01986970311521721 -0.004068290473103889 0 0.018083119829613609 -0.0032478003027973982 0 0.018791890291272585 -0.0027502559788789849 0 0.018494903360061533 -0.0039838423524478821 0 0.019391234816270253 -0.0032518471874762355 0 0.018791890291272585 -0.0027502559788789849 0 0.018494903360061533 -0.0039838423524478821 0 0.018791890291272585 -0.0027502559788789849 0 0.019608625165162548 -0.0025148841885332526 0 0.019358733805838253 -0.0019769026372821637 0 0.019391234816270253 -0.0032518471874762355 0 0.018791890291272585 -0.0027502559788789849 0 0.019608625165162548 -0.0025148841885332526 0 0.019608625165162548 -0.0025148841885332526 0 0.020147906930384939 -0.0021372306055561833 0 0.020266318193940348 -0.0029270614350328022 0 0.019391234816270253 -0.0032518471874762355 0 0.019608625165162548 -0.0025148841885332526 0 0.020266318193940348 -0.0029270614350328022 0 0.019608625165162548 -0.0025148841885332526 0 0.019358733805838253 -0.0019769026372821637 0 0.020147906930384939 -0.0021372306055561833 0 0.019358733805838253 -0.0019769026372821637 0 0.020582754946732593 -0.0015665354079841321 0 0.020147906930384939 -0.0021372306055561833 0 0.019358733805838253 -0.0019769026372821637 0 0.018814401562599666 -0.0012234504740235065 0 0.020582754946732593 -0.0015665354079841321 0 0.018715340412148375 0.00031237294573409851 0 0.018814401562599666 -0.0012234504740235065 0 0.020582754946732593 -0.0015665354079841321 0 0.018145262831826294 -0.0018317257292226833 0 0.019358733805838253 -0.0019769026372821637 0 0.018814401562599666 -0.0012234504740235065 0 0.018145262831826294 -0.0018317257292226833 0 0.018791890291272585 -0.0027502559788789849 0 0.019358733805838253 -0.0019769026372821637 0 0.017707698763400039 -0.00054329560962517983 0 0.018145262831826294 -0.0018317257292226833 0 0.018814401562599666 -0.0012234504740235065 0 0.020717236990589565 -0.001071396821249766 0 0.021055273079607351 -0.0012759576509126873 0 0.020582754946732593 -0.0015665354079841321 0 0.021055273079607351 -0.0012759576509126873 0 0.021051108641211239 -0.0015546886568446256 0 0.020582754946732593 -0.0015665354079841321 0 0.021055273079607351 -0.0012759576509126873 0 0.021224178464305885 -0.0014290702280693652 0 0.021051108641211239 -0.0015546886568446256 0 0.021224178464305885 -0.0014290702280693652 0 0.021051108641211239 -0.0015546886568446256 0 0.021316041155516177 -0.0016013428214258225 0 0.021051108641211239 -0.0015546886568446256 0 0.020582754946732593 -0.0015665354079841321 0 0.020946364929526819 -0.0018662837090172709 0 0.020582754946732593 -0.0015665354079841321 0 0.020147906930384939 -0.0021372306055561833 0 0.020946364929526819 -0.0018662837090172709 0 0.02149590902945377 -0.0011463849673331893 0 0.02134306490818234 -0.0012801179463372292 0 0.021613553863542627 -0.0012916088093455314 0 0.021503547764838687 -0.0010363900838011757 0 0.021692319727718855 -0.001103955140589857 0 0.02149590902945377 -0.0011463849673331893 0 0.020979903567567449 -0.0010105941475944957 0 0.021055273079607351 -0.0012759576509126873 0 0.021261127692585771 -0.0011410698685817664 0 0.02149590902945377 -0.0011463849673331893 0 0.021261127692585771 -0.0011410698685817664 0 0.02134306490818234 -0.0012801179463372292 0 0.021055273079607351 -0.0012759576509126873 0 0.021261127692585771 -0.0011410698685817664 0 0.02134306490818234 -0.0012801179463372292 0 0.021440006894387971 -0.0014119726498778098 0 0.021613553863542627 -0.0012916088093455314 0 0.021693485383640111 -0.001394583900984123 0 0.021224178464305885 -0.0014290702280693652 0 0.02134306490818234 -0.0012801179463372292 0 0.021440006894387971 -0.0014119726498778098 0 0.021055273079607351 -0.0012759576509126873 0 0.021224178464305885 -0.0014290702280693652 0 0.02134306490818234 -0.0012801179463372292 0 0.021224178464305885 -0.0014290702280693652 0 0.021440006894387971 -0.0014119726498778098 0 0.021316041155516177 -0.0016013428214258225 0 0.02134306490818234 -0.0012801179463372292 0 0.021440006894387971 -0.0014119726498778098 0 0.021613553863542627 -0.0012916088093455314 0 0.021737653076281001 -0.0011883484470023807 0 0.021974820311903349 -0.0012175617743611679 0 0.021613553863542627 -0.0012916088093455314 0 0.021737653076281001 -0.0011883484470023807 0 0.02149590902945377 -0.0011463849673331893 0 0.021613553863542627 -0.0012916088093455314 0 0.021693485383640111 -0.001394583900984123 0 0.022185904661515481 -0.0012432018922947661 0 0.02162137081274659 -0.001417464499238848 0 0.021974820311903349 -0.0012175617743611679 0 0.021613553863542627 -0.0012916088093455314 0 0.021693485383640111 -0.001394583900984123 0 0.021974820311903349 -0.0012175617743611679 0 0.021693485383640111 -0.001394583900984123 0 0.022185904661515481 -0.0012432018922947661 0 0.021440006894387971 -0.0014119726498778098 0 0.021693485383640111 -0.001394583900984123 0 0.021316041155516177 -0.0016013428214258225 0 0.021693485383640111 -0.001394583900984123 0 0.021316041155516177 -0.0016013428214258225 0 0.02162137081274659 -0.001417464499238848 0 0.021950355840287341 -0.0021204329593310541 0 0.022136697409723644 -0.0023923738101174377 0 0.020946364929526819 -0.0018662837090172709 0 0.021316041155516177 -0.0016013428214258225 0 0.02162137081274659 -0.001417464499238848 0 0.020946364929526819 -0.0018662837090172709 0 0.020266318193940348 -0.0029270614350328022 0 0.021397005147800661 -0.0041485838999740163 0 0.020147906930384939 -0.0021372306055561833 0 0.020946364929526819 -0.0018662837090172709 0 0.020266318193940348 -0.0029270614350328022 0 0.021051108641211239 -0.0015546886568446256 0 0.020946364929526819 -0.0018662837090172709 0 0.021316041155516177 -0.0016013428214258225 0 0.020266318193940348 -0.0029270614350328022 0 0.021397005147800661 -0.0041485838999740163 0 0.01986970311521721 -0.004068290473103889 0 0.022136697409723644 -0.0023923738101174377 0 0.022502058696942048 -0.0026006980601515775 0 0.021397005147800661 -0.0041485838999740163 0 0.020263194162580631 -0.0054722191074646218 0 0.01986970311521721 -0.004068290473103889 0 0.021397005147800661 -0.0041485838999740163 0 0.020263194162580631 -0.0054722191074646218 0 0.021866539363715135 -0.0059564296783126162 0 0.022651483258896071 -0.0011811273407749208 0 0.02162137081274659 -0.001417464499238848 0 0.021916508879393105 -0.0019398739934311932 0 0.022651483258896071 -0.0011811273407749208 0 0.022185904661515481 -0.0012432018922947661 0 0.02162137081274659 -0.001417464499238848 0 0.022764146869212836 -0.0022573407733748802 0 0.022502058696942048 -0.0026006980601515775 0 0.023209875077203169 -0.00026980357040334288 0 0.022651483258896071 -0.0011811273407749208 0 0.023951307913612545 -0.00053570137824209213 0 0.023209875077203169 -0.00026980357040334288 0 0.023969945426263167 0.00059869756126329856 0 0.023951307913612545 -0.00053570137824209213 0 0.019403200677865148 -0.007704970652703055 0 0.020263194162580631 -0.0054722191074646218 0 0.021866539363715135 -0.0059564296783126162 0 0.021164032313551701 -0.0041995393329055776 0 0.022502058696942048 -0.0026006980601515775 0 0.019403200677865148 -0.007704970652703055 0 0.017588656248022454 -0.0063923419039438904 0 0.018803940264185592 -0.0053953077020074004 0 0.019403200677865148 -0.007704970652703055 0 0.020263194162580631 -0.0054722191074646218 0 0.018803940264185592 -0.0053953077020074004 0 0.016984585671926265 -0.0075720311218800632 0 0.019403200677865148 -0.007704970652703055 0 0.017588656248022454 -0.0063923419039438904 0 0.016984585671926265 -0.0075720311218800632 0 0.016470586168095484 -0.006174269310205923 0 0.017588656248022454 -0.0063923419039438904 0 0.016470586168095484 -0.006174269310205923 0 0.017588656248022454 -0.0063923419039438904 0 0.017156925677476731 -0.004928562133076202 0 0.017588656248022454 -0.0063923419039438904 0 0.017156925677476731 -0.004928562133076202 0 0.018803940264185592 -0.0053953077020074004 0 0.016148917941323178 -0.0038954094391366332 0 0.01730608998305978 -0.0035950603807902879 0 0.017156925677476731 -0.004928562133076202 0 0.01730608998305978 -0.0035950603807902879 0 0.017156925677476731 -0.004928562133076202 0 0.018494903360061533 -0.0039838423524478821 0 0.017156925677476731 -0.004928562133076202 0 0.018494903360061533 -0.0039838423524478821 0 0.018803940264185592 -0.0053953077020074004 0 0.018494903360061533 -0.0039838423524478821 0 0.01986970311521721 -0.004068290473103889 0 0.018803940264185592 -0.0053953077020074004 0 0.020263194162580631 -0.0054722191074646218 0 0.01986970311521721 -0.004068290473103889 0 0.018803940264185592 -0.0053953077020074004 0 0.0081715498056446779 0.00017543121696334758 0 0.0085738729041353098 0.00034607001599385622 0 0.0094534446322850005 0.00049156499668819562 0 0.0081715498056446779 0.00017543121696334758 0 0.0094534446322850005 0.00049156499668819562 0 0.0092428669347595586 3.9276827479999995e-05 0 0.0081715498056446779 0.00017543121696334758 0 0.0075471520224813793 1.9924063365070363e-06 0 0.0054835730530542271 -3.4185446512794297e-06 0 0.0081715498056446779 0.00017543121696334758 0 0.0075471520224813793 1.9924063365070363e-06 0 0.0085738729041353098 0.00034607001599385622 0 0.0075471520224813793 1.9924063365070363e-06 0 0.0085897973207961116 0.00024522324205561533 0 0.0085738729041353098 0.00034607001599385622 0 0.0085897973207961116 0.00024522324205561533 0 0.0085738729041353098 0.00034607001599385622 0 0.0092757565279226808 0.00072871622441396681 0 0.0075471520224813793 1.9924063365070363e-06 0 0.0085897973207961116 0.00024522324205561533 0 0.0096169654857183959 2.0424449650666042e-07 0 0.0085738729041353098 0.00034607001599385622 0 0.0094534446322850005 0.00049156499668819562 0 0.0092757565279226808 0.00072871622441396681 0 0.0094534446322850005 0.00049156499668819562 0 0.0099998751742021268 0.00091584019855877295 0 0.0092757565279226808 0.00072871622441396681 0 0.0094534446322850005 0.00049156499668819562 0 0.010628640525824131 0.00086570294344361022 0 0.010324332182681214 0.00013297698707973377 0 0.0094534446322850005 0.00049156499668819562 0 0.010628640525824131 0.00086570294344361022 0 0.0099998751742021268 0.00091584019855877295 0 0.010628640525824131 0.00086570294344361022 0 0.010324332182681214 0.00013297698707973377 0 0.011648682161607882 0.00098060742064780509 0 0.010324332182681214 0.00013297698707973377 0 0.0092428669347595586 3.9276827479999995e-05 0 0.0096161016820350519 -0.00042878312978711824 0 0.0094534446322850005 0.00049156499668819562 0 0.010324332182681214 0.00013297698707973377 0 0.0092428669347595586 3.9276827479999995e-05 0 0.0096161016820350519 -0.00042878312978711824 0 0.0088647526116604532 -0.0011659426007091112 0 0.0083539243819625852 -0.00037470744105532556 0 0.0092428669347595586 3.9276827479999995e-05 0 0.0096161016820350519 -0.00042878312978711824 0 0.0083539243819625852 -0.00037470744105532556 0 0.0096161016820350519 -0.00042878312978711824 0 0.010558312963018943 -0.00042362683718055109 0 0.0099081029333158138 -0.0010358434077635495 0 0.010324332182681214 0.00013297698707973377 0 0.0096161016820350519 -0.00042878312978711824 0 0.010558312963018943 -0.00042362683718055109 0 0.010324332182681214 0.00013297698707973377 0 0.010558312963018943 -0.00042362683718055109 0 0.011142365188377567 2.1312755688577447e-05 0 0.0099081029333158138 -0.0010358434077635495 0 0.010210623392033241 -0.0016280955595047439 0 0.010702241764040143 -0.00099813381310960179 0 0.010558312963018943 -0.00042362683718055109 0 0.0099081029333158138 -0.0010358434077635495 0 0.010702241764040143 -0.00099813381310960179 0 0.0099081029333158138 -0.0010358434077635495 0 0.0088647526116604532 -0.0011659426007091112 0 0.0093962245947225853 -0.0017360186034357065 0 0.0096161016820350519 -0.00042878312978711824 0 0.0099081029333158138 -0.0010358434077635495 0 0.0088647526116604532 -0.0011659426007091112 0 0.0088647526116604532 -0.0011659426007091112 0 0.0083539243819625852 -0.00037470744105532556 0 0.0077720439277961101 -0.0018470168992161418 0 0.0088647526116604532 -0.0011659426007091112 0 0.0077720439277961101 -0.0018470168992161418 0 0.0093962245947225853 -0.0017360186034357065 0 0.0081715498056446779 0.00017543121696334758 0 0.0092428669347595586 3.9276827479999995e-05 0 0.0083539243819625852 -0.00037470744105532556 0 0.0081715498056446779 0.00017543121696334758 0 0.0083539243819625852 -0.00037470744105532556 0 0.0054835730530542271 -3.4185446512794297e-06 0 0.005476425286232444 -1.4994508136592093e-06 0 0.0034413567695000327 5.3384843941434484e-07 0 0.0030288126937186026 -0.00024844725129841068 0 0.0083539243819625852 -0.00037470744105532556 0 0.0054835730530542271 -3.4185446512794297e-06 0 0.0077720439277961101 -0.0018470168992161418 0 0.0054782511610995191 -2.0263472098499747e-07 0 0.0054755272241193116 -0.00025621237852358863 0 0.0034413567695000327 5.3384843941434484e-07 0 0.0030288126937186026 -0.00024844725129841068 0 0.0021722921672585609 0.00018752062125257862 0 0.0077720439277961101 -0.0018470168992161418 0 0.0090030738334630732 -0.0024613715753507744 0 0.0093962245947225853 -0.0017360186034357065 0 0.0054755272241193116 -0.00025621237852358863 0 0.0056881713947012219 -0.00038086719878057572 0 0.0030288126937186026 -0.00024844725129841068 0 0.0021722921672585609 0.00018752062125257862 0 0.0017865842475187398 6.3498237043191154e-05 0 0.0021722921672585609 0.00018752062125257862 0 0.0016881658640349217 0.00024429134503962393 0 0.0017865842475187398 6.3498237043191154e-05 0 0.0034413567695000327 5.3384843941434484e-07 0 0.0021722921672585609 0.00018752062125257862 0 0.0014043889771695648 3.2469662362099492e-07 0 0.0021722921672585609 0.00018752062125257862 0 0.0014043889771695648 3.2469662362099492e-07 0 0.0013261791558935635 0.00018241143698735762 0 0.0021722921672585609 0.00018752062125257862 0 0.0016881658640349217 0.00024429134503962393 0 0.0013261791558935635 0.00018241143698735762 0 0.0016881658640349217 0.00024429134503962393 0 0.0013261791558935635 0.00018241143698735762 0 0.0015831266593545263 0.00014833016353156761 0 0.0013261791558935635 0.00018241143698735762 0 0.00025102125313067152 0.00015118872422548404 0 0.0015831266593545263 0.00014833016353156761 0 0.0025699871139598348 -0.00041057502013076283 0 0.0033361003780166842 -0.00023157168521321627 0 0.0009179764803880357 0.00024717279711502653 0 0.00025102125313067152 0.00015118872422548404 0 0.0016319233780026339 0.0012392032400224168 0 -0.00029364367667600961 4.2878309782371283e-05 0 0.0009179764803880357 0.00024717279711502653 0 0.00025102125313067152 0.00015118872422548404 0 0.0014043889771695648 3.2469662362099492e-07 0 0.0013261791558935635 0.00018241143698735762 0 0.00025102125313067152 0.00015118872422548404 0 -0.00063242057695121333 4.2816916305273975e-07 0 -0.00029364367667600961 4.2878309782371283e-05 0 0.0014043889771695648 3.2469662362099492e-07 0 -0.00029364367667600961 4.2878309782371283e-05 0 0.0014043889771695648 3.2469662362099492e-07 0 0.00025102125313067152 0.00015118872422548404 0 0.004211594013289059 -0.00035040280262335573 0 0.0020740255783182658 -0.00035042188783989011 0 0.0029611218218979817 0.00076656490754790452 0 0.004211594013289059 -0.00035040280262335573 0 0.0029611218218979817 0.00076656490754790452 0 0.0040122889864641076 0.001377985008826056 0 0.0020740255783182658 -0.00035042188783989011 0 0.0029611218218979817 0.00076656490754790452 0 0.0016319233780026339 0.0012392032400224168 0 0.0020740255783182658 -0.00035042188783989011 0 0.0009179764803880357 0.00024717279711502653 0 0.0016319233780026339 0.0012392032400224168 0 0.0029611218218979817 0.00076656490754790452 0 0.0016319233780026339 0.0012392032400224168 0 0.0031215817341596797 0.002293293690338516 0 0.0016881658640349217 0.00024429134503962393 0 0.0015831266593545263 0.00014833016353156761 0 0.0016408516118580632 0.0002311917746290152 0 0.0033361003780166842 -0.00023157168521321627 0 0.0056528666373149216 0.00026156103930567384 0 0.0029611218218979817 0.00076656490754790452 0 0.0031215817341596797 0.002293293690338516 0 0.0040122889864641076 0.001377985008826056 0 0.0032311637954827834 0.0021638798813125048 0 0.0040122889864641076 0.001377985008826056 0 0.004253842673091696 0.0029294972311750037 0 0.0056528666373149216 0.00026156103930567384 0 0.005169151746545966 0.00069987210528125088 0 0.0099194124545461462 -0.0032229465708403715 0 0.0099572560120895683 -0.0022863896966362827 0 0.010633892339231414 -0.0026698717683876589 0 0.0056528666373149216 0.00026156103930567384 0 0.0068890852888092375 0.00022743448339986459 0 0.0099572560120895683 -0.0022863896966362827 0 0.010636017426618781 -0.0019720418891482606 0 0.010633892339231414 -0.0026698717683876589 0 0.0016881658640349217 0.00024429134503962393 0 0.0016408516118580632 0.0002311917746290152 0 0.0017865842475187398 6.3498237043191154e-05 0 0.0099194124545461462 -0.0032229465708403715 0 0.0099572560120895683 -0.0022863896966362827 0 0.0090030738334630732 -0.0024613715753507744 0 0.0056528666373149216 0.00026156103930567384 0 0.0056881713947012219 -0.00038086719878057572 0 0.0099572560120895683 -0.0022863896966362827 0 0.0090030738334630732 -0.0024613715753507744 0 0.0093962245947225853 -0.0017360186034357065 0 0.0099572560120895683 -0.0022863896966362827 0 0.010210623392033241 -0.0016280955595047439 0 0.010636017426618781 -0.0019720418891482606 0 0.0099572560120895683 -0.0022863896966362827 0 0.0093962245947225853 -0.0017360186034357065 0 0.010210623392033241 -0.0016280955595047439 0 0.0099081029333158138 -0.0010358434077635495 0 0.0093962245947225853 -0.0017360186034357065 0 0.010210623392033241 -0.0016280955595047439 0 0.010210623392033241 -0.0016280955595047439 0 0.010724006386834498 -0.0014583081762255914 0 0.010702241764040143 -0.00099813381310960179 0 0.010210623392033241 -0.0016280955595047439 0 0.010724006386834498 -0.0014583081762255914 0 0.010636017426618781 -0.0019720418891482606 0 0.010724006386834498 -0.0014583081762255914 0 0.011127161972904811 -0.0015419159130698147 0 0.011277083615853285 -0.0010372243891937935 0 0.011127161972904811 -0.0015419159130698147 0 0.011417740036005828 -0.0019998731622976125 0 0.010636017426618781 -0.0019720418891482606 0 0.0079640985166969658 -0.00017669362591050581 0 0.0077635219541731569 3.5833652604884114e-05 0 0.010724006386834498 -0.0014583081762255914 0 0.011127161972904811 -0.0015419159130698147 0 0.010636017426618781 -0.0019720418891482606 0 0.011941526139429335 -0.00096869629675549443 0 0.011737455627530768 -0.0011027071034490498 0 0.011853822993421094 -0.00090686857097513102 0 0.011737455627530768 -0.0011027071034490498 0 0.011848315537309357 -0.0008797666719962407 0 0.011728606170033139 -0.00072049576736107413 0 0.011127161972904811 -0.0015419159130698147 0 0.011737455627530768 -0.0011027071034490498 0 0.011277083615853285 -0.0010372243891937935 0 0.0077635219541731569 3.5833652604884114e-05 0 0.0082815256650974611 0.00017295923343615095 0 0.011127161972904811 -0.0015419159130698147 0 0.011310226464434688 -0.001717932656805519 0 0.011737455627530768 -0.0011027071034490498 0 0.011737455627530768 -0.0011027071034490498 0 0.011853822993421094 -0.00090686857097513102 0 0.011848315537309357 -0.0008797666719962407 0 0.011941526139429335 -0.00096869629675549443 0 0.011989672731100963 -0.0007434202752897122 0 0.011853822993421094 -0.00090686857097513102 0 0.0052899908816844395 0.003699744391176994 0 0.0051907971475512607 0.0027506879445706443 0 0.0062541277380764185 0.002336822072284615 0 0.0077635219541731569 3.5833652604884114e-05 0 0.0082723763370122771 0.00025973731038559018 0 0.011417740036005828 -0.0019998731622976125 0 0.010636017426618781 -0.0019720418891482606 0 0.010633892339231414 -0.0026698717683876589 0 0.0077635219541731569 3.5833652604884114e-05 0 0.0068890852888092375 0.00022743448339986459 0 0.0052899908816844395 0.003699744391176994 0 0.0051907971475512607 0.0027506879445706443 0 0.004253842673091696 0.0029294972311750037 0 0.0051907971475512607 0.0027506879445706443 0 0.004253842673091696 0.0029294972311750037 0 0.0049708152364154132 0.0020360545288362112 0 0.0040122889864641076 0.001377985008826056 0 0.0049708152364154132 0.0020360545288362112 0 0.005511655429314216 0.0010014591092033503 0 0.0040122889864641076 0.001377985008826056 0 0.004253842673091696 0.0029294972311750037 0 0.0049708152364154132 0.0020360545288362112 0 0.0062541277380764185 0.002336822072284615 0 0.005511655429314216 0.0010014591092033503 0 0.0072252192897099094 0.00095651560633005605 0 0.0049708152364154132 0.0020360545288362112 0 0.0062541277380764185 0.002336822072284615 0 0.005511655429314216 0.0010014591092033503 0 0.0051907971475512607 0.0027506879445706443 0 0.0049708152364154132 0.0020360545288362112 0 0.0062541277380764185 0.002336822072284615 0 0.0062136455388028975 -0.00037129238839860761 0 0.005511655429314216 0.0010014591092033503 0 0.0072252192897099094 0.00095651560633005605 0 0.004211594013289059 -0.00035040280262335573 0 0.0040122889864641076 0.001377985008826056 0 0.005511655429314216 0.0010014591092033503 0 0.004211594013289059 -0.00035040280262335573 0 0.0062136455388028975 -0.00037129238839860761 0 0.005511655429314216 0.0010014591092033503 0 0.011882890943210904 0.00046968261048991531 0 0.012104578744109928 -0.0003682298188050494 0 0.011308652587466123 -0.00015293871215503785 0 0.012104578744109928 -0.0003682298188050494 0 0.011695942803843647 -0.00065122416409648374 0 0.011308652587466123 -0.00015293871215503785 0 0.007866260250241449 0.0006941762982228684 0 0.0084889571790583394 0.00021648726799758557 0 0.0081873764715802728 -0.00041600872616126745 0 0.0062136455388028975 -0.00037129238839860761 0 0.0072252192897099094 0.00095651560633005605 0 0.0082723763370122771 0.00025973731038559018 0 0.0084889571790583394 0.00021648726799758557 0 0.011989672731100963 -0.0007434202752897122 0 0.012104578744109928 -0.0003682298188050494 0 0.011912504935800051 -0.00071781040554307876 0 0.012104578744109928 -0.0003682298188050494 0 0.011912504935800051 -0.00071781040554307876 0 0.011695942803843647 -0.00065122416409648374 0 0.011695942803843647 -0.00065122416409648374 0 0.011882576147448292 -0.00086636221459043675 0 0.011937297192780007 -0.00080738552561651026 0 0.011912504935800051 -0.00071781040554307876 0 0.011695942803843647 -0.00065122416409648374 0 0.011882576147448292 -0.00086636221459043675 0 0.011989672731100963 -0.0007434202752897122 0 0.011912504935800051 -0.00071781040554307876 0 0.011853822993421094 -0.00090686857097513102 0 0.011912504935800051 -0.00071781040554307876 0 0.011882576147448292 -0.00086636221459043675 0 0.011853822993421094 -0.00090686857097513102 0 0.011882576147448292 -0.00086636221459043675 0 0.011848315537309357 -0.0008797666719962407 0 0.011991386625820426 -0.00067172096277610884 0 0.011882576147448292 -0.00086636221459043675 0 0.011853822993421094 -0.00090686857097513102 0 0.011848315537309357 -0.0008797666719962407 0 0.011882576147448292 -0.00086636221459043675 0 0.011991386625820426 -0.00067172096277610884 0 0.011937297192780007 -0.00080738552561651026 0 0.011991386625820426 -0.00067172096277610884 0 0.012386991421943281 -0.00048933097489284045 0 0.011937297192780007 -0.00080738552561651026 0 0.011991386625820426 -0.00067172096277610884 0 0.012453550649321708 -1.4445560849991339e-05 0 0.012386991421943281 -0.00048933097489284045 0 0.012307862852224172 0.00015839723915293396 0 0.012507270589594038 0.00041281870550530458 0 0.012453550649321708 -1.4445560849991339e-05 0 0.011991386625820426 -0.00067172096277610884 0 0.011862715392528088 -9.7752969518560929e-05 0 0.012453550649321708 -1.4445560849991339e-05 0 0.011949697452300642 5.5172254633223088e-06 0 0.0122271717821182 -3.1199745113518239e-05 0 0.011991386625820426 -0.00067172096277610884 0 0.011862715392528088 -9.7752969518560929e-05 0 0.011728606170033139 -0.00072049576736107413 0 0.011848315537309357 -0.0008797666719962407 0 0.011991386625820426 -0.00067172096277610884 0 0.011728606170033139 -0.00072049576736107413 0 0.011737455627530768 -0.0011027071034490498 0 0.011728606170033139 -0.00072049576736107413 0 0.011277083615853285 -0.0010372243891937935 0 0.011728606170033139 -0.00072049576736107413 0 0.01128313577920838 -0.00054919094512686367 0 0.011277083615853285 -0.0010372243891937935 0 0.010558312963018943 -0.00042362683718055109 0 0.01128313577920838 -0.00054919094512686367 0 0.010702241764040143 -0.00099813381310960179 0 0.010724006386834498 -0.0014583081762255914 0 0.010702241764040143 -0.00099813381310960179 0 0.011277083615853285 -0.0010372243891937935 0 0.01128313577920838 -0.00054919094512686367 0 0.010702241764040143 -0.00099813381310960179 0 0.011277083615853285 -0.0010372243891937935 0 0.010558312963018943 -0.00042362683718055109 0 0.01128313577920838 -0.00054919094512686367 0 0.011142365188377567 2.1312755688577447e-05 0 0.011862715392528088 -9.7752969518560929e-05 0 0.011728606170033139 -0.00072049576736107413 0 0.01128313577920838 -0.00054919094512686367 0 0.011949697452300642 5.5172254633223088e-06 0 0.011361773586777476 7.9044721357358433e-05 0 0.011862715392528088 -9.7752969518560929e-05 0 0.01128313577920838 -0.00054919094512686367 0 0.011142365188377567 2.1312755688577447e-05 0 0.012307862852224172 0.00015839723915293396 0 0.011694597184901871 7.3270808382781052e-05 0 0.012334886816978616 0.00075438944400436675 0 0.010324332182681214 0.00013297698707973377 0 0.011694597184901871 7.3270808382781052e-05 0 0.011648682161607882 0.00098060742064780509 0 0.010935309589760195 0.00013583511140763179 0 0.011361773586777476 7.9044721357358433e-05 0 0.011694597184901871 7.3270808382781052e-05 0 0.011648682161607882 0.00098060742064780509 0 0.012334886816978616 0.00075438944400436675 0 0.012334886816978616 0.00075438944400436675 0 0.012683630944655874 0.00087960675892311577 0 0.012700375069156876 0.0013567985427471025 0 0.012683630944655874 0.00087960675892311577 0 0.012507270589594038 0.00041281870550530458 0 0.012878536307397218 0.0006127043478479637 0 0.012334886816978616 0.00075438944400436675 0 0.012683630944655874 0.00087960675892311577 0 0.012507270589594038 0.00041281870550530458 0 0.012507270589594038 0.00041281870550530458 0 0.012878536307397218 0.0006127043478479637 0 0.012453550649321708 -1.4445560849991339e-05 0 0.012307862852224172 0.00015839723915293396 0 0.012334886816978616 0.00075438944400436675 0 0.012507270589594038 0.00041281870550530458 0 0.012878536307397218 0.0006127043478479637 0 0.013535029652803789 0.00097378279382050279 0 0.0130996061804568 0.00017233090276189941 0 0.012878536307397218 0.0006127043478479637 0 0.0130996061804568 0.00017233090276189941 0 0.012453550649321708 -1.4445560849991339e-05 0 0.012683630944655874 0.00087960675892311577 0 0.012878536307397218 0.0006127043478479637 0 0.013103399999249643 0.0012497642693424151 0 0.012878536307397218 0.0006127043478479637 0 0.013535029652803789 0.00097378279382050279 0 0.013103399999249643 0.0012497642693424151 0 0.013535029652803789 0.00097378279382050279 0 0.014458694311627933 0.00071645927501261036 0 0.014137525451294479 0.0016121886093100539 0 0.013535029652803789 0.00097378279382050279 0 0.01373927646637165 0.00045259620520580698 0 0.014458694311627933 0.00071645927501261036 0 0.01373927646637165 0.00045259620520580698 0 0.013854142088934868 -0.00012849509601192444 0 0.014458694311627933 0.00071645927501261036 0 0.013535029652803789 0.00097378279382050279 0 0.01373927646637165 0.00045259620520580698 0 0.0130996061804568 0.00017233090276189941 0 0.013854142088934868 -0.00012849509601192444 0 0.013053273162523334 -0.00030694121945671379 0 0.0130996061804568 0.00017233090276189941 0 0.01373927646637165 0.00045259620520580698 0 0.013854142088934868 -0.00012849509601192444 0 0.0130996061804568 0.00017233090276189941 0 0.013854142088934868 -0.00012849509601192444 0 0.013537255404948878 -0.0005134788953011565 0 0.014588923123067773 -0.00045447793816195552 0 0.013854142088934868 -0.00012849509601192444 0 0.013537255404948878 -0.0005134788953011565 0 0.013053273162523334 -0.00030694121945671379 0 0.013537255404948878 -0.0005134788953011565 0 0.013053273162523334 -0.00030694121945671379 0 0.012583105843300829 -0.00063757100702433258 0 0.013053273162523334 -0.00030694121945671379 0 0.012386991421943281 -0.00048933097489284045 0 0.012583105843300829 -0.00063757100702433258 0 0.013053273162523334 -0.00030694121945671379 0 0.0130996061804568 0.00017233090276189941 0 0.012386991421943281 -0.00048933097489284045 0 0.0130996061804568 0.00017233090276189941 0 0.012453550649321708 -1.4445560849991339e-05 0 0.012386991421943281 -0.00048933097489284045 0 0.012386991421943281 -0.00048933097489284045 0 0.012045074277578689 -0.00078558260210131786 0 0.011937297192780007 -0.00080738552561651026 0 0.012386991421943281 -0.00048933097489284045 0 0.012045074277578689 -0.00078558260210131786 0 0.012583105843300829 -0.00063757100702433258 0 0.012045074277578689 -0.00078558260210131786 0 0.01141614962247616 -0.00061778360393220872 0 0.012016871676303831 -0.00091866047099092038 0 0.012045074277578689 -0.00078558260210131786 0 0.012016871676303831 -0.00091866047099092038 0 0.012583105843300829 -0.00063757100702433258 0 0.012045074277578689 -0.00078558260210131786 0 0.011937297192780007 -0.00080738552561651026 0 0.01141614962247616 -0.00061778360393220872 0 0.011695942803843647 -0.00065122416409648374 0 0.01141614962247616 -0.00061778360393220872 0 0.011308652587466123 -0.00015293871215503785 0 0.011695942803843647 -0.00065122416409648374 0 0.011937297192780007 -0.00080738552561651026 0 0.01141614962247616 -0.00061778360393220872 0 0.01141614962247616 -0.00061778360393220872 0 0.011402096426360793 -0.00069810829396633838 0 0.012016871676303831 -0.00091866047099092038 0 0.01141614962247616 -0.00061778360393220872 0 0.011026727083974161 -0.00019313469791846431 0 0.011402096426360793 -0.00069810829396633838 0 0.01141614962247616 -0.00061778360393220872 0 0.011026727083974161 -0.00019313469791846431 0 0.010756377634647391 3.8959374428541921e-05 0 0.010509264563155801 0.00041219704628197906 0 0.011026727083974161 -0.00019313469791846431 0 0.010756377634647391 3.8959374428541921e-05 0 0.01141614962247616 -0.00061778360393220872 0 0.010756377634647391 3.8959374428541921e-05 0 0.011308652587466123 -0.00015293871215503785 0 0.010111879538259467 0.00076095569974247046 0 0.010756377634647391 3.8959374428541921e-05 0 0.011308652587466123 -0.00015293871215503785 0 0.01184265877361085 -0.0012880984795612164 0 0.012902741188988334 -0.0012598088102326235 0 0.011994865160041609 -0.0019448078345097328 0 0.011291946908433381 -0.0018296569818734394 0 0.012294274219437355 -0.0012617417452359299 0 0.011669383455262444 -0.0023171750049864872 0 0.011994865160041609 -0.0019448078345097328 0 0.011291946908433381 -0.0018296569818734394 0 0.011830885135194745 -0.0012778390862959147 0 0.01184265877361085 -0.0012880984795612164 0 0.010509264563155801 0.00041219704628197906 0 0.011026727083974161 -0.00019313469791846431 0 0.01080456234252904 -3.1036638581631691e-05 0 0.011026727083974161 -0.00019313469791846431 0 0.01080456234252904 -3.1036638581631691e-05 0 0.011402096426360793 -0.00069810829396633838 0 0.01080456234252904 -3.1036638581631691e-05 0 0.01077595408642138 -0.00023823201537770207 0 0.011402096426360793 -0.00069810829396633838 0 0.01077595408642138 -0.00023823201537770207 0 0.012051156760687728 -0.0012021445988585628 0 0.011402096426360793 -0.00069810829396633838 0 0.01184265877361085 -0.0012880984795612164 0 0.011844178436074422 -0.0011237978427238678 0 0.012051156760687728 -0.0012021445988585628 0 0.011402096426360793 -0.00069810829396633838 0 0.012016871676303831 -0.00091866047099092038 0 0.012018305482029933 -0.0026803947721866484 0 0.012051156760687728 -0.0012021445988585628 0 0.013874146480529849 -0.0019498148177196617 0 0.012051156760687728 -0.0012021445988585628 0 0.014050784875455503 -0.0011630166804410447 0 0.013874146480529849 -0.0019498148177196617 0 0.012051156760687728 -0.0012021445988585628 0 0.013095975896352811 -0.0008286771585488714 0 0.014050784875455503 -0.0011630166804410447 0 0.012051156760687728 -0.0012021445988585628 0 0.013095975896352811 -0.0008286771585488714 0 0.012016871676303831 -0.00091866047099092038 0 0.013095975896352811 -0.0008286771585488714 0 0.012016871676303831 -0.00091866047099092038 0 0.012583105843300829 -0.00063757100702433258 0 0.013537255404948878 -0.0005134788953011565 0 0.013095975896352811 -0.0008286771585488714 0 0.012583105843300829 -0.00063757100702433258 0 0.013537255404948878 -0.0005134788953011565 0 0.013095975896352811 -0.0008286771585488714 0 0.014275476659181973 -0.00076401034414238015 0 0.014275476659181973 -0.00076401034414238015 0 0.014973602124367373 -0.0010397495229710178 0 0.014050784875455503 -0.0011630166804410447 0 0.014275476659181973 -0.00076401034414238015 0 0.014973602124367373 -0.0010397495229710178 0 0.015381249182451028 -0.00068112257553295803 0 0.014973602124367373 -0.0010397495229710178 0 0.015485312070155639 -0.0010836064785944856 0 0.015381249182451028 -0.00068112257553295803 0 0.014973602124367373 -0.0010397495229710178 0 0.015142363129152667 -0.0014350156932437504 0 0.014050784875455503 -0.0011630166804410447 0 0.014973602124367373 -0.0010397495229710178 0 0.015142363129152667 -0.0014350156932437504 0 0.015485312070155639 -0.0010836064785944856 0 0.013095975896352811 -0.0008286771585488714 0 0.014275476659181973 -0.00076401034414238015 0 0.014050784875455503 -0.0011630166804410447 0 0.015142363129152667 -0.0014350156932437504 0 0.014050784875455503 -0.0011630166804410447 0 0.013874146480529849 -0.0019498148177196617 0 0.013874276898546121 -0.0010282601458565235 0 0.012902741188988334 -0.0012598088102326235 0 0.013648882617476319 -0.00077080544176743888 0 0.012294274219437355 -0.0012617417452359299 0 0.013016986897745072 -0.0018368896529240902 0 0.013648882617476319 -0.00077080544176743888 0 0.013016986897745072 -0.0018368896529240902 0 0.014569370843279356 -0.0012946658139670652 0 0.012052447180244952 -0.0025543973634237055 0 0.011994865160041609 -0.0019448078345097328 0 0.013016986897745072 -0.0018368896529240902 0 0.011994865160041609 -0.0019448078345097328 0 0.012294274219437355 -0.0012617417452359299 0 0.013016986897745072 -0.0018368896529240902 0 0.015020311381869244 -0.0018110115492051076 0 0.014085184170086501 -0.0021584048724235614 0 0.014569370843279356 -0.0012946658139670652 0 0.013016986897745072 -0.0018368896529240902 0 0.014085184170086501 -0.0021584048724235614 0 0.014569370843279356 -0.0012946658139670652 0 0.015392083608760663 -0.0011263840513086936 0 0.015020311381869244 -0.0018110115492051076 0 0.014569370843279356 -0.0012946658139670652 0 0.015392083608760663 -0.0011263840513086936 0 0.014569370843279356 -0.0012946658139670652 0 0.015255039213129542 -0.00078088525542433309 0 0.016123788465901668 -0.0018360148410673117 0 0.016146664988986665 -0.00090645009091206298 0 0.01542320456047652 -0.00069831906470979349 0 0.015908691490267305 -0.0015696240460312573 0 0.015647373854281187 -0.0010962708968602756 0 0.015392083608760663 -0.0011263840513086936 0 0.015255039213129542 -0.00078088525542433309 0 0.01542320456047652 -0.00069831906470979349 0 0.013874276898546121 -0.0010282601458565235 0 0.014292807168531815 -0.0009017007483036253 0 0.013648882617476319 -0.00077080544176743888 0 0.014569370843279356 -0.0012946658139670652 0 0.015255039213129542 -0.00078088525542433309 0 0.015142363129152667 -0.0014350156932437504 0 0.015255039213129542 -0.00078088525542433309 0 0.015485312070155639 -0.0010836064785944856 0 0.015485312070155639 -0.0010836064785944856 0 0.01621282159807258 -0.00084706570265386492 0 0.015381249182451028 -0.00068112257553295803 0 0.015255039213129542 -0.00078088525542433309 0 0.015485312070155639 -0.0010836064785944856 0 0.01542320456047652 -0.00069831906470979349 0 0.015485312070155639 -0.0010836064785944856 0 0.017114708444879403 -0.0013618634154029625 0 0.01621282159807258 -0.00084706570265386492 0 0.015485312070155639 -0.0010836064785944856 0 0.01542320456047652 -0.00069831906470979349 0 0.015594171237866883 -0.00043182607234260192 0 0.016146664988986665 -0.00090645009091206298 0 0.01542320456047652 -0.00069831906470979349 0 0.015594171237866883 -0.00043182607234260192 0 0.016463898601794657 -0.00093991987156348566 0 0.016835177703458316 -0.00086711814471969527 0 0.017561246878553961 -0.00054936345276306899 0 0.017121909527335468 -0.00084604355270858494 0 0.016450203534752669 -0.00041998504356685206 0 0.017121909527335468 -0.00084604355270858494 0 0.016450203534752669 -0.00041998504356685206 0 0.01621282159807258 -0.00084706570265386492 0 0.017114708444879403 -0.0013618634154029625 0 0.017121909527335468 -0.00084604355270858494 0 0.01621282159807258 -0.00084706570265386492 0 0.017561246878553961 -0.00054936345276306899 0 0.016450203534752669 -0.00041998504356685206 0 0.017295378037965513 -0.00011878577226640083 0 0.016450203534752669 -0.00041998504356685206 0 0.01621282159807258 -0.00084706570265386492 0 0.015381249182451028 -0.00068112257553295803 0 0.016450203534752669 -0.00041998504356685206 0 0.015381249182451028 -0.00068112257553295803 0 0.01506795631102263 -0.00010618753542639616 0 0.015381249182451028 -0.00068112257553295803 0 0.014588923123067773 -0.00045447793816195552 0 0.01506795631102263 -0.00010618753542639616 0 0.014275476659181973 -0.00076401034414238015 0 0.015381249182451028 -0.00068112257553295803 0 0.014588923123067773 -0.00045447793816195552 0 0.013537255404948878 -0.0005134788953011565 0 0.014275476659181973 -0.00076401034414238015 0 0.014588923123067773 -0.00045447793816195552 0 0.013854142088934868 -0.00012849509601192444 0 0.01506795631102263 -0.00010618753542639616 0 0.014458694311627933 0.00071645927501261036 0 0.013854142088934868 -0.00012849509601192444 0 0.014588923123067773 -0.00045447793816195552 0 0.01506795631102263 -0.00010618753542639616 0 0.016450203534752669 -0.00041998504356685206 0 0.01506795631102263 -0.00010618753542639616 0 0.016769371505354881 0.00040751275042984967 0 0.01506795631102263 -0.00010618753542639616 0 0.014458694311627933 0.00071645927501261036 0 0.016769371505354881 0.00040751275042984967 0 0.014458694311627933 0.00071645927501261036 0 0.016769371505354881 0.00040751275042984967 0 0.015366950105976945 0.0016003008295770395 0 0.016962066122675264 0.00037706821282320469 0 0.01686449792855613 0.00060662912279969947 0 0.017733440888224414 0.00011716098263953891 0 0.016769371505354881 0.00040751275042984967 0 0.017907707284957865 0.00021683451390386099 0 0.0182980302093744 6.0762427609282251e-05 0 0.017733440888224414 0.00011716098263953891 0 0.017907707284957865 0.00021683451390386099 0 0.017895851270369561 -0.00024742869896316952 0 0.017733440888224414 0.00011716098263953891 0 0.017295378037965513 -0.00011878577226640083 0 0.017733440888224414 0.00011716098263953891 0 0.017295378037965513 -0.00011878577226640083 0 0.016769371505354881 0.00040751275042984967 0 0.016450203534752669 -0.00041998504356685206 0 0.017295378037965513 -0.00011878577226640083 0 0.016769371505354881 0.00040751275042984967 0 0.017907707284957865 0.00021683451390386099 0 0.018383818674602186 0.00011863540169123516 0 0.018412393220824334 4.9018191998598536e-05 0 0.018551430535520136 1.3021664242053177e-05 0 0.017907707284957865 0.00021683451390386099 0 0.018412393220824334 4.9018191998598536e-05 0 0.018551430535520136 1.3021664242053177e-05 0 0.0182980302093744 6.0762427609282251e-05 0 0.017907707284957865 0.00021683451390386099 0 0.016769371505354881 0.00040751275042984967 0 0.017907707284957865 0.00021683451390386099 0 0.018143349787363785 0.0002732385488345939 0 0.014458694311627933 0.00071645927501261036 0 0.015366950105976945 0.0016003008295770395 0 0.014137525451294479 0.0016121886093100539 0 0.015366950105976945 0.0016003008295770395 0 0.014535043681270135 0.0020309787522276202 0 0.014137525451294479 0.0016121886093100539 0 0.01686449792855613 0.00060662912279969947 0 0.016758486326228089 0.00080662800007455862 0 0.018143349787363785 0.0002732385488345939 0 0.018383818674602186 0.00011863540169123516 0 0.018792154984741849 0.0001815056858317352 0 0.017907707284957865 0.00021683451390386099 0 0.018143349787363785 0.0002732385488345939 0 0.018383818674602186 0.00011863540169123516 0 0.018383818674602186 0.00011863540169123516 0 0.018542275693818461 5.2156036387291575e-07 0 0.018792154984741849 0.0001815056858317352 0 0.018383818674602186 0.00011863540169123516 0 0.018542275693818461 5.2156036387291575e-07 0 0.018497780938230655 1.0410052523864635e-05 0 0.018542275693818461 5.2156036387291575e-07 0 0.018792154984741849 0.0001815056858317352 0 0.018765610905843052 -0.00011913521279573222 0 0.018792154984741849 0.0001815056858317352 0 0.018765610905843052 -0.00011913521279573222 0 0.01923986566604317 -0.00045097343490356847 0 0.018765610905843052 -0.00011913521279573222 0 0.018917190321328135 -0.00030416498304332567 0 0.018748005946086135 -0.00023743687444342012 0 0.018765610905843052 -0.00011913521279573222 0 0.018917190321328135 -0.00030416498304332567 0 0.01923986566604317 -0.00045097343490356847 0 0.018542275693818461 5.2156036387291575e-07 0 0.018608013855178483 -8.2700822391989568e-05 0 0.018497780938230655 1.0410052523864635e-05 0 0.018542275693818461 5.2156036387291575e-07 0 0.018765610905843052 -0.00011913521279573222 0 0.018608013855178483 -8.2700822391989568e-05 0 0.018765610905843052 -0.00011913521279573222 0 0.018608013855178483 -8.2700822391989568e-05 0 0.018748005946086135 -0.00023743687444342012 0 0.018608013855178483 -8.2700822391989568e-05 0 0.018594835541099367 -7.0198189652743618e-05 0 0.018748005946086135 -0.00023743687444342012 0 0.018549429722878208 2.5793625766024656e-05 0 0.018497780938230655 1.0410052523864635e-05 0 0.018594835541099367 -7.0198189652743618e-05 0 0.018608013855178483 -8.2700822391989568e-05 0 0.018497780938230655 1.0410052523864635e-05 0 0.018594835541099367 -7.0198189652743618e-05 0 0.018549429722878208 2.5793625766024656e-05 0 0.018497780938230655 1.0410052523864635e-05 0 0.018619489214338154 4.757690929379476e-05 0 0.018497780938230655 1.0410052523864635e-05 0 0.018412393220824334 4.9018191998598536e-05 0 0.018619489214338154 4.757690929379476e-05 0 0.018383818674602186 0.00011863540169123516 0 0.018497780938230655 1.0410052523864635e-05 0 0.018412393220824334 4.9018191998598536e-05 0 0.01887367170803567 -1.1458492699333841e-06 0 0.018412393220824334 4.9018191998598536e-05 0 0.018619489214338154 4.757690929379476e-05 0 0.018551430535520136 1.3021664242053177e-05 0 0.01887367170803567 -1.1458492699333841e-06 0 0.018412393220824334 4.9018191998598536e-05 0 0.019075678141340358 0.00024300793194749232 0 0.01887367170803567 -1.1458492699333841e-06 0 0.018619489214338154 4.757690929379476e-05 0 0.019075678141340358 0.00024300793194749232 0 0.018619489214338154 4.757690929379476e-05 0 0.018541294367332799 8.2847965025900839e-05 0 0.018549429722878208 2.5793625766024656e-05 0 0.018619489214338154 4.757690929379476e-05 0 0.018541294367332799 8.2847965025900839e-05 0 0.019075678141340358 0.00024300793194749232 0 0.018541294367332799 8.2847965025900839e-05 0 0.01873419815262467 0.00035849249302640705 0 0.020413914397979443 0.00046468585571341815 0 0.020830082303825992 0.00020932023806827479 0 0.018541294367332799 8.2847965025900839e-05 0 0.01835474064927017 -0.00016258050741918282 0 0.01858077813172138 -0.00017643271408769037 0 0.020600719921527764 5.4913540435083947e-05 0 0.020830082303825992 0.00020932023806827479 0 0.018541294367332799 8.2847965025900839e-05 0 0.018594835541099367 -7.0198189652743618e-05 0 0.01858077813172138 -0.00017643271408769037 0 0.018549429722878208 2.5793625766024656e-05 0 0.018541294367332799 8.2847965025900839e-05 0 0.018594835541099367 -7.0198189652743618e-05 0 0.018594835541099367 -7.0198189652743618e-05 0 0.01858077813172138 -0.00017643271408769037 0 0.018702537615955681 -0.00029242271857829027 0 0.01858077813172138 -0.00017643271408769037 0 0.018584921922512657 -0.00047459408258491813 0 0.018702537615955681 -0.00029242271857829027 0 0.018584921922512657 -0.00047459408258491813 0 0.018702537615955681 -0.00029242271857829027 0 0.018803179673764978 -0.00048059058207096232 0 0.022857592888932292 0.00019303077229303086 0 0.022850138645578916 0.00019066559721269942 0 0.022852384596302577 0.00019328659550155768 0 0.020830082303825992 0.00020932023806827479 0 0.020816456517949857 -7.259485842738014e-05 0 0.01835474064927017 -0.00016258050741918282 0 0.01858077813172138 -0.00017643271408769037 0 0.018584921922512657 -0.00047459408258491813 0 0.021469424654975262 0.00059736947492424592 0 0.020830082303825992 0.00020932023806827479 0 0.022857592888932292 0.00019303077229303086 0 0.022852384596302577 0.00019328659550155768 0 0.022860335494898999 0.00019627551258131218 0 0.022852384596302577 0.00019328659550155768 0 0.022860335494898999 0.00019627551258131218 0 0.02285491740461415 0.00019363857503164629 0 0.018584921922512657 -0.00047459408258491813 0 0.018746249041832769 -0.00066477145390403196 0 0.018803179673764978 -0.00048059058207096232 0 0.020816456517949857 -7.259485842738014e-05 0 0.020859593221969164 -0.00035218187291412203 0 0.022860335494898999 0.00019627551258131218 0 0.02285491740461415 0.00019363857503164629 0 0.022861172060415387 0.0001952586181544615 0 0.02285491740461415 0.00019363857503164629 0 0.022861134637225246 0.00019171470704281942 0 0.022861172060415387 0.0001952586181544615 0 0.022860335494898999 0.00019627551258131218 0 0.022861172060415387 0.0001952586181544615 0 0.022870900292196662 0.00020277124172936697 0 0.020300461580637471 -0.00096322034591758568 0 0.021054446267760176 -0.00083785483399785078 0 0.020323658990947801 -0.0013770013913356918 0 0.020113042852653473 -0.0014923065223907551 0 0.020124375308723266 -0.0014057187074477859 0 0.020323658990947801 -0.0013770013913356918 0 0.020113042852653473 -0.0014923065223907551 0 0.020356995427250026 -0.0013726114129128779 0 0.018746249041832769 -0.00066477145390403196 0 0.018933535076937978 -0.00061309184169022518 0 0.0188875243531441 -0.00083162148810341755 0 0.020859593221969164 -0.00035218187291412203 0 0.021054446267760176 -0.00083785483399785078 0 0.02285491740461415 0.00019363857503164629 0 0.022861134637225246 0.00019171470704281942 0 0.022858516566778276 0.00019058722648438619 0 0.018746249041832769 -0.00066477145390403196 0 0.018933535076937978 -0.00061309184169022518 0 0.018803179673764978 -0.00048059058207096232 0 0.020300461580637471 -0.00096322034591758568 0 0.019948635370541978 -0.00080801667830284255 0 0.020113042852653473 -0.0014923065223907551 0 0.019575168675329435 -0.0014197329395898384 0 0.019867809964522341 -0.0015845945521913872 0 0.018969907592769536 -0.00044531851215657002 0 0.018803179673764978 -0.00048059058207096232 0 0.018842739910782925 -0.00037394743859536458 0 0.018933535076937978 -0.00061309184169022518 0 0.018969907592769536 -0.00044531851215657002 0 0.018803179673764978 -0.00048059058207096232 0 0.018702537615955681 -0.00029242271857829027 0 0.018803179673764978 -0.00048059058207096232 0 0.018842739910782925 -0.00037394743859536458 0 0.018702537615955681 -0.00029242271857829027 0 0.018842739910782925 -0.00037394743859536458 0 0.018748005946086135 -0.00023743687444342012 0 0.018842739910782925 -0.00037394743859536458 0 0.018748005946086135 -0.00023743687444342012 0 0.018938368104654022 -0.00038196772595167452 0 0.018594835541099367 -7.0198189652743618e-05 0 0.018702537615955681 -0.00029242271857829027 0 0.018748005946086135 -0.00023743687444342012 0 0.019948635370541978 -0.00080801667830284255 0 0.019859066300077048 -0.00065214159209273721 0 0.018969907592769536 -0.00044531851215657002 0 0.018938368104654022 -0.00038196772595167452 0 0.01923986566604317 -0.00045097343490356847 0 0.018969907592769536 -0.00044531851215657002 0 0.018842739910782925 -0.00037394743859536458 0 0.018938368104654022 -0.00038196772595167452 0 0.018917190321328135 -0.00030416498304332567 0 0.018748005946086135 -0.00023743687444342012 0 0.018938368104654022 -0.00038196772595167452 0 0.018917190321328135 -0.00030416498304332567 0 0.018938368104654022 -0.00038196772595167452 0 0.01923986566604317 -0.00045097343490356847 0 0.019643620589669904 -0.0011710625839954543 0 0.01923986566604317 -0.00045097343490356847 0 0.019607199979089711 -0.00045034322435012129 0 0.019575168675329435 -0.0014197329395898384 0 0.019643620589669904 -0.0011710625839954543 0 0.01923986566604317 -0.00045097343490356847 0 0.019643620589669904 -0.0011710625839954543 0 0.020009914054292532 -0.0017356073977056149 0 0.019607199979089711 -0.00045034322435012129 0 0.016621066402857373 0.00065849668861710361 0 0.016737057992018387 0.00074156227899072101 0 0.013762758876679779 0.0022538418930239143 0 0.013826089795621282 0.0024030051278148947 0 0.014029262468131222 0.0022550281410586783 0 0.019575168675329435 -0.0014197329395898384 0 0.019643620589669904 -0.0011710625839954543 0 0.019867809964522341 -0.0015845945521913872 0 0.019643620589669904 -0.0011710625839954543 0 0.020009914054292532 -0.0017356073977056149 0 0.019867809964522341 -0.0015845945521913872 0 0.019867809964522341 -0.0015845945521913872 0 0.019871574649845455 -0.0015542725211143752 0 0.020124375308723266 -0.0014057187074477859 0 0.020113042852653473 -0.0014923065223907551 0 0.019867809964522341 -0.0015845945521913872 0 0.020124375308723266 -0.0014057187074477859 0 0.020009914054292532 -0.0017356073977056149 0 0.019867809964522341 -0.0015845945521913872 0 0.019871574649845455 -0.0015542725211143752 0 0.020009914054292532 -0.0017356073977056149 0 0.019530273717667173 -0.0015439220626335811 0 0.019871574649845455 -0.0015542725211143752 0 0.020009914054292532 -0.0017356073977056149 0 0.019530273717667173 -0.0015439220626335811 0 0.018326057343426964 -0.0014636590034140353 0 0.019530273717667173 -0.0015439220626335811 0 0.019871574649845455 -0.0015542725211143752 0 0.019995486135263779 -0.00118570310469877 0 0.019530273717667173 -0.0015439220626335811 0 0.019995486135263779 -0.00118570310469877 0 0.018326057343426964 -0.0014636590034140353 0 0.020323658990947801 -0.0013770013913356918 0 0.020124375308723266 -0.0014057187074477859 0 0.020340411094158576 -0.0013519311129212735 0 0.019995486135263779 -0.00118570310469877 0 0.020124375308723266 -0.0014057187074477859 0 0.020340411094158576 -0.0013519311129212735 0 0.019871574649845455 -0.0015542725211143752 0 0.019995486135263779 -0.00118570310469877 0 0.020124375308723266 -0.0014057187074477859 0 0.014103096648730941 0.0020432161961592612 0 0.014134051670689478 0.0019419996529570827 0 0.014728904171528058 0.0020968568536668931 0 0.014140039577624719 0.0024870961919344296 0 0.015588822731712127 0.0020278466721853051 0 0.015257462502660137 0.0018232543726432598 0 0.014728904171528058 0.0020968568536668931 0 0.015588822731712127 0.0020278466721853051 0 0.015257462502660137 0.0018232543726432598 0 0.015588822731712127 0.0020278466721853051 0 0.015561765404423562 0.0016874575710043038 0 0.014728904171528058 0.0020968568536668931 0 0.01403483448264678 0.0023707406755588598 0 0.016000571442212782 0.0013877254497465716 0 0.019995486135263779 -0.00118570310469877 0 0.018326057343426964 -0.0014636590034140353 0 0.016909470156993737 0.0012128091657779688 0 0.014728904171528058 0.0020968568536668931 0 0.01403483448264678 0.0023707406755588598 0 0.014140039577624719 0.0024870961919344296 0 0.013826089795621282 0.0024030051278148947 0 0.01403483448264678 0.0023707406755588598 0 0.013839164469895009 0.0024107693096188528 0 0.01403483448264678 0.0023707406755588598 0 0.014140039577624719 0.0024870961919344296 0 0.013839164469895009 0.0024107693096188528 0 0.016621066402857373 0.00065849668861710361 0 0.016250431870533631 0.00096956000216787607 0 0.014140039577624719 0.0024870961919344296 0 0.013594900551014394 0.0024454979654539477 0 0.013324874009582044 0.0028511748290634773 0 0.014140039577624719 0.0024870961919344296 0 0.013594900551014394 0.0024454979654539477 0 0.013839164469895009 0.0024107693096188528 0 0.013594900551014394 0.0024454979654539477 0 0.013442270316987194 0.0022776318570822572 0 0.013186968393262152 0.0023459585310859083 0 0.013594900551014394 0.0024454979654539477 0 0.013442270316987194 0.0022776318570822572 0 0.013839164469895009 0.0024107693096188528 0 0.013442270316987194 0.0022776318570822572 0 0.013839164469895009 0.0024107693096188528 0 0.013658939829158587 0.0022894897919131757 0 0.013826089795621282 0.0024030051278148947 0 0.013839164469895009 0.0024107693096188528 0 0.013658939829158587 0.0022894897919131757 0 0.013762758876679779 0.0022538418930239143 0 0.013658939829158587 0.0022894897919131757 0 0.013491523186093791 0.0021174795457184594 0 0.013762758876679779 0.0022538418930239143 0 0.013826089795621282 0.0024030051278148947 0 0.013658939829158587 0.0022894897919131757 0 0.013442270316987194 0.0022776318570822572 0 0.013658939829158587 0.0022894897919131757 0 0.013293734695831338 0.0021535448300818052 0 0.013442270316987194 0.0022776318570822572 0 0.013293734695831338 0.0021535448300818052 0 0.013048962906755342 0.0021558300454469488 0 0.013658939829158587 0.0022894897919131757 0 0.013293734695831338 0.0021535448300818052 0 0.013491523186093791 0.0021174795457184594 0 0.013293734695831338 0.0021535448300818052 0 0.013199486742837328 0.0019805704905811765 0 0.013491523186093791 0.0021174795457184594 0 0.013199486742837328 0.0019805704905811765 0 0.013515777558392394 0.0019621526991296708 0 0.013491523186093791 0.0021174795457184594 0 0.013199486742837328 0.0019805704905811765 0 0.013515777558392394 0.0019621526991296708 0 0.013367526083223948 0.0016816923324916781 0 0.013199486742837328 0.0019805704905811765 0 0.013367526083223948 0.0016816923324916781 0 0.012987272091907037 0.0016712986912610155 0 0.013515777558392394 0.0019621526991296708 0 0.013740192849382315 0.0018433676076263154 0 0.013367526083223948 0.0016816923324916781 0 0.013515777558392394 0.0019621526991296708 0 0.013491523186093791 0.0021174795457184594 0 0.013779904877577466 0.0021287579799582818 0 0.013762758876679779 0.0022538418930239143 0 0.013491523186093791 0.0021174795457184594 0 0.013779904877577466 0.0021287579799582818 0 0.013779904877577466 0.0021287579799582818 0 0.014029262468131222 0.0022550281410586783 0 0.014037842939758727 0.0020307717245208849 0 0.013762758876679779 0.0022538418930239143 0 0.013779904877577466 0.0021287579799582818 0 0.014029262468131222 0.0022550281410586783 0 0.016758486326228089 0.00080662800007455862 0 0.016737057992018387 0.00074156227899072101 0 0.018792154984741849 0.0001815056858317352 0 0.01923986566604317 -0.00045097343490356847 0 0.019607199979089711 -0.00045034322435012129 0 0.014535043681270135 0.0020309787522276202 0 0.014029262468131222 0.0022550281410586783 0 0.014037842939758727 0.0020307717245208849 0 0.013779904877577466 0.0021287579799582818 0 0.014037842939758727 0.0020307717245208849 0 0.013740192849382315 0.0018433676076263154 0 0.013515777558392394 0.0019621526991296708 0 0.013779904877577466 0.0021287579799582818 0 0.013740192849382315 0.0018433676076263154 0 0.014037842939758727 0.0020307717245208849 0 0.013740192849382315 0.0018433676076263154 0 0.014137525451294479 0.0016121886093100539 0 0.013740192849382315 0.0018433676076263154 0 0.014137525451294479 0.0016121886093100539 0 0.013579149074974465 0.001477418861390023 0 0.014535043681270135 0.0020309787522276202 0 0.014037842939758727 0.0020307717245208849 0 0.014137525451294479 0.0016121886093100539 0 0.013535029652803789 0.00097378279382050279 0 0.014137525451294479 0.0016121886093100539 0 0.013579149074974465 0.001477418861390023 0 0.013535029652803789 0.00097378279382050279 0 0.013579149074974465 0.001477418861390023 0 0.013103399999249643 0.0012497642693424151 0 0.013103399999249643 0.0012497642693424151 0 0.013367526083223948 0.0016816923324916781 0 0.012987272091907037 0.0016712986912610155 0 0.013579149074974465 0.001477418861390023 0 0.013103399999249643 0.0012497642693424151 0 0.013367526083223948 0.0016816923324916781 0 0.013740192849382315 0.0018433676076263154 0 0.013579149074974465 0.001477418861390023 0 0.013367526083223948 0.0016816923324916781 0 0.012625820218883125 0.001789097826350666 0 0.012700375069156876 0.0013567985427471025 0 0.012387926678962637 0.0014904976825895896 0 0.012625820218883125 0.001789097826350666 0 0.012987272091907037 0.0016712986912610155 0 0.012700375069156876 0.0013567985427471025 0 0.013103399999249643 0.0012497642693424151 0 0.012987272091907037 0.0016712986912610155 0 0.012700375069156876 0.0013567985427471025 0 0.012683630944655874 0.00087960675892311577 0 0.013103399999249643 0.0012497642693424151 0 0.012700375069156876 0.0013567985427471025 0 0.012334886816978616 0.00075438944400436675 0 0.012700375069156876 0.0013567985427471025 0 0.012387926678962637 0.0014904976825895896 0 0.011648682161607882 0.00098060742064780509 0 0.012387926678962637 0.0014904976825895896 0 0.012010684265180302 0.001654701208485927 0 0.011648682161607882 0.00098060742064780509 0 0.012334886816978616 0.00075438944400436675 0 0.012387926678962637 0.0014904976825895896 0 0.011648682161607882 0.00098060742064780509 0 0.012010684265180302 0.001654701208485927 0 0.011380597265991289 0.0013686873227841507 0 0.012010684265180302 0.001654701208485927 0 0.012394338696168777 0.0023123512266523521 0 0.011722771862868827 0.00194274269087916 0 0.012010684265180302 0.001654701208485927 0 0.012422246586862031 0.0019327441189720858 0 0.012394338696168777 0.0023123512266523521 0 0.012010684265180302 0.001654701208485927 0 0.011722771862868827 0.00194274269087916 0 0.011380597265991289 0.0013686873227841507 0 0.012387926678962637 0.0014904976825895896 0 0.012010684265180302 0.001654701208485927 0 0.012422246586862031 0.0019327441189720858 0 0.012625820218883125 0.001789097826350666 0 0.012387926678962637 0.0014904976825895896 0 0.012422246586862031 0.0019327441189720858 0 0.012422246586862031 0.0019327441189720858 0 0.012611373757070794 0.0021549807948728541 0 0.012394338696168777 0.0023123512266523521 0 0.012625820218883125 0.001789097826350666 0 0.012422246586862031 0.0019327441189720858 0 0.012611373757070794 0.0021549807948728541 0 0.012394338696168777 0.0023123512266523521 0 0.01267054052065554 0.0025545137394837277 0 0.012243632113903554 0.0025195516239861254 0 0.012394338696168777 0.0023123512266523521 0 0.012689024857198118 0.0023144026825380653 0 0.01267054052065554 0.0025545137394837277 0 0.012611373757070794 0.0021549807948728541 0 0.012394338696168777 0.0023123512266523521 0 0.012689024857198118 0.0023144026825380653 0 0.012611373757070794 0.0021549807948728541 0 0.012689024857198118 0.0023144026825380653 0 0.012751049568110909 0.0021592683716369957 0 0.012611373757070794 0.0021549807948728541 0 0.012751049568110909 0.0021592683716369957 0 0.012833436844327093 0.0019954510927291981 0 0.012751049568110909 0.0021592683716369957 0 0.012833436844327093 0.0019954510927291981 0 0.012962374108438273 0.0021054628065501667 0 0.012625820218883125 0.001789097826350666 0 0.012611373757070794 0.0021549807948728541 0 0.012833436844327093 0.0019954510927291981 0 0.012625820218883125 0.001789097826350666 0 0.012987272091907037 0.0016712986912610155 0 0.012833436844327093 0.0019954510927291981 0 0.013199486742837328 0.0019805704905811765 0 0.012987272091907037 0.0016712986912610155 0 0.012833436844327093 0.0019954510927291981 0 0.013199486742837328 0.0019805704905811765 0 0.012833436844327093 0.0019954510927291981 0 0.012962374108438273 0.0021054628065501667 0 0.013293734695831338 0.0021535448300818052 0 0.013199486742837328 0.0019805704905811765 0 0.012962374108438273 0.0021054628065501667 0 0.012962374108438273 0.0021054628065501667 0 0.013048962906755342 0.0021558300454469488 0 0.012820490978922639 0.0021309788445868913 0 0.013293734695831338 0.0021535448300818052 0 0.012962374108438273 0.0021054628065501667 0 0.013048962906755342 0.0021558300454469488 0 0.012820490978922639 0.0021309788445868913 0 0.012723634307470262 0.0020853380808796692 0 0.012766787112770038 0.0021253860656437204 0 0.012751049568110909 0.0021592683716369957 0 0.012820490978922639 0.0021309788445868913 0 0.012766787112770038 0.0021253860656437204 0 0.012751049568110909 0.0021592683716369957 0 0.012962374108438273 0.0021054628065501667 0 0.012820490978922639 0.0021309788445868913 0 0.013048962906755342 0.0021558300454469488 0 0.012820490978922639 0.0021309788445868913 0 0.012723634307470262 0.0020853380808796692 0 0.013442270316987194 0.0022776318570822572 0 0.013048962906755342 0.0021558300454469488 0 0.013186968393262152 0.0023459585310859083 0 0.013048962906755342 0.0021558300454469488 0 0.012723634307470262 0.0020853380808796692 0 0.013186968393262152 0.0023459585310859083 0 0.013594900551014394 0.0024454979654539477 0 0.013186968393262152 0.0023459585310859083 0 0.013324874009582044 0.0028511748290634773 0 0.013186968393262152 0.0023459585310859083 0 0.0128587080286352 0.0025667049029253026 0 0.013324874009582044 0.0028511748290634773 0 0.012723634307470262 0.0020853380808796692 0 0.013186968393262152 0.0023459585310859083 0 0.0128587080286352 0.0025667049029253026 0 0.012723634307470262 0.0020853380808796692 0 0.0128587080286352 0.0025667049029253026 0 0.012404544726071588 0.0025994181020917357 0 0.013267809473692792 0.001916156501731967 0 0.013479505100802088 0.0017533422697001584 0 0.0128587080286352 0.0025667049029253026 0 0.012698026540011282 0.0029655879107980399 0 0.012404544726071588 0.0025994181020917357 0 0.014095354216764775 0.0016328548280263992 0 0.014134051670689478 0.0019419996529570827 0 0.0128587080286352 0.0025667049029253026 0 0.012698026540011282 0.0029655879107980399 0 0.013324874009582044 0.0028511748290634773 0 0.015459079023031123 0.001739269710286844 0 0.015588822731712127 0.0020278466721853051 0 0.01549385402146268 0.0017333047490465184 0 0.015588822731712127 0.0020278466721853051 0 0.015561765404423562 0.0016874575710043038 0 0.01549385402146268 0.0017333047490465184 0 0.014449493547459341 0.00092893801847727519 0 0.014251749780133978 0.00082448075187624024 0 0.014231232358941579 0.00027449419498971965 0 0.014005384790959285 0.00033326526595331792 0 0.014133332517574815 0.00094611722193685703 0 0.013110843465578647 0.00043954247772045436 0 0.013226535585787407 0.0012328534603554843 0 0.014133332517574815 0.00094611722193685703 0 0.01441836154274702 0.00090583398554319055 0 0.014449493547459341 0.00092893801847727519 0 0.014095354216764775 0.0016328548280263992 0 0.014449493547459341 0.00092893801847727519 0 0.013110843465578647 0.00043954247772045436 0 0.012724852199593104 0.0012712414479233039 0 0.013226535585787407 0.0012328534603554843 0 0.014449493547459341 0.00092893801847727519 0 0.013479505100802088 0.0017533422697001584 0 0.012698026540011282 0.0029655879107980399 0 0.01208659308152874 0.0030459955082215197 0 0.012404544726071588 0.0025994181020917357 0 0.012723634307470262 0.0020853380808796692 0 0.012724852199593104 0.0012712414479233039 0 0.012943651757146513 0.001803994677724138 0 0.012724852199593104 0.0012712414479233039 0 0.013226535585787407 0.0012328534603554843 0 0.012943651757146513 0.001803994677724138 0 0.013226535585787407 0.0012328534603554843 0 0.013411436821560107 0.0015509910315495308 0 0.014133332517574815 0.00094611722193685703 0 0.013226535585787407 0.0012328534603554843 0 0.013411436821560107 0.0015509910315495308 0 0.012943651757146513 0.001803994677724138 0 0.013411436821560107 0.0015509910315495308 0 0.013033983980237567 0.002078212304374708 0 0.013727073144431676 0.0016538607224889947 0 0.013411436821560107 0.0015509910315495308 0 0.012943651757146513 0.001803994677724138 0 0.013033983980237567 0.002078212304374708 0 0.012943651757146513 0.001803994677724138 0 0.012766787112770038 0.0021253860656437204 0 0.013033983980237567 0.002078212304374708 0 0.012723634307470262 0.0020853380808796692 0 0.012943651757146513 0.001803994677724138 0 0.012766787112770038 0.0021253860656437204 0 0.012689024857198118 0.0023144026825380653 0 0.012766787112770038 0.0021253860656437204 0 0.013033983980237567 0.002078212304374708 0 0.012689024857198118 0.0023144026825380653 0 0.012751049568110909 0.0021592683716369957 0 0.012766787112770038 0.0021253860656437204 0 0.012689024857198118 0.0023144026825380653 0 0.013033983980237567 0.002078212304374708 0 0.01267054052065554 0.0025545137394837277 0 0.013033983980237567 0.002078212304374708 0 0.013601303822591291 0.0021556927743776591 0 0.013727073144431676 0.0016538607224889947 0 0.013033983980237567 0.002078212304374708 0 0.013601303822591291 0.0021556927743776591 0 0.01267054052065554 0.0025545137394837277 0 0.013601303822591291 0.0021556927743776591 0 0.014551237200593124 0.0014046031222799266 0 0.015105965686743907 0.0022230337449565241 0 0.013601303822591291 0.0021556927743776591 0 0.015105965686743907 0.0022230337449565241 0 0.013808536865537076 0.0026119617269284119 0 0.014551237200593124 0.0014046031222799266 0 0.013727073144431676 0.0016538607224889947 0 0.014133332517574815 0.00094611722193685703 0 0.013601303822591291 0.0021556927743776591 0 0.014551237200593124 0.0014046031222799266 0 0.013727073144431676 0.0016538607224889947 0 0.013411436821560107 0.0015509910315495308 0 0.013727073144431676 0.0016538607224889947 0 0.014133332517574815 0.00094611722193685703 0 0.014133332517574815 0.00094611722193685703 0 0.015110390049952778 0.00083849186583095816 0 0.015046548992482988 0.00046263169422389546 0 0.014551237200593124 0.0014046031222799266 0 0.015110390049952778 0.00083849186583095816 0 0.015569199334506293 0.00094901127047545967 0 0.014551237200593124 0.0014046031222799266 0 0.014133332517574815 0.00094611722193685703 0 0.015110390049952778 0.00083849186583095816 0 0.015046548992482988 0.00046263169422389546 0 0.015919396120930199 0.00050088180159901688 0 0.015914839993190887 0.00016599122948429969 0 0.015110390049952778 0.00083849186583095816 0 0.015046548992482988 0.00046263169422389546 0 0.015919396120930199 0.00050088180159901688 0 0.015046548992482988 0.00046263169422389546 0 0.015914839993190887 0.00016599122948429969 0 0.015391343856403932 9.9852857894324162e-06 0 0.015046548992482988 0.00046263169422389546 0 0.014934987033682304 9.959669158398798e-05 0 0.015391343856403932 9.9852857894324162e-06 0 0.014133332517574815 0.00094611722193685703 0 0.015046548992482988 0.00046263169422389546 0 0.014586359553448331 0.00035928782816300472 0 0.014231232358941579 0.00027449419498971965 0 0.014133332517574815 0.00094611722193685703 0 0.014586359553448331 0.00035928782816300472 0 0.015046548992482988 0.00046263169422389546 0 0.014586359553448331 0.00035928782816300472 0 0.014934987033682304 9.959669158398798e-05 0 0.016742347741216104 0.00021601160862209988 0 0.015919396120930199 0.00050088180159901688 0 0.016349539074584349 1.7791495089121264e-06 0 0.016742347741216104 0.00021601160862209988 0 0.016349539074584349 1.7791495089121264e-06 0 0.017626306911411892 5.0846001050654325e-07 0 0.016742347741216104 0.00021601160862209988 0 0.015919396120930199 0.00050088180159901688 0 0.015914839993190887 0.00016599122948429969 0 0.015919396120930199 0.00050088180159901688 0 0.015569199334506293 0.00094901127047545967 0 0.016349539074584349 1.7791495089121264e-06 0 0.015110390049952778 0.00083849186583095816 0 0.015919396120930199 0.00050088180159901688 0 0.015569199334506293 0.00094901127047545967 0 0.016346151119373209 -3.9564199631586367e-07 0 0.014659872786046926 8.1606083451184308e-05 0 0.015191516324889119 3.4716970326598855e-07 0 0.016344915004259972 6.5734473508002704e-07 0 0.015220969940793607 0.00057420135587743406 0 0.015569199334506293 0.00094901127047545967 0 0.016349539074584349 1.7791495089121264e-06 0 0.016004676460637336 0.0012764196698486752 0 0.014659872786046926 8.1606083451184308e-05 0 0.015191516324889119 3.4716970326598855e-07 0 0.014038930961900772 -2.6741581032808592e-07 0 0.014551237200593124 0.0014046031222799266 0 0.015569199334506293 0.00094901127047545967 0 0.015105965686743907 0.0022230337449565241 0 0.015569199334506293 0.00094901127047545967 0 0.016004676460637336 0.0012764196698486752 0 0.015105965686743907 0.0022230337449565241 0 0.015220969940793607 0.00057420135587743406 0 0.014195068924459991 0.00076342625984646194 0 0.014659872786046926 8.1606083451184308e-05 0 0.014038930961900772 -2.6741581032808592e-07 0 0.014387371604934505 -0.00023640460461232368 0 0.014659872786046926 8.1606083451184308e-05 0 0.014618788824087721 -0.00025761461470952675 0 0.014387371604934505 -0.00023640460461232368 0 0.01403374165813843 3.4895280070510277e-06 0 0.013065762548692484 0.00012865840447016203 0 0.014038930961900772 -2.6741581032808592e-07 0 0.014387371604934505 -0.00023640460461232368 0 0.014174300558313556 -0.00045233591714467731 0 0.014618788824087721 -0.00025761461470952675 0 0.014387371604934505 -0.00023640460461232368 0 0.01446016329751474 -0.00049526415487575527 0 0.014174300558313556 -0.00045233591714467731 0 0.01446016329751474 -0.00049526415487575527 0 0.014207082485519412 -0.00078410710188247384 0 0.013065762548692484 0.00012865840447016203 0 0.011992421005382675 0.0001186217978274757 0 0.012874024577855803 4.5703078283662626e-08 0 0.01168655946723899 -4.4096173024687575e-08 0 0.011743709843254251 -1.1753305946827183e-06 0 0.014387371604934505 -0.00023640460461232368 0 0.014174300558313556 -0.00045233591714467731 0 0.01446016329751474 -0.00049526415487575527 0 0.01446016329751474 -0.00049526415487575527 0 0.014207082485519412 -0.00078410710188247384 0 0.014529899060124703 -0.0007327638387061012 0 0.0083887762112802352 0.0029238037915012261 0 0.0091019020936267854 0.0023171268320992342 0 0.0084806096549776087 0.0016179929627788529 0 0.011992421005382675 0.0001186217978274757 0 0.010944019525824897 0.00094249779451672957 0 0.011685109048536558 -2.9246393194190623e-07 0 0.011631607256108498 -8.7017277340135077e-06 0 0.010162417225691318 -2.7525787538840156e-05 0 0.011688609429300331 1.7104820846144678e-06 0 0.011992421005382675 0.0001186217978274757 0 0.011992421005382675 0.0001186217978274757 0 0.012239399972508398 0.00067842773469533517 0 0.0083887762112802352 0.0029238037915012261 0 0.0091019020936267854 0.0023171268320992342 0 0.0093648853385281377 0.0030800829712270801 0 0.0099905081700294406 0.0026720989185865475 0 0.010481817938674436 0.0022697586276716128 0 0.0097949792066337679 0.0020160823747560224 0 0.0091019020936267854 0.0023171268320992342 0 0.0099905081700294406 0.0026720989185865475 0 0.0097949792066337679 0.0020160823747560224 0 0.0091019020936267854 0.0023171268320992342 0 0.0099905081700294406 0.0026720989185865475 0 0.0093648853385281377 0.0030800829712270801 0 0.012239399972508398 0.00067842773469533517 0 0.012673162833779752 0.001160103014672286 0 0.0099905081700294406 0.0026720989185865475 0 0.0093648853385281377 0.0030800829712270801 0 0.010556598732620329 0.0032462270500209019 0 0.01446016329751474 -0.00049526415487575527 0 0.014529899060124703 -0.0007327638387061012 0 0.014837357473728188 -0.00068458293375378803 0 0.014618788824087721 -0.00025761461470952675 0 0.01446016329751474 -0.00049526415487575527 0 0.014837357473728188 -0.00068458293375378803 0 0.014195068924459991 0.00076342625984646194 0 0.012673162833779752 0.001160103014672286 0 0.013601303822591291 0.0021556927743776591 0 0.013808536865537076 0.0026119617269284119 0 0.012513968579002327 0.0030063861740322025 0 0.015105965686743907 0.0022230337449565241 0 0.013808536865537076 0.0026119617269284119 0 0.014148564680082801 0.0034655706825209012 0 0.013808536865537076 0.0026119617269284119 0 0.012513968579002327 0.0030063861740322025 0 0.014148564680082801 0.0034655706825209012 0 0.012628555090919485 0.0013256232995819961 0 0.012673162833779752 0.001160103014672286 0 0.013601303822591291 0.0021556927743776591 0 0.01267054052065554 0.0025545137394837277 0 0.012513968579002327 0.0030063861740322025 0 0.01267054052065554 0.0025545137394837277 0 0.012513968579002327 0.0030063861740322025 0 0.012243632113903554 0.0025195516239861254 0 0.012513968579002327 0.0030063861740322025 0 0.012243632113903554 0.0025195516239861254 0 0.011713462388865217 0.0022986444266512788 0 0.012243632113903554 0.0025195516239861254 0 0.011713462388865217 0.0022986444266512788 0 0.011722771862868827 0.00194274269087916 0 0.012394338696168777 0.0023123512266523521 0 0.012243632113903554 0.0025195516239861254 0 0.011722771862868827 0.00194274269087916 0 0.0099905081700294406 0.0026720989185865475 0 0.010885762188718288 0.0026629581230822822 0 0.010556598732620329 0.0032462270500209019 0 0.01257338404967507 0.0013107702793339316 0 0.012673162833779752 0.001160103014672286 0 0.012513968579002327 0.0030063861740322025 0 0.010885762188718288 0.0026629581230822822 0 0.010557183823475754 0.003292431022995541 0 0.012513968579002327 0.0030063861740322025 0 0.011713462388865217 0.0022986444266512788 0 0.010885762188718288 0.0026629581230822822 0 0.011713462388865217 0.0022986444266512788 0 0.010885762188718288 0.0026629581230822822 0 0.011019451101452648 0.0022669019746128566 0 0.0099905081700294406 0.0026720989185865475 0 0.010885762188718288 0.0026629581230822822 0 0.010481817938674436 0.0022697586276716128 0 0.010885762188718288 0.0026629581230822822 0 0.011019451101452648 0.0022669019746128566 0 0.010481817938674436 0.0022697586276716128 0 0.010670889771925585 0.0018406275683805376 0 0.011722771862868827 0.00194274269087916 0 0.01073417985752249 0.0013332949997869974 0 0.011019451101452648 0.0022669019746128566 0 0.010481817938674436 0.0022697586276716128 0 0.010670889771925585 0.0018406275683805376 0 0.010481817938674436 0.0022697586276716128 0 0.010670889771925585 0.0018406275683805376 0 0.0097949792066337679 0.0020160823747560224 0 0.011713462388865217 0.0022986444266512788 0 0.011019451101452648 0.0022669019746128566 0 0.010670889771925585 0.0018406275683805376 0 0.010670889771925585 0.0018406275683805376 0 0.01073417985752249 0.0013332949997869974 0 0.0099188343946688441 0.0012350150304854142 0 0.011713462388865217 0.0022986444266512788 0 0.010670889771925585 0.0018406275683805376 0 0.011722771862868827 0.00194274269087916 0 0.011722771862868827 0.00194274269087916 0 0.011380597265991289 0.0013686873227841507 0 0.01073417985752249 0.0013332949997869974 0 0.010628640525824131 0.00086570294344361022 0 0.011648682161607882 0.00098060742064780509 0 0.011380597265991289 0.0013686873227841507 0 0.010628640525824131 0.00086570294344361022 0 0.011380597265991289 0.0013686873227841507 0 0.01073417985752249 0.0013332949997869974 0 0.01073417985752249 0.0013332949997869974 0 0.0099998751742021268 0.00091584019855877295 0 0.0099188343946688441 0.0012350150304854142 0 0.010628640525824131 0.00086570294344361022 0 0.01073417985752249 0.0013332949997869974 0 0.0099998751742021268 0.00091584019855877295 0 0.0099998751742021268 0.00091584019855877295 0 0.0092757565279226808 0.00072871622441396681 0 0.0099188343946688441 0.0012350150304854142 0 0.0092757565279226808 0.00072871622441396681 0 0.0099188343946688441 0.0012350150304854142 0 0.0091280854697747098 0.0010601026345274948 0 0.0099188343946688441 0.0012350150304854142 0 0.0091280854697747098 0.0010601026345274948 0 0.0096617587972929238 0.0015027841121845052 0 0.0085897973207961116 0.00024522324205561533 0 0.0091280854697747098 0.0010601026345274948 0 0.0084806096549776087 0.0016179929627788529 0 0.010593981197282614 0.00096989268825959057 0 0.010944019525824897 0.00094249779451672957 0 0.0085897973207961116 0.00024522324205561533 0 0.0092757565279226808 0.00072871622441396681 0 0.0091280854697747098 0.0010601026345274948 0 0.0085897973207961116 0.00024522324205561533 0 0.0096169654857183959 2.0424449650666042e-07 0 0.010162417225691318 -2.7525787538840156e-05 0 0.0091280854697747098 0.0010601026345274948 0 0.0084806096549776087 0.0016179929627788529 0 0.0092175624243045831 0.0016834713946371851 0 0.011685109048536558 -2.9246393194190623e-07 0 0.0096169654857183959 2.0424449650666042e-07 0 0.010162417225691318 -2.7525787538840156e-05 0 0.0091019020936267854 0.0023171268320992342 0 0.0084806096549776087 0.0016179929627788529 0 0.0092175624243045831 0.0016834713946371851 0 0.0091019020936267854 0.0023171268320992342 0 0.0097949792066337679 0.0020160823747560224 0 0.0092175624243045831 0.0016834713946371851 0 0.010670889771925585 0.0018406275683805376 0 0.0097949792066337679 0.0020160823747560224 0 0.0096617587972929238 0.0015027841121845052 0 0.010670889771925585 0.0018406275683805376 0 0.0099188343946688441 0.0012350150304854142 0 0.0096617587972929238 0.0015027841121845052 0 0.0091280854697747098 0.0010601026345274948 0 0.0096617587972929238 0.0015027841121845052 0 0.0092175624243045831 0.0016834713946371851 0 0.0097949792066337679 0.0020160823747560224 0 0.0096617587972929238 0.0015027841121845052 0 0.0092175624243045831 0.0016834713946371851 0 0.025335860853667794 0.00013401955731706867 0 0.025005674692649308 9.4382029628700269e-05 0 0.024082325104678795 9.8204184921573033e-05 0 0.025335860853667794 0.00013401955731706867 0 0.02509550957045863 2.9747153397861695e-07 0 0.024082325104678795 9.8204184921573033e-05 0 0.02509550957045863 2.9747153397861695e-07 0 0.026354154905928236 0.00024081729076642539 0 0.027157623104128871 4.7623563856698849e-07 0 0.025335860853667794 0.00013401955731706867 0 0.02509550957045863 2.9747153397861695e-07 0 0.026354154905928236 0.00024081729076642539 0 0.025335860853667794 0.00013401955731706867 0 0.026264350452454739 0.00027222797443701854 0 0.026354154905928236 0.00024081729076642539 0 0.026264350452454739 0.00027222797443701854 0 0.02626287431713838 0.00029202296870428873 0 0.026350421608631023 0.00025712328312339614 0 0.025335860853667794 0.00013401955731706867 0 0.026264350452454739 0.00027222797443701854 0 0.025005674692649308 9.4382029628700269e-05 0 0.026264350452454739 0.00027222797443701854 0 0.02626287431713838 0.00029202296870428873 0 0.026253898992998802 0.00029429458140485922 0 0.024966852101274837 0.00070413320316082357 0 0.02464675168761065 0.00063987868348033274 0 0.026253898992998802 0.00029429458140485922 0 0.026241191074446946 0.00030434944903469748 0 0.026225158394421032 0.00030803612681210452 0 0.02626287431713838 0.00029202296870428873 0 0.026253898992998802 0.00029429458140485922 0 0.026241191074446946 0.00030434944903469748 0 0.02464675168761065 0.00063987868348033274 0 0.023736702132717172 0.00040412697066926988 0 0.02626287431713838 0.00029202296870428873 0 0.026241191074446946 0.00030434944903469748 0 0.026219133468399651 0.00031634916831199981 0 0.02626287431713838 0.00029202296870428873 0 0.026219133468399651 0.00031634916831199981 0 0.026226503222687738 0.00032301124739310812 0 0.021222727435424985 -8.744783703354464e-05 0 0.020449563455319942 0.00056486332010567556 0 0.026241191074446946 0.00030434944903469748 0 0.026219133468399651 0.00031634916831199981 0 0.026226438982644103 0.00031314127887484771 0 0.026219133468399651 0.00031634916831199981 0 0.026226438982644103 0.00031314127887484771 0 0.02617362140865304 0.00032900473293054491 0 0.026241191074446946 0.00030434944903469748 0 0.026225158394421032 0.00030803612681210452 0 0.026226438982644103 0.00031314127887484771 0 0.023660224316394141 6.0787174862805997e-05 0 0.024082325104678795 9.8204184921573033e-05 0 0.022499742785339276 2.8342844949954873e-05 0 0.025005674692649308 9.4382029628700269e-05 0 0.023660224316394141 6.0787174862805997e-05 0 0.024082325104678795 9.8204184921573033e-05 0 0.02509550957045863 2.9747153397861695e-07 0 0.024082325104678795 9.8204184921573033e-05 0 0.02303353748279607 5.3083679312783646e-07 0 0.02303353748279607 5.3083679312783646e-07 0 0.022499742785339276 2.8342844949954873e-05 0 0.020969743333958183 -1.2768372732130097e-06 0 0.024082325104678795 9.8204184921573033e-05 0 0.02303353748279607 5.3083679312783646e-07 0 0.022499742785339276 2.8342844949954873e-05 0 0.022499742785339276 2.8342844949954873e-05 0 0.021699746787742669 -0.00013298969645108606 0 0.020969743333958183 -1.2768372732130097e-06 0 0.022499742785339276 2.8342844949954873e-05 0 0.021699746787742669 -0.00013298969645108606 0 0.022635026679469254 -0.00041144224521016915 0 0.021699746787742669 -0.00013298969645108606 0 0.020969743333958183 -1.2768372732130097e-06 0 0.020269221662268796 -0.00018153509257639341 0 0.023736702132717172 0.00040412697066926988 0 0.022013512801276194 -0.00048914416501062339 0 0.023660224316394141 6.0787174862805997e-05 0 0.022499742785339276 2.8342844949954873e-05 0 0.022635026679469254 -0.00041144224521016915 0 0.018617587167268621 -0.001125947540039012 0 0.018880827327723285 8.6706415453085542e-05 0 0.020269221662268796 -0.00018153509257639341 0 0.017984559506367938 -0.0014808624704212858 0 0.017576897338569368 -0.00057583436088718375 0 0.016537289704014246 -0.0010719460787283251 0 0.017984559506367938 -0.0014808624704212858 0 0.017576897338569368 -0.00057583436088718375 0 0.018880827327723285 8.6706415453085542e-05 0 0.022013512801276194 -0.00048914416501062339 0 0.021711833647309092 -0.00054373770084506284 0 0.017576897338569368 -0.00057583436088718375 0 0.018880827327723285 8.6706415453085542e-05 0 0.01870886149514335 0.00035373174117270934 0 0.018880827327723285 8.6706415453085542e-05 0 0.020269221662268796 -0.00018153509257639341 0 0.018909903068479745 9.0993092358229059e-07 0 0.020969743333958183 -1.2768372732130097e-06 0 0.020269221662268796 -0.00018153509257639341 0 0.018909903068479745 9.0993092358229059e-07 0 0.021699746787742669 -0.00013298969645108606 0 0.022635026679469254 -0.00041144224521016915 0 0.020269221662268796 -0.00018153509257639341 0 0.022013512801276194 -0.00048914416501062339 0 0.021491608702420461 -0.00059999540179267864 0 0.018880827327723285 8.6706415453085542e-05 0 0.018909903068479745 9.0993092358229059e-07 0 0.01870886149514335 0.00035373174117270934 0 0.018904995201289049 -2.1106603461547787e-06 0 0.017004126837783368 -0.00033397359526540343 0 0.017579009883317395 2.6480879055006169e-05 0 0.018904995201289049 -2.1106603461547787e-06 0 0.016366277786770692 -0.0011265707417986706 0 0.017004126837783368 -0.00033397359526540343 0 0.018905984869573716 -3.3969333523341938e-07 0 0.017732606003391608 -0.00036799962471663496 0 0.016366277786770692 -0.0011265707417986706 0 0.016372401491440095 -0.00069678319628538972 0 0.017004126837783368 -0.00033397359526540343 0 0.016366277786770692 -0.0011265707417986706 0 0.016372401491440095 -0.00069678319628538972 0 0.016012510286321141 -0.00078457241419150399 0 0.016229196186024628 -0.00044722298297820409 0 0.016372401491440095 -0.00069678319628538972 0 0.016012510286321141 -0.00078457241419150399 0 0.016229196186024628 -0.00044722298297820409 0 0.017004126837783368 -0.00033397359526540343 0 0.016561558260538352 -5.1306379200973363e-05 0 0.016229196186024628 -0.00044722298297820409 0 0.016372401491440095 -0.00069678319628538972 0 0.017004126837783368 -0.00033397359526540343 0 0.016742347741216104 0.00021601160862209988 0 0.016561558260538352 -5.1306379200973363e-05 0 0.015914839993190887 0.00016599122948429969 0 0.016229196186024628 -0.00044722298297820409 0 0.016561558260538352 -5.1306379200973363e-05 0 0.01581657703853568 -0.00021862075365627442 0 0.016561558260538352 -5.1306379200973363e-05 0 0.015914839993190887 0.00016599122948429969 0 0.01581657703853568 -0.00021862075365627442 0 0.018904995201289049 -2.1106603461547787e-06 0 0.017626306911411892 5.0846001050654325e-07 0 0.017579009883317395 2.6480879055006169e-05 0 0.016742347741216104 0.00021601160862209988 0 0.016561558260538352 -5.1306379200973363e-05 0 0.017579009883317395 2.6480879055006169e-05 0 0.016742347741216104 0.00021601160862209988 0 0.017626306911411892 5.0846001050654325e-07 0 0.017579009883317395 2.6480879055006169e-05 0 0.017004126837783368 -0.00033397359526540343 0 0.016561558260538352 -5.1306379200973363e-05 0 0.017579009883317395 2.6480879055006169e-05 0 0.015289031333440568 -0.00034305238892937356 0 0.014630265549719901 2.790072956626727e-05 0 0.01443897466796051 -0.00029271867035803874 0 0.014231232358941579 0.00027449419498971965 0 0.014586359553448331 0.00035928782816300472 0 0.014630265549719901 2.790072956626727e-05 0 0.014586359553448331 0.00035928782816300472 0 0.014630265549719901 2.790072956626727e-05 0 0.014934987033682304 9.959669158398798e-05 0 0.015289031333440568 -0.00034305238892937356 0 0.014630265549719901 2.790072956626727e-05 0 0.014934987033682304 9.959669158398798e-05 0 0.015289031333440568 -0.00034305238892937356 0 0.014934987033682304 9.959669158398798e-05 0 0.015391343856403932 9.9852857894324162e-06 0 0.015914839993190887 0.00016599122948429969 0 0.015391343856403932 9.9852857894324162e-06 0 0.01581657703853568 -0.00021862075365627442 0 0.015289031333440568 -0.00034305238892937356 0 0.015391343856403932 9.9852857894324162e-06 0 0.01581657703853568 -0.00021862075365627442 0 0.015289031333440568 -0.00034305238892937356 0 0.015803331774406931 -0.0005764093806529722 0 0.015693589217053446 -0.00067792133185427133 0 0.015289031333440568 -0.00034305238892937356 0 0.01581657703853568 -0.00021862075365627442 0 0.015803331774406931 -0.0005764093806529722 0 0.016229196186024628 -0.00044722298297820409 0 0.015803331774406931 -0.0005764093806529722 0 0.016012510286321141 -0.00078457241419150399 0 0.016229196186024628 -0.00044722298297820409 0 0.01581657703853568 -0.00021862075365627442 0 0.015803331774406931 -0.0005764093806529722 0 0.015803331774406931 -0.0005764093806529722 0 0.016012510286321141 -0.00078457241419150399 0 0.015693589217053446 -0.00067792133185427133 0 0.016012510286321141 -0.00078457241419150399 0 0.015693589217053446 -0.00067792133185427133 0 0.015880183159527973 -0.00064535788006834312 0 0.015101840650016452 -0.00022910650059935288 0 0.014960685382377045 1.1059785624421705e-06 0 0.015289031333440568 -0.00034305238892937356 0 0.015439448740987599 -0.00076710526573548442 0 0.01443897466796051 -0.00029271867035803874 0 0.015289031333440568 -0.00034305238892937356 0 0.015693589217053446 -0.00067792133185427133 0 0.015439448740987599 -0.00076710526573548442 0 0.015439448740987599 -0.00076710526573548442 0 0.015570151295008298 -0.00081239527006741314 0 0.015594159724618016 -0.00082429147232160782 0 0.015693589217053446 -0.00067792133185427133 0 0.015439448740987599 -0.00076710526573548442 0 0.015880183159527973 -0.00064535788006834312 0 0.015439448740987599 -0.00076710526573548442 0 0.015570151295008298 -0.00081239527006741314 0 0.015880183159527973 -0.00064535788006834312 0 0.015570151295008298 -0.00081239527006741314 0 0.015880183159527973 -0.00064535788006834312 0 0.015817562853068446 -0.00098099168323610405 0 0.016366277786770692 -0.0011265707417986706 0 0.016012510286321141 -0.00078457241419150399 0 0.015880183159527973 -0.00064535788006834312 0 0.017576897338569368 -0.00057583436088718375 0 0.01870886149514335 0.00035373174117270934 0 0.015880183159527973 -0.00064535788006834312 0 0.017732606003391608 -0.00036799962471663496 0 0.017109685497851204 -0.00055797702491963989 0 0.015880183159527973 -0.00064535788006834312 0 0.016537289704014246 -0.0010719460787283251 0 0.015817562853068446 -0.00098099168323610405 0 0.017576897338569368 -0.00057583436088718375 0 0.015880183159527973 -0.00064535788006834312 0 0.016537289704014246 -0.0010719460787283251 0 0.017984559506367938 -0.0014808624704212858 0 0.016537289704014246 -0.0010719460787283251 0 0.015736782832437603 -0.0013630662469513123 0 0.022013512801276194 -0.00048914416501062339 0 0.021222727435424985 -8.744783703354464e-05 0 0.026225158394421032 0.00030803612681210452 0 0.026197857286958001 0.00028705852097007451 0 0.026226438982644103 0.00031314127887484771 0 0.016537289704014246 -0.0010719460787283251 0 0.015817562853068446 -0.00098099168323610405 0 0.015736782832437603 -0.0013630662469513123 0 0.015617516104461406 -0.00097339192083080949 0 0.015736782832437603 -0.0013630662469513123 0 0.015592096826498774 -0.00088785117149802579 0 0.015570151295008298 -0.00081239527006741314 0 0.015617516104461406 -0.00097339192083080949 0 0.015583711793695377 -0.00083958373539482108 0 0.015570151295008298 -0.00081239527006741314 0 0.015617516104461406 -0.00097339192083080949 0 0.015817562853068446 -0.00098099168323610405 0 0.015617516104461406 -0.00097339192083080949 0 0.015817562853068446 -0.00098099168323610405 0 0.015736782832437603 -0.0013630662469513123 0 0.015592096826498774 -0.00088785117149802579 0 0.015583711793695377 -0.00083958373539482108 0 0.01565652968076384 -0.00069161783989029582 0 0.015583711793695377 -0.00083958373539482108 0 0.01565652968076384 -0.00069161783989029582 0 0.015685717060649949 -0.0007949861606844135 0 0.015617516104461406 -0.00097339192083080949 0 0.015592096826498774 -0.00088785117149802579 0 0.015583711793695377 -0.00083958373539482108 0 0.01565652968076384 -0.00069161783989029582 0 0.01585543988014335 -0.0006850216146650855 0 0.016019872323495599 -0.00013667076478890544 0 0.01565652968076384 -0.00069161783989029582 0 0.01585543988014335 -0.0006850216146650855 0 0.015685717060649949 -0.0007949861606844135 0 0.01585543988014335 -0.0006850216146650855 0 0.015807029869967806 -0.00080221756995846251 0 0.015685717060649949 -0.0007949861606844135 0 0.015807029869967806 -0.00080221756995846251 0 0.015685717060649949 -0.0007949861606844135 0 0.015725497161824774 -0.00084699224370365618 0 0.015685717060649949 -0.0007949861606844135 0 0.015725497161824774 -0.00084699224370365618 0 0.015594159724618016 -0.00082429147232160782 0 0.015807029869967806 -0.00080221756995846251 0 0.015725497161824774 -0.00084699224370365618 0 0.015834964892547404 -0.00086870996899253937 0 0.015583711793695377 -0.00083958373539482108 0 0.015685717060649949 -0.0007949861606844135 0 0.015594159724618016 -0.00082429147232160782 0 0.015570151295008298 -0.00081239527006741314 0 0.015583711793695377 -0.00083958373539482108 0 0.015594159724618016 -0.00082429147232160782 0 0.015594159724618016 -0.00082429147232160782 0 0.015705074065180066 -0.00093191021467090018 0 0.015554957175671463 -0.00098010174155316885 0 0.015439448740987599 -0.00076710526573548442 0 0.015594159724618016 -0.00082429147232160782 0 0.015554957175671463 -0.00098010174155316885 0 0.015705074065180066 -0.00093191021467090018 0 0.015842809839683274 -0.00098506008097012975 0 0.015834964892547404 -0.00086870996899253937 0 0.015725497161824774 -0.00084699224370365618 0 0.015594159724618016 -0.00082429147232160782 0 0.015705074065180066 -0.00093191021467090018 0 0.015725497161824774 -0.00084699224370365618 0 0.015705074065180066 -0.00093191021467090018 0 0.015834964892547404 -0.00086870996899253937 0 0.015660286535978115 -0.0011212010924322819 0 0.015674795836912073 -0.0010530551058236493 0 0.015842809839683274 -0.00098506008097012975 0 0.015705074065180066 -0.00093191021467090018 0 0.015674795836912073 -0.0010530551058236493 0 0.015842809839683274 -0.00098506008097012975 0 0.014449493547459341 0.00092893801847727519 0 0.015681126085710283 0.00036782774196104082 0 0.015459079023031123 0.001739269710286844 0 0.015416950073918821 0.0017337966463321993 0 0.015374602032159262 0.0017440226430339681 0 0.014231232358941579 0.00027449419498971965 0 0.01376200107517222 0.00039599418816143944 0 0.01443897466796051 -0.00029271867035803874 0 0.015660286535978115 -0.0011212010924322819 0 0.015674795836912073 -0.0010530551058236493 0 0.015554957175671463 -0.00098010174155316885 0 0.014449493547459341 0.00092893801847727519 0 0.014960685382377045 1.1059785624421705e-06 0 0.015705074065180066 -0.00093191021467090018 0 0.015674795836912073 -0.0010530551058236493 0 0.015554957175671463 -0.00098010174155316885 0 0.014231232358941579 0.00027449419498971965 0 0.014630265549719901 2.790072956626727e-05 0 0.01443897466796051 -0.00029271867035803874 0 0.015462282979428007 0.0016989884831499476 0 0.01549385402146268 0.0017333047490465184 0 0.015374602032159262 0.0017440226430339681 0 0.015462282979428007 0.0016989884831499476 0 0.015561765404423562 0.0016874575710043038 0 0.01562690136998671 0.001583078423317277 0 0.015462282979428007 0.0016989884831499476 0 0.015561765404423562 0.0016874575710043038 0 0.01549385402146268 0.0017333047490465184 0 0.015459079023031123 0.001739269710286844 0 0.01549385402146268 0.0017333047490465184 0 0.015374602032159262 0.0017440226430339681 0 0.015842809839683274 -0.00098506008097012975 0 0.015834964892547404 -0.00086870996899253937 0 0.01599912602523015 -0.00086555500445561432 0 0.015462282979428007 0.0016989884831499476 0 0.015198316058408771 0.0022900189999140192 0 0.016000571442212782 0.0013877254497465716 0 0.015681126085710283 0.00036782774196104082 0 0.016769074357384832 -0.00030511012669275729 0 0.015462282979428007 0.0016989884831499476 0 0.015374602032159262 0.0017440226430339681 0 0.015198316058408771 0.0022900189999140192 0 0.017219336173148036 -0.0019081581205328687 0 0.016425034367381186 -0.0011789549227073915 0 0.01723016413031522 -0.00075951773572409181 0 0.016769074357384832 -0.00030511012669275729 0 0.016572930253712436 -0.0004658967619562136 0 0.015834964892547404 -0.00086870996899253937 0 0.01599912602523015 -0.00086555500445561432 0 0.015902068699180358 -0.00078861433777191621 0 0.015807029869967806 -0.00080221756995846251 0 0.015834964892547404 -0.00086870996899253937 0 0.015902068699180358 -0.00078861433777191621 0 0.01585543988014335 -0.0006850216146650855 0 0.015807029869967806 -0.00080221756995846251 0 0.015902068699180358 -0.00078861433777191621 0 0.01585543988014335 -0.0006850216146650855 0 0.016500429534970006 -0.00045088478812454721 0 0.016019872323495599 -0.00013667076478890544 0 0.016443021346030286 -0.0004551964412607088 0 0.016572930253712436 -0.0004658967619562136 0 0.01585543988014335 -0.0006850216146650855 0 0.016425034367381186 -0.0011789549227073915 0 0.016500429534970006 -0.00045088478812454721 0 0.016500429534970006 -0.00045088478812454721 0 0.01723016413031522 -0.00075951773572409181 0 0.017203433565339842 0.00031108553245785554 0 0.016425034367381186 -0.0011789549227073915 0 0.016500429534970006 -0.00045088478812454721 0 0.01723016413031522 -0.00075951773572409181 0 0.016803973789516764 0.0011979437964742806 0 0.016060998520221751 0.0022695353713564023 0 0.014954884442957752 0.0015528074986919239 0 0.016803973789516764 0.0011979437964742806 0 0.016060998520221751 0.0022695353713564023 0 0.017966090176398362 0.0027129033115433033 0 0.016060998520221751 0.0022695353713564023 0 0.016385365751336225 0.0034372108678198217 0 0.017966090176398362 0.0027129033115433033 0 0.016060998520221751 0.0022695353713564023 0 0.016385365751336225 0.0034372108678198217 0 0.014765476461967617 0.0025197879513043512 0 0.021505861231530612 0.0014455865328241574 0 0.020791699222523403 0.0010501688943390505 0 0.025959892387059799 0.00035390351852943584 0 0.026113317875222197 0.00037933361281118708 0 0.026134975155448326 0.00031160857125310304 0 0.01742176539999879 0.00076461590532088332 0 0.017141493192511528 0.00081823909724320872 0 0.016060998520221751 0.0022695353713564023 0 0.014765476461967617 0.0025197879513043512 0 0.014954884442957752 0.0015528074986919239 0 0.016500429534970006 -0.00045088478812454721 0 0.017203433565339842 0.00031108553245785554 0 0.016019872323495599 -0.00013667076478890544 0 0.017141493192511528 0.00081823909724320872 0 0.020449563455319942 0.00056486332010567556 0 0.01565652968076384 -0.00069161783989029582 0 0.016019872323495599 -0.00013667076478890544 0 0.015575632061656514 -0.00057005504697092517 0 0.014765476461967617 0.0025197879513043512 0 0.014954884442957752 0.0015528074986919239 0 0.013324158266442494 0.0017785809797437756 0 0.020791699222523403 0.0010501688943390505 0 0.020449563455319942 0.00056486332010567556 0 0.022297611663521674 0.00037411119320544236 0 0.020449563455319942 0.00056486332010567556 0 0.015736782832437603 -0.0013630662469513123 0 0.015592096826498774 -0.00088785117149802579 0 0.015575632061656514 -0.00057005504697092517 0 0.026219133468399651 0.00031634916831199981 0 0.026204249254762765 0.00035647080176330956 0 0.026226503222687738 0.00032301124739310812 0 0.015592096826498774 -0.00088785117149802579 0 0.01565652968076384 -0.00069161783989029582 0 0.015575632061656514 -0.00057005504697092517 0 0.02626287431713838 0.00029202296870428873 0 0.026226503222687738 0.00032301124739310812 0 0.026234229827711612 0.00030286719033424203 0 0.026204249254762765 0.00035647080176330956 0 0.026226503222687738 0.00032301124739310812 0 0.026190768066105142 0.00033856830610358457 0 0.026226503222687738 0.00032301124739310812 0 0.026190768066105142 0.00033856830610358457 0 0.026234229827711612 0.00030286719033424203 0 0.026113317875222197 0.00037933361281118708 0 0.026204249254762765 0.00035647080176330956 0 0.026190768066105142 0.00033856830610358457 0 0.026113317875222197 0.00037933361281118708 0 0.026190768066105142 0.00033856830610358457 0 0.026134975155448326 0.00031160857125310304 0 0.026190768066105142 0.00033856830610358457 0 0.026134975155448326 0.00031160857125310304 0 0.026234229827711612 0.00030286719033424203 0 0.026134975155448326 0.00031160857125310304 0 0.026234229827711612 0.00030286719033424203 0 0.026185037552986342 0.00023666521228701706 0 0.026134975155448326 0.00031160857125310304 0 0.026185037552986342 0.00023666521228701706 0 0.026071738883592308 0.00025792062939129909 0 0.02626287431713838 0.00029202296870428873 0 0.026234229827711612 0.00030286719033424203 0 0.026350421608631023 0.00025712328312339614 0 0.026234229827711612 0.00030286719033424203 0 0.026350421608631023 0.00025712328312339614 0 0.026185037552986342 0.00023666521228701706 0 0.026350421608631023 0.00025712328312339614 0 0.026185037552986342 0.00023666521228701706 0 0.026159566370450762 5.6659506218362578e-05 0 0.026185037552986342 0.00023666521228701706 0 0.026031285825661454 0.00013714164282753347 0 0.026159566370450762 5.6659506218362578e-05 0 0.026031285825661454 0.00013714164282753347 0 0.025935277071549724 0.00023149778953612522 0 0.026071738883592308 0.00025792062939129909 0 0.026185037552986342 0.00023666521228701706 0 0.026031285825661454 0.00013714164282753347 0 0.026071738883592308 0.00025792062939129909 0 0.026031285825661454 0.00013714164282753347 0 0.025935277071549724 0.00023149778953612522 0 0.025837791196296655 0.00012232457876999378 0 0.025959892387059799 0.00035390351852943584 0 0.025935277071549724 0.00023149778953612522 0 0.026071738883592308 0.00025792062939129909 0 0.025959892387059799 0.00035390351852943584 0 0.025935277071549724 0.00023149778953612522 0 0.025789523766472245 0.00028848614147199917 0 0.025959892387059799 0.00035390351852943584 0 0.026134975155448326 0.00031160857125310304 0 0.026071738883592308 0.00025792062939129909 0 0.022471391519412028 0.0016780921428912877 0 0.023807572380897639 0.0016568855994892212 0 0.019244159627042547 0.0042907452632287534 0 0.018180046380249504 0.0044474772530471354 0 0.020035483246611321 0.0055334882912139545 0 0.019244159627042547 0.0042907452632287534 0 0.019882691155096052 0.0044410343356880624 0 0.020035483246611321 0.0055334882912139545 0 0.019244159627042547 0.0042907452632287534 0 0.019882691155096052 0.0044410343356880624 0 0.019823612049143693 0.003593764448554651 0 0.019244159627042547 0.0042907452632287534 0 0.018180046380249504 0.0044474772530471354 0 0.017966090176398362 0.0027129033115433033 0 0.021505861231530612 0.0014455865328241574 0 0.022471391519412028 0.0016780921428912877 0 0.025935277071549724 0.00023149778953612522 0 0.025789523766472245 0.00028848614147199917 0 0.025837791196296655 0.00012232457876999378 0 0.025789523766472245 0.00028848614147199917 0 0.025837791196296655 0.00012232457876999378 0 0.025736002452753533 0.0002066932504436412 0 0.025837791196296655 0.00012232457876999378 0 0.025727058058820008 0.00013361989236853269 0 0.025736002452753533 0.0002066932504436412 0 0.025789523766472245 0.00028848614147199917 0 0.025736002452753533 0.0002066932504436412 0 0.025630736951915267 0.00020712495245089015 0 0.025727058058820008 0.00013361989236853269 0 0.025736002452753533 0.0002066932504436412 0 0.02566561712289803 0.00016262932424311114 0 0.025736002452753533 0.0002066932504436412 0 0.02566561712289803 0.00016262932424311114 0 0.025630736951915267 0.00020712495245089015 0 0.02566561712289803 0.00016262932424311114 0 0.025630736951915267 0.00020712495245089015 0 0.02563558096904266 0.00018207901215768651 0 0.025727058058820008 0.00013361989236853269 0 0.02566561712289803 0.00016262932424311114 0 0.025668754978388629 0.00011180709930657561 0 0.025668754978388629 0.00011180709930657561 0 0.025639323542066127 0.00012944390948676723 0 0.025630774123469584 9.6652634403432709e-05 0 0.02566561712289803 0.00016262932424311114 0 0.025668754978388629 0.00011180709930657561 0 0.025639323542066127 0.00012944390948676723 0 0.020706578739459462 0.0054531036451831083 0 0.020035483246611321 0.0055334882912139545 0 0.021565475494276232 0.0058171780766103492 0 0.025639323542066127 0.00012944390948676723 0 0.025626690934208714 0.00015610613212229993 0 0.025605164639584788 0.00012013078144377315 0 0.025639323542066127 0.00012944390948676723 0 0.025605164639584788 0.00012013078144377315 0 0.025630774123469584 9.6652634403432709e-05 0 0.023807572380897639 0.0016568855994892212 0 0.024904235511308864 0.0018840718314103039 0 0.02558894637720522 0.00016726104000885136 0 0.025630736951915267 0.00020712495245089015 0 0.025463563145344186 0.00011989171735586143 0 0.02558894637720522 0.00016726104000885136 0 0.025565738420614867 0.00015016766409297537 0 0.025463563145344186 0.00011989171735586143 0 0.023807572380897639 0.0016568855994892212 0 0.024490159087691563 0.0014623789661167297 0 0.020035483246611321 0.0055334882912139545 0 0.022527797692151224 0.0065163414341104691 0 0.021565475494276232 0.0058171780766103492 0 0.02566561712289803 0.00016262932424311114 0 0.025626690934208714 0.00015610613212229993 0 0.02563558096904266 0.00018207901215768651 0 0.02566561712289803 0.00016262932424311114 0 0.025639323542066127 0.00012944390948676723 0 0.025626690934208714 0.00015610613212229993 0 0.025626690934208714 0.00015610613212229993 0 0.02563558096904266 0.00018207901215768651 0 0.025614964955627369 0.00017236174916554167 0 0.025626690934208714 0.00015610613212229993 0 0.02559713064678756 0.00014842945462118661 0 0.025614964955627369 0.00017236174916554167 0 0.025626690934208714 0.00015610613212229993 0 0.02559713064678756 0.00014842945462118661 0 0.025605164639584788 0.00012013078144377315 0 0.02558894637720522 0.00016726104000885136 0 0.02559713064678756 0.00014842945462118661 0 0.025614964955627369 0.00017236174916554167 0 0.02559713064678756 0.00014842945462118661 0 0.025605164639584788 0.00012013078144377315 0 0.025574799997652064 0.00013108311068358008 0 0.025574799997652064 0.00013108311068358008 0 0.025538268499740557 0.00012942583388762615 0 0.025567617385444562 0.00010736442050697082 0 0.025605164639584788 0.00012013078144377315 0 0.025574799997652064 0.00013108311068358008 0 0.025567617385444562 0.00010736442050697082 0 0.025574799997652064 0.00013108311068358008 0 0.025538268499740557 0.00012942583388762615 0 0.025565738420614867 0.00015016766409297537 0 0.025538268499740557 0.00012942583388762615 0 0.025529743455210446 0.00010302126780978367 0 0.025567617385444562 0.00010736442050697082 0 0.02559713064678756 0.00014842945462118661 0 0.025574799997652064 0.00013108311068358008 0 0.025565738420614867 0.00015016766409297537 0 0.02558894637720522 0.00016726104000885136 0 0.02559713064678756 0.00014842945462118661 0 0.025565738420614867 0.00015016766409297537 0 0.021096901552568787 0.0054905447615696936 0 0.020706578739459462 0.0054531036451831083 0 0.021565475494276232 0.0058171780766103492 0 0.021303104295262564 0.0055305997278057356 0 0.021096901552568787 0.0054905447615696936 0 0.021565475494276232 0.0058171780766103492 0 0.021303104295262564 0.0055305997278057356 0 0.021557190238766979 0.0053929349066964925 0 0.021169973930713654 0.0052037942118525774 0 0.021096901552568787 0.0054905447615696936 0 0.020802248699054709 0.0052377127047845721 0 0.021169973930713654 0.0052037942118525774 0 0.021303104295262564 0.0055305997278057356 0 0.021096901552568787 0.0054905447615696936 0 0.021169973930713654 0.0052037942118525774 0 0.021096901552568787 0.0054905447615696936 0 0.020706578739459462 0.0054531036451831083 0 0.020802248699054709 0.0052377127047845721 0 0.020706578739459462 0.0054531036451831083 0 0.020469356003064227 0.0053106904069083289 0 0.020802248699054709 0.0052377127047845721 0 0.020706578739459462 0.0054531036451831083 0 0.020469356003064227 0.0053106904069083289 0 0.020035483246611321 0.0055334882912139545 0 0.020469356003064227 0.0053106904069083289 0 0.020035483246611321 0.0055334882912139545 0 0.020370632062415638 0.0051277349598324419 0 0.025630736951915267 0.00020712495245089015 0 0.02563558096904266 0.00018207901215768651 0 0.025614964955627369 0.00017236174916554167 0 0.02558894637720522 0.00016726104000885136 0 0.025630736951915267 0.00020712495245089015 0 0.025614964955627369 0.00017236174916554167 0 0.025459150579616535 0.00016545377205714635 0 0.025463563145344186 0.00011989171735586143 0 0.025458764889124706 0.00012834993786175244 0 0.022527797692151224 0.0065163414341104691 0 0.022696191163249894 0.0060954663414088473 0 0.023121978359593644 0.0061442367561966287 0 0.025450985273732397 0.0001052807748994161 0 0.025458764889124706 0.00012834993786175244 0 0.025424652298328725 8.9651147554690972e-05 0 0.025450985273732397 0.0001052807748994161 0 0.025463563145344186 0.00011989171735586143 0 0.025458764889124706 0.00012834993786175244 0 0.022527797692151224 0.0065163414341104691 0 0.022182940729613909 0.006107035162588096 0 0.022419936760076614 0.0060668264688022583 0 0.022527797692151224 0.0065163414341104691 0 0.022419936760076614 0.0060668264688022583 0 0.022696191163249894 0.0060954663414088473 0 0.025538268499740557 0.00012942583388762615 0 0.025565738420614867 0.00015016766409297537 0 0.025463563145344186 0.00011989171735586143 0 0.025538268499740557 0.00012942583388762615 0 0.025463563145344186 0.00011989171735586143 0 0.025506397321688461 0.00010861472720127996 0 0.025538268499740557 0.00012942583388762615 0 0.025529743455210446 0.00010302126780978367 0 0.025506397321688461 0.00010861472720127996 0 0.022527797692151224 0.0065163414341104691 0 0.021565475494276232 0.0058171780766103492 0 0.022182940729613909 0.006107035162588096 0 0.021565475494276232 0.0058171780766103492 0 0.021557190238766979 0.0053929349066964925 0 0.021892617266504891 0.005558073150326936 0 0.021303104295262564 0.0055305997278057356 0 0.021565475494276232 0.0058171780766103492 0 0.021557190238766979 0.0053929349066964925 0 0.021892617266504891 0.005558073150326936 0 0.022144029001140375 0.0057969645304263391 0 0.022293402633575463 0.0054133356562956836 0 0.021565475494276232 0.0058171780766103492 0 0.021892617266504891 0.005558073150326936 0 0.022144029001140375 0.0057969645304263391 0 0.021565475494276232 0.0058171780766103492 0 0.022144029001140375 0.0057969645304263391 0 0.022182940729613909 0.006107035162588096 0 0.022144029001140375 0.0057969645304263391 0 0.022182940729613909 0.006107035162588096 0 0.022419936760076614 0.0060668264688022583 0 0.022419936760076614 0.0060668264688022583 0 0.022523863156989624 0.0058173833481436274 0 0.022696191163249894 0.0060954663414088473 0 0.022144029001140375 0.0057969645304263391 0 0.022419936760076614 0.0060668264688022583 0 0.022523863156989624 0.0058173833481436274 0 0.022144029001140375 0.0057969645304263391 0 0.022523863156989624 0.0058173833481436274 0 0.022293402633575463 0.0054133356562956836 0 0.022523863156989624 0.0058173833481436274 0 0.022293402633575463 0.0054133356562956836 0 0.022884981103417051 0.0053644154674759633 0 0.022523863156989624 0.0058173833481436274 0 0.022915418130538899 0.0058266724463349445 0 0.022884981103417051 0.0053644154674759633 0 0.022915418130538899 0.0058266724463349445 0 0.022696191163249894 0.0060954663414088473 0 0.023121978359593644 0.0061442367561966287 0 0.022523863156989624 0.0058173833481436274 0 0.022915418130538899 0.0058266724463349445 0 0.022696191163249894 0.0060954663414088473 0 0.022884981103417051 0.0053644154674759633 0 0.022459179899770993 0.0049689799232713874 0 0.023014941021996367 0.0045787070370624672 0 0.022459179899770993 0.0049689799232713874 0 0.022219074469598518 0.0044228303173215579 0 0.023014941021996367 0.0045787070370624672 0 0.022293402633575463 0.0054133356562956836 0 0.022884981103417051 0.0053644154674759633 0 0.022459179899770993 0.0049689799232713874 0 0.022293402633575463 0.0054133356562956836 0 0.022459179899770993 0.0049689799232713874 0 0.021956648930840407 0.0050978742910453593 0 0.022459179899770993 0.0049689799232713874 0 0.021956648930840407 0.0050978742910453593 0 0.022219074469598518 0.0044228303173215579 0 0.021956648930840407 0.0050978742910453593 0 0.021595433805417955 0.0044603937437750494 0 0.022219074469598518 0.0044228303173215579 0 0.021557190238766979 0.0053929349066964925 0 0.021892617266504891 0.005558073150326936 0 0.021956648930840407 0.0050978742910453593 0 0.021892617266504891 0.005558073150326936 0 0.022293402633575463 0.0054133356562956836 0 0.021956648930840407 0.0050978742910453593 0 0.021557190238766979 0.0053929349066964925 0 0.021956648930840407 0.0050978742910453593 0 0.021493342267862422 0.0050192980782390829 0 0.021557190238766979 0.0053929349066964925 0 0.021493342267862422 0.0050192980782390829 0 0.021169973930713654 0.0052037942118525774 0 0.021493342267862422 0.0050192980782390829 0 0.021595433805417955 0.0044603937437750494 0 0.021116213804658196 0.0047648966118555569 0 0.021956648930840407 0.0050978742910453593 0 0.021493342267862422 0.0050192980782390829 0 0.021595433805417955 0.0044603937437750494 0 0.021595433805417955 0.0044603937437750494 0 0.021267940730961402 0.0039004393097940618 0 0.021784089707557536 0.0037021225531691407 0 0.021595433805417955 0.0044603937437750494 0 0.022219074469598518 0.0044228303173215579 0 0.021784089707557536 0.0037021225531691407 0 0.022219074469598518 0.0044228303173215579 0 0.02253199156818915 0.0039401763734380965 0 0.023014941021996367 0.0045787070370624672 0 0.022219074469598518 0.0044228303173215579 0 0.02253199156818915 0.0039401763734380965 0 0.021784089707557536 0.0037021225531691407 0 0.019882691155096052 0.0044410343356880624 0 0.020035483246611321 0.0055334882912139545 0 0.020234013360135965 0.0048650333895695827 0 0.020636247936365426 0.0046379495633849148 0 0.020234013360135965 0.0048650333895695827 0 0.020559048355096032 0.0049948565009162015 0 0.020298000143007758 0.0045192395890762951 0 0.020636247936365426 0.0046379495633849148 0 0.020234013360135965 0.0048650333895695827 0 0.019882691155096052 0.0044410343356880624 0 0.020298000143007758 0.0045192395890762951 0 0.020234013360135965 0.0048650333895695827 0 0.020035483246611321 0.0055334882912139545 0 0.020234013360135965 0.0048650333895695827 0 0.020370632062415638 0.0051277349598324419 0 0.020234013360135965 0.0048650333895695827 0 0.020370632062415638 0.0051277349598324419 0 0.020559048355096032 0.0049948565009162015 0 0.020469356003064227 0.0053106904069083289 0 0.020370632062415638 0.0051277349598324419 0 0.020559048355096032 0.0049948565009162015 0 0.020469356003064227 0.0053106904069083289 0 0.020559048355096032 0.0049948565009162015 0 0.020802248699054709 0.0052377127047845721 0 0.020802248699054709 0.0052377127047845721 0 0.020846405120495761 0.0049855269557726473 0 0.021169973930713654 0.0052037942118525774 0 0.020559048355096032 0.0049948565009162015 0 0.020802248699054709 0.0052377127047845721 0 0.020846405120495761 0.0049855269557726473 0 0.021493342267862422 0.0050192980782390829 0 0.021169973930713654 0.0052037942118525774 0 0.021116213804658196 0.0047648966118555569 0 0.020846405120495761 0.0049855269557726473 0 0.021169973930713654 0.0052037942118525774 0 0.021116213804658196 0.0047648966118555569 0 0.020636247936365426 0.0046379495633849148 0 0.020846405120495761 0.0049855269557726473 0 0.021116213804658196 0.0047648966118555569 0 0.020636247936365426 0.0046379495633849148 0 0.021116213804658196 0.0047648966118555569 0 0.020963513441488758 0.0042870209286526607 0 0.020636247936365426 0.0046379495633849148 0 0.020559048355096032 0.0049948565009162015 0 0.020846405120495761 0.0049855269557726473 0 0.020636247936365426 0.0046379495633849148 0 0.020963513441488758 0.0042870209286526607 0 0.020375071112251779 0.0041205623006984864 0 0.021595433805417955 0.0044603937437750494 0 0.020963513441488758 0.0042870209286526607 0 0.021267940730961402 0.0039004393097940618 0 0.021595433805417955 0.0044603937437750494 0 0.021116213804658196 0.0047648966118555569 0 0.020963513441488758 0.0042870209286526607 0 0.020963513441488758 0.0042870209286526607 0 0.021267940730961402 0.0039004393097940618 0 0.020787850982957781 0.0038350349782753437 0 0.020963513441488758 0.0042870209286526607 0 0.020787850982957781 0.0038350349782753437 0 0.020375071112251779 0.0041205623006984864 0 0.020787850982957781 0.0038350349782753437 0 0.020375071112251779 0.0041205623006984864 0 0.020441172780191225 0.0034124679868186439 0 0.019882691155096052 0.0044410343356880624 0 0.020375071112251779 0.0041205623006984864 0 0.019823612049143693 0.003593764448554651 0 0.020298000143007758 0.0045192395890762951 0 0.020636247936365426 0.0046379495633849148 0 0.020375071112251779 0.0041205623006984864 0 0.019882691155096052 0.0044410343356880624 0 0.020298000143007758 0.0045192395890762951 0 0.020375071112251779 0.0041205623006984864 0 0.020441172780191225 0.0034124679868186439 0 0.019956502042498592 0.0026821002585364073 0 0.019823612049143693 0.003593764448554651 0 0.020375071112251779 0.0041205623006984864 0 0.020441172780191225 0.0034124679868186439 0 0.019823612049143693 0.003593764448554651 0 0.020787850982957781 0.0038350349782753437 0 0.020441172780191225 0.0034124679868186439 0 0.021089278854601878 0.0033338823072210379 0 0.021267940730961402 0.0039004393097940618 0 0.020787850982957781 0.0038350349782753437 0 0.021089278854601878 0.0033338823072210379 0 0.020441172780191225 0.0034124679868186439 0 0.021089278854601878 0.0033338823072210379 0 0.020738170134142867 0.0026731865327861127 0 0.021089278854601878 0.0033338823072210379 0 0.020738170134142867 0.0026731865327861127 0 0.021500847137708421 0.0028836125396381517 0 0.020738170134142867 0.0026731865327861127 0 0.021500847137708421 0.0028836125396381517 0 0.021139269337922418 0.001945026066554952 0 0.020441172780191225 0.0034124679868186439 0 0.020738170134142867 0.0026731865327861127 0 0.019956502042498592 0.0026821002585364073 0 0.020738170134142867 0.0026731865327861127 0 0.019956502042498592 0.0026821002585364073 0 0.020294496231408724 0.0020112824879945194 0 0.02253199156818915 0.0039401763734380965 0 0.022286850854749084 0.0032206469764071398 0 0.023379025505188201 0.0036986109042237226 0 0.02253199156818915 0.0039401763734380965 0 0.022286850854749084 0.0032206469764071398 0 0.021784089707557536 0.0037021225531691407 0 0.021089278854601878 0.0033338823072210379 0 0.021784089707557536 0.0037021225531691407 0 0.021500847137708421 0.0028836125396381517 0 0.022286850854749084 0.0032206469764071398 0 0.021784089707557536 0.0037021225531691407 0 0.021500847137708421 0.0028836125396381517 0 0.021267940730961402 0.0039004393097940618 0 0.021089278854601878 0.0033338823072210379 0 0.021784089707557536 0.0037021225531691407 0 0.022286850854749084 0.0032206469764071398 0 0.021500847137708421 0.0028836125396381517 0 0.022004295744496995 0.0024516866714675472 0 0.021500847137708421 0.0028836125396381517 0 0.022004295744496995 0.0024516866714675472 0 0.021139269337922418 0.001945026066554952 0 0.022286850854749084 0.0032206469764071398 0 0.022004295744496995 0.0024516866714675472 0 0.022990170489154672 0.0023663989660322781 0 0.02198427114212673 0.0016747307249769326 0 0.022603292138067322 0.0010182003475685789 0 0.022990170489154672 0.0023663989660322781 0 0.022004295744496995 0.0024516866714675472 0 0.02198427114212673 0.0016747307249769326 0 0.022990170489154672 0.0023663989660322781 0 0.02198427114212673 0.0016747307249769326 0 0.021225597237919246 0.0010078272069656597 0 0.021139269337922418 0.001945026066554952 0 0.022004295744496995 0.0024516866714675472 0 0.02198427114212673 0.0016747307249769326 0 0.021139269337922418 0.001945026066554952 0 0.02198427114212673 0.0016747307249769326 0 0.021225597237919246 0.0010078272069656597 0 0.022603292138067322 0.0010182003475685789 0 0.020294496231408724 0.0020112824879945194 0 0.021139269337922418 0.001945026066554952 0 0.020386698372592091 0.0012076885191836804 0 0.020294496231408724 0.0020112824879945194 0 0.020386698372592091 0.0012076885191836804 0 0.019554652472458314 0.0017258878042742923 0 0.020738170134142867 0.0026731865327861127 0 0.020294496231408724 0.0020112824879945194 0 0.021139269337922418 0.001945026066554952 0 0.021225597237919246 0.0010078272069656597 0 0.020386698372592091 0.0012076885191836804 0 0.020228284361277219 0.00021597408826088584 0 0.021225597237919246 0.0010078272069656597 0 0.021139269337922418 0.001945026066554952 0 0.020386698372592091 0.0012076885191836804 0 0.020386698372592091 0.0012076885191836804 0 0.019770673573085623 0.00074057738668484069 0 0.019554652472458314 0.0017258878042742923 0 0.019770673573085623 0.00074057738668484069 0 0.018982395556551228 0.00071762394817551263 0 0.019554652472458314 0.0017258878042742923 0 0.019554652472458314 0.0017258878042742923 0 0.019190680103778529 0.0027878347915542769 0 0.018495060164248886 0.0018260458770692494 0 0.018982395556551228 0.00071762394817551263 0 0.019554652472458314 0.0017258878042742923 0 0.018495060164248886 0.0018260458770692494 0 0.019956502042498592 0.0026821002585364073 0 0.020294496231408724 0.0020112824879945194 0 0.019554652472458314 0.0017258878042742923 0 0.019244159627042547 0.0042907452632287534 0 0.019190680103778529 0.0027878347915542769 0 0.017966090176398362 0.0027129033115433033 0 0.019956502042498592 0.0026821002585364073 0 0.019554652472458314 0.0017258878042742923 0 0.019190680103778529 0.0027878347915542769 0 0.019244159627042547 0.0042907452632287534 0 0.019190680103778529 0.0027878347915542769 0 0.019823612049143693 0.003593764448554651 0 0.019956502042498592 0.0026821002585364073 0 0.019190680103778529 0.0027878347915542769 0 0.019823612049143693 0.003593764448554651 0 0.016385365751336225 0.0034372108678198217 0 0.018180046380249504 0.0044474772530471354 0 0.017966090176398362 0.0027129033115433033 0 0.019190680103778529 0.0027878347915542769 0 0.017966090176398362 0.0027129033115433033 0 0.018495060164248886 0.0018260458770692494 0 0.016803973789516764 0.0011979437964742806 0 0.017966090176398362 0.0027129033115433033 0 0.018495060164248886 0.0018260458770692494 0 0.016803973789516764 0.0011979437964742806 0 0.018982395556551228 0.00071762394817551263 0 0.018495060164248886 0.0018260458770692494 0 0.01742176539999879 0.00076461590532088332 0 0.018048563656495042 0.00069944616337369386 0 0.017203433565339842 0.00031108553245785554 0 0.018982395556551228 0.00071762394817551263 0 0.018164556900913391 -0.00016033333420396756 0 0.01723016413031522 -0.00075951773572409181 0 0.017203433565339842 0.00031108553245785554 0 0.018164556900913391 -0.00016033333420396756 0 0.018164556900913391 -0.00016033333420396756 0 0.019519028977078592 -0.00013353037008131911 0 0.018190615936154193 -0.0012052835029069358 0 0.01723016413031522 -0.00075951773572409181 0 0.018164556900913391 -0.00016033333420396756 0 0.018190615936154193 -0.0012052835029069358 0 0.019770673573085623 0.00074057738668484069 0 0.019519028977078592 -0.00013353037008131911 0 0.020228284361277219 0.00021597408826088584 0 0.019770673573085623 0.00074057738668484069 0 0.018982395556551228 0.00071762394817551263 0 0.019519028977078592 -0.00013353037008131911 0 0.018982395556551228 0.00071762394817551263 0 0.018164556900913391 -0.00016033333420396756 0 0.019519028977078592 -0.00013353037008131911 0 0.018236332651557614 4.6083171531002583e-05 0 0.017804237340327694 -0.00011645853599975261 0 0.019519028977078592 -0.00013353037008131911 0 0.019985511576921883 -0.00044339713951631766 0 0.019748714291991099 -0.0007431898812506071 0 0.019519028977078592 -0.00013353037008131911 0 0.019985511576921883 -0.00044339713951631766 0 0.020228284361277219 0.00021597408826088584 0 0.019985511576921883 -0.00044339713951631766 0 0.019748714291991099 -0.0007431898812506071 0 0.020179081475140245 -0.00079475050018331598 0 0.019519028977078592 -0.00013353037008131911 0 0.019748714291991099 -0.0007431898812506071 0 0.019386965751020176 -0.00068668537541140349 0 0.019748714291991099 -0.0007431898812506071 0 0.019386965751020176 -0.00068668537541140349 0 0.019698088572556095 -0.0010821471820383023 0 0.019748714291991099 -0.0007431898812506071 0 0.019698088572556095 -0.0010821471820383023 0 0.020164746968786038 -0.0011287781097941935 0 0.019748714291991099 -0.0007431898812506071 0 0.020164746968786038 -0.0011287781097941935 0 0.020179081475140245 -0.00079475050018331598 0 0.0190096500769949 -0.0010467774705352191 0 0.019386965751020176 -0.00068668537541140349 0 0.019698088572556095 -0.0010821471820383023 0 0.017219336173148036 -0.0019081581205328687 0 0.01723016413031522 -0.00075951773572409181 0 0.018190615936154193 -0.0012052835029069358 0 0.016769074357384832 -0.00030511012669275729 0 0.017804237340327694 -0.00011645853599975261 0 0.0190096500769949 -0.0010467774705352191 0 0.019698088572556095 -0.0010821471820383023 0 0.019863647643658607 -0.0015027818441295962 0 0.016769074357384832 -0.00030511012669275729 0 0.018042511301350261 -0.00056405187356559159 0 0.015198316058408771 0.0022900189999140192 0 0.016909470156993737 0.0012128091657779688 0 0.016000571442212782 0.0013877254497465716 0 0.019698088572556095 -0.0010821471820383023 0 0.020035253614513908 -0.0013401168395956197 0 0.019863647643658607 -0.0015027818441295962 0 0.019698088572556095 -0.0010821471820383023 0 0.020035253614513908 -0.0013401168395956197 0 0.020164746968786038 -0.0011287781097941935 0 0.018839665556001889 -0.00097284795523495894 0 0.018042511301350261 -0.00056405187356559159 0 0.020035253614513908 -0.0013401168395956197 0 0.019863647643658607 -0.0015027818441295962 0 0.020191092144113413 -0.0013921988791503043 0 0.018326057343426964 -0.0014636590034140353 0 0.016909470156993737 0.0012128091657779688 0 0.016000571442212782 0.0013877254497465716 0 0.016250431870533631 0.00096956000216787607 0 0.016015652467066325 0.0013176059374869497 0 0.015257462502660137 0.0018232543726432598 0 0.014728904171528058 0.0020968568536668931 0 0.016000571442212782 0.0013877254497465716 0 0.015257462502660137 0.0018232543726432598 0 0.01562690136998671 0.001583078423317277 0 0.016000571442212782 0.0013877254497465716 0 0.015257462502660137 0.0018232543726432598 0 0.015561765404423562 0.0016874575710043038 0 0.01562690136998671 0.001583078423317277 0 0.015462282979428007 0.0016989884831499476 0 0.01562690136998671 0.001583078423317277 0 0.016000571442212782 0.0013877254497465716 0 0.020323658990947801 -0.0013770013913356918 0 0.020340411094158576 -0.0013519311129212735 0 0.020725741753494859 -0.0013256228126175672 0 0.020340411094158576 -0.0013519311129212735 0 0.020191092144113413 -0.0013921988791503043 0 0.020618542424556258 -0.0013824063842020509 0 0.020340411094158576 -0.0013519311129212735 0 0.020618542424556258 -0.0013824063842020509 0 0.020725741753494859 -0.0013256228126175672 0 0.019995486135263779 -0.00118570310469877 0 0.020340411094158576 -0.0013519311129212735 0 0.020191092144113413 -0.0013921988791503043 0 0.019995486135263779 -0.00118570310469877 0 0.019863647643658607 -0.0015027818441295962 0 0.020191092144113413 -0.0013921988791503043 0 0.020191092144113413 -0.0013921988791503043 0 0.02024380829574797 -0.0013400660630389822 0 0.020581631085223689 -0.0013950490046154588 0 0.020191092144113413 -0.0013921988791503043 0 0.020581631085223689 -0.0013950490046154588 0 0.020618542424556258 -0.0013824063842020509 0 0.020035253614513908 -0.0013401168395956197 0 0.020191092144113413 -0.0013921988791503043 0 0.02024380829574797 -0.0013400660630389822 0 0.020035253614513908 -0.0013401168395956197 0 0.02024380829574797 -0.0013400660630389822 0 0.020164746968786038 -0.0011287781097941935 0 0.02024380829574797 -0.0013400660630389822 0 0.020164746968786038 -0.0011287781097941935 0 0.020581631085223689 -0.0013950490046154588 0 0.020164746968786038 -0.0011287781097941935 0 0.020581631085223689 -0.0013950490046154588 0 0.020603647295944192 -0.0010707040420866619 0 0.020581631085223689 -0.0013950490046154588 0 0.020618542424556258 -0.0013824063842020509 0 0.021298525906480563 -0.0016269825076295798 0 0.020581631085223689 -0.0013950490046154588 0 0.021298525906480563 -0.0016269825076295798 0 0.020603647295944192 -0.0010707040420866619 0 0.020618542424556258 -0.0013824063842020509 0 0.021298525906480563 -0.0016269825076295798 0 0.020725741753494859 -0.0013256228126175672 0 0.021298525906480563 -0.0016269825076295798 0 0.021110804139234812 -0.00075552352574391132 0 0.022701570391530465 -0.00045008637954761679 0 0.021298525906480563 -0.0016269825076295798 0 0.021110804139234812 -0.00075552352574391132 0 0.020603647295944192 -0.0010707040420866619 0 0.020164746968786038 -0.0011287781097941935 0 0.020603647295944192 -0.0010707040420866619 0 0.020179081475140245 -0.00079475050018331598 0 0.021110804139234812 -0.00075552352574391132 0 0.020603647295944192 -0.0010707040420866619 0 0.02048667294469499 -0.00049885594006223658 0 0.019985511576921883 -0.00044339713951631766 0 0.02048667294469499 -0.00049885594006223658 0 0.020179081475140245 -0.00079475050018331598 0 0.020603647295944192 -0.0010707040420866619 0 0.02048667294469499 -0.00049885594006223658 0 0.020179081475140245 -0.00079475050018331598 0 0.019985511576921883 -0.00044339713951631766 0 0.02048667294469499 -0.00049885594006223658 0 0.020228284361277219 0.00021597408826088584 0 0.02048667294469499 -0.00049885594006223658 0 0.020228284361277219 0.00021597408826088584 0 0.02126630696750979 0.00014682860777002983 0 0.021110804139234812 -0.00075552352574391132 0 0.02048667294469499 -0.00049885594006223658 0 0.02126630696750979 0.00014682860777002983 0 0.021225597237919246 0.0010078272069656597 0 0.020228284361277219 0.00021597408826088584 0 0.02126630696750979 0.00014682860777002983 0 0.020386698372592091 0.0012076885191836804 0 0.019770673573085623 0.00074057738668484069 0 0.020228284361277219 0.00021597408826088584 0 0.02126630696750979 0.00014682860777002983 0 0.022701570391530465 -0.00045008637954761679 0 0.022603292138067322 0.0010182003475685789 0 0.021110804139234812 -0.00075552352574391132 0 0.02126630696750979 0.00014682860777002983 0 0.022701570391530465 -0.00045008637954761679 0 0.021225597237919246 0.0010078272069656597 0 0.02126630696750979 0.00014682860777002983 0 0.022603292138067322 0.0010182003475685789 0 0.02377476651023867 0.00049684028661993061 0 0.022701570391530465 -0.00045008637954761679 0 0.022603292138067322 0.0010182003475685789 0 0.02377476651023867 0.00049684028661993061 0 0.025408204058139063 -0.00026866134279482796 0 0.022701570391530465 -0.00045008637954761679 0 0.02377476651023867 0.00049684028661993061 0 0.025408204058139063 -0.00026866134279482796 0 0.024476343413416576 0.0016415100858244503 0 0.025408204058139063 -0.00026866134279482796 0 0.022701570391530465 -0.00045008637954761679 0 0.024469109212528182 -0.0028081492106778105 0 0.026927639710873412 -0.00031997763192597204 0 0.026629288048758467 -0.0020729049425634869 0 0.027971866995249735 -0.0013726815840556651 0 0.024918261670716386 0.00027313553057510282 0 0.023384731379955805 -0.00068027739723070088 0 0.021298525906480563 -0.0016269825076295798 0 0.022701570391530465 -0.00045008637954761679 0 0.024469109212528182 -0.0028081492106778105 0 0.021298525906480563 -0.0016269825076295798 0 0.020725741753494859 -0.0013256228126175672 0 0.020004323541249078 -0.0015466295343123291 0 0.022401807226345168 -0.00079461466546543299 0 0.023384731379955805 -0.00068027739723070088 0 0.023384731379955805 -0.00068027739723070088 0 0.021054446267760176 -0.00083785483399785078 0 0.022863118379960013 0.00018759408405252356 0 0.022861134637225246 0.00019171470704281942 0 0.022858516566778276 0.00019058722648438619 0 0.020725741753494859 -0.0013256228126175672 0 0.020004323541249078 -0.0015466295343123291 0 0.020226541266799725 -0.00069805536077361839 0 0.02094639805253538 -0.00087101615130002748 0 0.021054446267760176 -0.00083785483399785078 0 0.020323658990947801 -0.0013770013913356918 0 0.020725741753494859 -0.0013256228126175672 0 0.020356995427250026 -0.0013726114129128779 0 0.022861172060415387 0.0001952586181544615 0 0.022865381400256787 0.00019387059400373467 0 0.022870900292196662 0.00020277124172936697 0 0.025225431403416921 -0.00028934216674803551 0 0.02598314342260042 0.00066090703218241815 0 0.022861134637225246 0.00019171470704281942 0 0.022861172060415387 0.0001952586181544615 0 0.022865381400256787 0.00019387059400373467 0 0.026629288048758467 -0.0020729049425634869 0 0.028191277538635536 -0.0024557356746898883 0 0.027971866995249735 -0.0013726815840556651 0 0.022863118379960013 0.00018759408405252356 0 0.022861134637225246 0.00019171470704281942 0 0.022865381400256787 0.00019387059400373467 0 0.023384731379955805 -0.00068027739723070088 0 0.025225431403416921 -0.00028934216674803551 0 0.028191277538635536 -0.0024557356746898883 0 0.029267788686191447 -0.0014670289684805453 0 0.029663116922612771 -0.0027653304751304609 0 0.028191277538635536 -0.0024557356746898883 0 0.029267788686191447 -0.0014670289684805453 0 0.027971866995249735 -0.0013726815840556651 0 0.029267788686191447 -0.0014670289684805453 0 0.027971866995249735 -0.0013726815840556651 0 0.028834087285926534 -0.00038804705573543952 0 0.029267788686191447 -0.0014670289684805453 0 0.028834087285926534 -0.00038804705573543952 0 0.030005127851590419 3.719435175459283e-05 0 0.026927639710873412 -0.00031997763192597204 0 0.027971866995249735 -0.0013726815840556651 0 0.028834087285926534 -0.00038804705573543952 0 0.026927639710873412 -0.00031997763192597204 0 0.028834087285926534 -0.00038804705573543952 0 0.029396769653919016 0.0010342589518035946 0 0.028834087285926534 -0.00038804705573543952 0 0.029396769653919016 0.0010342589518035946 0 0.030005127851590419 3.719435175459283e-05 0 0.029396769653919016 0.0010342589518035946 0 0.03023914061724543 0.00094761503402306416 0 0.030093860278096213 0.00078197286711431354 0 0.029396769653919016 0.0010342589518035946 0 0.030318287911518256 0.00090385697106712837 0 0.030823661536642181 0.00083959649082836294 0 0.029372040479431184 0.0013899245719438342 0 0.029192313924992108 0.0018090043040985572 0 0.029396769653919016 0.0010342589518035946 0 0.030318287911518256 0.00090385697106712837 0 0.03023914061724543 0.00094761503402306416 0 0.030318287911518256 0.00090385697106712837 0 0.030823661536642181 0.00083959649082836294 0 0.030684417313519764 0.00069339752375766387 0 0.030318287911518256 0.00090385697106712837 0 0.03051924040027687 0.00076733820260772476 0 0.03023914061724543 0.00094761503402306416 0 0.030318287911518256 0.00090385697106712837 0 0.03051924040027687 0.00076733820260772476 0 0.030684417313519764 0.00069339752375766387 0 0.029396769653919016 0.0010342589518035946 0 0.02801451700048407 0.0036274636278943906 0 0.026927600791473813 0.0021131748526978982 0 0.02801451700048407 0.0036274636278943906 0 0.026927600791473813 0.0021131748526978982 0 0.026238206922786781 0.0036794188405001546 0 0.024918261670716386 0.00027313553057510282 0 0.025557861992617021 0.0013253844873392434 0 0.026927639710873412 -0.00031997763192597204 0 0.029396769653919016 0.0010342589518035946 0 0.026927600791473813 0.0021131748526978982 0 0.026927600791473813 0.0021131748526978982 0 0.024476343413416576 0.0016415100858244503 0 0.025411184266138781 0.0028003578715933455 0 0.025408204058139063 -0.00026866134279482796 0 0.026927600791473813 0.0021131748526978982 0 0.024476343413416576 0.0016415100858244503 0 0.024476343413416576 0.0016415100858244503 0 0.022603292138067322 0.0010182003475685789 0 0.022990170489154672 0.0023663989660322781 0 0.02377476651023867 0.00049684028661993061 0 0.024476343413416576 0.0016415100858244503 0 0.022603292138067322 0.0010182003475685789 0 0.022990170489154672 0.0023663989660322781 0 0.024355782906195059 0.003009814410064269 0 0.023379025505188201 0.0036986109042237226 0 0.024476343413416576 0.0016415100858244503 0 0.022990170489154672 0.0023663989660322781 0 0.024355782906195059 0.003009814410064269 0 0.024355782906195059 0.003009814410064269 0 0.024220515515367531 0.0038305438321147461 0 0.023379025505188201 0.0036986109042237226 0 0.022286850854749084 0.0032206469764071398 0 0.022990170489154672 0.0023663989660322781 0 0.023379025505188201 0.0036986109042237226 0 0.026927600791473813 0.0021131748526978982 0 0.025411184266138781 0.0028003578715933455 0 0.026238206922786781 0.0036794188405001546 0 0.024476343413416576 0.0016415100858244503 0 0.024355782906195059 0.003009814410064269 0 0.025411184266138781 0.0028003578715933455 0 0.024355782906195059 0.003009814410064269 0 0.025411184266138781 0.0028003578715933455 0 0.024986164529511714 0.0040122625927738638 0 0.024355782906195059 0.003009814410064269 0 0.024220515515367531 0.0038305438321147461 0 0.024986164529511714 0.0040122625927738638 0 0.025411184266138781 0.0028003578715933455 0 0.026238206922786781 0.0036794188405001546 0 0.024986164529511714 0.0040122625927738638 0 0.026238206922786781 0.0036794188405001546 0 0.025617603012280634 0.0046242102680360839 0 0.024986164529511714 0.0040122625927738638 0 0.026238206922786781 0.0036794188405001546 0 0.025617603012280634 0.0046242102680360839 0 0.026465171249665777 0.0048850599061787498 0 0.024986164529511714 0.0040122625927738638 0 0.024869147452848839 0.004934847214553977 0 0.024031236991213619 0.0045222544837078514 0 0.025617603012280634 0.0046242102680360839 0 0.024986164529511714 0.0040122625927738638 0 0.024869147452848839 0.004934847214553977 0 0.025617603012280634 0.0046242102680360839 0 0.024869147452848839 0.004934847214553977 0 0.025503087060513106 0.0053529083973093868 0 0.024869147452848839 0.004934847214553977 0 0.024212009878436216 0.0053899057532158928 0 0.024856703980975576 0.0056873959142505802 0 0.024869147452848839 0.004934847214553977 0 0.025503087060513106 0.0053529083973093868 0 0.024856703980975576 0.0056873959142505802 0 0.025617603012280634 0.0046242102680360839 0 0.025503087060513106 0.0053529083973093868 0 0.026465171249665777 0.0048850599061787498 0 0.025503087060513106 0.0053529083973093868 0 0.025995816736563888 0.0057809965462567699 0 0.026465171249665777 0.0048850599061787498 0 0.02253199156818915 0.0039401763734380965 0 0.023379025505188201 0.0036986109042237226 0 0.023014941021996367 0.0045787070370624672 0 0.023379025505188201 0.0036986109042237226 0 0.023014941021996367 0.0045787070370624672 0 0.024031236991213619 0.0045222544837078514 0 0.024220515515367531 0.0038305438321147461 0 0.024986164529511714 0.0040122625927738638 0 0.024031236991213619 0.0045222544837078514 0 0.024220515515367531 0.0038305438321147461 0 0.023379025505188201 0.0036986109042237226 0 0.024031236991213619 0.0045222544837078514 0 0.024031236991213619 0.0045222544837078514 0 0.024212009878436216 0.0053899057532158928 0 0.023551734240411539 0.0052461208883113749 0 0.024869147452848839 0.004934847214553977 0 0.024031236991213619 0.0045222544837078514 0 0.024212009878436216 0.0053899057532158928 0 0.023014941021996367 0.0045787070370624672 0 0.024031236991213619 0.0045222544837078514 0 0.023551734240411539 0.0052461208883113749 0 0.022884981103417051 0.0053644154674759633 0 0.023014941021996367 0.0045787070370624672 0 0.023551734240411539 0.0052461208883113749 0 0.024904235511308864 0.0018840718314103039 0 0.027825554926312428 0.0015641817435112148 0 0.022527797692151224 0.0065163414341104691 0 0.024251835487155433 0.0066850529455095937 0 0.023637954938145168 0.006389778821410408 0 0.025458764889124706 0.00012834993786175244 0 0.025296758014634317 9.1256130186602718e-05 0 0.025424652298328725 8.9651147554690972e-05 0 0.022527797692151224 0.0065163414341104691 0 0.024251835487155433 0.0066850529455095937 0 0.02523860184077965 0.007399288743945018 0 0.023121978359593644 0.0061442367561966287 0 0.023314749144836659 0.0057447267178388287 0 0.023579853738400307 0.006078617850947223 0 0.022915418130538899 0.0058266724463349445 0 0.023121978359593644 0.0061442367561966287 0 0.023314749144836659 0.0057447267178388287 0 0.022915418130538899 0.0058266724463349445 0 0.022884981103417051 0.0053644154674759633 0 0.023314749144836659 0.0057447267178388287 0 0.022884981103417051 0.0053644154674759633 0 0.023551734240411539 0.0052461208883113749 0 0.023314749144836659 0.0057447267178388287 0 0.023551734240411539 0.0052461208883113749 0 0.023314749144836659 0.0057447267178388287 0 0.023836116104165746 0.0058137443049362117 0 0.023121978359593644 0.0061442367561966287 0 0.023579853738400307 0.006078617850947223 0 0.023637954938145168 0.006389778821410408 0 0.023314749144836659 0.0057447267178388287 0 0.023579853738400307 0.006078617850947223 0 0.023836116104165746 0.0058137443049362117 0 0.023579853738400307 0.006078617850947223 0 0.023893704650150342 0.0061601923710540591 0 0.023637954938145168 0.006389778821410408 0 0.023893704650150342 0.0061601923710540591 0 0.023836116104165746 0.0058137443049362117 0 0.024292633791848324 0.0061294963352828604 0 0.023893704650150342 0.0061601923710540591 0 0.024292633791848324 0.0061294963352828604 0 0.024122965548966233 0.0063898185951254457 0 0.023579853738400307 0.006078617850947223 0 0.023893704650150342 0.0061601923710540591 0 0.023836116104165746 0.0058137443049362117 0 0.024212009878436216 0.0053899057532158928 0 0.023551734240411539 0.0052461208883113749 0 0.023836116104165746 0.0058137443049362117 0 0.024212009878436216 0.0053899057532158928 0 0.023836116104165746 0.0058137443049362117 0 0.024292633791848324 0.0061294963352828604 0 0.024212009878436216 0.0053899057532158928 0 0.024292633791848324 0.0061294963352828604 0 0.024856703980975576 0.0056873959142505802 0 0.02445654469683884 0.0064519171728315804 0 0.024251835487155433 0.0066850529455095937 0 0.024712758325266124 0.0066073689899643984 0 0.024292633791848324 0.0061294963352828604 0 0.02445654469683884 0.0064519171728315804 0 0.024884557591712392 0.0063298988247506502 0 0.024292633791848324 0.0061294963352828604 0 0.02445654469683884 0.0064519171728315804 0 0.024122965548966233 0.0063898185951254457 0 0.02445654469683884 0.0064519171728315804 0 0.024251835487155433 0.0066850529455095937 0 0.024122965548966233 0.0063898185951254457 0 0.024251835487155433 0.0066850529455095937 0 0.024122965548966233 0.0063898185951254457 0 0.023637954938145168 0.006389778821410408 0 0.023893704650150342 0.0061601923710540591 0 0.024122965548966233 0.0063898185951254457 0 0.023637954938145168 0.006389778821410408 0 0.022527797692151224 0.0065163414341104691 0 0.023121978359593644 0.0061442367561966287 0 0.023637954938145168 0.006389778821410408 0 0.025922035088229982 0.0064323252398564238 0 0.026739278004251143 0.005711753977912736 0 0.025968063833344102 0.0075879214130326819 0 0.025995816736563888 0.0057809965462567699 0 0.025922035088229982 0.0064323252398564238 0 0.026739278004251143 0.005711753977912736 0 0.025381987769502009 0.0060260140825726029 0 0.025332976502198092 0.0065206804357064857 0 0.025922035088229982 0.0064323252398564238 0 0.025995816736563888 0.0057809965462567699 0 0.025381987769502009 0.0060260140825726029 0 0.025922035088229982 0.0064323252398564238 0 0.025503087060513106 0.0053529083973093868 0 0.025995816736563888 0.0057809965462567699 0 0.025381987769502009 0.0060260140825726029 0 0.025503087060513106 0.0053529083973093868 0 0.024856703980975576 0.0056873959142505802 0 0.025381987769502009 0.0060260140825726029 0 0.024292633791848324 0.0061294963352828604 0 0.024856703980975576 0.0056873959142505802 0 0.024884557591712392 0.0063298988247506502 0 0.024856703980975576 0.0056873959142505802 0 0.025381987769502009 0.0060260140825726029 0 0.024884557591712392 0.0063298988247506502 0 0.025381987769502009 0.0060260140825726029 0 0.025332976502198092 0.0065206804357064857 0 0.024884557591712392 0.0063298988247506502 0 0.025332976502198092 0.0065206804357064857 0 0.025025392650670455 0.0066289748431812342 0 0.024884557591712392 0.0063298988247506502 0 0.024251835487155433 0.0066850529455095937 0 0.024960170941808323 0.006914940298421976 0 0.02523860184077965 0.007399288743945018 0 0.025332976502198092 0.0065206804357064857 0 0.025025392650670455 0.0066289748431812342 0 0.025260846189596314 0.0068500051731738747 0 0.02445654469683884 0.0064519171728315804 0 0.024884557591712392 0.0063298988247506502 0 0.024712758325266124 0.0066073689899643984 0 0.025025392650670455 0.0066289748431812342 0 0.024884557591712392 0.0063298988247506502 0 0.024712758325266124 0.0066073689899643984 0 0.024251835487155433 0.0066850529455095937 0 0.024712758325266124 0.0066073689899643984 0 0.024960170941808323 0.006914940298421976 0 0.025025392650670455 0.0066289748431812342 0 0.024712758325266124 0.0066073689899643984 0 0.024960170941808323 0.006914940298421976 0 0.025332976502198092 0.0065206804357064857 0 0.025260846189596314 0.0068500051731738747 0 0.025543569723032251 0.0069518327941251725 0 0.024960170941808323 0.006914940298421976 0 0.025260846189596314 0.0068500051731738747 0 0.02523860184077965 0.007399288743945018 0 0.025260846189596314 0.0068500051731738747 0 0.025543569723032251 0.0069518327941251725 0 0.02523860184077965 0.007399288743945018 0 0.025025392650670455 0.0066289748431812342 0 0.024960170941808323 0.006914940298421976 0 0.025260846189596314 0.0068500051731738747 0 0.025543569723032251 0.0069518327941251725 0 0.025922035088229982 0.0064323252398564238 0 0.025968063833344102 0.0075879214130326819 0 0.025332976502198092 0.0065206804357064857 0 0.025543569723032251 0.0069518327941251725 0 0.025922035088229982 0.0064323252398564238 0 0.028884462043313342 0.0021969248714674241 0 0.028397260896494015 0.0017075619353876751 0 0.031349312767935553 0.00032582582247370635 0 0.031374466979505175 0.00021169571317348649 0 0.031002139854824796 0.00047825286545430374 0 0.028884462043313342 0.0021969248714674241 0 0.029988893731883522 0.0013942691442864544 0 0.031349312767935553 0.00032582582247370635 0 0.031374466979505175 0.00021169571317348649 0 0.031520101780499528 8.4819778371172572e-05 0 0.031002139854824796 0.00047825286545430374 0 0.031191374616191852 -1.3545595349519852e-05 0 0.031020172995871238 0.00015745344584390305 0 0.031374466979505175 0.00021169571317348649 0 0.031002139854824796 0.00047825286545430374 0 0.031637871922240705 4.431301075035687e-05 0 0.031002139854824796 0.00047825286545430374 0 0.031020172995871238 0.00015745344584390305 0 0.030870315727881001 0.00035483588794297312 0 0.031582130529886884 0.00020521310211128166 0 0.031704999999542807 3.2577777543104226e-05 0 0.031002139854824796 0.00047825286545430374 0 0.030738840801059569 0.00057286991467324149 0 0.030870315727881001 0.00035483588794297312 0 0.03051924040027687 0.00076733820260772476 0 0.030738840801059569 0.00057286991467324149 0 0.030684417313519764 0.00069339752375766387 0 0.030823661536642181 0.00083959649082836294 0 0.031002139854824796 0.00047825286545430374 0 0.030684417313519764 0.00069339752375766387 0 0.031002139854824796 0.00047825286545430374 0 0.030738840801059569 0.00057286991467324149 0 0.030684417313519764 0.00069339752375766387 0 0.029192313924992108 0.0018090043040985572 0 0.028884462043313342 0.0021969248714674241 0 0.030823661536642181 0.00083959649082836294 0 0.031349312767935553 0.00032582582247370635 0 0.031002139854824796 0.00047825286545430374 0 0.02801451700048407 0.0036274636278943906 0 0.026845466730612437 0.0058965769180270335 0 0.026465171249665777 0.0048850599061787498 0 0.02801451700048407 0.0036274636278943906 0 0.026238206922786781 0.0036794188405001546 0 0.026465171249665777 0.0048850599061787498 0 0.025995816736563888 0.0057809965462567699 0 0.026739278004251143 0.005711753977912736 0 0.026465171249665777 0.0048850599061787498 0 0.028884462043313342 0.0021969248714674241 0 0.028869758991257811 0.0024847107993756536 0 0.030050350123228577 0.0012633092239852147 0 0.030011389915926664 0.0013483605077815233 0 0.029965800541517606 0.0012147051759017783 0 0.030050350123228577 0.0012633092239852147 0 0.030022674264695955 0.0012053407144673204 0 0.029965800541517606 0.0012147051759017783 0 0.030050350123228577 0.0012633092239852147 0 0.030011389915926664 0.0013483605077815233 0 0.030058953544036742 0.0013151860448218039 0 0.030050350123228577 0.0012633092239852147 0 0.030058953544036742 0.0013151860448218039 0 0.030094945127931094 0.0012909682376917777 0 0.030050350123228577 0.0012633092239852147 0 0.030102882506175651 0.0012402331738634454 0 0.030082512045311531 0.0012046586256119804 0 0.030050350123228577 0.0012633092239852147 0 0.030022674264695955 0.0012053407144673204 0 0.030082512045311531 0.0012046586256119804 0 0.030050350123228577 0.0012633092239852147 0 0.030094945127931094 0.0012909682376917777 0 0.030102882506175651 0.0012402331738634454 0 0.031784236684261627 3.0417069296387506e-06 0 0.031637871922240705 4.431301075035687e-05 0 0.032281403937529027 -0.00016334573669697332 0 0.029988893731883522 0.0013942691442864544 0 0.031544489247185899 0.00090199057807933698 0 0.031784236684261627 3.0417069296387506e-06 0 0.032114309130387687 -0.00013713561999511285 0 0.032281403937529027 -0.00016334573669697332 0 0.031784236684261627 3.0417069296387506e-06 0 0.031844013191394252 2.9927904293842014e-05 0 0.032114309130387687 -0.00013713561999511285 0 0.031704999999542807 3.2577777543104226e-05 0 0.032039070261710628 -0.00016068795538979182 0 0.031784236684261627 3.0417069296387506e-06 0 0.031637871922240705 4.431301075035687e-05 0 0.031520101780499528 8.4819778371172572e-05 0 0.030236795457104025 0.001368748663698222 0 0.029988893731883522 0.0013942691442864544 0 0.031191374616191852 -1.3545595349519852e-05 0 0.031020172995871238 0.00015745344584390305 0 0.031115556351074242 -2.0234244370196103e-05 0 0.031374466979505175 0.00021169571317348649 0 0.031637871922240705 4.431301075035687e-05 0 0.031520101780499528 8.4819778371172572e-05 0 0.029294016412376979 0.0017842658996990626 0 0.029081470099868459 0.001231968286153779 0 0.029470059481801741 0.0013463781547113929 0 0.030011389915926664 0.0013483605077815233 0 0.030058953544036742 0.0013151860448218039 0 0.030102286027876932 0.0013755830695074609 0 0.029988893731883522 0.0013942691442864544 0 0.028397260896494015 0.0017075619353876751 0 0.030058953544036742 0.0013151860448218039 0 0.030102286027876932 0.0013755830695074609 0 0.030094945127931094 0.0012909682376917777 0 0.030051618874709345 0.0014666270660085479 0 0.030120059503425722 0.0014854216785535046 0 0.030157079483929514 0.0012502355497970125 0 0.027825554926312428 0.0015641817435112148 0 0.029106353786136099 0.0010476891188216447 0 0.028397260896494015 0.0017075619353876751 0 0.027825554926312428 0.0015641817435112148 0 0.025543569723032251 0.0069518327941251725 0 0.025968063833344102 0.0075879214130326819 0 0.02523860184077965 0.007399288743945018 0 0.025296758014634317 9.1256130186602718e-05 0 0.025424652298328725 8.9651147554690972e-05 0 0.025381121821772875 2.7275862219870058e-05 0 0.025296758014634317 9.1256130186602718e-05 0 0.025381121821772875 2.7275862219870058e-05 0 0.025364494006294522 -9.5267787015056662e-05 0 0.025424652298328725 8.9651147554690972e-05 0 0.025381121821772875 2.7275862219870058e-05 0 0.025435814590762117 1.5054274093592346e-05 0 0.025381121821772875 2.7275862219870058e-05 0 0.025364494006294522 -9.5267787015056662e-05 0 0.025435814590762117 1.5054274093592346e-05 0 0.025364494006294522 -9.5267787015056662e-05 0 0.02550226427119319 -4.8358403013689681e-05 0 0.025435814590762117 1.5054274093592346e-05 0 0.028397260896494015 0.0017075619353876751 0 0.028904967395865597 0.0012651689180723277 0 0.030102286027876932 0.0013755830695074609 0 0.030094945127931094 0.0012909682376917777 0 0.030157079483929514 0.0012502355497970125 0 0.030120059503425722 0.0014854216785535046 0 0.030227290519469322 0.0012490402625299603 0 0.030157079483929514 0.0012502355497970125 0 0.030227290519469322 0.0012490402625299603 0 0.030157079483929514 0.0012502355497970125 0 0.030159510662457884 0.0011904674375139029 0 0.030157079483929514 0.0012502355497970125 0 0.030102882506175651 0.0012402331738634454 0 0.030159510662457884 0.0011904674375139029 0 0.030094945127931094 0.0012909682376917777 0 0.030157079483929514 0.0012502355497970125 0 0.030102882506175651 0.0012402331738634454 0 0.030102882506175651 0.0012402331738634454 0 0.030159510662457884 0.0011904674375139029 0 0.030082512045311531 0.0012046586256119804 0 0.030159510662457884 0.0011904674375139029 0 0.030300745417372307 0.0010741214438250669 0 0.030108713560056191 0.0011231054297035105 0 0.030159510662457884 0.0011904674375139029 0 0.030108713560056191 0.0011231054297035105 0 0.030082512045311531 0.0012046586256119804 0 0.030227290519469322 0.0012490402625299603 0 0.030159510662457884 0.0011904674375139029 0 0.030300745417372307 0.0010741214438250669 0 0.025364494006294522 -9.5267787015056662e-05 0 0.025449708798146488 -0.00028440953746865217 0 0.0255123819542433 -0.00018425902324317744 0 0.029106353786136099 0.0010476891188216447 0 0.031360762699816663 0.00058667305106017715 0 0.031360762699816663 0.00058667305106017715 0 0.032345396215329572 0.00066410952619044351 0 0.034966494692113978 6.6553748005772512e-06 0 0.034968403769511998 7.2493137018740387e-06 0 0.034974858033258636 4.3241788719891339e-06 0 0.034968403769511998 7.2493137018740387e-06 0 0.034970965609838263 5.6069348961913287e-06 0 0.034974858033258636 4.3241788719891339e-06 0 0.034968403769511998 7.2493137018740387e-06 0 0.034970965609838263 5.6069348961913287e-06 0 0.034964142160647659 9.258626115784082e-06 0 0.034970965609838263 5.6069348961913287e-06 0 0.03497358105386654 4.5104688458421361e-06 0 0.034976489918535775 3.7950348710943934e-06 0 0.030108713560056191 0.0011231054297035105 0 0.030022674264695955 0.0012053407144673204 0 0.029948645019658209 0.0011652279299221673 0 0.032345396215329572 0.00066410952619044351 0 0.032265977694039591 0.00099722254354756598 0 0.030108713560056191 0.0011231054297035105 0 0.030022674264695955 0.0012053407144673204 0 0.030082512045311531 0.0012046586256119804 0 0.032114309130387687 -0.00013713561999511285 0 0.032288072013092632 -9.0450173196040263e-05 0 0.032281403937529027 -0.00016334573669697332 0 0.031544489247185899 0.00090199057807933698 0 0.032265977694039591 0.00099722254354756598 0 0.030022674264695955 0.0012053407144673204 0 0.029965800541517606 0.0012147051759017783 0 0.029948645019658209 0.0011652279299221673 0 0.034968562121957494 5.7846293820839314e-06 0 0.034975401027899207 -1.7126466408246631e-06 0 0.034967246949505613 4.4103990367261906e-06 0 0.034964142160647659 9.258626115784082e-06 0 0.034968562121957494 5.7846293820839314e-06 0 0.034967246949505613 4.4103990367261906e-06 0 0.034970965609838263 5.6069348961913287e-06 0 0.034964142160647659 9.258626115784082e-06 0 0.034968562121957494 5.7846293820839314e-06 0 0.032265977694039591 0.00099722254354756598 0 0.032900612749106134 0.00048130345441370803 0 0.034968562121957494 5.7846293820839314e-06 0 0.03497358105386654 4.5104688458421361e-06 0 0.034977294638359892 3.5056004010201497e-06 0 0.034970965609838263 5.6069348961913287e-06 0 0.034968562121957494 5.7846293820839314e-06 0 0.03497358105386654 4.5104688458421361e-06 0 0.034982602576326335 2.1343069898951735e-06 0 0.034985269441929395 6.9577966405433017e-07 0 0.034968562121957494 5.7846293820839314e-06 0 0.034977294638359892 3.5056004010201497e-06 0 0.034981605486165766 2.5821756859849251e-06 0 0.03497358105386654 4.5104688458421361e-06 0 0.034977294638359892 3.5056004010201497e-06 0 0.034976489918535775 3.7950348710943934e-06 0 0.034977294638359892 3.5056004010201497e-06 0 0.034976489918535775 3.7950348710943934e-06 0 0.034981677254352896 2.6903233504486853e-06 0 0.034977294638359892 3.5056004010201497e-06 0 0.034981605486165766 2.5821756859849251e-06 0 0.034981677254352896 2.6903233504486853e-06 0 0.034976489918535775 3.7950348710943934e-06 0 0.034980887772951628 2.8057458833285452e-06 0 0.034974858033258636 4.3241788719891339e-06 0 0.034970965609838263 5.6069348961913287e-06 0 0.034976489918535775 3.7950348710943934e-06 0 0.034974858033258636 4.3241788719891339e-06 0 0.034976489918535775 3.7950348710943934e-06 0 0.034980887772951628 2.8057458833285452e-06 0 0.034981677254352896 2.6903233504486853e-06 0 0.034980887772951628 2.8057458833285452e-06 0 0.034986205065513545 2.0241439212814964e-06 0 0.034983328954358586 2.085871507766555e-06 0 0.034980887772951628 2.8057458833285452e-06 0 0.034986205065513545 2.0241439212814964e-06 0 0.034981677254352896 2.6903233504486853e-06 0 0.034981605486165766 2.5821756859849251e-06 0 0.034986956998965646 1.9967740439359499e-06 0 0.034991923875479752 1.4404745392495013e-06 0 0.034981605486165766 2.5821756859849251e-06 0 0.034981677254352896 2.6903233504486853e-06 0 0.034986956998965646 1.9967740439359499e-06 0 0.034986205065513545 2.0241439212814964e-06 0 0.034981677254352896 2.6903233504486853e-06 0 0.034986956998965646 1.9967740439359499e-06 0 0.034986205065513545 2.0241439212814964e-06 0 0.034986956998965646 1.9967740439359499e-06 0 0.034993629040205747 1.1935517777194537e-06 0 0.034986956998965646 1.9967740439359499e-06 0 0.034993629040205747 1.1935517777194537e-06 0 0.034991923875479752 1.4404745392495013e-06 0 0.034986205065513545 2.0241439212814964e-06 0 0.034993629040205747 1.1935517777194537e-06 0 0.034992076946040736 1.1492558916209143e-06 0 0.034986205065513545 2.0241439212814964e-06 0 0.034992076946040736 1.1492558916209143e-06 0 0.034983328954358586 2.085871507766555e-06 0 0.034999987575777415 1.5474713009057105e-09 0 0.034999990641712907 -3.0469609525391097e-10 0 0.034992076946040736 1.1492558916209143e-06 0 0.034993629040205747 1.1935517777194537e-06 0 0.034999987575777415 1.5474713009057105e-09 0 0.034992076946040736 1.1492558916209143e-06 0 0.034993629040205747 1.1935517777194537e-06 0 0.034999987575777415 1.5474713009057105e-09 0 0.034999993675980216 9.0780719679862825e-10 0 0.034999990641712907 -3.0469609525391097e-10 0 0.03498810431081073 7.9854390738839858e-07 0 0.034999975734785291 5.8816767787069563e-09 0 0.034999990641712907 -3.0469609525391097e-10 0 0.034992076946040736 1.1492558916209143e-06 0 0.03498810431081073 7.9854390738839858e-07 0 0.034992076946040736 1.1492558916209143e-06 0 0.03498810431081073 7.9854390738839858e-07 0 0.034983328954358586 2.085871507766555e-06 0 0.03498810431081073 7.9854390738839858e-07 0 0.034977827693765132 2.2869233385183162e-06 0 0.034976753433047299 2.5615173138352678e-07 0 0.03498810431081073 7.9854390738839858e-07 0 0.034983328954358586 2.085871507766555e-06 0 0.034977827693765132 2.2869233385183162e-06 0 0.034983328954358586 2.085871507766555e-06 0 0.034974858033258636 4.3241788719891339e-06 0 0.034977827693765132 2.2869233385183162e-06 0 0.034980887772951628 2.8057458833285452e-06 0 0.034983328954358586 2.085871507766555e-06 0 0.034974858033258636 4.3241788719891339e-06 0 0.034966494692113978 6.6553748005772512e-06 0 0.034974858033258636 4.3241788719891339e-06 0 0.034977827693765132 2.2869233385183162e-06 0 0.034861089162402818 8.5078311492725183e-05 0 0.034912326245300704 2.4301130560774286e-05 0 0.034930576344064525 6.2319240794933334e-05 0 0.034966494692113978 6.6553748005772512e-06 0 0.034977827693765132 2.2869233385183162e-06 0 0.034976753433047299 2.5615173138352678e-07 0 0.031360762699816663 0.00058667305106017715 0 0.033419865326318049 -0.00030105347372965231 0 0.034912326245300704 2.4301130560774286e-05 0 0.034961438815184473 1.684266742433528e-05 0 0.034930576344064525 6.2319240794933334e-05 0 0.033419865326318049 -0.00030105347372965231 0 0.033889626833726809 -0.00034076927347009687 0 0.034912326245300704 2.4301130560774286e-05 0 0.034977999890438247 -2.7028579191874651e-07 0 0.034961438815184473 1.684266742433528e-05 0 0.03498810431081073 7.9854390738839858e-07 0 0.034976753433047299 2.5615173138352678e-07 0 0.034977999890438247 -2.7028579191874651e-07 0 0.034977999890438247 -2.7028579191874651e-07 0 0.034999975734785291 5.8816767787069563e-09 0 0.034999970652265872 -1.8880331148760661e-09 0 0.03498810431081073 7.9854390738839858e-07 0 0.034977999890438247 -2.7028579191874651e-07 0 0.034999975734785291 5.8816767787069563e-09 0 0.034999970652265872 -1.8880331148760661e-09 0 0.034984946788612643 2.2673883839992359e-06 0 0.034999983096620911 2.0082442922990037e-09 0 0.034977999890438247 -2.7028579191874651e-07 0 0.034999970652265872 -1.8880331148760661e-09 0 0.034984946788612643 2.2673883839992359e-06 0 0.034984946788612643 2.2673883839992359e-06 0 0.034979486050816577 8.5101847269394435e-06 0 0.034961438815184473 1.684266742433528e-05 0 0.034977999890438247 -2.7028579191874651e-07 0 0.034984946788612643 2.2673883839992359e-06 0 0.034961438815184473 1.684266742433528e-05 0 0.034984946788612643 2.2673883839992359e-06 0 0.034979486050816577 8.5101847269394435e-06 0 0.034999983096620911 2.0082442922990037e-09 0 0.034979486050816577 8.5101847269394435e-06 0 0.034962247506680359 3.5003596140393916e-05 0 0.034976737961592563 1.3990534028295202e-05 0 0.034979486050816577 8.5101847269394435e-06 0 0.034961438815184473 1.684266742433528e-05 0 0.034962247506680359 3.5003596140393916e-05 0 0.034961438815184473 1.684266742433528e-05 0 0.034962247506680359 3.5003596140393916e-05 0 0.034930576344064525 6.2319240794933334e-05 0 0.025793178957158141 -0.0004066491281391328 0 0.025752032758386903 -0.00023241562619471569 0 0.025901952008036529 -0.00030625386916810645 0 0.025851504438288535 -0.00013155008696482236 0 0.025963363544224204 -5.1497694139393776e-05 0 0.025752032758386903 -0.00023241562619471569 0 0.025757871757994988 -0.0001035906310583358 0 0.025966696617688932 -8.6747023811646666e-05 0 0.025752032758386903 -0.00023241562619471569 0 0.025615768263215686 -0.00015549354273812203 0 0.025757871757994988 -0.0001035906310583358 0 0.025752032758386903 -0.00023241562619471569 0 0.025627429077788567 -0.00033447719161103343 0 0.025615768263215686 -0.00015549354273812203 0 0.025793178957158141 -0.0004066491281391328 0 0.025752032758386903 -0.00023241562619471569 0 0.025627429077788567 -0.00033447719161103343 0 0.03040125712367411 -9.7973449969479231e-05 0 0.030517509919758438 0.00018952232343723909 0 0.031360762699816663 0.00058667305106017715 0 0.030517509919758438 0.00018952232343723909 0 0.025449708798146488 -0.00028440953746865217 0 0.025627429077788567 -0.00033447719161103343 0 0.0255123819542433 -0.00018425902324317744 0 0.025627429077788567 -0.00033447719161103343 0 0.0255123819542433 -0.00018425902324317744 0 0.025615768263215686 -0.00015549354273812203 0 0.025615768263215686 -0.00015549354273812203 0 0.025590726731678445 -3.646869309257837e-05 0 0.02567838106539129 -2.5172944320245903e-05 0 0.025615768263215686 -0.00015549354273812203 0 0.025590726731678445 -3.646869309257837e-05 0 0.02550226427119319 -4.8358403013689681e-05 0 0.025590726731678445 -3.646869309257837e-05 0 0.02550226427119319 -4.8358403013689681e-05 0 0.025542968665287939 4.1914983063807833e-05 0 0.025590726731678445 -3.646869309257837e-05 0 0.025611470052099784 2.0490933065584393e-05 0 0.02567838106539129 -2.5172944320245903e-05 0 0.0255123819542433 -0.00018425902324317744 0 0.025615768263215686 -0.00015549354273812203 0 0.02550226427119319 -4.8358403013689681e-05 0 0.025364494006294522 -9.5267787015056662e-05 0 0.0255123819542433 -0.00018425902324317744 0 0.02550226427119319 -4.8358403013689681e-05 0 0.02550226427119319 -4.8358403013689681e-05 0 0.025435814590762117 1.5054274093592346e-05 0 0.025485476697405838 3.4029836188613884e-05 0 0.025435814590762117 1.5054274093592346e-05 0 0.025485476697405838 3.4029836188613884e-05 0 0.0254573954761418 7.5707338795723449e-05 0 0.02550226427119319 -4.8358403013689681e-05 0 0.025485476697405838 3.4029836188613884e-05 0 0.025542968665287939 4.1914983063807833e-05 0 0.025485476697405838 3.4029836188613884e-05 0 0.025493875736093251 8.2584007312435319e-05 0 0.025542968665287939 4.1914983063807833e-05 0 0.025529743455210446 0.00010302126780978367 0 0.025493875736093251 8.2584007312435319e-05 0 0.025542968665287939 4.1914983063807833e-05 0 0.025529743455210446 0.00010302126780978367 0 0.025506397321688461 0.00010861472720127996 0 0.025493875736093251 8.2584007312435319e-05 0 0.025463563145344186 0.00011989171735586143 0 0.025506397321688461 0.00010861472720127996 0 0.025493875736093251 8.2584007312435319e-05 0 0.025424652298328725 8.9651147554690972e-05 0 0.025435814590762117 1.5054274093592346e-05 0 0.0254573954761418 7.5707338795723449e-05 0 0.025485476697405838 3.4029836188613884e-05 0 0.025493875736093251 8.2584007312435319e-05 0 0.0254573954761418 7.5707338795723449e-05 0 0.025463563145344186 0.00011989171735586143 0 0.025493875736093251 8.2584007312435319e-05 0 0.0254573954761418 7.5707338795723449e-05 0 0.025450985273732397 0.0001052807748994161 0 0.025463563145344186 0.00011989171735586143 0 0.0254573954761418 7.5707338795723449e-05 0 0.025450985273732397 0.0001052807748994161 0 0.025424652298328725 8.9651147554690972e-05 0 0.0254573954761418 7.5707338795723449e-05 0 0.025611470052099784 2.0490933065584393e-05 0 0.02559225016491791 7.3547768027575774e-05 0 0.025653272220046902 4.8888733545916064e-05 0 0.025590726731678445 -3.646869309257837e-05 0 0.025611470052099784 2.0490933065584393e-05 0 0.025542968665287939 4.1914983063807833e-05 0 0.025611470052099784 2.0490933065584393e-05 0 0.025542968665287939 4.1914983063807833e-05 0 0.02559225016491791 7.3547768027575774e-05 0 0.025529743455210446 0.00010302126780978367 0 0.025542968665287939 4.1914983063807833e-05 0 0.025557595831255747 8.0432753394896713e-05 0 0.025542968665287939 4.1914983063807833e-05 0 0.025557595831255747 8.0432753394896713e-05 0 0.02559225016491791 7.3547768027575774e-05 0 0.025529743455210446 0.00010302126780978367 0 0.025557595831255747 8.0432753394896713e-05 0 0.025567617385444562 0.00010736442050697082 0 0.025557595831255747 8.0432753394896713e-05 0 0.025567617385444562 0.00010736442050697082 0 0.02559225016491791 7.3547768027575774e-05 0 0.025605164639584788 0.00012013078144377315 0 0.02559225016491791 7.3547768027575774e-05 0 0.025630774123469584 9.6652634403432709e-05 0 0.02559225016491791 7.3547768027575774e-05 0 0.025630774123469584 9.6652634403432709e-05 0 0.025653272220046902 4.8888733545916064e-05 0 0.025605164639584788 0.00012013078144377315 0 0.025567617385444562 0.00010736442050697082 0 0.02559225016491791 7.3547768027575774e-05 0 0.025729032685432279 6.4600400517121555e-05 0 0.025808826366105424 -9.2876766669179083e-06 0 0.02567838106539129 -2.5172944320245903e-05 0 0.025668754978388629 0.00011180709930657561 0 0.025630774123469584 9.6652634403432709e-05 0 0.025653272220046902 4.8888733545916064e-05 0 0.025668754978388629 0.00011180709930657561 0 0.025653272220046902 4.8888733545916064e-05 0 0.025729032685432279 6.4600400517121555e-05 0 0.025653272220046902 4.8888733545916064e-05 0 0.025729032685432279 6.4600400517121555e-05 0 0.02567838106539129 -2.5172944320245903e-05 0 0.025611470052099784 2.0490933065584393e-05 0 0.025653272220046902 4.8888733545916064e-05 0 0.02567838106539129 -2.5172944320245903e-05 0 0.025727058058820008 0.00013361989236853269 0 0.025668754978388629 0.00011180709930657561 0 0.025729032685432279 6.4600400517121555e-05 0 0.025837791196296655 0.00012232457876999378 0 0.025729032685432279 6.4600400517121555e-05 0 0.025808826366105424 -9.2876766669179083e-06 0 0.025837791196296655 0.00012232457876999378 0 0.025808826366105424 -9.2876766669179083e-06 0 0.025966696617688932 -8.6747023811646666e-05 0 0.025837791196296655 0.00012232457876999378 0 0.025727058058820008 0.00013361989236853269 0 0.025729032685432279 6.4600400517121555e-05 0 0.025808826366105424 -9.2876766669179083e-06 0 0.025757871757994988 -0.0001035906310583358 0 0.025966696617688932 -8.6747023811646666e-05 0 0.025808826366105424 -9.2876766669179083e-06 0 0.025757871757994988 -0.0001035906310583358 0 0.02567838106539129 -2.5172944320245903e-05 0 0.025615768263215686 -0.00015549354273812203 0 0.025757871757994988 -0.0001035906310583358 0 0.02567838106539129 -2.5172944320245903e-05 0 0.025963363544224204 -5.1497694139393776e-05 0 0.026151900053629343 8.533075704352849e-05 0 0.025907845931631316 -7.5323890728695077e-05 0 0.026197806822491235 0.00017497014007683656 0 0.026093461439908101 -0.0002185028353671027 0 0.026031285825661454 0.00013714164282753347 0 0.025837791196296655 0.00012232457876999378 0 0.025966696617688932 -8.6747023811646666e-05 0 0.026031285825661454 0.00013714164282753347 0 0.025966696617688932 -8.6747023811646666e-05 0 0.026159566370450762 5.6659506218362578e-05 0 0.026252338475284579 0.00015815034984007712 0 0.026151900053629343 8.533075704352849e-05 0 0.026350421608631023 0.00025712328312339614 0 0.026197806822491235 0.00017497014007683656 0 0.026379680692202586 0.00016883737525018032 0 0.026379680692202586 0.00016883737525018032 0 0.026317034883332938 -2.1413505725192558e-05 0 0.026493685010657419 8.6707701911861935e-05 0 0.026317034883332938 -2.1413505725192558e-05 0 0.026459672535304801 -0.00013601703126571996 0 0.026493685010657419 8.6707701911861935e-05 0 0.026197806822491235 0.00017497014007683656 0 0.026379680692202586 0.00016883737525018032 0 0.026317034883332938 -2.1413505725192558e-05 0 0.026197806822491235 0.00017497014007683656 0 0.026317034883332938 -2.1413505725192558e-05 0 0.026093461439908101 -0.0002185028353671027 0 0.026317034883332938 -2.1413505725192558e-05 0 0.026321099734718762 -0.00031721157379171561 0 0.026093461439908101 -0.0002185028353671027 0 0.026317034883332938 -2.1413505725192558e-05 0 0.026459672535304801 -0.00013601703126571996 0 0.026321099734718762 -0.00031721157379171561 0 0.026459672535304801 -0.00013601703126571996 0 0.026321099734718762 -0.00031721157379171561 0 0.026593068730659201 -0.000346181546174443 0 0.026321099734718762 -0.00031721157379171561 0 0.026543459969217434 -0.00064764409032110222 0 0.026593068730659201 -0.000346181546174443 0 0.026321099734718762 -0.00031721157379171561 0 0.026543459969217434 -0.00064764409032110222 0 0.026287163921538056 -0.00058521389665871387 0 0.026321099734718762 -0.00031721157379171561 0 0.026157769549277864 -0.00040740483420397509 0 0.026093461439908101 -0.0002185028353671027 0 0.026321099734718762 -0.00031721157379171561 0 0.026157769549277864 -0.00040740483420397509 0 0.026287163921538056 -0.00058521389665871387 0 0.026157769549277864 -0.00040740483420397509 0 0.026287163921538056 -0.00058521389665871387 0 0.026113253800899027 -0.00055259448568626443 0 0.026045042704623187 -0.00040502323036676843 0 0.025901952008036529 -0.00030625386916810645 0 0.025993835559537118 -0.00053767916842045738 0 0.026045042704623187 -0.00040502323036676843 0 0.026093461439908101 -0.0002185028353671027 0 0.025901952008036529 -0.00030625386916810645 0 0.026157769549277864 -0.00040740483420397509 0 0.026045042704623187 -0.00040502323036676843 0 0.026113253800899027 -0.00055259448568626443 0 0.026157769549277864 -0.00040740483420397509 0 0.026045042704623187 -0.00040502323036676843 0 0.026093461439908101 -0.0002185028353671027 0 0.025752032758386903 -0.00023241562619471569 0 0.025907845931631316 -7.5323890728695077e-05 0 0.025901952008036529 -0.00030625386916810645 0 0.025907845931631316 -7.5323890728695077e-05 0 0.026093461439908101 -0.0002185028353671027 0 0.025901952008036529 -0.00030625386916810645 0 0.025793178957158141 -0.0004066491281391328 0 0.025901952008036529 -0.00030625386916810645 0 0.025993835559537118 -0.00053767916842045738 0 0.03040125712367411 -9.7973449969479231e-05 0 0.030274830870217446 -0.0003193351983643175 0 0.034962247506680359 3.5003596140393916e-05 0 0.034968254377546214 1.7106379660232186e-05 0 0.034976737961592563 1.3990534028295202e-05 0 0.034968254377546214 1.7106379660232186e-05 0 0.034975679812607831 9.775647478455717e-06 0 0.034965833287757819 7.0495470974341968e-06 0 0.030274830870217446 -0.0003193351983643175 0 0.02930918301188137 -0.00044608410837967217 0 0.026045042704623187 -0.00040502323036676843 0 0.025993835559537118 -0.00053767916842045738 0 0.026113253800899027 -0.00055259448568626443 0 0.034968254377546214 1.7106379660232186e-05 0 0.034975679812607831 9.775647478455717e-06 0 0.034976737961592563 1.3990534028295202e-05 0 0.034975679812607831 9.775647478455717e-06 0 0.034976737961592563 1.3990534028295202e-05 0 0.034987067901094543 5.9047107673506506e-06 0 0.034979486050816577 8.5101847269394435e-06 0 0.034976737961592563 1.3990534028295202e-05 0 0.034987067901094543 5.9047107673506506e-06 0 0.034979486050816577 8.5101847269394435e-06 0 0.034987067901094543 5.9047107673506506e-06 0 0.034999983096620911 2.0082442922990037e-09 0 0.034987067901094543 5.9047107673506506e-06 0 0.034999989324722314 2.7075122191983555e-09 0 0.034983037630283417 5.1157956380924814e-06 0 0.034975679812607831 9.775647478455717e-06 0 0.034987067901094543 5.9047107673506506e-06 0 0.034983037630283417 5.1157956380924814e-06 0 0.034987067901094543 5.9047107673506506e-06 0 0.034999989324722314 2.7075122191983555e-09 0 0.034999983096620911 2.0082442922990037e-09 0 0.03498900896193103 3.0964228729599129e-06 0 0.034999959497039108 1.1232929119808692e-08 0 0.034978433337916462 3.6709731650159789e-06 0 0.034997052609949113 1.1032889491289554e-06 0 0.033681304158813534 0.00011888511596857701 0 0.034999989324722314 2.7075122191983555e-09 0 0.03498900896193103 3.0964228729599129e-06 0 0.034983037630283417 5.1157956380924814e-06 0 0.034999989324722314 2.7075122191983555e-09 0 0.03498900896193103 3.0964228729599129e-06 0 0.034999959497039108 1.1232929119808692e-08 0 0.03498900896193103 3.0964228729599129e-06 0 0.034977791051386826 2.2469408199212292e-06 0 0.034978433337916462 3.6709731650159789e-06 0 0.034983037630283417 5.1157956380924814e-06 0 0.034977791051386826 2.2469408199212292e-06 0 0.034968635974995221 1.3226222043401929e-06 0 0.03498900896193103 3.0964228729599129e-06 0 0.034983037630283417 5.1157956380924814e-06 0 0.034977791051386826 2.2469408199212292e-06 0 0.030624596849189643 -0.00044965459492658241 0 0.02930918301188137 -0.00044608410837967217 0 0.034983037630283417 5.1157956380924814e-06 0 0.034968635974995221 1.3226222043401929e-06 0 0.034965833287757819 7.0495470974341968e-06 0 0.026591749388817552 -0.0012505316679662915 0 0.026207926460035752 -0.00095509569070856867 0 0.026593696868510729 -0.0010439979725467695 0 0.034975679812607831 9.775647478455717e-06 0 0.034983037630283417 5.1157956380924814e-06 0 0.034965833287757819 7.0495470974341968e-06 0 0.025993835559537118 -0.00053767916842045738 0 0.026242587706680479 -0.00066599793380513455 0 0.026113253800899027 -0.00055259448568626443 0 0.026287163921538056 -0.00058521389665871387 0 0.026266730153741424 -0.00082664282558934509 0 0.026113253800899027 -0.00055259448568626443 0 0.02930918301188137 -0.00044608410837967217 0 0.028549865677212474 -0.00015543454285096736 0 0.026266730153741424 -0.00082664282558934509 0 0.026593696868510729 -0.0010439979725467695 0 0.026450270151392365 -0.00079015683315624709 0 0.02930918301188137 -0.00044608410837967217 0 0.028397764374565336 -0.00038459498862164818 0 0.026593696868510729 -0.0010439979725467695 0 0.026450270151392365 -0.00079015683315624709 0 0.026625419361292979 -0.00087488574631396857 0 0.026287163921538056 -0.00058521389665871387 0 0.026266730153741424 -0.00082664282558934509 0 0.026450270151392365 -0.00079015683315624709 0 0.026543459969217434 -0.00064764409032110222 0 0.026287163921538056 -0.00058521389665871387 0 0.026450270151392365 -0.00079015683315624709 0 0.026543459969217434 -0.00064764409032110222 0 0.026450270151392365 -0.00079015683315624709 0 0.026625419361292979 -0.00087488574631396857 0 0.026543459969217434 -0.00064764409032110222 0 0.026625419361292979 -0.00087488574631396857 0 0.026800755066370818 -0.00087399215778244973 0 0.026543459969217434 -0.00064764409032110222 0 0.026800755066370818 -0.00087399215778244973 0 0.026834281830435871 -0.00061302860973467806 0 0.026800755066370818 -0.00087399215778244973 0 0.027050683064854083 -0.00086296470651186217 0 0.026834281830435871 -0.00061302860973467806 0 0.026800755066370818 -0.00087399215778244973 0 0.026985555911954871 -0.0011450615082997091 0 0.026766108949466617 -0.0010888193372941527 0 0.026800755066370818 -0.00087399215778244973 0 0.026985555911954871 -0.0011450615082997091 0 0.027050683064854083 -0.00086296470651186217 0 0.026625419361292979 -0.00087488574631396857 0 0.026800755066370818 -0.00087399215778244973 0 0.026766108949466617 -0.0010888193372941527 0 0.026593696868510729 -0.0010439979725467695 0 0.026625419361292979 -0.00087488574631396857 0 0.026766108949466617 -0.0010888193372941527 0 0.026985555911954871 -0.0011450615082997091 0 0.02745017488857536 -0.0010846789679656789 0 0.027050683064854083 -0.00086296470651186217 0 0.02745017488857536 -0.0010846789679656789 0 0.027050683064854083 -0.00086296470651186217 0 0.027237270156513754 -0.00056934849518318733 0 0.032044819610177563 -0.00023292018465850836 0 0.032000598799466165 -0.00016630149303240439 0 0.026985555911954871 -0.0011450615082997091 0 0.02745017488857536 -0.0010846789679656789 0 0.026974884162606284 -0.0015217321905857512 0 0.030355343414315731 0.0010302803938257834 0 0.030226804712171894 0.0011167625803634473 0 0.029710408698382963 0.00081804025166510208 0 0.029810528122465339 0.00027001925769417251 0 0.030355343414315731 0.0010302803938257834 0 0.029710408698382963 0.00081804025166510208 0 0.02981274729221926 -0.00065470559671555165 0 0.031661440165224167 -0.00024509974761788067 0 0.030624596849189643 -0.00044965459492658241 0 0.031661440165224167 -0.00024509974761788067 0 0.026591749388817552 -0.0012505316679662915 0 0.026839811024328655 -0.0012731227696521029 0 0.026974884162606284 -0.0015217321905857512 0 0.034977791051386826 2.2469408199212292e-06 0 0.034968635974995221 1.3226222043401929e-06 0 0.034963185201107978 -7.9888343437985206e-07 0 0.026985555911954871 -0.0011450615082997091 0 0.026839811024328655 -0.0012731227696521029 0 0.026974884162606284 -0.0015217321905857512 0 0.026591749388817552 -0.0012505316679662915 0 0.026766108949466617 -0.0010888193372941527 0 0.026839811024328655 -0.0012731227696521029 0 0.026591749388817552 -0.0012505316679662915 0 0.026593696868510729 -0.0010439979725467695 0 0.026766108949466617 -0.0010888193372941527 0 0.026985555911954871 -0.0011450615082997091 0 0.026766108949466617 -0.0010888193372941527 0 0.026839811024328655 -0.0012731227696521029 0 0.034977791051386826 2.2469408199212292e-06 0 0.034963185201107978 -7.9888343437985206e-07 0 0.034978433337916462 3.6709731650159789e-06 0 0.034989448032463788 -6.5154064007537787e-06 0 0.034983410705234814 -1.0711587029866806e-05 0 0.03499423371637992 -4.0379392963068844e-06 0 0.031661440165224167 -0.00024509974761788067 0 0.033681304158813534 0.00011888511596857701 0 0.034981965139196297 -1.3995200887907089e-05 0 0.034983410705234814 -1.0711587029866806e-05 0 0.03499423371637992 -4.0379392963068844e-06 0 0.03289193261705186 8.1299379661027567e-06 0 0.03256155452452917 0.00022953539733433967 0 0.032410841222436156 -0.00027693976198160788 0 0.031661440165224167 -0.00024509974761788067 0 0.032044819610177563 -0.00023292018465850836 0 0.034981965139196297 -1.3995200887907089e-05 0 0.034983410705234814 -1.0711587029866806e-05 0 0.034977342044687602 -1.2713324174882034e-05 0 0.034983410705234814 -1.0711587029866806e-05 0 0.034982956832572798 -1.1402460579747998e-05 0 0.034986306693757144 -8.222789002915679e-06 0 0.032085619025377522 -0.00021519191742846883 0 0.032044819610177563 -0.00023292018465850836 0 0.032044819610177563 -0.00023292018465850836 0 0.033234830728183229 -0.00028725751629094892 0 0.034982956832572798 -1.1402460579747998e-05 0 0.034981655961663013 -8.1543648262286772e-06 0 0.034986306693757144 -8.222789002915679e-06 0 0.034989448032463788 -6.5154064007537787e-06 0 0.034986306693757144 -8.222789002915679e-06 0 0.034992803948133172 -3.6750045396399444e-06 0 0.034981655961663013 -8.1543648262286772e-06 0 0.034986306693757144 -8.222789002915679e-06 0 0.034992803948133172 -3.6750045396399444e-06 0 0.034989448032463788 -6.5154064007537787e-06 0 0.034983410705234814 -1.0711587029866806e-05 0 0.034986306693757144 -8.222789002915679e-06 0 0.034981655961663013 -8.1543648262286772e-06 0 0.034992803948133172 -3.6750045396399444e-06 0 0.034999956302289817 -5.0784071496367138e-09 0 0.033234830728183229 -0.00028725751629094892 0 0.034996200148028789 3.3137337987950349e-07 0 0.035000010887487339 6.8116155190721124e-10 0 0.034992803948133172 -3.6750045396399444e-06 0 0.034999956302289817 -5.0784071496367138e-09 0 0.035000010887487339 6.8116155190721124e-10 0 0.034992803948133172 -3.6750045396399444e-06 0 0.03499423371637992 -4.0379392963068844e-06 0 0.034989448032463788 -6.5154064007537787e-06 0 0.034992803948133172 -3.6750045396399444e-06 0 0.03499423371637992 -4.0379392963068844e-06 0 0.035000679315133718 -1.8594133408457434e-07 0 0.034997674811747204 3.4372313883447808e-07 0 0.034885717900886397 -6.9518568654325687e-06 0 0.034997674811747204 3.4372313883447808e-07 0 0.033445441173131488 0.00014109555225663264 0 0.031287294153100796 -5.042402112453226e-07 0 0.034997674811747204 3.4372313883447808e-07 0 0.034885717900886397 -6.9518568654325687e-06 0 0.033445441173131488 0.00014109555225663264 0 0.034885717900886397 -6.9518568654325687e-06 0 0.033707471818519748 -7.532288287587842e-07 0 0.033445441173131488 0.00014109555225663264 0 0.033808115232465574 -0.00033627622935734599 0 0.033662114466754892 -0.00032770248424904161 0 0.034973808223387859 -7.0773371987597106e-05 0 0.035000679315133718 -1.8594133408457434e-07 0 0.034930568252165499 -3.9500395597473194e-05 0 0.035000679315133718 -1.8594133408457434e-07 0 0.034885717900886397 -6.9518568654325687e-06 0 0.034930568252165499 -3.9500395597473194e-05 0 0.033234830728183229 -0.00028725751629094892 0 0.033662114466754892 -0.00032770248424904161 0 0.033234830728183229 -0.00028725751629094892 0 0.032000598799466165 -0.00016630149303240439 0 0.033707471818519748 -7.532288287587842e-07 0 0.033500477551415109 9.7954715143072437e-05 0 0.033445441173131488 0.00014109555225663264 0 0.033473358483113114 8.6140652425801466e-05 0 0.033500477551415109 9.7954715143072437e-05 0 0.033407374363922188 1.8889515404975292e-05 0 0.033473358483113114 8.6140652425801466e-05 0 0.033707471818519748 -7.532288287587842e-07 0 0.033500477551415109 9.7954715143072437e-05 0 0.033500477551415109 9.7954715143072437e-05 0 0.033445441173131488 0.00014109555225663264 0 0.033407374363922188 1.8889515404975292e-05 0 0.033445441173131488 0.00014109555225663264 0 0.032770078133489269 -0.00014411041671228846 0 0.031287294153100796 -5.042402112453226e-07 0 0.033445441173131488 0.00014109555225663264 0 0.032770078133489269 -0.00014411041671228846 0 0.033407374363922188 1.8889515404975292e-05 0 0.031561183716138301 -0.0001530319063394806 0 0.032000598799466165 -0.00016630149303240439 0 0.032000598799466165 -0.00016630149303240439 0 0.031233226719989179 -0.00039101435018003186 0 0.029810528122465339 0.00027001925769417251 0 0.029710408698382963 0.00081804025166510208 0 0.029287889920238189 9.354039536224788e-05 0 0.029884891102388528 -0.0010181205144869146 0 0.029085965075059592 -0.0015054797517698095 0 0.029287889920238189 9.354039536224788e-05 0 0.029884891102388528 -0.0010181205144869146 0 0.0312799971920662 -1.8391356213849079e-06 0 0.029287889920238189 9.354039536224788e-05 0 0.031561183716138301 -0.0001530319063394806 0 0.031284097256827334 -5.869011138050801e-07 0 0.028644017288196051 -9.4926214909823152e-05 0 0.029220614507436831 4.9243395232840766e-07 0 0.029287889920238189 9.354039536224788e-05 0 0.0312799971920662 -1.8391356213849079e-06 0 0.029220614507436831 4.9243395232840766e-07 0 0.029287889920238189 9.354039536224788e-05 0 0.028644017288196051 -9.4926214909823152e-05 0 0.029220614507436831 4.9243395232840766e-07 0 0.027629297344525589 0.00015793800557311133 0 0.028644017288196051 -9.4926214909823152e-05 0 0.027622497860124849 8.8526177348369889e-05 0 0.027629297344525589 0.00015793800557311133 0 0.028644017288196051 -9.4926214909823152e-05 0 0.027622497860124849 8.8526177348369889e-05 0 0.027361421412930888 -0.00012551688236303859 0 0.02745017488857536 -0.0010846789679656789 0 0.028644017288196051 -9.4926214909823152e-05 0 0.027237270156513754 -0.00056934849518318733 0 0.029810528122465339 0.00027001925769417251 0 0.028644017288196051 -9.4926214909823152e-05 0 0.029287889920238189 9.354039536224788e-05 0 0.02981274729221926 -0.00065470559671555165 0 0.029505128608461828 -0.00047330233238410146 0 0.028644017288196051 -9.4926214909823152e-05 0 0.027237270156513754 -0.00056934849518318733 0 0.027361421412930888 -0.00012551688236303859 0 0.027050683064854083 -0.00086296470651186217 0 0.027237270156513754 -0.00056934849518318733 0 0.026834281830435871 -0.00061302860973467806 0 0.027237270156513754 -0.00056934849518318733 0 0.026834281830435871 -0.00061302860973467806 0 0.026900618774482195 -0.00026298439567720103 0 0.027237270156513754 -0.00056934849518318733 0 0.027361421412930888 -0.00012551688236303859 0 0.026900618774482195 -0.00026298439567720103 0 0.026543459969217434 -0.00064764409032110222 0 0.026834281830435871 -0.00061302860973467806 0 0.026593068730659201 -0.000346181546174443 0 0.026834281830435871 -0.00061302860973467806 0 0.026593068730659201 -0.000346181546174443 0 0.026900618774482195 -0.00026298439567720103 0 0.026459672535304801 -0.00013601703126571996 0 0.026593068730659201 -0.000346181546174443 0 0.026655731801879544 -0.00010147849573572334 0 0.026593068730659201 -0.000346181546174443 0 0.026655731801879544 -0.00010147849573572334 0 0.026900618774482195 -0.00026298439567720103 0 0.026655731801879544 -0.00010147849573572334 0 0.026900618774482195 -0.00026298439567720103 0 0.026898111186864263 9.1818114453042361e-05 0 0.026459672535304801 -0.00013601703126571996 0 0.026655731801879544 -0.00010147849573572334 0 0.026493685010657419 8.6707701911861935e-05 0 0.027622497860124849 8.8526177348369889e-05 0 0.027361421412930888 -0.00012551688236303859 0 0.026898111186864263 9.1818114453042361e-05 0 0.027361421412930888 -0.00012551688236303859 0 0.026900618774482195 -0.00026298439567720103 0 0.026898111186864263 9.1818114453042361e-05 0 0.027622497860124849 8.8526177348369889e-05 0 0.026898111186864263 9.1818114453042361e-05 0 0.026924465177008926 0.00026217238527459562 0 0.026898111186864263 9.1818114453042361e-05 0 0.026522723892181188 0.00024919782083463176 0 0.026924465177008926 0.00026217238527459562 0 0.026898111186864263 9.1818114453042361e-05 0 0.026493685010657419 8.6707701911861935e-05 0 0.026522723892181188 0.00024919782083463176 0 0.026379680692202586 0.00016883737525018032 0 0.026493685010657419 8.6707701911861935e-05 0 0.026522723892181188 0.00024919782083463176 0 0.026655731801879544 -0.00010147849573572334 0 0.026898111186864263 9.1818114453042361e-05 0 0.026493685010657419 8.6707701911861935e-05 0 0.026264350452454739 0.00027222797443701854 0 0.026350421608631023 0.00025712328312339614 0 0.026522723892181188 0.00024919782083463176 0 0.026350421608631023 0.00025712328312339614 0 0.026379680692202586 0.00016883737525018032 0 0.026522723892181188 0.00024919782083463176 0 0.026264350452454739 0.00027222797443701854 0 0.026522723892181188 0.00024919782083463176 0 0.026924465177008926 0.00026217238527459562 0 0.026264350452454739 0.00027222797443701854 0 0.026354154905928236 0.00024081729076642539 0 0.026924465177008926 0.00026217238527459562 0 0.026354154905928236 0.00024081729076642539 0 0.027157623104128871 4.7623563856698849e-07 0 0.027629297344525589 0.00015793800557311133 0 0.029220614507436831 4.9243395232840766e-07 0 0.027157623104128871 4.7623563856698849e-07 0 0.027629297344525589 0.00015793800557311133 0 0.027622497860124849 8.8526177348369889e-05 0 0.027629297344525589 0.00015793800557311133 0 0.026924465177008926 0.00026217238527459562 0 0.026354154905928236 0.00024081729076642539 0 0.027629297344525589 0.00015793800557311133 0 0.026924465177008926 0.00026217238527459562 0 0.032159678519160448 -0.00063943630804853466 0 0.032030052708293157 -8.5024296793285509e-05 0 0.032798323880143754 -0.00086100626599553678 0 0.030411831515890331 0.00050861718561463439 0 0.030264471768542415 0.00038416108933851206 0 0.032159678519160448 -0.00063943630804853466 0 0.032798323880143754 -0.00086100626599553678 0 0.032322420667401208 -0.0011805457361680283 0 0.032159678519160448 -0.00063943630804853466 0 0.031634267199613125 -0.00089376511348994783 0 0.031971281866626754 -0.001106928656166128 0 0.032159678519160448 -0.00063943630804853466 0 0.031634267199613125 -0.00089376511348994783 0 0.031671171896103703 -0.0004610882578115737 0 0.032159678519160448 -0.00063943630804853466 0 0.031671171896103703 -0.0004610882578115737 0 0.031968498770778495 -0.00026411132371219315 0 0.031470370675061088 -0.00019862085521782903 0 0.031671171896103703 -0.0004610882578115737 0 0.031968498770778495 -0.00026411132371219315 0 0.027390608495782627 0.0021739997565709919 0 0.027356809780772817 0.0021660945643174876 0 0.027214559646575261 0.0019722506181008739 0 0.027390608495782627 0.0021739997565709919 0 0.027356809780772817 0.0021660945643174876 0 0.027426195820292161 0.0020947850914686673 0 0.030610029430950637 0.00015091508026328671 0 0.030411831515890331 0.00050861718561463439 0 0.027356809780772817 0.0021660945643174876 0 0.02735153365937951 0.0021702483456067759 0 0.027214559646575261 0.0019722506181008739 0 0.027356809780772817 0.0021660945643174876 0 0.02735153365937951 0.0021702483456067759 0 0.027347994794558125 0.0021522668197784664 0 0.02735153365937951 0.0021702483456067759 0 0.027338342127048946 0.0022212909615969456 0 0.027347994794558125 0.0021522668197784664 0 0.027442806408808779 0.0021566945363031024 0 0.027338342127048946 0.0022212909615969456 0 0.027514189353423677 0.0022554478345770267 0 0.02735153365937951 0.0021702483456067759 0 0.027442806408808779 0.0021566945363031024 0 0.027338342127048946 0.0022212909615969456 0 0.027553946771210019 0.001975092259439985 0 0.027214559646575261 0.0019722506181008739 0 0.02772536833264938 0.0016609405147586045 0 0.027442806408808779 0.0021566945363031024 0 0.027553946771210019 0.001975092259439985 0 0.027214559646575261 0.0019722506181008739 0 0.027442806408808779 0.0021566945363031024 0 0.027553946771210019 0.001975092259439985 0 0.027779413871137828 0.0020783906070491044 0 0.027553946771210019 0.001975092259439985 0 0.02772536833264938 0.0016609405147586045 0 0.027779413871137828 0.0020783906070491044 0 0.02735153365937951 0.0021702483456067759 0 0.027442806408808779 0.0021566945363031024 0 0.027214559646575261 0.0019722506181008739 0 0.032798323880143754 -0.00086100626599553678 0 0.032780001968724229 -0.001445100562761308 0 0.033531798941098569 -0.0017051680214728918 0 0.030264471768542415 0.00038416108933851206 0 0.03063754345513206 -0.00023372825372736095 0 0.032798323880143754 -0.00086100626599553678 0 0.032780001968724229 -0.001445100562761308 0 0.032322420667401208 -0.0011805457361680283 0 0.027214559646575261 0.0019722506181008739 0 0.02772536833264938 0.0016609405147586045 0 0.027537998587491921 0.0010930892786859515 0 0.033531798941098569 -0.0017051680214728918 0 0.032756907007813814 -0.0019085559616052923 0 0.033589235336255893 -0.00204236145438551 0 0.032780001968724229 -0.001445100562761308 0 0.033531798941098569 -0.0017051680214728918 0 0.032756907007813814 -0.0019085559616052923 0 0.032780001968724229 -0.001445100562761308 0 0.032756907007813814 -0.0019085559616052923 0 0.032398372605189733 -0.0014938858138648697 0 0.034065889540730941 -0.0019978150531144382 0 0.033769046730327726 -0.0019358596569629446 0 0.033865499833914112 -0.0019639324484158121 0 0.032756907007813814 -0.0019085559616052923 0 0.032398372605189733 -0.0014938858138648697 0 0.031820633598851476 -0.001466665963334514 0 0.034065889540730941 -0.0019978150531144382 0 0.033734702623953255 -0.0017251429602767516 0 0.033769046730327726 -0.0019358596569629446 0 0.033190892218159296 -0.0018401188594189769 0 0.032675833724408715 -0.0016222995531521667 0 0.032780001968724229 -0.001445100562761308 0 0.032398372605189733 -0.0014938858138648697 0 0.032322420667401208 -0.0011805457361680283 0 0.032398372605189733 -0.0014938858138648697 0 0.032147346285983092 -0.0013266945194157587 0 0.031820633598851476 -0.001466665963334514 0 0.032159678519160448 -0.00063943630804853466 0 0.032322420667401208 -0.0011805457361680283 0 0.031971281866626754 -0.001106928656166128 0 0.032398372605189733 -0.0014938858138648697 0 0.032147346285983092 -0.0013266945194157587 0 0.032322420667401208 -0.0011805457361680283 0 0.032147346285983092 -0.0013266945194157587 0 0.032322420667401208 -0.0011805457361680283 0 0.031971281866626754 -0.001106928656166128 0 0.031634267199613125 -0.00089376511348994783 0 0.031971281866626754 -0.001106928656166128 0 0.031820633598851476 -0.001466665963334514 0 0.03345718033984256 -0.0019870620694453973 0 0.033734702623953255 -0.0017251429602767516 0 0.031299212614294074 -0.0011274676282425197 0 0.032147346285983092 -0.0013266945194157587 0 0.031971281866626754 -0.001106928656166128 0 0.031820633598851476 -0.001466665963334514 0 0.03345718033984256 -0.0019870620694453973 0 0.033734702623953255 -0.0017251429602767516 0 0.033769046730327726 -0.0019358596569629446 0 0.033769046730327726 -0.0019358596569629446 0 0.033683654417182435 -0.0019874983417236792 0 0.033865499833914112 -0.0019639324484158121 0 0.03345718033984256 -0.0019870620694453973 0 0.033769046730327726 -0.0019358596569629446 0 0.033600835598316267 -0.0019771725856434713 0 0.033769046730327726 -0.0019358596569629446 0 0.033600835598316267 -0.0019771725856434713 0 0.033683654417182435 -0.0019874983417236792 0 0.03345718033984256 -0.0019870620694453973 0 0.033600835598316267 -0.0019771725856434713 0 0.033616054070768175 -0.0019818797982421596 0 0.033600835598316267 -0.0019771725856434713 0 0.033616054070768175 -0.0019818797982421596 0 0.033683654417182435 -0.0019874983417236792 0 0.03345718033984256 -0.0019870620694453973 0 0.033616054070768175 -0.0019818797982421596 0 0.033743042506010991 -0.0020029798487026665 0 0.03345718033984256 -0.0019870620694453973 0 0.030905036740650406 -0.0024032174412149574 0 0.031299212614294074 -0.0011274676282425197 0 0.032906466226076951 -0.0019427985736323724 0 0.032420980325769067 -0.0020047928498335981 0 0.030905036740650406 -0.0024032174412149574 0 0.030540119676466873 -0.0014657279581197654 0 0.030097129312705816 -0.0018262061594943564 0 0.030905036740650406 -0.0024032174412149574 0 0.030540119676466873 -0.0014657279581197654 0 0.031299212614294074 -0.0011274676282425197 0 0.030540119676466873 -0.0014657279581197654 0 0.031299212614294074 -0.0011274676282425197 0 0.030323365676715709 -0.0005990536940238977 0 0.032675833724408715 -0.0016222995531521667 0 0.03217505002353447 -0.0014283518892474014 0 0.031634267199613125 -0.00089376511348994783 0 0.031820633598851476 -0.001466665963334514 0 0.031299212614294074 -0.0011274676282425197 0 0.030097129312705816 -0.0018262061594943564 0 0.029541165060677603 -0.001620642949433107 0 0.029663071160718275 -0.0023977305584212049 0 0.029541165060677603 -0.001620642949433107 0 0.029663071160718275 -0.0023977305584212049 0 0.029114111551311269 -0.0018575287151060907 0 0.029541165060677603 -0.001620642949433107 0 0.029114111551311269 -0.0018575287151060907 0 0.029066298685019046 -0.0014414636340785302 0 0.030905036740650406 -0.0024032174412149574 0 0.030097129312705816 -0.0018262061594943564 0 0.029663071160718275 -0.0023977305584212049 0 0.032420980325769067 -0.0020047928498335981 0 0.031875271977134419 -0.0019651968758926308 0 0.030540119676466873 -0.0014657279581197654 0 0.029981055225115565 -0.001293060518799299 0 0.030323365676715709 -0.0005990536940238977 0 0.030540119676466873 -0.0014657279581197654 0 0.030097129312705816 -0.0018262061594943564 0 0.029981055225115565 -0.001293060518799299 0 0.030097129312705816 -0.0018262061594943564 0 0.029981055225115565 -0.001293060518799299 0 0.029541165060677603 -0.001620642949433107 0 0.029541165060677603 -0.001620642949433107 0 0.029355561540519406 -0.00080231304177562671 0 0.029066298685019046 -0.0014414636340785302 0 0.029981055225115565 -0.001293060518799299 0 0.029541165060677603 -0.001620642949433107 0 0.029355561540519406 -0.00080231304177562671 0 0.029355561540519406 -0.00080231304177562671 0 0.030323365676715709 -0.0005990536940238977 0 0.029356212401435683 0.0002709781792172727 0 0.029981055225115565 -0.001293060518799299 0 0.029355561540519406 -0.00080231304177562671 0 0.030323365676715709 -0.0005990536940238977 0 0.030323365676715709 -0.0005990536940238977 0 0.031193329087755708 -0.0003441534077698354 0 0.030523448554037151 0.00042051885463383873 0 0.031634267199613125 -0.00089376511348994783 0 0.031671171896103703 -0.0004610882578115737 0 0.031193329087755708 -0.0003441534077698354 0 0.031634267199613125 -0.00089376511348994783 0 0.031299212614294074 -0.0011274676282425197 0 0.031193329087755708 -0.0003441534077698354 0 0.031299212614294074 -0.0011274676282425197 0 0.030323365676715709 -0.0005990536940238977 0 0.031193329087755708 -0.0003441534077698354 0 0.031470370675061088 -0.00019862085521782903 0 0.031671171896103703 -0.0004610882578115737 0 0.031193329087755708 -0.0003441534077698354 0 0.031470370675061088 -0.00019862085521782903 0 0.031193329087755708 -0.0003441534077698354 0 0.031258210394088881 8.7726078507908894e-05 0 0.031193329087755708 -0.0003441534077698354 0 0.031258210394088881 8.7726078507908894e-05 0 0.030949811639944317 2.887856613782838e-05 0 0.030522589465035981 -0.00034972786631135586 0 0.03015983590753709 -0.00016214310481047124 0 0.030949811639944317 2.887856613782838e-05 0 0.031007194460800452 0.00013319999371504587 0 0.03094441776129651 0.00013341835639973107 0 0.031258210394088881 8.7726078507908894e-05 0 0.030949811639944317 2.887856613782838e-05 0 0.031007194460800452 0.00013319999371504587 0 0.031258210394088881 8.7726078507908894e-05 0 0.031007194460800452 0.00013319999371504587 0 0.031116843515932961 0.00013569518874386528 0 0.030323365676715709 -0.0005990536940238977 0 0.030523448554037151 0.00042051885463383873 0 0.029356212401435683 0.0002709781792172727 0 0.03015983590753709 -0.00016214310481047124 0 0.029212187701405753 -9.2679065332455528e-06 0 0.030523448554037151 0.00042051885463383873 0 0.029356212401435683 0.0002709781792172727 0 0.029911338675365766 0.0011982248964701899 0 0.029356212401435683 0.0002709781792172727 0 0.029911338675365766 0.0011982248964701899 0 0.029109496286354952 0.0011955529194342316 0 0.029212187701405753 -9.2679065332455528e-06 0 0.027056493967739056 0.00015485217208222434 0 0.029911338675365766 0.0011982248964701899 0 0.029113766022478706 0.0018501077044788927 0 0.029109496286354952 0.0011955529194342316 0 0.03094441776129651 0.00013341835639973107 0 0.030958940098274521 0.00010973043035866954 0 0.030959649393603492 0.00013041415560701583 0 0.030958940098274521 0.00010973043035866954 0 0.030959649393603492 0.00013041415560701583 0 0.030943724665929043 8.2793231279570926e-05 0 0.03094441776129651 0.00013341835639973107 0 0.030958940098274521 0.00010973043035866954 0 0.030988364630966041 9.6113904939482445e-05 0 0.029911338675365766 0.0011982248964701899 0 0.029295798883828938 0.0020742177753326403 0 0.029113766022478706 0.0018501077044788927 0 0.027056493967739056 0.00015485217208222434 0 0.027218318787830459 0.00033422320040321499 0 0.031116843515932961 0.00013569518874386528 0 0.030991415925017234 0.00014508450816876233 0 0.030942354266560619 0.00013416823150040789 0 0.031007194460800452 0.00013319999371504587 0 0.031116843515932961 0.00013569518874386528 0 0.030991415925017234 0.00014508450816876233 0 0.031007194460800452 0.00013319999371504587 0 0.03094441776129651 0.00013341835639973107 0 0.030959649393603492 0.00013041415560701583 0 0.031007194460800452 0.00013319999371504587 0 0.030991415925017234 0.00014508450816876233 0 0.030959649393603492 0.00013041415560701583 0 0.030959649393603492 0.00013041415560701583 0 0.030926302955312058 8.9255703618825027e-05 0 0.030931151773199547 0.00012431618992001886 0 0.030959649393603492 0.00013041415560701583 0 0.030943724665929043 8.2793231279570926e-05 0 0.030926302955312058 8.9255703618825027e-05 0 0.030926302955312058 8.9255703618825027e-05 0 0.030896423314218609 8.7837857856240192e-05 0 0.030931151773199547 0.00012431618992001886 0 0.030991415925017234 0.00014508450816876233 0 0.030959649393603492 0.00013041415560701583 0 0.030931151773199547 0.00012431618992001886 0 0.030991415925017234 0.00014508450816876233 0 0.030931151773199547 0.00012431618992001886 0 0.030918955450047459 0.0001271352832317546 0 0.030991415925017234 0.00014508450816876233 0 0.030918955450047459 0.0001271352832317546 0 0.030942354266560619 0.00013416823150040789 0 0.030931151773199547 0.00012431618992001886 0 0.030918955450047459 0.0001271352832317546 0 0.030858523189832274 0.00013145939108545314 0 0.030896423314218609 8.7837857856240192e-05 0 0.030931151773199547 0.00012431618992001886 0 0.030858523189832274 0.00013145939108545314 0 0.030821439711887364 2.5843346527748915e-05 0 0.030896423314218609 8.7837857856240192e-05 0 0.030858523189832274 0.00013145939108545314 0 0.03069754568160022 3.369585807928127e-05 0 0.030858523189832274 0.00013145939108545314 0 0.030578042273086865 0.00016359857032769462 0 0.029000764044867823 8.1610147446449486e-05 0 0.028841863177770509 7.5966608511859036e-05 0 0.030918955450047459 0.0001271352832317546 0 0.030858523189832274 0.00013145939108545314 0 0.030909539179524759 0.00013514386196069789 0 0.028841863177770509 7.5966608511859036e-05 0 0.027885225734763312 6.8140523295985694e-05 0 0.030524686135226211 3.1873533908209606e-05 0 0.030578042273086865 0.00016359857032769462 0 0.030319916556446707 0.00014492178717688287 0 0.028344271990744699 0.00089562604430323725 0 0.02911269658615126 0.00092393292376467481 0 0.0285712752884714 -0.0002304508397886672 0 0.027640342706391607 0.0015069858077214283 0 0.027714863734694836 0.0016643931389618721 0 0.027527300836562716 0.0016485119674899225 0 0.027885225734763312 6.8140523295985694e-05 0 0.02893228571689889 0.00052666966457767339 0 0.030918955450047459 0.0001271352832317546 0 0.030909539179524759 0.00013514386196069789 0 0.030942354266560619 0.00013416823150040789 0 0.028841863177770509 7.5966608511859036e-05 0 0.02893228571689889 0.00052666966457767339 0 0.027640342706391607 0.0015069858077214283 0 0.027527300836562716 0.0016485119674899225 0 0.027375571609169543 0.0014882108363141273 0 0.027885225734763312 6.8140523295985694e-05 0 0.025880271844122213 -0.00020083610630664957 0 0.027527300836562716 0.0016485119674899225 0 0.027459409908733166 0.0017990875499412206 0 0.02738240380126988 0.0016556456928533425 0 0.027527300836562716 0.0016485119674899225 0 0.027560973144178262 0.0018126083656688037 0 0.027459409908733166 0.0017990875499412206 0 0.027714863734694836 0.0016643931389618721 0 0.027527300836562716 0.0016485119674899225 0 0.027560973144178262 0.0018126083656688037 0 0.027560973144178262 0.0018126083656688037 0 0.027459409908733166 0.0017990875499412206 0 0.027481768342126928 0.0019527342418362459 0 0.031116843515932961 0.00013569518874386528 0 0.031166167921449606 0.00026328241630602274 0 0.031224000134432925 8.2599468913448584e-05 0 0.027714863734694836 0.0016643931389618721 0 0.027560973144178262 0.0018126083656688037 0 0.027591366035486491 0.0020120202587146745 0 0.029317290329414186 0.00061633701294195058 0 0.02893228571689889 0.00052666966457767339 0 0.02893228571689889 0.00052666966457767339 0 0.029555192674512943 0.0008800246146178954 0 0.031258210394088881 8.7726078507908894e-05 0 0.031116843515932961 0.00013569518874386528 0 0.031224000134432925 8.2599468913448584e-05 0 0.027560973144178262 0.0018126083656688037 0 0.027591366035486491 0.0020120202587146745 0 0.027481768342126928 0.0019527342418362459 0 0.027459409908733166 0.0017990875499412206 0 0.027481768342126928 0.0019527342418362459 0 0.027379215029906388 0.0019992663625600549 0 0.027481768342126928 0.0019527342418362459 0 0.027426195820292161 0.0020947850914686673 0 0.027379215029906388 0.0019992663625600549 0 0.027591366035486491 0.0020120202587146745 0 0.027481768342126928 0.0019527342418362459 0 0.027426195820292161 0.0020947850914686673 0 0.027390608495782627 0.0021739997565709919 0 0.027591366035486491 0.0020120202587146745 0 0.027426195820292161 0.0020947850914686673 0 0.030411831515890331 0.00050861718561463439 0 0.029555192674512943 0.0008800246146178954 0 0.031198359110073341 0.00015417262134884374 0 0.031258210394088881 8.7726078507908894e-05 0 0.031224000134432925 8.2599468913448584e-05 0 0.030411831515890331 0.00050861718561463439 0 0.03096512448575774 3.6696341246671277e-05 0 0.031470370675061088 -0.00019862085521782903 0 0.031968498770778495 -0.00026411132371219315 0 0.031258210394088881 8.7726078507908894e-05 0 0.027294895022777352 0.0021140249688318936 0 0.027338342127048946 0.0022212909615969456 0 0.027155747109114621 0.0021167568655639027 0 0.027338342127048946 0.0022212909615969456 0 0.027155747109114621 0.0021167568655639027 0 0.02717357843139458 0.0022254417501364511 0 0.027294895022777352 0.0021140249688318936 0 0.027338342127048946 0.0022212909615969456 0 0.027347994794558125 0.0021522668197784664 0 0.027426195820292161 0.0020947850914686673 0 0.027347994794558125 0.0021522668197784664 0 0.027379215029906388 0.0019992663625600549 0 0.027294895022777352 0.0021140249688318936 0 0.027347994794558125 0.0021522668197784664 0 0.027379215029906388 0.0019992663625600549 0 0.027356809780772817 0.0021660945643174876 0 0.027426195820292161 0.0020947850914686673 0 0.027347994794558125 0.0021522668197784664 0 0.027294895022777352 0.0021140249688318936 0 0.027379215029906388 0.0019992663625600549 0 0.027242046786429348 0.0019854041461097294 0 0.027379215029906388 0.0019992663625600549 0 0.027242046786429348 0.0019854041461097294 0 0.027293125579332299 0.0017989670636509658 0 0.027294895022777352 0.0021140249688318936 0 0.027242046786429348 0.0019854041461097294 0 0.027155747109114621 0.0021167568655639027 0 0.027242046786429348 0.0019854041461097294 0 0.027155747109114621 0.0021167568655639027 0 0.027082647308254798 0.0018867722072031545 0 0.027082647308254798 0.0018867722072031545 0 0.027086655170309445 0.0016686269526303512 0 0.027293125579332299 0.0017989670636509658 0 0.027242046786429348 0.0019854041461097294 0 0.027082647308254798 0.0018867722072031545 0 0.027293125579332299 0.0017989670636509658 0 0.027086655170309445 0.0016686269526303512 0 0.027293125579332299 0.0017989670636509658 0 0.027236521993320734 0.0015688906172607105 0 0.027459409908733166 0.0017990875499412206 0 0.027293125579332299 0.0017989670636509658 0 0.02738240380126988 0.0016556456928533425 0 0.027459409908733166 0.0017990875499412206 0 0.027379215029906388 0.0019992663625600549 0 0.027293125579332299 0.0017989670636509658 0 0.027293125579332299 0.0017989670636509658 0 0.02738240380126988 0.0016556456928533425 0 0.027236521993320734 0.0015688906172607105 0 0.025880271844122213 -0.00020083610630664957 0 0.025282141906510212 -9.326779426861255e-05 0 0.027516069297659554 0.0013062633163595887 0 0.027236521993320734 0.0015688906172607105 0 0.027130238177945389 0.0012902192150482353 0 0.027527300836562716 0.0016485119674899225 0 0.02738240380126988 0.0016556456928533425 0 0.027375571609169543 0.0014882108363141273 0 0.02738240380126988 0.0016556456928533425 0 0.027375571609169543 0.0014882108363141273 0 0.027236521993320734 0.0015688906172607105 0 0.025880271844122213 -0.00020083610630664957 0 0.026006827258455475 -7.2501248105551694e-06 0 0.025282141906510212 -9.326779426861255e-05 0 0.024628065854864805 6.4647875244069582e-05 0 0.026988868212346948 0.0014676017526725807 0 0.027130238177945389 0.0012902192150482353 0 0.026783483512629037 0.0012588525691509781 0 0.027086655170309445 0.0016686269526303512 0 0.026988868212346948 0.0014676017526725807 0 0.027236521993320734 0.0015688906172607105 0 0.026988868212346948 0.0014676017526725807 0 0.027236521993320734 0.0015688906172607105 0 0.027130238177945389 0.0012902192150482353 0 0.027086655170309445 0.0016686269526303512 0 0.026988868212346948 0.0014676017526725807 0 0.026660928980440004 0.0015480786179760443 0 0.026988868212346948 0.0014676017526725807 0 0.026783483512629037 0.0012588525691509781 0 0.026660928980440004 0.0015480786179760443 0 0.024628065854864805 6.4647875244069582e-05 0 0.024839963792476893 0.0011027784230338649 0 0.02493813239700949 0.0019090327834158092 0 0.025364121107494121 0.0019886317133919833 0 0.025023075968490772 0.0019604913446860865 0 0.024823778380635937 0.001889058804765006 0 0.02493813239700949 0.0019090327834158092 0 0.025023075968490772 0.0019604913446860865 0 0.02464736597252002 0.00010144594130785348 0 0.024628065854864805 6.4647875244069582e-05 0 0.024839963792476893 0.0011027784230338649 0 0.024923630687268855 0.0014196532401960266 0 0.026660928980440004 0.0015480786179760443 0 0.026863247697369204 0.0020297712266312152 0 0.02634184093665369 0.0019803293098703371 0 0.027082647308254798 0.0018867722072031545 0 0.027086655170309445 0.0016686269526303512 0 0.026660928980440004 0.0015480786179760443 0 0.027082647308254798 0.0018867722072031545 0 0.026660928980440004 0.0015480786179760443 0 0.026863247697369204 0.0020297712266312152 0 0.025364121107494121 0.0019886317133919833 0 0.025731726957704124 0.0019872306778169835 0 0.025140956452168701 0.002004742582533582 0 0.025364121107494121 0.0019886317133919833 0 0.025731726957704124 0.0019872306778169835 0 0.02634184093665369 0.0019803293098703371 0 0.025364121107494121 0.0019886317133919833 0 0.025140956452168701 0.002004742582533582 0 0.025023075968490772 0.0019604913446860865 0 0.024766766168745163 0.0019485906599377711 0 0.024823778380635937 0.001889058804765006 0 0.025023075968490772 0.0019604913446860865 0 0.024529533795305532 0.0020213700606770244 0 0.024766766168745163 0.0019485906599377711 0 0.025140956452168701 0.002004742582533582 0 0.024766766168745163 0.0019485906599377711 0 0.025140956452168701 0.002004742582533582 0 0.025023075968490772 0.0019604913446860865 0 0.024529533795305532 0.0020213700606770244 0 0.024562846789891606 0.0022305710511077745 0 0.025224658955054529 0.0020742635739608157 0 0.024529533795305532 0.0020213700606770244 0 0.025140956452168701 0.002004742582533582 0 0.025224658955054529 0.0020742635739608157 0 0.023969359131465744 0.002612601469341779 0 0.024562846789891606 0.0022305710511077745 0 0.025137327709206517 0.0020956421457603309 0 0.024562846789891606 0.0022305710511077745 0 0.025137327709206517 0.0020956421457603309 0 0.025224658955054529 0.0020742635739608157 0 0.025624465537854708 0.0020203316901730626 0 0.025224658955054529 0.0020742635739608157 0 0.025938700897360022 0.0020243875471740893 0 0.025137327709206517 0.0020956421457603309 0 0.025624465537854708 0.0020203316901730626 0 0.025224658955054529 0.0020742635739608157 0 0.025731726957704124 0.0019872306778169835 0 0.025140956452168701 0.002004742582533582 0 0.025224658955054529 0.0020742635739608157 0 0.025731726957704124 0.0019872306778169835 0 0.025224658955054529 0.0020742635739608157 0 0.025938700897360022 0.0020243875471740893 0 0.025731726957704124 0.0019872306778169835 0 0.025938700897360022 0.0020243875471740893 0 0.026368750424841041 0.002085522293931994 0 0.025938700897360022 0.0020243875471740893 0 0.026349964474529832 0.0020564127761425305 0 0.026368750424841041 0.002085522293931994 0 0.026349964474529832 0.0020564127761425305 0 0.026368750424841041 0.002085522293931994 0 0.026716452637757477 0.0021477182267625947 0 0.025938700897360022 0.0020243875471740893 0 0.026058959845522485 0.0019559068537757024 0 0.026410731579175055 0.0019991668715680995 0 0.025624465537854708 0.0020203316901730626 0 0.025938700897360022 0.0020243875471740893 0 0.026058959845522485 0.0019559068537757024 0 0.025938700897360022 0.0020243875471740893 0 0.026349964474529832 0.0020564127761425305 0 0.026410731579175055 0.0019991668715680995 0 0.026058959845522485 0.0019559068537757024 0 0.026410731579175055 0.0019991668715680995 0 0.026524222135179781 0.0019099167361443141 0 0.026410731579175055 0.0019991668715680995 0 0.026825624539639891 0.0019150642560049496 0 0.026524222135179781 0.0019099167361443141 0 0.026410731579175055 0.0019991668715680995 0 0.026815795115327744 0.0019842736345454652 0 0.026716452637757477 0.0021477182267625947 0 0.026410731579175055 0.0019991668715680995 0 0.026815795115327744 0.0019842736345454652 0 0.026825624539639891 0.0019150642560049496 0 0.026716452637757477 0.0021477182267625947 0 0.02690286755614299 0.002208558365701308 0 0.028582280932748921 0.0015779551593608433 0 0.026368750424841041 0.002085522293931994 0 0.026716452637757477 0.0021477182267625947 0 0.02690286755614299 0.002208558365701308 0 0.026349964474529832 0.0020564127761425305 0 0.026410731579175055 0.0019991668715680995 0 0.026716452637757477 0.0021477182267625947 0 0.026368750424841041 0.002085522293931994 0 0.02690286755614299 0.002208558365701308 0 0.026785729355530807 0.0021607022389586996 0 0.02690286755614299 0.002208558365701308 0 0.027227219884191127 0.0022549824024912435 0 0.026785729355530807 0.0021607022389586996 0 0.02690286755614299 0.002208558365701308 0 0.027227219884191127 0.0022549824024912435 0 0.027652026248944413 0.0022536039622572733 0 0.027227219884191127 0.0022549824024912435 0 0.02717357843139458 0.0022254417501364511 0 0.027514189353423677 0.0022554478345770267 0 0.027338342127048946 0.0022212909615969456 0 0.02717357843139458 0.0022254417501364511 0 0.027514189353423677 0.0022554478345770267 0 0.027227219884191127 0.0022549824024912435 0 0.02717357843139458 0.0022254417501364511 0 0.026785729355530807 0.0021607022389586996 0 0.027155747109114621 0.0021167568655639027 0 0.02717357843139458 0.0022254417501364511 0 0.026863247697369204 0.0020297712266312152 0 0.02717357843139458 0.0022254417501364511 0 0.026863247697369204 0.0020297712266312152 0 0.026785729355530807 0.0021607022389586996 0 0.027155747109114621 0.0021167568655639027 0 0.027082647308254798 0.0018867722072031545 0 0.026863247697369204 0.0020297712266312152 0 0.026863247697369204 0.0020297712266312152 0 0.02634184093665369 0.0019803293098703371 0 0.026785729355530807 0.0021607022389586996 0 0.025731726957704124 0.0019872306778169835 0 0.026368750424841041 0.002085522293931994 0 0.02634184093665369 0.0019803293098703371 0 0.026368750424841041 0.002085522293931994 0 0.02634184093665369 0.0019803293098703371 0 0.026785729355530807 0.0021607022389586996 0 0.029267788686191447 -0.0014670289684805453 0 0.029663116922612771 -0.0027653304751304609 0 0.030507936629577685 -0.0011137119508045962 0 0.026737754387374867 0.0018099466984577931 0 0.02676231688131225 0.0018226855648098875 0 0.026773198184982378 0.0018421348619612908 0 0.02598314342260042 0.00066090703218241815 0 0.027492651779969436 0.00079538744509372408 0 0.022869030735137422 0.00020150853316353202 0 0.022870900292196662 0.00020277124172936697 0 0.022879309744737116 0.00020917995177249126 0 0.026737754387374867 0.0018099466984577931 0 0.02677141224097929 0.0018008017115324897 0 0.02676231688131225 0.0018226855648098875 0 0.02598314342260042 0.00066090703218241815 0 0.024403883247718618 0.0015336172039865606 0 0.024403883247718618 0.0015336172039865606 0 0.023866835567638491 0.0018014792202783094 0 0.024403883247718618 0.0015336172039865606 0 0.025419107758179751 0.0019267048309177779 0 0.02677141224097929 0.0018008017115324897 0 0.02676231688131225 0.0018226855648098875 0 0.026781515027120246 0.0018474141051775213 0 0.02676231688131225 0.0018226855648098875 0 0.026781515027120246 0.0018474141051775213 0 0.026773198184982378 0.0018421348619612908 0 0.026018005606057264 0.0022430074867729349 0 0.02595635631935049 0.0018661228628594438 0 0.025591813871264808 0.0019999841646015032 0 0.02595635631935049 0.0018661228628594438 0 0.025591813871264808 0.0019999841646015032 0 0.025786450187661476 0.00193754494961294 0 0.023969359131465744 0.002612601469341779 0 0.025591813871264808 0.0019999841646015032 0 0.026003871480083523 0.0026406938440486764 0 0.026018005606057264 0.0022430074867729349 0 0.025591813871264808 0.0019999841646015032 0 0.025823420527262806 0.0022968625107098158 0 0.024317960766565255 0.0021315561350164851 0 0.023866835567638491 0.0018014792202783094 0 0.023969359131465744 0.002612601469341779 0 0.025137327709206517 0.0020956421457603309 0 0.025591813871264808 0.0019999841646015032 0 0.025137327709206517 0.0020956421457603309 0 0.025591813871264808 0.0019999841646015032 0 0.025786450187661476 0.00193754494961294 0 0.025624465537854708 0.0020203316901730626 0 0.026058959845522485 0.0019559068537757024 0 0.025786450187661476 0.00193754494961294 0 0.025137327709206517 0.0020956421457603309 0 0.025624465537854708 0.0020203316901730626 0 0.025786450187661476 0.00193754494961294 0 0.026058959845522485 0.0019559068537757024 0 0.025786450187661476 0.00193754494961294 0 0.026216420341899534 0.0019026317220677165 0 0.026058959845522485 0.0019559068537757024 0 0.026216420341899534 0.0019026317220677165 0 0.026524222135179781 0.0019099167361443141 0 0.026825624539639891 0.0019150642560049496 0 0.026524222135179781 0.0019099167361443141 0 0.026958832632294136 0.001816604881790934 0 0.026524222135179781 0.0019099167361443141 0 0.026958832632294136 0.001816604881790934 0 0.02674638129469413 0.0018445623099508411 0 0.026216420341899534 0.0019026317220677165 0 0.026524222135179781 0.0019099167361443141 0 0.02674638129469413 0.0018445623099508411 0 0.025419107758179751 0.0019267048309177779 0 0.025693024458627561 0.0019182552062776707 0 0.026781515027120246 0.0018474141051775213 0 0.02674638129469413 0.0018445623099508411 0 0.026808388801295512 0.001833402545878039 0 0.02595635631935049 0.0018661228628594438 0 0.025786450187661476 0.00193754494961294 0 0.026216420341899534 0.0019026317220677165 0 0.02595635631935049 0.0018661228628594438 0 0.026216420341899534 0.0019026317220677165 0 0.02674638129469413 0.0018445623099508411 0 0.028202805596121931 0.00096783824587291822 0 0.027492651779969436 0.00079538744509372408 0 0.026781515027120246 0.0018474141051775213 0 0.026808388801295512 0.001833402545878039 0 0.026773198184982378 0.0018421348619612908 0 0.030841988620336758 0.00036902508931424012 0 0.030005127851590419 3.719435175459283e-05 0 0.030507936629577685 -0.0011137119508045962 0 0.030841988620336758 0.00036902508931424012 0 0.030005127851590419 3.719435175459283e-05 0 0.030405463520242405 0.00066822422101381969 0 0.029267788686191447 -0.0014670289684805453 0 0.030005127851590419 3.719435175459283e-05 0 0.030507936629577685 -0.0011137119508045962 0 0.03051924040027687 0.00076733820260772476 0 0.030511303317836733 0.00080448699879775835 0 0.03023914061724543 0.00094761503402306416 0 0.030511303317836733 0.00080448699879775835 0 0.030406130152503503 0.00089567714298046579 0 0.03023914061724543 0.00094761503402306416 0 0.030406130152503503 0.00089567714298046579 0 0.03023914061724543 0.00094761503402306416 0 0.030093860278096213 0.00078197286711431354 0 0.029396769653919016 0.0010342589518035946 0 0.030005127851590419 3.719435175459283e-05 0 0.030093860278096213 0.00078197286711431354 0 0.030005127851590419 3.719435175459283e-05 0 0.030093860278096213 0.00078197286711431354 0 0.030405463520242405 0.00066822422101381969 0 0.030406130152503503 0.00089567714298046579 0 0.030093860278096213 0.00078197286711431354 0 0.030405463520242405 0.00066822422101381969 0 0.030406130152503503 0.00089567714298046579 0 0.030405463520242405 0.00066822422101381969 0 0.030514817866325202 0.00086664918917920414 0 0.030841988620336758 0.00036902508931424012 0 0.030405463520242405 0.00066822422101381969 0 0.030514817866325202 0.00086664918917920414 0 0.030406130152503503 0.00089567714298046579 0 0.030514817866325202 0.00086664918917920414 0 0.030481759170403133 0.00087924706107392336 0 0.030511303317836733 0.00080448699879775835 0 0.030406130152503503 0.00089567714298046579 0 0.030481759170403133 0.00087924706107392336 0 0.030514817866325202 0.00086664918917920414 0 0.030481759170403133 0.00087924706107392336 0 0.03034673557245204 0.0011145597646083679 0 0.030481759170403133 0.00087924706107392336 0 0.03034673557245204 0.0011145597646083679 0 0.030294145601974725 0.00069075340688519275 0 0.03034673557245204 0.0011145597646083679 0 0.029066097445668019 0.00086412767369356612 0 0.030294145601974725 0.00069075340688519275 0 0.030841988620336758 0.00036902508931424012 0 0.030514817866325202 0.00086664918917920414 0 0.03034673557245204 0.0011145597646083679 0 0.026958832632294136 0.001816604881790934 0 0.02674638129469413 0.0018445623099508411 0 0.027448908817457138 0.0017078610077332025 0 0.02674638129469413 0.0018445623099508411 0 0.026808388801295512 0.001833402545878039 0 0.027448908817457138 0.0017078610077332025 0 0.028202805596121931 0.00096783824587291822 0 0.028428919069741945 0.00090056261998872208 0 0.027448908817457138 0.0017078610077332025 0 0.027251375045461795 0.0017759359214431817 0 0.027854475330361835 0.001540315769908126 0 0.026958832632294136 0.001816604881790934 0 0.027448908817457138 0.0017078610077332025 0 0.027251375045461795 0.0017759359214431817 0 0.026825624539639891 0.0019150642560049496 0 0.026958832632294136 0.001816604881790934 0 0.027251375045461795 0.0017759359214431817 0 0.027448908817457138 0.0017078610077332025 0 0.027854475330361835 0.001540315769908126 0 0.029066097445668019 0.00086412767369356612 0 0.028428919069741945 0.00090056261998872208 0 0.028432162476093484 0.0007218253590213755 0 0.027854475330361835 0.001540315769908126 0 0.029066097445668019 0.00086412767369356612 0 0.028490169248650027 0.00059478345213596472 0 0.029066097445668019 0.00086412767369356612 0 0.029958602564519883 0.00042561511759556258 0 0.030294145601974725 0.00069075340688519275 0 0.029066097445668019 0.00086412767369356612 0 0.029712158244823528 0.00027689469906217671 0 0.029958602564519883 0.00042561511759556258 0 0.029066097445668019 0.00086412767369356612 0 0.029712158244823528 0.00027689469906217671 0 0.028490169248650027 0.00059478345213596472 0 0.029712158244823528 0.00027689469906217671 0 0.028490169248650027 0.00059478345213596472 0 0.030479184303140047 -0.00031047079718655215 0 0.029712158244823528 0.00027689469906217671 0 0.030400923321707529 0.00011150919743617066 0 0.030479184303140047 -0.00031047079718655215 0 0.029712158244823528 0.00027689469906217671 0 0.030400923321707529 0.00011150919743617066 0 0.029958602564519883 0.00042561511759556258 0 0.030400923321707529 0.00011150919743617066 0 0.030519840446980865 0.00037371361899923107 0 0.029958602564519883 0.00042561511759556258 0 0.030400923321707529 0.00011150919743617066 0 0.030519840446980865 0.00037371361899923107 0 0.030839413568249457 9.2306968942411135e-05 0 0.030519840446980865 0.00037371361899923107 0 0.029958602564519883 0.00042561511759556258 0 0.030294145601974725 0.00069075340688519275 0 0.030511303317836733 0.00080448699879775835 0 0.030481759170403133 0.00087924706107392336 0 0.030627826771381671 0.0005406480778902238 0 0.030519840446980865 0.00037371361899923107 0 0.030294145601974725 0.00069075340688519275 0 0.030627826771381671 0.0005406480778902238 0 0.030481759170403133 0.00087924706107392336 0 0.030294145601974725 0.00069075340688519275 0 0.030627826771381671 0.0005406480778902238 0 0.030519840446980865 0.00037371361899923107 0 0.030627826771381671 0.0005406480778902238 0 0.030839413568249457 9.2306968942411135e-05 0 0.030627826771381671 0.0005406480778902238 0 0.030839413568249457 9.2306968942411135e-05 0 0.030845403720518461 0.00028121857214419049 0 0.030839413568249457 9.2306968942411135e-05 0 0.030845403720518461 0.00028121857214419049 0 0.031003172335834307 7.0804744904280831e-05 0 0.030845403720518461 0.00028121857214419049 0 0.031020172995871238 0.00015745344584390305 0 0.031003172335834307 7.0804744904280831e-05 0 0.030845403720518461 0.00028121857214419049 0 0.031020172995871238 0.00015745344584390305 0 0.030870315727881001 0.00035483588794297312 0 0.030845403720518461 0.00028121857214419049 0 0.030870315727881001 0.00035483588794297312 0 0.030687751470666019 0.00056127894849210182 0 0.030738840801059569 0.00057286991467324149 0 0.030870315727881001 0.00035483588794297312 0 0.030687751470666019 0.00056127894849210182 0 0.030627826771381671 0.0005406480778902238 0 0.030845403720518461 0.00028121857214419049 0 0.030687751470666019 0.00056127894849210182 0 0.030511303317836733 0.00080448699879775835 0 0.030627826771381671 0.0005406480778902238 0 0.030687751470666019 0.00056127894849210182 0 0.03051924040027687 0.00076733820260772476 0 0.030511303317836733 0.00080448699879775835 0 0.030687751470666019 0.00056127894849210182 0 0.03051924040027687 0.00076733820260772476 0 0.030738840801059569 0.00057286991467324149 0 0.030687751470666019 0.00056127894849210182 0 0.028079375819450577 0.002121876893354364 0 0.027652026248944413 0.0022536039622572733 0 0.028473578291212099 0.0021919503656809111 0 0.028079375819450577 0.002121876893354364 0 0.028473578291212099 0.0021919503656809111 0 0.02874118957974094 0.0017156351699255514 0 0.028079375819450577 0.002121876893354364 0 0.02874118957974094 0.0017156351699255514 0 0.028177946813839245 0.0017741219696608378 0 0.028079375819450577 0.002121876893354364 0 0.027779413871137828 0.0020783906070491044 0 0.028177946813839245 0.0017741219696608378 0 0.02772536833264938 0.0016609405147586045 0 0.027779413871137828 0.0020783906070491044 0 0.028177946813839245 0.0017741219696608378 0 0.028079375819450577 0.002121876893354364 0 0.027779413871137828 0.0020783906070491044 0 0.027514189353423677 0.0022554478345770267 0 0.027442806408808779 0.0021566945363031024 0 0.027779413871137828 0.0020783906070491044 0 0.027514189353423677 0.0022554478345770267 0 0.027227219884191127 0.0022549824024912435 0 0.027514189353423677 0.0022554478345770267 0 0.027652026248944413 0.0022536039622572733 0 0.02690286755614299 0.002208558365701308 0 0.027652026248944413 0.0022536039622572733 0 0.028473578291212099 0.0021919503656809111 0 0.028079375819450577 0.002121876893354364 0 0.027514189353423677 0.0022554478345770267 0 0.027652026248944413 0.0022536039622572733 0 0.028416728438270675 0.0018967287520694374 0 0.028858982162169228 0.0014984793644426764 0 0.02690286755614299 0.002208558365701308 0 0.028582280932748921 0.0015779551593608433 0 0.028097291654988126 0.0013482819668881462 0 0.027841149487195856 0.0016930788235495532 0 0.028187635024727278 0.001381095615067789 0 0.026815795115327744 0.0019842736345454652 0 0.026716452637757477 0.0021477182267625947 0 0.027024402419824799 0.0016966841772801684 0 0.026815795115327744 0.0019842736345454652 0 0.027110302820723967 0.0018399898599565099 0 0.027024402419824799 0.0016966841772801684 0 0.027854475330361835 0.001540315769908126 0 0.027110302820723967 0.0018399898599565099 0 0.027024402419824799 0.0016966841772801684 0 0.026815795115327744 0.0019842736345454652 0 0.026825624539639891 0.0019150642560049496 0 0.027110302820723967 0.0018399898599565099 0 0.026825624539639891 0.0019150642560049496 0 0.027251375045461795 0.0017759359214431817 0 0.027110302820723967 0.0018399898599565099 0 0.027251375045461795 0.0017759359214431817 0 0.027854475330361835 0.001540315769908126 0 0.027110302820723967 0.0018399898599565099 0 0.028582280932748921 0.0015779551593608433 0 0.028968703981393357 0.00087300169813045556 0 0.029900932827352684 0.00037564928016785558 0 0.027854475330361835 0.001540315769908126 0 0.027024402419824799 0.0016966841772801684 0 0.028490169248650027 0.00059478345213596472 0 0.028187635024727278 0.001381095615067789 0 0.028861227082074673 0.00068889289074115713 0 0.028582280932748921 0.0015779551593608433 0 0.028097291654988126 0.0013482819668881462 0 0.028968703981393357 0.00087300169813045556 0 0.028097291654988126 0.0013482819668881462 0 0.028968703981393357 0.00087300169813045556 0 0.029252249513454186 0.00015571645759227353 0 0.028968703981393357 0.00087300169813045556 0 0.029900932827352684 0.00037564928016785558 0 0.029252249513454186 0.00015571645759227353 0 0.028858982162169228 0.0014984793644426764 0 0.029792158663040486 0.00055025369014931596 0 0.029900932827352684 0.00037564928016785558 0 0.030033738843829733 -9.0424371394037283e-05 0 0.030479184303140047 -0.00031047079718655215 0 0.028861227082074673 0.00068889289074115713 0 0.029254548668674159 0.00024926366335342899 0 0.029900932827352684 0.00037564928016785558 0 0.030033738843829733 -9.0424371394037283e-05 0 0.029252249513454186 0.00015571645759227353 0 0.030048265549261252 0.0011036196110661169 0 0.028714931807681743 0.00092617698147444991 0 0.02995000939325523 0.00018836562207971171 0 0.030048265549261252 0.0011036196110661169 0 0.02874118957974094 0.0017156351699255514 0 0.028714931807681743 0.00092617698147444991 0 0.02874118957974094 0.0017156351699255514 0 0.028177946813839245 0.0017741219696608378 0 0.028714931807681743 0.00092617698147444991 0 0.028473578291212099 0.0021919503656809111 0 0.030048265549261252 0.0011036196110661169 0 0.02874118957974094 0.0017156351699255514 0 0.02772536833264938 0.0016609405147586045 0 0.028177946813839245 0.0017741219696608378 0 0.028714931807681743 0.00092617698147444991 0 0.02772536833264938 0.0016609405147586045 0 0.027537998587491921 0.0010930892786859515 0 0.028714931807681743 0.00092617698147444991 0 0.027537998587491921 0.0010930892786859515 0 0.028714931807681743 0.00092617698147444991 0 0.029009304347810728 -0.00041305196882690125 0 0.03063754345513206 -0.00023372825372736095 0 0.031074554136320508 -0.00079171492905320655 0 0.033531798941098569 -0.0017051680214728918 0 0.033426693925686098 -0.0021710500865456395 0 0.033589235336255893 -0.00204236145438551 0 0.033426693925686098 -0.0021710500865456395 0 0.033625825379704724 -0.0018380889922443055 0 0.033589235336255893 -0.00204236145438551 0 0.033426693925686098 -0.0021710500865456395 0 0.033625825379704724 -0.0018380889922443055 0 0.033294036381193139 -0.0015343885161287279 0 0.033625825379704724 -0.0018380889922443055 0 0.033294036381193139 -0.0015343885161287279 0 0.033730335113175899 -0.0014704219913272791 0 0.031074554136320508 -0.00079171492905320655 0 0.031302001639918788 -0.00099092919331881125 0 0.033426693925686098 -0.0021710500865456395 0 0.033294036381193139 -0.0015343885161287279 0 0.032065310051431949 -0.0014155203109814832 0 0.029009304347810728 -0.00041305196882690125 0 0.031723456659366954 -0.00093207823545663187 0 0.032065310051431949 -0.0014155203109814832 0 0.028714931807681743 0.00092617698147444991 0 0.029009304347810728 -0.00041305196882690125 0 0.02995000939325523 0.00018836562207971171 0 0.029009304347810728 -0.00041305196882690125 0 0.02995000939325523 0.00018836562207971171 0 0.031723456659366954 -0.00093207823545663187 0 0.029792158663040486 0.00055025369014931596 0 0.030813786792475224 -0.00035299543075349531 0 0.030048265549261252 0.0011036196110661169 0 0.02995000939325523 0.00018836562207971171 0 0.031723456659366954 -0.00093207823545663187 0 0.030033738843829733 -9.0424371394037283e-05 0 0.029252249513454186 0.00015571645759227353 0 0.030498071738253325 -0.00038135979490810099 0 0.030033738843829733 -9.0424371394037283e-05 0 0.030498071738253325 -0.00038135979490810099 0 0.030479184303140047 -0.00031047079718655215 0 0.031221288817737444 -0.0004516333834085239 0 0.030498071738253325 -0.00038135979490810099 0 0.030479184303140047 -0.00031047079718655215 0 0.031723456659366954 -0.00093207823545663187 0 0.032535376445927237 -0.0012663287330500889 0 0.032065310051431949 -0.0014155203109814832 0 0.031221288817737444 -0.0004516333834085239 0 0.030498071738253325 -0.00038135979490810099 0 0.03174589940016051 -0.00050792616280999629 0 0.032535376445927237 -0.0012663287330500889 0 0.032065310051431949 -0.0014155203109814832 0 0.032846625352306515 -0.0011744611890082794 0 0.030813786792475224 -0.00035299543075349531 0 0.031604954957974891 -0.0006156046020969082 0 0.031221288817737444 -0.0004516333834085239 0 0.03174589940016051 -0.00050792616280999629 0 0.032111755647320946 -0.00049719949723275674 0 0.031221288817737444 -0.0004516333834085239 0 0.032111755647320946 -0.00049719949723275674 0 0.031843778217356448 -0.00048671479782846184 0 0.03174589940016051 -0.00050792616280999629 0 0.032111755647320946 -0.00049719949723275674 0 0.033227967307039682 -0.00038105829360789194 0 0.032111755647320946 -0.00049719949723275674 0 0.031843778217356448 -0.00048671479782846184 0 0.032522608242003662 -0.00045044052051920356 0 0.031604954957974891 -0.0006156046020969082 0 0.031948530526215949 -0.00051761924845657799 0 0.032535376445927237 -0.0012663287330500889 0 0.033186100488767356 -0.00075835501569949514 0 0.033292542765645132 -0.00090355699711774917 0 0.032535376445927237 -0.0012663287330500889 0 0.033186100488767356 -0.00075835501569949514 0 0.033227967307039682 -0.00038105829360789194 0 0.033186100488767356 -0.00075835501569949514 0 0.033292542765645132 -0.00090355699711774917 0 0.033711611534910806 -0.00058052218002251185 0 0.033292542765645132 -0.00090355699711774917 0 0.033928194030080967 -0.00079206917067451842 0 0.033504930725926696 -0.0011202529739743367 0 0.033292542765645132 -0.00090355699711774917 0 0.033928194030080967 -0.00079206917067451842 0 0.033711611534910806 -0.00058052218002251185 0 0.033928194030080967 -0.00079206917067451842 0 0.033504930725926696 -0.0011202529739743367 0 0.033893928620890613 -0.0011378400752630369 0 0.033504930725926696 -0.0011202529739743367 0 0.033893928620890613 -0.0011378400752630369 0 0.033730335113175899 -0.0014704219913272791 0 0.033294036381193139 -0.0015343885161287279 0 0.033504930725926696 -0.0011202529739743367 0 0.033730335113175899 -0.0014704219913272791 0 0.033294036381193139 -0.0015343885161287279 0 0.033504930725926696 -0.0011202529739743367 0 0.032846625352306515 -0.0011744611890082794 0 0.032535376445927237 -0.0012663287330500889 0 0.033292542765645132 -0.00090355699711774917 0 0.032846625352306515 -0.0011744611890082794 0 0.033294036381193139 -0.0015343885161287279 0 0.032065310051431949 -0.0014155203109814832 0 0.032846625352306515 -0.0011744611890082794 0 0.033292542765645132 -0.00090355699711774917 0 0.033504930725926696 -0.0011202529739743367 0 0.032846625352306515 -0.0011744611890082794 0 0.031242246025763639 -0.00019680275863760769 0 0.031386405769079397 -0.00037146603992972157 0 0.031454746954481271 -0.00040173301470869909 0 0.031191374616191852 -1.3545595349519852e-05 0 0.031242246025763639 -0.00019680275863760769 0 0.031454746954481271 -0.00040173301470869909 0 0.031191374616191852 -1.3545595349519852e-05 0 0.031242246025763639 -0.00019680275863760769 0 0.031115556351074242 -2.0234244370196103e-05 0 0.031020172995871238 0.00015745344584390305 0 0.031115556351074242 -2.0234244370196103e-05 0 0.031003172335834307 7.0804744904280831e-05 0 0.030839413568249457 9.2306968942411135e-05 0 0.031003172335834307 7.0804744904280831e-05 0 0.031120561674945202 -9.4626000751033592e-05 0 0.031115556351074242 -2.0234244370196103e-05 0 0.031003172335834307 7.0804744904280831e-05 0 0.031120561674945202 -9.4626000751033592e-05 0 0.031242246025763639 -0.00019680275863760769 0 0.031115556351074242 -2.0234244370196103e-05 0 0.031120561674945202 -9.4626000751033592e-05 0 0.031242246025763639 -0.00019680275863760769 0 0.031120561674945202 -9.4626000751033592e-05 0 0.031115287232277029 -0.00018810332381296647 0 0.030839413568249457 9.2306968942411135e-05 0 0.031120561674945202 -9.4626000751033592e-05 0 0.031115287232277029 -0.00018810332381296647 0 0.030839413568249457 9.2306968942411135e-05 0 0.031115287232277029 -0.00018810332381296647 0 0.030837002910406214 -0.00016740549563078584 0 0.031115287232277029 -0.00018810332381296647 0 0.031209766663156599 -0.00032935981090777516 0 0.030837002910406214 -0.00016740549563078584 0 0.031115287232277029 -0.00018810332381296647 0 0.031209766663156599 -0.00032935981090777516 0 0.031386405769079397 -0.00037146603992972157 0 0.031242246025763639 -0.00019680275863760769 0 0.031115287232277029 -0.00018810332381296647 0 0.031386405769079397 -0.00037146603992972157 0 0.031209766663156599 -0.00032935981090777516 0 0.031386405769079397 -0.00037146603992972157 0 0.031544434331642085 -0.00044743623299546494 0 0.031084734844964705 -0.00035913124834298718 0 0.031297700922647269 -0.00044101149042919362 0 0.031544434331642085 -0.00044743623299546494 0 0.031209766663156599 -0.00032935981090777516 0 0.031084734844964705 -0.00035913124834298718 0 0.031544434331642085 -0.00044743623299546494 0 0.031209766663156599 -0.00032935981090777516 0 0.031084734844964705 -0.00035913124834298718 0 0.030837002910406214 -0.00016740549563078584 0 0.030400923321707529 0.00011150919743617066 0 0.030839413568249457 9.2306968942411135e-05 0 0.030837002910406214 -0.00016740549563078584 0 0.030400923321707529 0.00011150919743617066 0 0.030837002910406214 -0.00016740549563078584 0 0.030479184303140047 -0.00031047079718655215 0 0.031084734844964705 -0.00035913124834298718 0 0.030837002910406214 -0.00016740549563078584 0 0.030479184303140047 -0.00031047079718655215 0 0.031084734844964705 -0.00035913124834298718 0 0.030479184303140047 -0.00031047079718655215 0 0.031297700922647269 -0.00044101149042919362 0 0.031221288817737444 -0.0004516333834085239 0 0.030479184303140047 -0.00031047079718655215 0 0.031297700922647269 -0.00044101149042919362 0 0.031297700922647269 -0.00044101149042919362 0 0.031843778217356448 -0.00048671479782846184 0 0.031960830580333686 -0.00048618139978524411 0 0.031221288817737444 -0.0004516333834085239 0 0.031297700922647269 -0.00044101149042919362 0 0.031843778217356448 -0.00048671479782846184 0 0.031843778217356448 -0.00048671479782846184 0 0.031960830580333686 -0.00048618139978524411 0 0.032522608242003662 -0.00045044052051920356 0 0.031960830580333686 -0.00048618139978524411 0 0.03254310584639545 -0.00040676546623136825 0 0.032522608242003662 -0.00045044052051920356 0 0.031960830580333686 -0.00048618139978524411 0 0.032040296326369511 -0.00046860160473708373 0 0.03254310584639545 -0.00040676546623136825 0 0.031960830580333686 -0.00048618139978524411 0 0.031544434331642085 -0.00044743623299546494 0 0.032040296326369511 -0.00046860160473708373 0 0.031297700922647269 -0.00044101149042919362 0 0.031960830580333686 -0.00048618139978524411 0 0.031544434331642085 -0.00044743623299546494 0 0.031544434331642085 -0.00044743623299546494 0 0.031673570760961237 -0.00045084773793939437 0 0.032040296326369511 -0.00046860160473708373 0 0.031386405769079397 -0.00037146603992972157 0 0.031544434331642085 -0.00044743623299546494 0 0.031673570760961237 -0.00045084773793939437 0 0.032040296326369511 -0.00046860160473708373 0 0.031924676986314855 -0.0004356803985462312 0 0.032489722168785852 -0.00036047911483332728 0 0.031673570760961237 -0.00045084773793939437 0 0.032040296326369511 -0.00046860160473708373 0 0.031924676986314855 -0.0004356803985462312 0 0.033042540760222894 2.801454730802986e-05 0 0.032661641938696945 1.4631248098164567e-05 0 0.032281403937529027 -0.00016334573669697332 0 0.032539832087685044 -0.00014893524301770491 0 0.032039070261710628 -0.00016068795538979182 0 0.031673570760961237 -0.00045084773793939437 0 0.031924676986314855 -0.0004356803985462312 0 0.031454746954481271 -0.00040173301470869909 0 0.032288072013092632 -9.0450173196040263e-05 0 0.032661641938696945 1.4631248098164567e-05 0 0.032281403937529027 -0.00016334573669697332 0 0.031386405769079397 -0.00037146603992972157 0 0.031673570760961237 -0.00045084773793939437 0 0.031454746954481271 -0.00040173301470869909 0 0.034975401027899207 -1.7126466408246631e-06 0 0.034976882221568646 -2.3567630624685008e-06 0 0.034986073717467876 -1.2417989753681774e-06 0 0.034985269441929395 6.9577966405433017e-07 0 0.034991687736477164 -4.5023964685544994e-07 0 0.033716001936488535 0.00013327451312224794 0 0.034362191427459422 -1.351221846862112e-05 0 0.034975401027899207 -1.7126466408246631e-06 0 0.034967246949505613 4.4103990367261906e-06 0 0.034976882221568646 -2.3567630624685008e-06 0 0.033042540760222894 2.801454730802986e-05 0 0.032661641938696945 1.4631248098164567e-05 0 0.033328484029889825 0.00017315409227633657 0 0.032900612749106134 0.00048130345441370803 0 0.033716001936488535 0.00013327451312224794 0 0.032539832087685044 -0.00014893524301770491 0 0.033087059756584838 -2.417952032708272e-05 0 0.031924676986314855 -0.0004356803985462312 0 0.032489722168785852 -0.00036047911483332728 0 0.032844835296743979 -0.00014202306489954539 0 0.033042540760222894 2.801454730802986e-05 0 0.033328484029889825 0.00017315409227633657 0 0.033802167122793124 0.00018843841964309312 0 0.032489722168785852 -0.00036047911483332728 0 0.032844835296743979 -0.00014202306489954539 0 0.033079568222966392 -0.00025213847180956598 0 0.033328484029889825 0.00017315409227633657 0 0.033802167122793124 0.00018843841964309312 0 0.034038422469633088 0.00020266777829494687 0 0.032844835296743979 -0.00014202306489954539 0 0.033079568222966392 -0.00025213847180956598 0 0.033721274326740387 -5.5858867195537832e-05 0 0.033079568222966392 -0.00025213847180956598 0 0.033670760242145853 -0.00012636760370035783 0 0.033721274326740387 -5.5858867195537832e-05 0 0.032489722168785852 -0.00036047911483332728 0 0.033079568222966392 -0.00025213847180956598 0 0.03254310584639545 -0.00040676546623136825 0 0.032040296326369511 -0.00046860160473708373 0 0.032489722168785852 -0.00036047911483332728 0 0.03254310584639545 -0.00040676546623136825 0 0.033079568222966392 -0.00025213847180956598 0 0.03254310584639545 -0.00040676546623136825 0 0.033006804395827032 -0.00033089828273865718 0 0.03254310584639545 -0.00040676546623136825 0 0.032522608242003662 -0.00045044052051920356 0 0.033006804395827032 -0.00033089828273865718 0 0.033079568222966392 -0.00025213847180956598 0 0.033006804395827032 -0.00033089828273865718 0 0.033670760242145853 -0.00012636760370035783 0 0.033006804395827032 -0.00033089828273865718 0 0.033670760242145853 -0.00012636760370035783 0 0.033227967307039682 -0.00038105829360789194 0 0.033670760242145853 -0.00012636760370035783 0 0.034291978969654462 -4.3332591483358953e-06 0 0.034215210766813449 -5.1671529025046148e-05 0 0.033670760242145853 -0.00012636760370035783 0 0.034291978969654462 -4.3332591483358953e-06 0 0.033721274326740387 -5.5858867195537832e-05 0 0.034291978969654462 -4.3332591483358953e-06 0 0.034998979211270875 4.4725663707703877e-08 0 0.034215210766813449 -5.1671529025046148e-05 0 0.034291978969654462 -4.3332591483358953e-06 0 0.034998979211270875 4.4725663707703877e-08 0 0.034541437539306739 8.5131885765278787e-05 0 0.034998979211270875 4.4725663707703877e-08 0 0.034541437539306739 8.5131885765278787e-05 0 0.034997993926264181 1.4505274730418526e-07 0 0.034291978969654462 -4.3332591483358953e-06 0 0.034541437539306739 8.5131885765278787e-05 0 0.033721274326740387 -5.5858867195537832e-05 0 0.032844835296743979 -0.00014202306489954539 0 0.034541437539306739 8.5131885765278787e-05 0 0.033721274326740387 -5.5858867195537832e-05 0 0.033087059756584838 -2.417952032708272e-05 0 0.033399140249715721 6.5059698991753789e-05 0 0.033802167122793124 0.00018843841964309312 0 0.034541437539306739 8.5131885765278787e-05 0 0.034038422469633088 0.00020266777829494687 0 0.034990415430202544 -1.186165385691994e-06 0 0.035000004100690041 -1.6692752320762619e-09 0 0.034999980439814025 2.761751731546312e-09 0 0.034541437539306739 8.5131885765278787e-05 0 0.034038422469633088 0.00020266777829494687 0 0.034997993926264181 1.4505274730418526e-07 0 0.034362191427459422 -1.351221846862112e-05 0 0.034998753657999128 2.2683570311116341e-08 0 0.034999983159572458 2.9707617305446142e-10 0 0.034991687736477164 -4.5023964685544994e-07 0 0.034993629040205747 1.1935517777194537e-06 0 0.034999993675980216 9.0780719679862825e-10 0 0.034991923875479752 1.4404745392495013e-06 0 0.034990415430202544 -1.186165385691994e-06 0 0.034999980439814025 2.761751731546312e-09 0 0.034986073717467876 -1.2417989753681774e-06 0 0.034976882221568646 -2.3567630624685008e-06 0 0.034990415430202544 -1.186165385691994e-06 0 0.034986073717467876 -1.2417989753681774e-06 0 0.034124089017756064 -0.00025788976795171044 0 0.033227967307039682 -0.00038105829360789194 0 0.034382236122255695 -5.5763872877390716e-05 0 0.034124089017756064 -0.00025788976795171044 0 0.034616127187481985 -8.5121154649571131e-05 0 0.034261153110853169 -0.00042490529704256909 0 0.034124089017756064 -0.00025788976795171044 0 0.033711611534910806 -0.00058052218002251185 0 0.034261153110853169 -0.00042490529704256909 0 0.033928194030080967 -0.00079206917067451842 0 0.033711611534910806 -0.00058052218002251185 0 0.034261153110853169 -0.00042490529704256909 0 0.034124089017756064 -0.00025788976795171044 0 0.033711611534910806 -0.00058052218002251185 0 0.033227967307039682 -0.00038105829360789194 0 0.033186100488767356 -0.00075835501569949514 0 0.033711611534910806 -0.00058052218002251185 0 0.033227967307039682 -0.00038105829360789194 0 0.032111755647320946 -0.00049719949723275674 0 0.032522608242003662 -0.00045044052051920356 0 0.033227967307039682 -0.00038105829360789194 0 0.032522608242003662 -0.00045044052051920356 0 0.033006804395827032 -0.00033089828273865718 0 0.033227967307039682 -0.00038105829360789194 0 0.033670760242145853 -0.00012636760370035783 0 0.033227967307039682 -0.00038105829360789194 0 0.034215210766813449 -5.1671529025046148e-05 0 0.033227967307039682 -0.00038105829360789194 0 0.034215210766813449 -5.1671529025046148e-05 0 0.034382236122255695 -5.5763872877390716e-05 0 0.034998979211270875 4.4725663707703877e-08 0 0.034215210766813449 -5.1671529025046148e-05 0 0.034999069440963336 6.6450726723749445e-09 0 0.034215210766813449 -5.1671529025046148e-05 0 0.034999069440963336 6.6450726723749445e-09 0 0.034382236122255695 -5.5763872877390716e-05 0 0.034999069440963336 6.6450726723749445e-09 0 0.034382236122255695 -5.5763872877390716e-05 0 0.034999388878815665 4.3993831468475301e-08 0 0.034124089017756064 -0.00025788976795171044 0 0.034382236122255695 -5.5763872877390716e-05 0 0.034616127187481985 -8.5121154649571131e-05 0 0.034999388878815665 4.3993831468475301e-08 0 0.034999679552549567 -1.3905881344608961e-08 0 0.034616127187481985 -8.5121154649571131e-05 0 0.034382236122255695 -5.5763872877390716e-05 0 0.034999388878815665 4.3993831468475301e-08 0 0.034616127187481985 -8.5121154649571131e-05 0 0.034999679552549567 -1.3905881344608961e-08 0 0.034859017477146897 -6.4565440660270998e-05 0 0.034616127187481985 -8.5121154649571131e-05 0 0.034999679552549567 -1.3905881344608961e-08 0 0.034859017477146897 -6.4565440660270998e-05 0 0.034999875924777865 -1.6446306235987643e-08 0 0.034859017477146897 -6.4565440660270998e-05 0 0.034859301716126563 -0.00017880725240323439 0 0.034634300246954387 -0.00026514281224444467 0 0.034859017477146897 -6.4565440660270998e-05 0 0.034616127187481985 -8.5121154649571131e-05 0 0.034634300246954387 -0.00026514281224444467 0 0.034999875924777865 -1.6446306235987643e-08 0 0.034974180179679334 -5.4746524003202111e-05 0 0.035000030836791492 -3.1330960609308338e-08 0 0.034859017477146897 -6.4565440660270998e-05 0 0.034999875924777865 -1.6446306235987643e-08 0 0.034974180179679334 -5.4746524003202111e-05 0 0.034859017477146897 -6.4565440660270998e-05 0 0.034974180179679334 -5.4746524003202111e-05 0 0.034859301716126563 -0.00017880725240323439 0 0.034974180179679334 -5.4746524003202111e-05 0 0.035012330741992254 -0.00018405829060684953 0 0.034859301716126563 -0.00017880725240323439 0 0.034844128846348688 -0.00024701298260943578 0 0.034823678580990891 -0.00029106564850369851 0 0.035012330741992254 -0.00018405829060684953 0 0.034859301716126563 -0.00017880725240323439 0 0.034817086787555136 -0.00040720613535806099 0 0.034859301716126563 -0.00017880725240323439 0 0.034817086787555136 -0.00040720613535806099 0 0.034634300246954387 -0.00026514281224444467 0 0.034817086787555136 -0.00040720613535806099 0 0.034634300246954387 -0.00026514281224444467 0 0.034781093857487129 -0.00043049489102099257 0 0.034817086787555136 -0.00040720613535806099 0 0.034781093857487129 -0.00043049489102099257 0 0.034752608227298858 -0.00040256920160571951 0 0.034817086787555136 -0.00040720613535806099 0 0.034752608227298858 -0.00040256920160571951 0 0.034681493342361411 -0.00045552902234609674 0 0.034649227738708578 -0.00043656678456538157 0 0.034817086787555136 -0.00040720613535806099 0 0.034681493342361411 -0.00045552902234609674 0 0.034616127187481985 -8.5121154649571131e-05 0 0.034634300246954387 -0.00026514281224444467 0 0.034261153110853169 -0.00042490529704256909 0 0.034448534269024847 -0.00052761785293001663 0 0.034466543242716259 -0.00073510302236770651 0 0.034634300246954387 -0.00026514281224444467 0 0.03432150833762071 -0.00068268028849208576 0 0.034453971352424895 -0.00079955388127764585 0 0.034634300246954387 -0.00026514281224444467 0 0.034453971352424895 -0.00079955388127764585 0 0.034637807793486179 -0.00074158027225571042 0 0.033928194030080967 -0.00079206917067451842 0 0.034261153110853169 -0.00042490529704256909 0 0.03432150833762071 -0.00068268028849208576 0 0.034634300246954387 -0.00026514281224444467 0 0.034261153110853169 -0.00042490529704256909 0 0.03432150833762071 -0.00068268028849208576 0 0.033928194030080967 -0.00079206917067451842 0 0.03432150833762071 -0.00068268028849208576 0 0.034183981424275679 -0.00097840932664452671 0 0.033928194030080967 -0.00079206917067451842 0 0.034183981424275679 -0.00097840932664452671 0 0.033893928620890613 -0.0011378400752630369 0 0.034183981424275679 -0.00097840932664452671 0 0.033893928620890613 -0.0011378400752630369 0 0.034078125787578691 -0.0013273789085349744 0 0.033893928620890613 -0.0011378400752630369 0 0.034078125787578691 -0.0013273789085349744 0 0.033730335113175899 -0.0014704219913272791 0 0.034078125787578691 -0.0013273789085349744 0 0.034368203916227941 -0.0011557314916252801 0 0.0342207594705633 -0.0015707781074800187 0 0.034368203916227941 -0.0011557314916252801 0 0.034569256393294168 -0.0013116111805318114 0 0.0342207594705633 -0.0015707781074800187 0 0.034183981424275679 -0.00097840932664452671 0 0.034078125787578691 -0.0013273789085349744 0 0.034368203916227941 -0.0011557314916252801 0 0.034368203916227941 -0.0011557314916252801 0 0.034453971352424895 -0.00079955388127764585 0 0.034597777359204648 -0.0010578986912316605 0 0.034183981424275679 -0.00097840932664452671 0 0.034368203916227941 -0.0011557314916252801 0 0.034453971352424895 -0.00079955388127764585 0 0.03432150833762071 -0.00068268028849208576 0 0.034183981424275679 -0.00097840932664452671 0 0.034453971352424895 -0.00079955388127764585 0 0.034637807793486179 -0.00074158027225571042 0 0.034597777359204648 -0.0010578986912316605 0 0.034983927398091752 -0.0012839114430589721 0 0.034466543242716259 -0.00073510302236770651 0 0.034353130019383754 -0.0011855243664713898 0 0.034453971352424895 -0.00079955388127764585 0 0.034637807793486179 -0.00074158027225571042 0 0.034597777359204648 -0.0010578986912316605 0 0.034752608227298858 -0.00040256920160571951 0 0.034748912866870575 -0.00033554223688003223 0 0.034670735066184698 -0.00038921415299756105 0 0.034781093857487129 -0.00043049489102099257 0 0.034752608227298858 -0.00040256920160571951 0 0.034748912866870575 -0.00033554223688003223 0 0.034597777359204648 -0.0010578986912316605 0 0.034983927398091752 -0.0012839114430589721 0 0.034569256393294168 -0.0013116111805318114 0 0.034983927398091752 -0.0012839114430589721 0 0.034569256393294168 -0.0013116111805318114 0 0.034663094019331771 -0.0016087630724895615 0 0.034368203916227941 -0.0011557314916252801 0 0.034597777359204648 -0.0010578986912316605 0 0.034569256393294168 -0.0013116111805318114 0 0.034569256393294168 -0.0013116111805318114 0 0.034663094019331771 -0.0016087630724895615 0 0.0342207594705633 -0.0015707781074800187 0 0.034663094019331771 -0.0016087630724895615 0 0.034108718238683541 -0.0019367687263324032 0 0.0342207594705633 -0.0015707781074800187 0 0.034222665378634526 -0.001453855045413075 0 0.034177035941139293 -0.0015417502040734326 0 0.033792227241057654 -0.0019705583951259028 0 0.033790218940522983 -0.0019356226499676686 0 0.033816042788003257 -0.00183548368345098 0 0.034353130019383754 -0.0011855243664713898 0 0.03430803139623443 -0.0013096902738683744 0 0.034353130019383754 -0.0011855243664713898 0 0.034222665378634526 -0.001453855045413075 0 0.033792227241057654 -0.0019705583951259028 0 0.033853468495596416 -0.0020012808648647651 0 0.033790218940522983 -0.0019356226499676686 0 0.033853468495596416 -0.0020012808648647651 0 0.033790218940522983 -0.0019356226499676686 0 0.033787285788853032 -0.0019756342923000917 0 0.033790218940522983 -0.0019356226499676686 0 0.033708226364035442 -0.0019935451568675014 0 0.033816042788003257 -0.00183548368345098 0 0.033790218940522983 -0.0019356226499676686 0 0.033787285788853032 -0.0019756342923000917 0 0.033708226364035442 -0.0019935451568675014 0 0.033787285788853032 -0.0019756342923000917 0 0.033683654417182435 -0.0019874983417236792 0 0.033865499833914112 -0.0019639324484158121 0 0.033616054070768175 -0.0019818797982421596 0 0.033683654417182435 -0.0019874983417236792 0 0.033708226364035442 -0.0019935451568675014 0 0.033787285788853032 -0.0019756342923000917 0 0.033683654417182435 -0.0019874983417236792 0 0.033708226364035442 -0.0019935451568675014 0 0.033853468495596416 -0.0020012808648647651 0 0.033947525226782634 -0.0019533712274256644 0 0.034108718238683541 -0.0019367687263324032 0 0.033853468495596416 -0.0020012808648647651 0 0.033787285788853032 -0.0019756342923000917 0 0.033947525226782634 -0.0019533712274256644 0 0.034065889540730941 -0.0019978150531144382 0 0.033947525226782634 -0.0019533712274256644 0 0.034108718238683541 -0.0019367687263324032 0 0.033787285788853032 -0.0019756342923000917 0 0.033947525226782634 -0.0019533712274256644 0 0.033865499833914112 -0.0019639324484158121 0 0.034065889540730941 -0.0019978150531144382 0 0.033947525226782634 -0.0019533712274256644 0 0.033865499833914112 -0.0019639324484158121 0 0.033190892218159296 -0.0018401188594189769 0 0.033358078813228997 -0.0019148203065693116 0 0.034065889540730941 -0.0019978150531144382 0 0.034108718238683541 -0.0019367687263324032 0 0.03392613450848786 -0.0018759453965701701 0 0.034065889540730941 -0.0019978150531144382 0 0.03392613450848786 -0.0018759453965701701 0 0.033589235336255893 -0.00204236145438551 0 0.033625825379704724 -0.0018380889922443055 0 0.03392613450848786 -0.0018759453965701701 0 0.033589235336255893 -0.00204236145438551 0 0.033625825379704724 -0.0018380889922443055 0 0.03392613450848786 -0.0018759453965701701 0 0.033918406916267491 -0.0016470565178768051 0 0.033625825379704724 -0.0018380889922443055 0 0.033730335113175899 -0.0014704219913272791 0 0.033918406916267491 -0.0016470565178768051 0 0.034078125787578691 -0.0013273789085349744 0 0.033730335113175899 -0.0014704219913272791 0 0.033918406916267491 -0.0016470565178768051 0 0.034078125787578691 -0.0013273789085349744 0 0.033918406916267491 -0.0016470565178768051 0 0.0342207594705633 -0.0015707781074800187 0 0.034108718238683541 -0.0019367687263324032 0 0.03392613450848786 -0.0018759453965701701 0 0.0342207594705633 -0.0015707781074800187 0 0.03392613450848786 -0.0018759453965701701 0 0.033918406916267491 -0.0016470565178768051 0 0.0342207594705633 -0.0015707781074800187 0 0.034668883286647967 -0.0018138524430796408 0 0.034724240432745697 -0.0015281515450015829 0 0.034946855867813181 -0.0016893364967776935 0 0.034668883286647967 -0.0018138524430796408 0 0.034724240432745697 -0.0015281515450015829 0 0.03451108618981448 -0.001668479409041807 0 0.034724240432745697 -0.0015281515450015829 0 0.03451108618981448 -0.001668479409041807 0 0.034462941502317421 -0.0014667219678711262 0 0.034724240432745697 -0.0015281515450015829 0 0.034946855867813181 -0.0016893364967776935 0 0.034960626025720087 -0.00142412278952626 0 0.035144577425950015 -0.0015600727627507749 0 0.034946855867813181 -0.0016893364967776935 0 0.034960626025720087 -0.00142412278952626 0 0.035144577425950015 -0.0015600727627507749 0 0.035159339802488719 -0.0013440161947843707 0 0.035321845336692491 -0.0014705841845565491 0 0.035144577425950015 -0.0015600727627507749 0 0.035159339802488719 -0.0013440161947843707 0 0.034960626025720087 -0.00142412278952626 0 0.035144577425950015 -0.0015600727627507749 0 0.035152021590568197 -0.001777490265948092 0 0.035303909931023454 -0.0016562000034994031 0 0.035144577425950015 -0.0015600727627507749 0 0.034946855867813181 -0.0016893364967776935 0 0.035152021590568197 -0.001777490265948092 0 0.031875271977134419 -0.0019651968758926308 0 0.031970013975020944 -0.0018339035309366222 0 0.034968508991840015 -0.0020653407479526392 0 0.035152021590568197 -0.001777490265948092 0 0.035370235306411063 -0.0018765426520728618 0 0.034946855867813181 -0.0016893364967776935 0 0.034968508991840015 -0.0020653407479526392 0 0.035152021590568197 -0.001777490265948092 0 0.034668883286647967 -0.0018138524430796408 0 0.034968508991840015 -0.0020653407479526392 0 0.034396858289846358 -0.0021137587421871328 0 0.031875271977134419 -0.0019651968758926308 0 0.033502573763337901 -0.0020634482792716976 0 0.033743042506010991 -0.0020029798487026665 0 0.03367407837961945 -0.0019925569633367146 0 0.033735805958140158 -0.0020071608792961485 0 0.034668883286647967 -0.0018138524430796408 0 0.034946855867813181 -0.0016893364967776935 0 0.034968508991840015 -0.0020653407479526392 0 0.033743042506010991 -0.0020029798487026665 0 0.033735805958140158 -0.0020071608792961485 0 0.033708226364035442 -0.0019935451568675014 0 0.034668883286647967 -0.0018138524430796408 0 0.034396858289846358 -0.0021137587421871328 0 0.034413914703177437 -0.001848487139732746 0 0.034396858289846358 -0.0021137587421871328 0 0.034170946819844873 -0.0019311427307102333 0 0.034413914703177437 -0.001848487139732746 0 0.034170946819844873 -0.0019311427307102333 0 0.033708226364035442 -0.0019935451568675014 0 0.033988939866197956 -0.0018822552575866716 0 0.033616054070768175 -0.0019818797982421596 0 0.033743042506010991 -0.0020029798487026665 0 0.033708226364035442 -0.0019935451568675014 0 0.034396858289846358 -0.0021137587421871328 0 0.034170946819844873 -0.0019311427307102333 0 0.033708226364035442 -0.0019935451568675014 0 0.033502573763337901 -0.0020634482792716976 0 0.033692994455647267 -0.0020653229220426962 0 0.033708226364035442 -0.0019935451568675014 0 0.033816042788003257 -0.00183548368345098 0 0.033988939866197956 -0.0018822552575866716 0 0.033511969212985881 -0.0013528672506669421 0 0.033816042788003257 -0.00183548368345098 0 0.034081541419247817 -0.0014269627352814721 0 0.033816042788003257 -0.00183548368345098 0 0.033988939866197956 -0.0018822552575866716 0 0.034223942259459697 -0.0017307282573700903 0 0.033816042788003257 -0.00183548368345098 0 0.034223942259459697 -0.0017307282573700903 0 0.034081541419247817 -0.0014269627352814721 0 0.034413914703177437 -0.001848487139732746 0 0.03451108618981448 -0.001668479409041807 0 0.034223942259459697 -0.0017307282573700903 0 0.034668883286647967 -0.0018138524430796408 0 0.034413914703177437 -0.001848487139732746 0 0.03451108618981448 -0.001668479409041807 0 0.034170946819844873 -0.0019311427307102333 0 0.034413914703177437 -0.001848487139732746 0 0.034223942259459697 -0.0017307282573700903 0 0.034170946819844873 -0.0019311427307102333 0 0.033988939866197956 -0.0018822552575866716 0 0.034223942259459697 -0.0017307282573700903 0 0.034223942259459697 -0.0017307282573700903 0 0.034462941502317421 -0.0014667219678711262 0 0.034081541419247817 -0.0014269627352814721 0 0.03451108618981448 -0.001668479409041807 0 0.034223942259459697 -0.0017307282573700903 0 0.034462941502317421 -0.0014667219678711262 0 0.034462941502317421 -0.0014667219678711262 0 0.034366859048273524 -0.0012120318735724641 0 0.034763254024590851 -0.0012336430505866765 0 0.034366859048273524 -0.0012120318735724641 0 0.034623936654222177 -0.0009403271994291194 0 0.034763254024590851 -0.0012336430505866765 0 0.034462941502317421 -0.0014667219678711262 0 0.034366859048273524 -0.0012120318735724641 0 0.034081541419247817 -0.0014269627352814721 0 0.033511969212985881 -0.0013528672506669421 0 0.034081541419247817 -0.0014269627352814721 0 0.034005358933832032 -0.00092851756070187774 0 0.034366859048273524 -0.0012120318735724641 0 0.034081541419247817 -0.0014269627352814721 0 0.034005358933832032 -0.00092851756070187774 0 0.034353130019383754 -0.0011855243664713898 0 0.034451231826177244 -0.00090806611259565504 0 0.034752608227298858 -0.00040256920160571951 0 0.034670735066184698 -0.00038921415299756105 0 0.034681493342361411 -0.00045552902234609674 0 0.034366859048273524 -0.0012120318735724641 0 0.034005358933832032 -0.00092851756070187774 0 0.034623936654222177 -0.0009403271994291194 0 0.034005358933832032 -0.00092851756070187774 0 0.034623936654222177 -0.0009403271994291194 0 0.034591644967319472 -0.00054262756702761416 0 0.034451231826177244 -0.00090806611259565504 0 0.034516222498633231 -0.00079919784945022834 0 0.034623936654222177 -0.0009403271994291194 0 0.03481077884772113 -0.00077000777613764999 0 0.034591644967319472 -0.00054262756702761416 0 0.034623936654222177 -0.0009403271994291194 0 0.034763254024590851 -0.0012336430505866765 0 0.034967082275445822 -0.00098868493033911443 0 0.03481077884772113 -0.00077000777613764999 0 0.034967082275445822 -0.00098868493033911443 0 0.03495099124772047 -0.00061926813976136152 0 0.034623936654222177 -0.0009403271994291194 0 0.03481077884772113 -0.00077000777613764999 0 0.034967082275445822 -0.00098868493033911443 0 0.034763254024590851 -0.0012336430505866765 0 0.035013829177782202 -0.0012163284362166221 0 0.034967082275445822 -0.00098868493033911443 0 0.034763254024590851 -0.0012336430505866765 0 0.034960626025720087 -0.00142412278952626 0 0.035013829177782202 -0.0012163284362166221 0 0.034724240432745697 -0.0015281515450015829 0 0.034763254024590851 -0.0012336430505866765 0 0.034960626025720087 -0.00142412278952626 0 0.034724240432745697 -0.0015281515450015829 0 0.034462941502317421 -0.0014667219678711262 0 0.034763254024590851 -0.0012336430505866765 0 0.035159339802488719 -0.0013440161947843707 0 0.034960626025720087 -0.00142412278952626 0 0.035013829177782202 -0.0012163284362166221 0 0.035013829177782202 -0.0012163284362166221 0 0.035199200449525632 -0.0010988497314121525 0 0.034967082275445822 -0.00098868493033911443 0 0.035159339802488719 -0.0013440161947843707 0 0.035013829177782202 -0.0012163284362166221 0 0.035199200449525632 -0.0010988497314121525 0 0.035199200449525632 -0.0010988497314121525 0 0.034967082275445822 -0.00098868493033911443 0 0.035248570279848582 -0.00078565743888620227 0 0.034967082275445822 -0.00098868493033911443 0 0.03495099124772047 -0.00061926813976136152 0 0.035248570279848582 -0.00078565743888620227 0 0.035140957469475029 -0.00054813754918287428 0 0.03495099124772047 -0.00061926813976136152 0 0.035248570279848582 -0.00078565743888620227 0 0.035140957469475029 -0.00054813754918287428 0 0.03495099124772047 -0.00061926813976136152 0 0.034930187201315542 -0.000431867706205621 0 0.03481077884772113 -0.00077000777613764999 0 0.034778561810436759 -0.00049654252504885551 0 0.03495099124772047 -0.00061926813976136152 0 0.03481077884772113 -0.00077000777613764999 0 0.034778561810436759 -0.00049654252504885551 0 0.034591644967319472 -0.00054262756702761416 0 0.034778561810436759 -0.00049654252504885551 0 0.03495099124772047 -0.00061926813976136152 0 0.034930187201315542 -0.000431867706205621 0 0.034778561810436759 -0.00049654252504885551 0 0.034930187201315542 -0.000431867706205621 0 0.034849475604499851 -0.00035365409943359928 0 0.034930187201315542 -0.000431867706205621 0 0.034849475604499851 -0.00035365409943359928 0 0.034980672461886637 -0.00027503173563306647 0 0.034930187201315542 -0.000431867706205621 0 0.035087601442261189 -0.00038604498052248058 0 0.034980672461886637 -0.00027503173563306647 0 0.035087601442261189 -0.00038604498052248058 0 0.035088987487810301 -0.00025764436069579736 0 0.035343705182613795 -0.00047309628977208735 0 0.035087601442261189 -0.00038604498052248058 0 0.035088987487810301 -0.00025764436069579736 0 0.034980672461886637 -0.00027503173563306647 0 0.035140957469475029 -0.00054813754918287428 0 0.035087601442261189 -0.00038604498052248058 0 0.035343705182613795 -0.00047309628977208735 0 0.035140957469475029 -0.00054813754918287428 0 0.034930187201315542 -0.000431867706205621 0 0.035087601442261189 -0.00038604498052248058 0 0.034670735066184698 -0.00038921415299756105 0 0.034681493342361411 -0.00045552902234609674 0 0.034591644967319472 -0.00054262756702761416 0 0.034681493342361411 -0.00045552902234609674 0 0.034591644967319472 -0.00054262756702761416 0 0.034682376808843673 -0.00042704750365873278 0 0.034778561810436759 -0.00049654252504885551 0 0.034591644967319472 -0.00054262756702761416 0 0.034682376808843673 -0.00042704750365873278 0 0.034778561810436759 -0.00049654252504885551 0 0.034849475604499851 -0.00035365409943359928 0 0.034682376808843673 -0.00042704750365873278 0 0.034849475604499851 -0.00035365409943359928 0 0.034682376808843673 -0.00042704750365873278 0 0.034813203716627023 -0.00025150704444175642 0 0.034649227738708578 -0.00043656678456538157 0 0.034681493342361411 -0.00045552902234609674 0 0.034682376808843673 -0.00042704750365873278 0 0.034974180179679334 -5.4746524003202111e-05 0 0.035012330741992254 -0.00018405829060684953 0 0.035033882573285255 -4.7971964044627105e-05 0 0.034649227738708578 -0.00043656678456538157 0 0.034682376808843673 -0.00042704750365873278 0 0.034688067904215837 -0.00022022652409841586 0 0.034844128846348688 -0.00024701298260943578 0 0.034898244793656802 -0.00014494281288932783 0 0.034682376808843673 -0.00042704750365873278 0 0.034688067904215837 -0.00022022652409841586 0 0.034813203716627023 -0.00025150704444175642 0 0.034898244793656802 -0.00014494281288932783 0 0.03499987462504265 -1.9191007064933765e-07 0 0.035033882573285255 -4.7971964044627105e-05 0 0.035000052409253517 -7.1968113409825345e-09 0 0.035000030836791492 -3.1330960609308338e-08 0 0.034688067904215837 -0.00022022652409841586 0 0.034813203716627023 -0.00025150704444175642 0 0.03499937392646358 2.1154769924598183e-09 0 0.034974180179679334 -5.4746524003202111e-05 0 0.035033882573285255 -4.7971964044627105e-05 0 0.035000030836791492 -3.1330960609308338e-08 0 0.035150135858576639 -0.0001339485585468672 0 0.035088987487810301 -0.00025764436069579736 0 0.035343705182613795 -0.00047309628977208735 0 0.035012315805157075 -0.00016305486527809978 0 0.035092706049912423 -0.00015080720495472751 0 0.035088987487810301 -0.00025764436069579736 0 0.035092706049912423 -0.00015080720495472751 0 0.035126846631010913 -0.00014080512152155961 0 0.035006765707870327 -7.556965891133704e-05 0 0.035012315805157075 -0.00016305486527809978 0 0.035092706049912423 -0.00015080720495472751 0 0.035006765707870327 -7.556965891133704e-05 0 0.035092706049912423 -0.00015080720495472751 0 0.035150135858576639 -0.0001339485585468672 0 0.035088987487810301 -0.00025764436069579736 0 0.035041178250901563 -8.9028184148850779e-05 0 0.035039414254315296 -8.8863571433462959e-05 0 0.035012315805157075 -0.00016305486527809978 0 0.035088987487810301 -0.00025764436069579736 0 0.034980672461886637 -0.00027503173563306647 0 0.034849475604499851 -0.00035365409943359928 0 0.034980672461886637 -0.00027503173563306647 0 0.034942304747700673 -0.00017149473857930365 0 0.034849475604499851 -0.00035365409943359928 0 0.034813203716627023 -0.00025150704444175642 0 0.034942304747700673 -0.00017149473857930365 0 0.035012315805157075 -0.00016305486527809978 0 0.034980672461886637 -0.00027503173563306647 0 0.034942304747700673 -0.00017149473857930365 0 0.035012315805157075 -0.00016305486527809978 0 0.034942304747700673 -0.00017149473857930365 0 0.035006765707870327 -7.556965891133704e-05 0 0.03499937392646358 2.1154769924598183e-09 0 0.035000459615767782 -8.7026137127401493e-08 0 0.035006765707870327 -7.556965891133704e-05 0 0.034813203716627023 -0.00025150704444175642 0 0.03499937392646358 2.1154769924598183e-09 0 0.034942304747700673 -0.00017149473857930365 0 0.03499937392646358 2.1154769924598183e-09 0 0.034942304747700673 -0.00017149473857930365 0 0.035006765707870327 -7.556965891133704e-05 0 0.035126846631010913 -0.00014080512152155961 0 0.035000459615767782 -8.7026137127401493e-08 0 0.035006765707870327 -7.556965891133704e-05 0 0.035039414254315296 -8.8863571433462959e-05 0 0.035000064138606971 -1.233157051757662e-07 0 0.035000132286288496 -2.3594891774607189e-07 0 0.035000000120112937 -3.9024836634422544e-11 0 0.035000000345822069 -3.2820977260216055e-10 0 0.035000132286288496 -2.3594891774607189e-07 0 0.035000000345822069 -3.2820977260216055e-10 0 0.035000060252127561 -8.708910014607713e-08 0 0.035039414254315296 -8.8863571433462959e-05 0 0.035011751263177751 -4.4233847979520147e-05 0 0.034979222878691964 -1.1248782097169393e-05 0 0.034997395033197799 -1.9970525792164382e-05 0 0.034986018230912297 -3.3097010047314467e-05 0 0.034979222878691964 -1.1248782097169393e-05 0 0.034997395033197799 -1.9970525792164382e-05 0 0.035000734749110619 -7.4026624300404955e-06 0 0.034997395033197799 -1.9970525792164382e-05 0 0.035000734749110619 -7.4026624300404955e-06 0 0.035009536009043649 -1.4188981245677953e-05 0 0.035000000345822069 -3.2820977260216055e-10 0 0.035000060252127561 -8.708910014607713e-08 0 0.034999999479896869 6.6777280770693475e-10 0 0.035000734749110619 -7.4026624300404955e-06 0 0.035009323141006903 -7.2494779724306061e-06 0 0.035009855327154338 -9.5089887351818404e-06 0 0.035011751263177751 -4.4233847979520147e-05 0 0.035008178633034327 -2.3999320926582728e-05 0 0.035000060252127561 -8.708910014607713e-08 0 0.034999999479896869 6.6777280770693475e-10 0 0.034999875235539747 1.0737804210113787e-07 0 0.034999999479896869 6.6777280770693475e-10 0 0.034999875235539747 1.0737804210113787e-07 0 0.035000000993027081 -2.2100174616816591e-09 0 0.035009323141006903 -7.2494779724306061e-06 0 0.035007135110966328 -6.1800702949441948e-06 0 0.035009855327154338 -9.5089887351818404e-06 0 0.035009855327154338 -9.5089887351818404e-06 0 0.035008990827679526 -6.9760373219170944e-06 0 0.035009536009043649 -1.4188981245677953e-05 0 0.035248647628141956 -0.00015907983851578137 0 0.035131812818393206 -0.00012579356531261721 0 0.035007135110966328 -6.1800702949441948e-06 0 0.035009855327154338 -9.5089887351818404e-06 0 0.035008990827679526 -6.9760373219170944e-06 0 0.035000734749110619 -7.4026624300404955e-06 0 0.035009855327154338 -9.5089887351818404e-06 0 0.035009536009043649 -1.4188981245677953e-05 0 0.034997395033197799 -1.9970525792164382e-05 0 0.035009536009043649 -1.4188981245677953e-05 0 0.035011539919924659 -3.8032503535461338e-05 0 0.035032260379631933 -1.760644071194542e-05 0 0.035009536009043649 -1.4188981245677953e-05 0 0.035011539919924659 -3.8032503535461338e-05 0 0.035248647628141956 -0.00015907983851578137 0 0.035313555558598345 -0.00038279167531736334 0 0.036088198325935988 -0.00061678087811453544 0 0.036032556912282875 -0.00098343072721633704 0 0.035837896291379533 -0.00086005128592560624 0 0.036032556912282875 -0.00098343072721633704 0 0.035837896291379533 -0.00086005128592560624 0 0.035882112061663217 -0.001174690625773165 0 0.034997395033197799 -1.9970525792164382e-05 0 0.035011539919924659 -3.8032503535461338e-05 0 0.034986018230912297 -3.3097010047314467e-05 0 0.035313555558598345 -0.00038279167531736334 0 0.03518902578021927 -0.0006531180134251687 0 0.035011539919924659 -3.8032503535461338e-05 0 0.034986018230912297 -3.3097010047314467e-05 0 0.034994860964275634 -5.8309432477278639e-05 0 0.035118676799351552 -0.00031898053176380742 0 0.03518902578021927 -0.0006531180134251687 0 0.035140957469475029 -0.00054813754918287428 0 0.035248570279848582 -0.00078565743888620227 0 0.035343705182613795 -0.00047309628977208735 0 0.035248570279848582 -0.00078565743888620227 0 0.035343705182613795 -0.00047309628977208735 0 0.035569358146978605 -0.00097696697820996324 0 0.035039414254315296 -8.8863571433462959e-05 0 0.035118676799351552 -0.00031898053176380742 0 0.034965339277874305 -5.9703113243272658e-06 0 0.034952074843258754 -1.1949672880617905e-05 0 0.034976780696348998 -2.474252666910362e-06 0 0.034952074843258754 -1.1949672880617905e-05 0 0.034976780696348998 -2.474252666910362e-06 0 0.03497607772404053 -9.3003548213123674e-06 0 0.034976780696348998 -2.474252666910362e-06 0 0.03498799315647879 -3.0239167359048148e-06 0 0.03497607772404053 -9.3003548213123674e-06 0 0.034999979532760399 -5.8900592506330405e-09 0 0.03498799315647879 -3.0239167359048148e-06 0 0.034999985818156845 7.2822166204394731e-09 0 0.034976780696348998 -2.474252666910362e-06 0 0.03498799315647879 -3.0239167359048148e-06 0 0.034999985818156845 7.2822166204394731e-09 0 0.034999979532760399 -5.8900592506330405e-09 0 0.03498799315647879 -3.0239167359048148e-06 0 0.034991941624458976 -5.7813687400409328e-06 0 0.03498799315647879 -3.0239167359048148e-06 0 0.034991941624458976 -5.7813687400409328e-06 0 0.03497607772404053 -9.3003548213123674e-06 0 0.034999979532760399 -5.8900592506330405e-09 0 0.034991941624458976 -5.7813687400409328e-06 0 0.034999968519540417 -1.1474076311615997e-08 0 0.034990395177741093 -6.981489681343256e-06 0 0.034994488385497041 1.2603447270548373e-06 0 0.034975726995743139 2.4988516806111897e-06 0 0.034991941624458976 -5.7813687400409328e-06 0 0.03497607772404053 -9.3003548213123674e-06 0 0.034990395177741093 -6.981489681343256e-06 0 0.034952074843258754 -1.1949672880617905e-05 0 0.03497607772404053 -9.3003548213123674e-06 0 0.034975726995743139 2.4988516806111897e-06 0 0.03497607772404053 -9.3003548213123674e-06 0 0.034990395177741093 -6.981489681343256e-06 0 0.034975726995743139 2.4988516806111897e-06 0 0.034991941624458976 -5.7813687400409328e-06 0 0.034990395177741093 -6.981489681343256e-06 0 0.03499139194252289 -6.6693362867511856e-06 0 0.034990395177741093 -6.981489681343256e-06 0 0.03499139194252289 -6.6693362867511856e-06 0 0.034990935657734208 -7.3778396849478183e-06 0 0.034995368194346455 -0.00030721092184341511 0 0.034976660624018538 -0.00035832004625013016 0 0.035000006395543196 -4.7341791276422333e-09 0 0.035000468060806693 -9.4879479228229806e-07 0 0.035000000993027081 -2.2100174616816591e-09 0 0.034991941624458976 -5.7813687400409328e-06 0 0.034999968519540417 -1.1474076311615997e-08 0 0.03499139194252289 -6.6693362867511856e-06 0 0.035000193520143927 -1.8485113234101702e-07 0 0.035094679536518798 -7.6769364757570905e-05 0 0.035000006395543196 -4.7341791276422333e-09 0 0.035000468060806693 -9.4879479228229806e-07 0 0.035003469632986374 -3.7404233275767568e-06 0 0.035008178633034327 -2.3999320926582728e-05 0 0.035007171477473467 -1.8215923577921597e-05 0 0.035007135110966328 -6.1800702949441948e-06 0 0.035000468060806693 -9.4879479228229806e-07 0 0.035003469632986374 -3.7404233275767568e-06 0 0.035009323141006903 -7.2494779724306061e-06 0 0.035007135110966328 -6.1800702949441948e-06 0 0.035000468060806693 -9.4879479228229806e-07 0 0.034999875235539747 1.0737804210113787e-07 0 0.035000468060806693 -9.4879479228229806e-07 0 0.035000000993027081 -2.2100174616816591e-09 0 0.035248647628141956 -0.00015907983851578137 0 0.035094679536518798 -7.6769364757570905e-05 0 0.034992055042920633 -7.7299312360807355e-06 0 0.03499139194252289 -6.6693362867511856e-06 0 0.034990935657734208 -7.3778396849478183e-06 0 0.035007135110966328 -6.1800702949441948e-06 0 0.035008990827679526 -6.9760373219170944e-06 0 0.035003469632986374 -3.7404233275767568e-06 0 0.035248647628141956 -0.00015907983851578137 0 0.034976660624018538 -0.00035832004625013016 0 0.036088198325935988 -0.00061678087811453544 0 0.036250583147299439 -0.00094746889342876622 0 0.036390211654418393 -0.00065895682425294849 0 0.036088198325935988 -0.00061678087811453544 0 0.036032556912282875 -0.00098343072721633704 0 0.036250583147299439 -0.00094746889342876622 0 0.033997680245658225 -0.00038721660952370512 0 0.034199396413427764 2.9100601781308737e-05 0 0.034326741125818606 -0.00028587015153919696 0 0.033997680245658225 -0.00038721660952370512 0 0.034326741125818606 -0.00028587015153919696 0 0.034405983015408592 -0.00061098746357071947 0 0.034650721008604959 -0.0004999791397734528 0 0.034976660624018538 -0.00035832004625013016 0 0.034199396413427764 2.9100601781308737e-05 0 0.034501876175027327 5.1662793522879849e-06 0 0.034326741125818606 -0.00028587015153919696 0 0.034976660624018538 -0.00035832004625013016 0 0.034847575383833984 -0.00025664762393813535 0 0.034501876175027327 5.1662793522879849e-06 0 0.034326741125818606 -0.00028587015153919696 0 0.034607415448626624 -0.00040190235758688815 0 0.034326741125818606 -0.00028587015153919696 0 0.034607415448626624 -0.00040190235758688815 0 0.034405983015408592 -0.00061098746357071947 0 0.034607415448626624 -0.00040190235758688815 0 0.034747968034650571 -0.00026669753676806363 0 0.034744263648159517 -0.00034854206572390806 0 0.034607415448626624 -0.00040190235758688815 0 0.034689699810270341 -0.00058798587063828311 0 0.034742435751736363 -0.00042952422066719575 0 0.034607415448626624 -0.00040190235758688815 0 0.034744263648159517 -0.00034854206572390806 0 0.034742435751736363 -0.00042952422066719575 0 0.034607415448626624 -0.00040190235758688815 0 0.034898160038582531 -2.9227149014725828e-05 0 0.034985371080924227 -2.4868538186333741e-05 0 0.034847575383833984 -0.00025664762393813535 0 0.034846713070193956 -0.00023086347075026626 0 0.034501876175027327 5.1662793522879849e-06 0 0.034607415448626624 -0.00040190235758688815 0 0.034898160038582531 -2.9227149014725828e-05 0 0.034770776293875094 -0.00025539184967884095 0 0.034844424210717054 -0.00017088124108815783 0 0.034952074843258754 -1.1949672880617905e-05 0 0.034975726995743139 2.4988516806111897e-06 0 0.034898160038582531 -2.9227149014725828e-05 0 0.034965339277874305 -5.9703113243272658e-06 0 0.034898160038582531 -2.9227149014725828e-05 0 0.034985371080924227 -2.4868538186333741e-05 0 0.034965339277874305 -5.9703113243272658e-06 0 0.034952074843258754 -1.1949672880617905e-05 0 0.034898160038582531 -2.9227149014725828e-05 0 0.034607415448626624 -0.00040190235758688815 0 0.034689699810270341 -0.00058798587063828311 0 0.034405983015408592 -0.00061098746357071947 0 0.034664876486310871 -0.00081503913344661708 0 0.034689699810270341 -0.00058798587063828311 0 0.034405983015408592 -0.00061098746357071947 0 0.031162814705033536 -0.00080806819166609684 0 0.030768473203366883 -0.0011757281322600413 0 0.034664876486310871 -0.00081503913344661708 0 0.034405983015408592 -0.00061098746357071947 0 0.034336934190026085 -0.00094612585358887387 0 0.034405983015408592 -0.00061098746357071947 0 0.034101156007287983 -0.00075520427006968817 0 0.034336934190026085 -0.00094612585358887387 0 0.034101156007287983 -0.00075520427006968817 0 0.033961442883484697 -0.0010660094671336281 0 0.034336934190026085 -0.00094612585358887387 0 0.033997680245658225 -0.00038721660952370512 0 0.034405983015408592 -0.00061098746357071947 0 0.034101156007287983 -0.00075520427006968817 0 0.034650721008604959 -0.0004999791397734528 0 0.033905969808139626 -0.00072849568451218089 0 0.036032556912282875 -0.00098343072721633704 0 0.036250583147299439 -0.00094746889342876622 0 0.036117397666686424 -0.0012536123921545544 0 0.033997680245658225 -0.00038721660952370512 0 0.034101156007287983 -0.00075520427006968817 0 0.033789279296710911 -0.00076655423450079088 0 0.034101156007287983 -0.00075520427006968817 0 0.033961442883484697 -0.0010660094671336281 0 0.033789279296710911 -0.00076655423450079088 0 0.026871914038491193 -0.0019726792228975049 0 0.027272824608814961 -0.0019037076357710538 0 0.027027608319201479 -0.0016240453349983339 0 0.026871914038491193 -0.0019726792228975049 0 0.026591242596995655 -0.0016509183695659867 0 0.027027608319201479 -0.0016240453349983339 0 0.026871914038491193 -0.0019726792228975049 0 0.026591242596995655 -0.0016509183695659867 0 0.026381711595238545 -0.0016696607708999839 0 0.030909606393664385 -0.0014171130063962447 0 0.030768473203366883 -0.0011757281322600413 0 0.026381711595238545 -0.0016696607708999839 0 0.026416227259071307 -0.0016543796217861695 0 0.026528529361564263 -0.0013990259479376046 0 0.026591242596995655 -0.0016509183695659867 0 0.026381711595238545 -0.0016696607708999839 0 0.026416227259071307 -0.0016543796217861695 0 0.026591242596995655 -0.0016509183695659867 0 0.026416227259071307 -0.0016543796217861695 0 0.026440817212493879 -0.0016517806642604251 0 0.026416227259071307 -0.0016543796217861695 0 0.026440817212493879 -0.0016517806642604251 0 0.026425819013803774 -0.0017972049799477269 0 0.026416227259071307 -0.0016543796217861695 0 0.026425819013803774 -0.0017972049799477269 0 0.02673831205854069 -0.0018707134552808805 0 0.026416227259071307 -0.0016543796217861695 0 0.026528529361564263 -0.0013990259479376046 0 0.02673831205854069 -0.0018707134552808805 0 0.026590134834516898 -0.00067750635880128862 0 0.026528529361564263 -0.0013990259479376046 0 0.027584440209947773 -0.00090068871358662368 0 0.026590134834516898 -0.00067750635880128862 0 0.026381711595238545 -0.0016696607708999839 0 0.026528529361564263 -0.0013990259479376046 0 0.035618191179799787 -0.0012031026402934851 0 0.035703666017644214 -0.001306115465772976 0 0.03555617107395169 -0.0013097019615189794 0 0.035618191179799787 -0.0012031026402934851 0 0.03555617107395169 -0.0013097019615189794 0 0.035510313268393844 -0.0011977704878323656 0 0.035618191179799787 -0.0012031026402934851 0 0.035510313268393844 -0.0011977704878323656 0 0.03549430091657263 -0.0010649464641181103 0 0.035618191179799787 -0.0012031026402934851 0 0.035703666017644214 -0.001306115465772976 0 0.035722996119301971 -0.0011277060020300495 0 0.035703666017644214 -0.001306115465772976 0 0.035573875810615385 -0.0014525248429223907 0 0.0357083343957382 -0.0015257064637345698 0 0.035703666017644214 -0.001306115465772976 0 0.03555617107395169 -0.0013097019615189794 0 0.035573875810615385 -0.0014525248429223907 0 0.03555617107395169 -0.0013097019615189794 0 0.035454368105767568 -0.0014036848220784334 0 0.035573875810615385 -0.0014525248429223907 0 0.035454368105767568 -0.0014036848220784334 0 0.035329575359629738 -0.001294549544062296 0 0.035446031373915228 -0.0012734202693496549 0 0.03555617107395169 -0.0013097019615189794 0 0.035454368105767568 -0.0014036848220784334 0 0.035446031373915228 -0.0012734202693496549 0 0.035159339802488719 -0.0013440161947843707 0 0.035329575359629738 -0.001294549544062296 0 0.035321845336692491 -0.0014705841845565491 0 0.035454368105767568 -0.0014036848220784334 0 0.035329575359629738 -0.001294549544062296 0 0.035321845336692491 -0.0014705841845565491 0 0.035159339802488719 -0.0013440161947843707 0 0.035199200449525632 -0.0010988497314121525 0 0.035329575359629738 -0.001294549544062296 0 0.035199200449525632 -0.0010988497314121525 0 0.035329575359629738 -0.001294549544062296 0 0.035379758191489412 -0.0011428449366673687 0 0.03555617107395169 -0.0013097019615189794 0 0.035446031373915228 -0.0012734202693496549 0 0.035510313268393844 -0.0011977704878323656 0 0.035329575359629738 -0.001294549544062296 0 0.035446031373915228 -0.0012734202693496549 0 0.035379758191489412 -0.0011428449366673687 0 0.035446031373915228 -0.0012734202693496549 0 0.035379758191489412 -0.0011428449366673687 0 0.035510313268393844 -0.0011977704878323656 0 0.03549430091657263 -0.0010649464641181103 0 0.035366871948796751 -0.00099542993247010996 0 0.035569358146978605 -0.00097696697820996324 0 0.035248570279848582 -0.00078565743888620227 0 0.035366871948796751 -0.00099542993247010996 0 0.035569358146978605 -0.00097696697820996324 0 0.035379758191489412 -0.0011428449366673687 0 0.035510313268393844 -0.0011977704878323656 0 0.03549430091657263 -0.0010649464641181103 0 0.035199200449525632 -0.0010988497314121525 0 0.035248570279848582 -0.00078565743888620227 0 0.035366871948796751 -0.00099542993247010996 0 0.035379758191489412 -0.0011428449366673687 0 0.03549430091657263 -0.0010649464641181103 0 0.035366871948796751 -0.00099542993247010996 0 0.035199200449525632 -0.0010988497314121525 0 0.035379758191489412 -0.0011428449366673687 0 0.035366871948796751 -0.00099542993247010996 0 0.035837896291379533 -0.00086005128592560624 0 0.035579303681805841 -0.0011053526925042826 0 0.035722996119301971 -0.0011277060020300495 0 0.035618191179799787 -0.0012031026402934851 0 0.035579303681805841 -0.0011053526925042826 0 0.035722996119301971 -0.0011277060020300495 0 0.035618191179799787 -0.0012031026402934851 0 0.03549430091657263 -0.0010649464641181103 0 0.035567453039948786 -0.00099377381237474222 0 0.035225233007419143 -0.0007253372244114812 0 0.03518902578021927 -0.0006531180134251687 0 0.035191481367993091 -0.00065840818575921625 0 0.03518902578021927 -0.0006531180134251687 0 0.035837896291379533 -0.00086005128592560624 0 0.035722996119301971 -0.0011277060020300495 0 0.035882112061663217 -0.001174690625773165 0 0.035703666017644214 -0.001306115465772976 0 0.035722996119301971 -0.0011277060020300495 0 0.035882112061663217 -0.001174690625773165 0 0.036032556912282875 -0.00098343072721633704 0 0.035882112061663217 -0.001174690625773165 0 0.036117397666686424 -0.0012536123921545544 0 0.036117397666686424 -0.0012536123921545544 0 0.035948394749981211 -0.001356888547168226 0 0.035972240903638084 -0.0016036067249672725 0 0.035882112061663217 -0.001174690625773165 0 0.036117397666686424 -0.0012536123921545544 0 0.035948394749981211 -0.001356888547168226 0 0.035703666017644214 -0.001306115465772976 0 0.035882112061663217 -0.001174690625773165 0 0.035822796767009293 -0.001399220230908185 0 0.035882112061663217 -0.001174690625773165 0 0.035948394749981211 -0.001356888547168226 0 0.035822796767009293 -0.001399220230908185 0 0.035703666017644214 -0.001306115465772976 0 0.035822796767009293 -0.001399220230908185 0 0.0357083343957382 -0.0015257064637345698 0 0.035948394749981211 -0.001356888547168226 0 0.035822796767009293 -0.001399220230908185 0 0.035972240903638084 -0.0016036067249672725 0 0.035822796767009293 -0.001399220230908185 0 0.035972240903638084 -0.0016036067249672725 0 0.0357083343957382 -0.0015257064637345698 0 0.03213044716270997 -0.0014058488688132272 0 0.03195827846415495 -0.0016832477722906404 0 0.035972240903638084 -0.0016036067249672725 0 0.035695689242958392 -0.0017163787788772348 0 0.0357083343957382 -0.0015257064637345698 0 0.026871914038491193 -0.0019726792228975049 0 0.027490863454815141 -0.0021077684964870202 0 0.027272824608814961 -0.0019037076357710538 0 0.033905969808139626 -0.00072849568451218089 0 0.03213044716270997 -0.0014058488688132272 0 0.030909606393664385 -0.0014171130063962447 0 0.03213044716270997 -0.0014058488688132272 0 0.033961442883484697 -0.0010660094671336281 0 0.033789279296710911 -0.00076655423450079088 0 0.0335701924639802 -0.0011701809584130046 0 0.03213044716270997 -0.0014058488688132272 0 0.032034862624347495 -0.0014940165949483891 0 0.027272824608814961 -0.0019037076357710538 0 0.027465642999904276 -0.0017917885500264505 0 0.027027608319201479 -0.0016240453349983339 0 0.027272824608814961 -0.0019037076357710538 0 0.027465642999904276 -0.0017917885500264505 0 0.02757059596870828 -0.002035961815611748 0 0.027490863454815141 -0.0021077684964870202 0 0.027272824608814961 -0.0019037076357710538 0 0.02757059596870828 -0.002035961815611748 0 0.027501292070366494 -0.0021631498277995486 0 0.02757059596870828 -0.002035961815611748 0 0.028094621865664141 -0.0021104914297543804 0 0.027827598236104898 -0.0019536006431182204 0 0.02757059596870828 -0.002035961815611748 0 0.028094621865664141 -0.0021104914297543804 0 0.027465642999904276 -0.0017917885500264505 0 0.027827598236104898 -0.0019536006431182204 0 0.02757059596870828 -0.002035961815611748 0 0.027465642999904276 -0.0017917885500264505 0 0.027827598236104898 -0.0019536006431182204 0 0.027743179413871086 -0.0017459428369193508 0 0.03195827846415495 -0.0016832477722906404 0 0.031970013975020944 -0.0018339035309366222 0 0.027827598236104898 -0.0019536006431182204 0 0.028531427196952067 -0.001732048891976712 0 0.027743179413871086 -0.0017459428369193508 0 0.027827598236104898 -0.0019536006431182204 0 0.028094621865664141 -0.0021104914297543804 0 0.028531427196952067 -0.001732048891976712 0 0.028094621865664141 -0.0021104914297543804 0 0.028531427196952067 -0.001732048891976712 0 0.028757020735948203 -0.0019930203578369743 0 0.035695689242958392 -0.0017163787788772348 0 0.035483260662968398 -0.0016141828671343268 0 0.035370235306411063 -0.0018765426520728618 0 0.035695689242958392 -0.0017163787788772348 0 0.0357083343957382 -0.0015257064637345698 0 0.035483260662968398 -0.0016141828671343268 0 0.035573875810615385 -0.0014525248429223907 0 0.0357083343957382 -0.0015257064637345698 0 0.035483260662968398 -0.0016141828671343268 0 0.035454368105767568 -0.0014036848220784334 0 0.035573875810615385 -0.0014525248429223907 0 0.035483260662968398 -0.0016141828671343268 0 0.035144577425950015 -0.0015600727627507749 0 0.035321845336692491 -0.0014705841845565491 0 0.035303909931023454 -0.0016562000034994031 0 0.035454368105767568 -0.0014036848220784334 0 0.035321845336692491 -0.0014705841845565491 0 0.035483260662968398 -0.0016141828671343268 0 0.035321845336692491 -0.0014705841845565491 0 0.035483260662968398 -0.0016141828671343268 0 0.035303909931023454 -0.0016562000034994031 0 0.035483260662968398 -0.0016141828671343268 0 0.035303909931023454 -0.0016562000034994031 0 0.035370235306411063 -0.0018765426520728618 0 0.035152021590568197 -0.001777490265948092 0 0.035303909931023454 -0.0016562000034994031 0 0.035370235306411063 -0.0018765426520728618 0 0.031875271977134419 -0.0019651968758926308 0 0.029217709876086892 -0.0018355888333188449 0 0.029520483684937385 -0.0018073272195676577 0 0.028531427196952067 -0.001732048891976712 0 0.028757020735948203 -0.0019930203578369743 0 0.028657236974811755 -0.0021280840803749252 0 0.029114111551311269 -0.0018575287151060907 0 0.028672719737649319 -0.0015090644242067935 0 0.029663071160718275 -0.0023977305584212049 0 0.028657236974811755 -0.0021280840803749252 0 0.029114111551311269 -0.0018575287151060907 0 0.029114111551311269 -0.0018575287151060907 0 0.029066298685019046 -0.0014414636340785302 0 0.028672719737649319 -0.0015090644242067935 0 0.029217709876086892 -0.0018355888333188449 0 0.028503491048477606 -0.0017897899697703087 0 0.028657236974811755 -0.0021280840803749252 0 0.028219903877189725 -0.001618586101915885 0 0.028672719737649319 -0.0015090644242067935 0 0.028657236974811755 -0.0021280840803749252 0 0.028219903877189725 -0.001618586101915885 0 0.027743179413871086 -0.0017459428369193508 0 0.028221506248172087 -0.0011237217021442139 0 0.028672719737649319 -0.0015090644242067935 0 0.028772901648908923 -0.0010303421560757403 0 0.028219903877189725 -0.001618586101915885 0 0.028221506248172087 -0.0011237217021442139 0 0.028672719737649319 -0.0015090644242067935 0 0.028219903877189725 -0.001618586101915885 0 0.028221506248172087 -0.0011237217021442139 0 0.02782077088112437 -0.0014464773457799447 0 0.029355561540519406 -0.00080231304177562671 0 0.029066298685019046 -0.0014414636340785302 0 0.028772901648908923 -0.0010303421560757403 0 0.029066298685019046 -0.0014414636340785302 0 0.028672719737649319 -0.0015090644242067935 0 0.028772901648908923 -0.0010303421560757403 0 0.029355561540519406 -0.00080231304177562671 0 0.028772901648908923 -0.0010303421560757403 0 0.028499299157200654 -0.00043816683540059075 0 0.029355561540519406 -0.00080231304177562671 0 0.029356212401435683 0.0002709781792172727 0 0.028499299157200654 -0.00043816683540059075 0 0.028221506248172087 -0.0011237217021442139 0 0.028772901648908923 -0.0010303421560757403 0 0.028499299157200654 -0.00043816683540059075 0 0.028221506248172087 -0.0011237217021442139 0 0.028499299157200654 -0.00043816683540059075 0 0.027729147874382416 -0.00074157959848347775 0 0.027298788671015515 -0.00089454634951156896 0 0.026032476851517022 -0.001897737508944597 0 0.026298012624879373 -0.00077947113423088379 0 0.027394864100316489 -0.00056649132241297394 0 0.026760329480288197 -0.0010843913555604768 0 0.027754169700535489 -0.00011710924198283352 0 0.027729147874382416 -0.00074157959848347775 0 0.027172099310097564 -0.00060800981132094376 0 0.028499299157200654 -0.00043816683540059075 0 0.027754169700535489 -0.00011710924198283352 0 0.027729147874382416 -0.00074157959848347775 0 0.027729147874382416 -0.00074157959848347775 0 0.027236753035271996 -0.00098315706284098471 0 0.027570202749064167 -0.0011724497584976103 0 0.027729147874382416 -0.00074157959848347775 0 0.027236753035271996 -0.00098315706284098471 0 0.027172099310097564 -0.00060800981132094376 0 0.027570202749064167 -0.0011724497584976103 0 0.02741282214389008 -0.0015184493942391407 0 0.027097885112864647 -0.0013016938754190524 0 0.027236753035271996 -0.00098315706284098471 0 0.027570202749064167 -0.0011724497584976103 0 0.027097885112864647 -0.0013016938754190524 0 0.027570202749064167 -0.0011724497584976103 0 0.02782077088112437 -0.0014464773457799447 0 0.02741282214389008 -0.0015184493942391407 0 0.028221506248172087 -0.0011237217021442139 0 0.027729147874382416 -0.00074157959848347775 0 0.027570202749064167 -0.0011724497584976103 0 0.028221506248172087 -0.0011237217021442139 0 0.027570202749064167 -0.0011724497584976103 0 0.02782077088112437 -0.0014464773457799447 0 0.028219903877189725 -0.001618586101915885 0 0.02782077088112437 -0.0014464773457799447 0 0.027743179413871086 -0.0017459428369193508 0 0.02782077088112437 -0.0014464773457799447 0 0.027743179413871086 -0.0017459428369193508 0 0.02741282214389008 -0.0015184493942391407 0 0.027465642999904276 -0.0017917885500264505 0 0.02741282214389008 -0.0015184493942391407 0 0.027027608319201479 -0.0016240453349983339 0 0.027465642999904276 -0.0017917885500264505 0 0.027743179413871086 -0.0017459428369193508 0 0.02741282214389008 -0.0015184493942391407 0 0.02741282214389008 -0.0015184493942391407 0 0.027027608319201479 -0.0016240453349983339 0 0.027097885112864647 -0.0013016938754190524 0 0.027027608319201479 -0.0016240453349983339 0 0.026743227705506998 -0.0014304722190772248 0 0.027097885112864647 -0.0013016938754190524 0 0.026591242596995655 -0.0016509183695659867 0 0.027027608319201479 -0.0016240453349983339 0 0.026743227705506998 -0.0014304722190772248 0 0.026591242596995655 -0.0016509183695659867 0 0.026743227705506998 -0.0014304722190772248 0 0.026426149586613146 -0.0014684940388868964 0 0.026317537952702339 -0.0014401609121804436 0 0.026166959107951891 -0.0016060988659023314 0 0.026743227705506998 -0.0014304722190772248 0 0.026708940328780399 -0.0010752044198122034 0 0.026426149586613146 -0.0014684940388868964 0 0.027236753035271996 -0.00098315706284098471 0 0.026708940328780399 -0.0010752044198122034 0 0.027097885112864647 -0.0013016938754190524 0 0.026743227705506998 -0.0014304722190772248 0 0.026708940328780399 -0.0010752044198122034 0 0.027097885112864647 -0.0013016938754190524 0 0.026425819013803774 -0.0017972049799477269 0 0.026125854541270522 -0.00177620806127786 0 0.025699564001178916 -0.001750355288103653 0 0.026440817212493879 -0.0016517806642604251 0 0.026425819013803774 -0.0017972049799477269 0 0.026426149586613146 -0.0014684940388868964 0 0.02617790713030654 -0.0016503065236045352 0 0.026166959107951891 -0.0016060988659023314 0 0.026591242596995655 -0.0016509183695659867 0 0.026440817212493879 -0.0016517806642604251 0 0.026426149586613146 -0.0014684940388868964 0 0.025387798316251504 -0.0019947759328807812 0 0.025699564001178916 -0.001750355288103653 0 0.025539707282624478 -0.0019652245569579314 0 0.025699564001178916 -0.001750355288103653 0 0.025782787355274703 -0.0018863149140564306 0 0.025539707282624478 -0.0019652245569579314 0 0.026028201215292947 -0.0028480386019879853 0 0.025830915322772069 -0.0029544747211701521 0 0.026125854541270522 -0.00177620806127786 0 0.025782787355274703 -0.0018863149140564306 0 0.02578139789233895 -0.0019969702040102616 0 0.026125854541270522 -0.00177620806127786 0 0.025699564001178916 -0.001750355288103653 0 0.025782787355274703 -0.0018863149140564306 0 0.025782787355274703 -0.0018863149140564306 0 0.02578139789233895 -0.0019969702040102616 0 0.025539707282624478 -0.0019652245569579314 0 0.02578139789233895 -0.0019969702040102616 0 0.025539707282624478 -0.0019652245569579314 0 0.025463392081863538 -0.0020625425075614019 0 0.025539707282624478 -0.0019652245569579314 0 0.025463392081863538 -0.0020625425075614019 0 0.025304739386043544 -0.0018166698765189901 0 0.02578139789233895 -0.0019969702040102616 0 0.025463392081863538 -0.0020625425075614019 0 0.025629542224905662 -0.0022134492683336749 0 0.025830915322772069 -0.0029544747211701521 0 0.025677501136937023 -0.0028745687185199402 0 0.025387798316251504 -0.0019947759328807812 0 0.026032476851517022 -0.001897737508944597 0 0.025304739386043544 -0.0018166698765189901 0 0.026317537952702339 -0.0014401609121804436 0 0.026760329480288197 -0.0010843913555604768 0 0.027236753035271996 -0.00098315706284098471 0 0.026708940328780399 -0.0010752044198122034 0 0.027172099310097564 -0.00060800981132094376 0 0.025387798316251504 -0.0019947759328807812 0 0.025539707282624478 -0.0019652245569579314 0 0.025304739386043544 -0.0018166698765189901 0 0.025463392081863538 -0.0020625425075614019 0 0.025304739386043544 -0.0018166698765189901 0 0.025277651150835238 -0.0021280464443204595 0 0.025215271184913748 -0.0015142662229385793 0 0.025225352383607985 -0.0013715348379569107 0 0.025304739386043544 -0.0018166698765189901 0 0.02500354406971628 -0.0022952586669451576 0 0.025277651150835238 -0.0021280464443204595 0 0.026032476851517022 -0.001897737508944597 0 0.025304739386043544 -0.0018166698765189901 0 0.026298012624879373 -0.00077947113423088379 0 0.025304739386043544 -0.0018166698765189901 0 0.025451995860876219 -0.00031225464582509407 0 0.026298012624879373 -0.00077947113423088379 0 0.025451995860876219 -0.00031225464582509407 0 0.026298012624879373 -0.00077947113423088379 0 0.026330269931527643 0.00030326737818710698 0 0.025277651150835238 -0.0021280464443204595 0 0.025169656226872075 -0.0024121586945922832 0 0.025351211160440111 -0.0022927660706683782 0 0.02500354406971628 -0.0022952586669451576 0 0.025277651150835238 -0.0021280464443204595 0 0.025169656226872075 -0.0024121586945922832 0 0.025169656226872075 -0.0024121586945922832 0 0.025011831704769283 -0.0024652049056025091 0 0.025097992327306879 -0.0025541213983616318 0 0.02500354406971628 -0.0022952586669451576 0 0.025169656226872075 -0.0024121586945922832 0 0.025011831704769283 -0.0024652049056025091 0 0.025451995860876219 -0.00031225464582509407 0 0.02579373199679439 0.0010318484322498485 0 0.026330269931527643 0.00030326737818710698 0 0.025225352383607985 -0.0013715348379569107 0 0.025189855091141525 -0.0013912035012122747 0 0.02500354406971628 -0.0022952586669451576 0 0.025011831704769283 -0.0024652049056025091 0 0.024913869980394951 -0.0025472189281545298 0 0.025011831704769283 -0.0024652049056025091 0 0.024862726221928765 -0.0025246864895042253 0 0.024970610755544638 -0.0025443861968422635 0 0.025088394517293777 -0.0015284710682265613 0 0.025189855091141525 -0.0013912035012122747 0 0.02579373199679439 0.0010318484322498485 0 0.026643077741866691 0.0010544985378382105 0 0.026330269931527643 0.00030326737818710698 0 0.025463392081863538 -0.0020625425075614019 0 0.025629542224905662 -0.0022134492683336749 0 0.025351211160440111 -0.0022927660706683782 0 0.025629542224905662 -0.0022134492683336749 0 0.025351211160440111 -0.0022927660706683782 0 0.025277393503257556 -0.0025443994576395436 0 0.025463392081863538 -0.0020625425075614019 0 0.025277651150835238 -0.0021280464443204595 0 0.025351211160440111 -0.0022927660706683782 0 0.025277393503257556 -0.0025443994576395436 0 0.025339222512934703 -0.0027457870067267437 0 0.02523310971049986 -0.0026039274987069805 0 0.025169656226872075 -0.0024121586945922832 0 0.025277393503257556 -0.0025443994576395436 0 0.025097992327306879 -0.0025541213983616318 0 0.025169656226872075 -0.0024121586945922832 0 0.025351211160440111 -0.0022927660706683782 0 0.025277393503257556 -0.0025443994576395436 0 0.025677501136937023 -0.0028745687185199402 0 0.025614929561991042 -0.0028080914178745392 0 0.025629542224905662 -0.0022134492683336749 0 0.025277393503257556 -0.0025443994576395436 0 0.025339222512934703 -0.0027457870067267437 0 0.025417778589378631 -0.0034651944502917557 0 0.025339222512934703 -0.0027457870067267437 0 0.024918211748921396 -0.0030451228028173507 0 0.025339222512934703 -0.0027457870067267437 0 0.025253591160675933 -0.0024958368910373363 0 0.024918211748921396 -0.0030451228028173507 0 0.025339222512934703 -0.0027457870067267437 0 0.025253591160675933 -0.0024958368910373363 0 0.02523310971049986 -0.0026039274987069805 0 0.025253591160675933 -0.0024958368910373363 0 0.02523310971049986 -0.0026039274987069805 0 0.025200795591459269 -0.0026107463947636191 0 0.025277393503257556 -0.0025443994576395436 0 0.02523310971049986 -0.0026039274987069805 0 0.025097992327306879 -0.0025541213983616318 0 0.02523310971049986 -0.0026039274987069805 0 0.025097992327306879 -0.0025541213983616318 0 0.025033341571990077 -0.0026343330207990018 0 0.025084829752742635 -0.0026531566635691521 0 0.025200795591459269 -0.0026107463947636191 0 0.025268092326967834 -0.0028021838238184112 0 0.02523310971049986 -0.0026039274987069805 0 0.025084829752742635 -0.0026531566635691521 0 0.025033341571990077 -0.0026343330207990018 0 0.025084829752742635 -0.0026531566635691521 0 0.024949431119636534 -0.0027022151631588497 0 0.025000502005845505 -0.0028240921071509177 0 0.025084829752742635 -0.0026531566635691521 0 0.025033341571990077 -0.0026343330207990018 0 0.024949431119636534 -0.0027022151631588497 0 0.02523310971049986 -0.0026039274987069805 0 0.025084829752742635 -0.0026531566635691521 0 0.025200795591459269 -0.0026107463947636191 0 0.025253591160675933 -0.0024958368910373363 0 0.024658075128512039 -0.0020586980144133987 0 0.02556497879570414 -0.0011830508739254489 0 0.024243003154598569 -0.0024375078743798951 0 0.023871786835907263 -0.0028403890853388523 0 0.025253591160675933 -0.0024958368910373363 0 0.025200795591459269 -0.0026107463947636191 0 0.025268092326967834 -0.0028021838238184112 0 0.024555572177644692 -0.0019381094753920059 0 0.02444987123915876 -0.0024042056745871244 0 0.024179790494602622 -0.0022934915115874997 0 0.025189855091141525 -0.0013912035012122747 0 0.024794467976548048 -0.0023782435842892818 0 0.02490356120836245 -0.0026378675963658464 0 0.024862726221928765 -0.0025246864895042253 0 0.024710724012467308 -0.0027448230296580152 0 0.02490356120836245 -0.0026378675963658464 0 0.024862726221928765 -0.0025246864895042253 0 0.024970610755544638 -0.0025443861968422635 0 0.02490356120836245 -0.0026378675963658464 0 0.024970610755544638 -0.0025443861968422635 0 0.025097992327306879 -0.0025541213983616318 0 0.02490356120836245 -0.0026378675963658464 0 0.025097992327306879 -0.0025541213983616318 0 0.024858618427438407 -0.0028183183283896234 0 0.025011831704769283 -0.0024652049056025091 0 0.024970610755544638 -0.0025443861968422635 0 0.025097992327306879 -0.0025541213983616318 0 0.025097992327306879 -0.0025541213983616318 0 0.025033341571990077 -0.0026343330207990018 0 0.024751469951218619 -0.0026868760347969253 0 0.024828650228652559 -0.0026708006807382588 0 0.024715943873686756 -0.0028083066267688612 0 0.025033341571990077 -0.0026343330207990018 0 0.024949431119636534 -0.0027022151631588497 0 0.024751469951218619 -0.0026868760347969253 0 0.024949431119636534 -0.0027022151631588497 0 0.024751469951218619 -0.0026868760347969253 0 0.024855030428146928 -0.0027786588722223623 0 0.02490356120836245 -0.0026378675963658464 0 0.024858618427438407 -0.0028183183283896234 0 0.024710724012467308 -0.0027448230296580152 0 0.02444987123915876 -0.0024042056745871244 0 0.024179790494602622 -0.0022934915115874997 0 0.024169468831367735 -0.0026023091209684997 0 0.024179790494602622 -0.0022934915115874997 0 0.024169468831367735 -0.0026023091209684997 0 0.023840483819884656 -0.0026390652824808984 0 0.02579373199679439 0.0010318484322498485 0 0.02681757572454594 0.0018215316610227243 0 0.026643077741866691 0.0010544985378382105 0 0.025189855091141525 -0.0013912035012122747 0 0.025680184096267177 -0.00075454237898546484 0 0.02681757572454594 0.0018215316610227243 0 0.026643077741866691 0.0010544985378382105 0 0.027282970421844587 0.001327026408537638 0 0.026643077741866691 0.0010544985378382105 0 0.027282970421844587 0.001327026408537638 0 0.026949018189954935 0.00072006884755350246 0 0.02681757572454594 0.0018215316610227243 0 0.027282970421844587 0.001327026408537638 0 0.02763459446480461 0.0017865334705830529 0 0.027282970421844587 0.001327026408537638 0 0.028059925444005263 0.0013801063738970692 0 0.027775764608276285 0.00079894910005794226 0 0.027282970421844587 0.001327026408537638 0 0.02763459446480461 0.0017865334705830529 0 0.028059925444005263 0.0013801063738970692 0 0.027282970421844587 0.001327026408537638 0 0.026949018189954935 0.00072006884755350246 0 0.027775764608276285 0.00079894910005794226 0 0.02763459446480461 0.0017865334705830529 0 0.028288684926655226 0.0019219156127756615 0 0.0276741463138797 0.0024612318973527719 0 0.025680184096267177 -0.00075454237898546484 0 0.026002956698076524 -0.00060200306530758978 0 0.02681757572454594 0.0018215316610227243 0 0.02763459446480461 0.0017865334705830529 0 0.0276741463138797 0.0024612318973527719 0 0.028288684926655226 0.0019219156127756615 0 0.0276741463138797 0.0024612318973527719 0 0.028304510524199758 0.0023954460415899709 0 0.028288684926655226 0.0019219156127756615 0 0.028813236257819369 0.0020763016030391043 0 0.028304510524199758 0.0023954460415899709 0 0.02763459446480461 0.0017865334705830529 0 0.028288684926655226 0.0019219156127756615 0 0.028059925444005263 0.0013801063738970692 0 0.029035742000213881 0.0020882553586622833 0 0.028813236257819369 0.0020763016030391043 0 0.028931264235401901 0.0024640305551338034 0 0.029035742000213881 0.0020882553586622833 0 0.028813236257819369 0.0020763016030391043 0 0.029113766022478706 0.0018501077044788927 0 0.029251023044274189 0.0020763060632149589 0 0.029035742000213881 0.0020882553586622833 0 0.029113766022478706 0.0018501077044788927 0 0.028288684926655226 0.0019219156127756615 0 0.028813236257819369 0.0020763016030391043 0 0.028803923057398432 0.0016854305312910057 0 0.028288684926655226 0.0019219156127756615 0 0.028803923057398432 0.0016854305312910057 0 0.02864668489235464 0.0014037570634324993 0 0.028813236257819369 0.0020763016030391043 0 0.028803923057398432 0.0016854305312910057 0 0.029113766022478706 0.0018501077044788927 0 0.028803923057398432 0.0016854305312910057 0 0.029113766022478706 0.0018501077044788927 0 0.029109496286354952 0.0011955529194342316 0 0.028803923057398432 0.0016854305312910057 0 0.02864668489235464 0.0014037570634324993 0 0.029109496286354952 0.0011955529194342316 0 0.02864668489235464 0.0014037570634324993 0 0.029109496286354952 0.0011955529194342316 0 0.028632583011590256 0.00086393264874544396 0 0.028059925444005263 0.0013801063738970692 0 0.028632583011590256 0.00086393264874544396 0 0.027775764608276285 0.00079894910005794226 0 0.028288684926655226 0.0019219156127756615 0 0.02864668489235464 0.0014037570634324993 0 0.028059925444005263 0.0013801063738970692 0 0.02864668489235464 0.0014037570634324993 0 0.028059925444005263 0.0013801063738970692 0 0.028632583011590256 0.00086393264874544396 0 0.028632583011590256 0.00086393264874544396 0 0.028333549318916774 0.0003202923252237704 0 0.027775764608276285 0.00079894910005794226 0 0.029356212401435683 0.0002709781792172727 0 0.028632583011590256 0.00086393264874544396 0 0.028333549318916774 0.0003202923252237704 0 0.029356212401435683 0.0002709781792172727 0 0.029109496286354952 0.0011955529194342316 0 0.028632583011590256 0.00086393264874544396 0 0.029356212401435683 0.0002709781792172727 0 0.028499299157200654 -0.00043816683540059075 0 0.028333549318916774 0.0003202923252237704 0 0.028499299157200654 -0.00043816683540059075 0 0.027754169700535489 -0.00011710924198283352 0 0.028333549318916774 0.0003202923252237704 0 0.027298788671015515 -0.00089454634951156896 0 0.028333549318916774 0.0003202923252237704 0 0.027176550989327627 0.00010828942091999007 0 0.027394864100316489 -0.00056649132241297394 0 0.027782066685885735 -0.00023855381045045194 0 0.027298788671015515 -0.00089454634951156896 0 0.027176550989327627 0.00010828942091999007 0 0.026298012624879373 -0.00077947113423088379 0 0.027176550989327627 0.00010828942091999007 0 0.026298012624879373 -0.00077947113423088379 0 0.026330269931527643 0.00030326737818710698 0 0.027176550989327627 0.00010828942091999007 0 0.026330269931527643 0.00030326737818710698 0 0.026949018189954935 0.00072006884755350246 0 0.026643077741866691 0.0010544985378382105 0 0.026330269931527643 0.00030326737818710698 0 0.026949018189954935 0.00072006884755350246 0 0.027176550989327627 0.00010828942091999007 0 0.026949018189954935 0.00072006884755350246 0 0.027775764608276285 0.00079894910005794226 0 0.028333549318916774 0.0003202923252237704 0 0.027176550989327627 0.00010828942091999007 0 0.027775764608276285 0.00079894910005794226 0 0.021135173870921758 -0.0035517754069249686 0 0.020795336040392666 -0.0036449498339419465 0 0.020834538175239892 -0.0033174741631948963 0 0.021135173870921758 -0.0035517754069249686 0 0.020834538175239892 -0.0033174741631948963 0 0.021111759882326622 -0.0032945567803292449 0 0.021135173870921758 -0.0035517754069249686 0 0.021111759882326622 -0.0032945567803292449 0 0.021309845655080324 -0.0033788293659017133 0 0.024520539874255513 -0.0033126838298670781 0 0.024433548206356081 -0.003490974785939949 0 0.024690449084885362 -0.0034503678973129997 0 0.022882274683741329 -0.0034219167714873602 0 0.022563351732768112 -0.0034902864327042587 0 0.024433548206356081 -0.003490974785939949 0 0.024212491487638984 -0.0034601010069625726 0 0.024315207103681992 -0.0036193842404704433 0 0.024520539874255513 -0.0033126838298670781 0 0.024433548206356081 -0.003490974785939949 0 0.024212491487638984 -0.0034601010069625726 0 0.020079222823978726 -0.004102287317546153 0 0.019894661993937086 -0.0041893069266409309 0 0.019872521633488953 -0.004105252951272704 0 0.020795336040392666 -0.0036449498339419465 0 0.020675977667198048 -0.0035461903973362705 0 0.020528326566365121 -0.0037260928060789456 0 0.022563351732768112 -0.0034902864327042587 0 0.022541790885468045 -0.0034180934067014742 0 0.021173773775367305 -0.0039117175512393661 0 0.022541790885468045 -0.0034180934067014742 0 0.020079222823978726 -0.004102287317546153 0 0.019872521633488953 -0.004105252951272704 0 0.01980842036947816 -0.0039849282561516533 0 0.020079222823978726 -0.004102287317546153 0 0.020059335864538903 -0.0038562919720850648 0 0.01980842036947816 -0.0039849282561516533 0 0.020795336040392666 -0.0036449498339419465 0 0.020675977667198048 -0.0035461903973362705 0 0.020834538175239892 -0.0033174741631948963 0 0.020079222823978726 -0.004102287317546153 0 0.020059335864538903 -0.0038562919720850648 0 0.020399412501456222 -0.0038409088727661845 0 0.021173773775367305 -0.0039117175512393661 0 0.020928156135127191 -0.0036791736581318177 0 0.020119292628720101 -0.0036382785072137645 0 0.020059335864538903 -0.0038562919720850648 0 0.020399412501456222 -0.0038409088727661845 0 0.020119292628720101 -0.0036382785072137645 0 0.02033778679880098 -0.0034637743796921043 0 0.020399412501456222 -0.0038409088727661845 0 0.020059335864538903 -0.0038562919720850648 0 0.01980842036947816 -0.0039849282561516533 0 0.019812473535595364 -0.0036570619015942828 0 0.020119292628720101 -0.0036382785072137645 0 0.020059335864538903 -0.0038562919720850648 0 0.019812473535595364 -0.0036570619015942828 0 0.020119292628720101 -0.0036382785072137645 0 0.01998880375979762 -0.0033658934371325194 0 0.019812473535595364 -0.0036570619015942828 0 0.01998880375979762 -0.0033658934371325194 0 0.02033778679880098 -0.0034637743796921043 0 0.020248752008194544 -0.0032524570912172072 0 0.020119292628720101 -0.0036382785072137645 0 0.01998880375979762 -0.0033658934371325194 0 0.02033778679880098 -0.0034637743796921043 0 0.02033778679880098 -0.0034637743796921043 0 0.020399412501456222 -0.0038409088727661845 0 0.020717387515263627 -0.003478505499666538 0 0.02033778679880098 -0.0034637743796921043 0 0.020717387515263627 -0.003478505499666538 0 0.020524541369570482 -0.0031383668386005211 0 0.020928156135127191 -0.0036791736581318177 0 0.021004704645344097 -0.0033391148414230712 0 0.020834538175239892 -0.0033174741631948963 0 0.021111759882326622 -0.0032945567803292449 0 0.021064283995316225 -0.0029843806207561444 0 0.021111759882326622 -0.0032945567803292449 0 0.021064283995316225 -0.0029843806207561444 0 0.021381627035750254 -0.003046635765527445 0 0.021064283995316225 -0.0029843806207561444 0 0.021381627035750254 -0.003046635765527445 0 0.021348866839663541 -0.0027222454554942334 0 0.021381627035750254 -0.003046635765527445 0 0.021700030787080462 -0.002836137640714585 0 0.021348866839663541 -0.0027222454554942334 0 0.021381627035750254 -0.003046635765527445 0 0.021700030787080462 -0.002836137640714585 0 0.021785389601671742 -0.0030247703050804322 0 0.021700030787080462 -0.002836137640714585 0 0.021785389601671742 -0.0030247703050804322 0 0.022139732085607277 -0.0029063528512950254 0 0.021785389601671742 -0.0030247703050804322 0 0.021309845655080324 -0.0033788293659017133 0 0.02149937307593552 -0.0036291021813079733 0 0.021785389601671742 -0.0030247703050804322 0 0.022889069356203284 -0.0031643796743611226 0 0.02149937307593552 -0.0036291021813079733 0 0.021381627035750254 -0.003046635765527445 0 0.021785389601671742 -0.0030247703050804322 0 0.021309845655080324 -0.0033788293659017133 0 0.021111759882326622 -0.0032945567803292449 0 0.021381627035750254 -0.003046635765527445 0 0.021309845655080324 -0.0033788293659017133 0 0.021878364140661945 -0.002849569752196834 0 0.021723223104186701 -0.0028734454836166308 0 0.021819972019650604 -0.0028699547360130791 0 0.023410620093318079 -0.0029163570782038935 0 0.023871786835907263 -0.0028403890853388523 0 0.021700030787080462 -0.002836137640714585 0 0.022139732085607277 -0.0029063528512950254 0 0.021819972019650604 -0.0028699547360130791 0 0.021878364140661945 -0.002849569752196834 0 0.022139732085607277 -0.0029063528512950254 0 0.021819972019650604 -0.0028699547360130791 0 0.021785389601671742 -0.0030247703050804322 0 0.022139732085607277 -0.0029063528512950254 0 0.022889069356203284 -0.0031643796743611226 0 0.023913518976575857 -0.0031038793465679197 0 0.023382736496867385 -0.0032818034343092654 0 0.024658075128512039 -0.0020586980144133987 0 0.022889069356203284 -0.0031643796743611226 0 0.024389753257324405 -0.0029560559286925356 0 0.022889069356203284 -0.0031643796743611226 0 0.024389753257324405 -0.0029560559286925356 0 0.02149937307593552 -0.0036291021813079733 0 0.021878364140661945 -0.002849569752196834 0 0.022139732085607277 -0.0029063528512950254 0 0.022889069356203284 -0.0031643796743611226 0 0.023410620093318079 -0.0029163570782038935 0 0.023098176390122571 -0.0031482385008749737 0 0.025253591160675933 -0.0024958368910373363 0 0.024389753257324405 -0.0029560559286925356 0 0.024918211748921396 -0.0030451228028173507 0 0.025253591160675933 -0.0024958368910373363 0 0.024658075128512039 -0.0020586980144133987 0 0.024389753257324405 -0.0029560559286925356 0 0.024389753257324405 -0.0029560559286925356 0 0.024918211748921396 -0.0030451228028173507 0 0.024689411419895078 -0.0031183551052551585 0 0.024918211748921396 -0.0030451228028173507 0 0.024689411419895078 -0.0031183551052551585 0 0.024948929599217576 -0.0032681964953613263 0 0.024689411419895078 -0.0031183551052551585 0 0.024948929599217576 -0.0032681964953613263 0 0.024793082511902299 -0.0032558340100780339 0 0.024389753257324405 -0.0029560559286925356 0 0.024689411419895078 -0.0031183551052551585 0 0.024781304111017127 -0.0032136003626493516 0 0.024985142740126708 -0.0034165244607521818 0 0.024948929599217576 -0.0032681964953613263 0 0.024793082511902299 -0.0032558340100780339 0 0.024985142740126708 -0.0034165244607521818 0 0.024793082511902299 -0.0032558340100780339 0 0.024868307032955079 -0.0034826569215721586 0 0.024985142740126708 -0.0034165244607521818 0 0.024948929599217576 -0.0032681964953613263 0 0.025330681713864798 -0.0035924561899069851 0 0.025417778589378631 -0.0034651944502917557 0 0.024918211748921396 -0.0030451228028173507 0 0.024948929599217576 -0.0032681964953613263 0 0.025417778589378631 -0.0034651944502917557 0 0.024948929599217576 -0.0032681964953613263 0 0.025330681713864798 -0.0035924561899069851 0 0.021135173870921758 -0.0035517754069249686 0 0.021309845655080324 -0.0033788293659017133 0 0.02149937307593552 -0.0036291021813079733 0 0.022882274683741329 -0.0034219167714873602 0 0.023382736496867385 -0.0032818034343092654 0 0.024520539874255513 -0.0033126838298670781 0 0.024781304111017127 -0.0032136003626493516 0 0.02472200350792533 -0.003309995198094458 0 0.024689411419895078 -0.0031183551052551585 0 0.024781304111017127 -0.0032136003626493516 0 0.024793082511902299 -0.0032558340100780339 0 0.024781304111017127 -0.0032136003626493516 0 0.024793082511902299 -0.0032558340100780339 0 0.02472200350792533 -0.003309995198094458 0 0.024793082511902299 -0.0032558340100780339 0 0.024695965883745483 -0.0034648672826964465 0 0.024868307032955079 -0.0034826569215721586 0 0.024793082511902299 -0.0032558340100780339 0 0.024690449084885362 -0.0034503678973129997 0 0.02472200350792533 -0.003309995198094458 0 0.024726154929070199 -0.0034314962498574421 0 0.024647544217946918 -0.0035033775790417297 0 0.024520539874255513 -0.0033126838298670781 0 0.024690449084885362 -0.0034503678973129997 0 0.02472200350792533 -0.003309995198094458 0 0.024695965883745483 -0.0034648672826964465 0 0.024876066001446231 -0.0037585196866067121 0 0.02456273693046445 -0.0039177479080835104 0 0.024647544217946918 -0.0035033775790417297 0 0.024478339557807302 -0.0036482021246285962 0 0.024868307032955079 -0.0034826569215721586 0 0.024876066001446231 -0.0037585196866067121 0 0.025068573323304377 -0.0036295972752157062 0 0.024695965883745483 -0.0034648672826964465 0 0.024868307032955079 -0.0034826569215721586 0 0.024876066001446231 -0.0037585196866067121 0 0.024876066001446231 -0.0037585196866067121 0 0.025307808073899853 -0.0039800903119620043 0 0.024788581510021706 -0.0041287230502614633 0 0.024876066001446231 -0.0037585196866067121 0 0.024788581510021706 -0.0041287230502614633 0 0.02456273693046445 -0.0039177479080835104 0 0.025777767416380878 -0.0038713404947611019 0 0.025417778589378631 -0.0034651944502917557 0 0.025330681713864798 -0.0035924561899069851 0 0.024985142740126708 -0.0034165244607521818 0 0.025330681713864798 -0.0035924561899069851 0 0.025068573323304377 -0.0036295972752157062 0 0.024985142740126708 -0.0034165244607521818 0 0.024868307032955079 -0.0034826569215721586 0 0.025068573323304377 -0.0036295972752157062 0 0.024876066001446231 -0.0037585196866067121 0 0.025068573323304377 -0.0036295972752157062 0 0.025307808073899853 -0.0039800903119620043 0 0.025330681713864798 -0.0035924561899069851 0 0.025068573323304377 -0.0036295972752157062 0 0.025307808073899853 -0.0039800903119620043 0 0.025777767416380878 -0.0038713404947611019 0 0.025330681713864798 -0.0035924561899069851 0 0.025307808073899853 -0.0039800903119620043 0 0.026050039710732692 -0.00468271940123969 0 0.025777767416380878 -0.0038713404947611019 0 0.025845899554105468 -0.0043205700783490947 0 0.025777767416380878 -0.0038713404947611019 0 0.025307808073899853 -0.0039800903119620043 0 0.025845899554105468 -0.0043205700783490947 0 0.025307808073899853 -0.0039800903119620043 0 0.025845899554105468 -0.0043205700783490947 0 0.025159761490274532 -0.0045660393349745238 0 0.025845899554105468 -0.0043205700783490947 0 0.026398105844178791 -0.0044374948722021561 0 0.025159761490274532 -0.0045660393349745238 0 0.027190738160886498 -0.0042443088190360695 0 0.027796181682928977 -0.0041338287625377846 0 0.026398105844178791 -0.0044374948722021561 0 0.03043366219699362 -0.0044243886089093288 0 0.028402927089895669 -0.0031333947512610727 0 0.026398105844178791 -0.0044374948722021561 0 0.026896996288726334 -0.0031260304536256086 0 0.028402927089895669 -0.0031333947512610727 0 0.026050039710732692 -0.00468271940123969 0 0.026398105844178791 -0.0044374948722021561 0 0.026896996288726334 -0.0031260304536256086 0 0.026050039710732692 -0.00468271940123969 0 0.025845899554105468 -0.0043205700783490947 0 0.026398105844178791 -0.0044374948722021561 0 0.024788581510021706 -0.0041287230502614633 0 0.024628589981710552 -0.004405767752030821 0 0.024454546012718164 -0.0041435532783340575 0 0.024788581510021706 -0.0041287230502614633 0 0.024454546012718164 -0.0041435532783340575 0 0.02456273693046445 -0.0039177479080835104 0 0.025307808073899853 -0.0039800903119620043 0 0.024788581510021706 -0.0041287230502614633 0 0.025159761490274532 -0.0045660393349745238 0 0.027796181682928977 -0.0041338287625377846 0 0.028674996142400287 -0.0038113713369219335 0 0.024788581510021706 -0.0041287230502614633 0 0.025159761490274532 -0.0045660393349745238 0 0.024628589981710552 -0.004405767752030821 0 0.03043366219699362 -0.0044243886089093288 0 0.033283360036754382 -0.0036973789172912979 0 0.032842608492719763 -0.0027333453889810122 0 0.033283360036754382 -0.0036973789172912979 0 0.034699103059748493 -0.0029602798633745178 0 0.034307709823915018 -0.0026904793324204522 0 0.028674996142400287 -0.0038113713369219335 0 0.029244877737394266 -0.0033327423721119312 0 0.024628589981710552 -0.004405767752030821 0 0.024301123241103503 -0.0042952173450186877 0 0.024454546012718164 -0.0041435532783340575 0 0.024301123241103503 -0.0042952173450186877 0 0.024256582618915189 -0.0041052505676691465 0 0.024454546012718164 -0.0041435532783340575 0 0.024256582618915189 -0.0041052505676691465 0 0.024454546012718164 -0.0041435532783340575 0 0.024253893639378986 -0.0038781472210566445 0 0.024454546012718164 -0.0041435532783340575 0 0.02456273693046445 -0.0039177479080835104 0 0.024253893639378986 -0.0038781472210566445 0 0.02456273693046445 -0.0039177479080835104 0 0.024253893639378986 -0.0038781472210566445 0 0.024464071056809158 -0.0036862995041858546 0 0.024304012912397276 -0.0037903656080106804 0 0.024478339557807302 -0.0036482021246285962 0 0.024304677182774265 -0.0038132272576134421 0 0.024315207103681992 -0.0036193842404704433 0 0.024503313273613749 -0.0036354918033737063 0 0.024433548206356081 -0.003490974785939949 0 0.024315207103681992 -0.0036193842404704433 0 0.024503313273613749 -0.0036354918033737063 0 0.024695965883745483 -0.0034648672826964465 0 0.02456273693046445 -0.0039177479080835104 0 0.024464071056809158 -0.0036862995041858546 0 0.024433548206356081 -0.003490974785939949 0 0.024690449084885362 -0.0034503678973129997 0 0.024503313273613749 -0.0036354918033737063 0 0.024119846552601736 -0.0036988882926606835 0 0.023952761297934822 -0.0038245330264948438 0 0.023908120954678088 -0.0036040662526737287 0 0.024212491487638984 -0.0034601010069625726 0 0.024119846552601736 -0.0036988882926606835 0 0.023908120954678088 -0.0036040662526737287 0 0.024212491487638984 -0.0034601010069625726 0 0.024315207103681992 -0.0036193842404704433 0 0.024119846552601736 -0.0036988882926606835 0 0.024304677182774265 -0.0038132272576134421 0 0.024315207103681992 -0.0036193842404704433 0 0.024119846552601736 -0.0036988882926606835 0 0.024304677182774265 -0.0038132272576134421 0 0.024119846552601736 -0.0036988882926606835 0 0.024093778365923628 -0.0039921938398891433 0 0.024304012912397276 -0.0037903656080106804 0 0.024213282693659837 -0.0038610419429868509 0 0.024119846552601736 -0.0036988882926606835 0 0.023952761297934822 -0.0038245330264948438 0 0.024093778365923628 -0.0039921938398891433 0 0.023952761297934822 -0.0038245330264948438 0 0.024093778365923628 -0.0039921938398891433 0 0.023896805634160436 -0.0040082904417385453 0 0.024093778365923628 -0.0039921938398891433 0 0.02401644055678704 -0.004113372530758554 0 0.023896805634160436 -0.0040082904417385453 0 0.024093778365923628 -0.0039921938398891433 0 0.024145630230037022 -0.0041566010726104431 0 0.02401644055678704 -0.004113372530758554 0 0.024256582618915189 -0.0041052505676691465 0 0.024093778365923628 -0.0039921938398891433 0 0.024145630230037022 -0.0041566010726104431 0 0.024256582618915189 -0.0041052505676691465 0 0.024253893639378986 -0.0038781472210566445 0 0.024093778365923628 -0.0039921938398891433 0 0.024301123241103503 -0.0042952173450186877 0 0.024256582618915189 -0.0041052505676691465 0 0.024145630230037022 -0.0041566010726104431 0 0.034699103059748493 -0.0029602798633745178 0 0.03502258792857095 -0.0027404338720415809 0 0.034834955855992791 -0.0028322753724418759 0 0.029244877737394266 -0.0033327423721119312 0 0.029479579209387225 -0.0026306913973131712 0 0.024301123241103503 -0.0042952173450186877 0 0.024145630230037022 -0.0041566010726104431 0 0.024041446560865026 -0.0042475616585756128 0 0.02401644055678704 -0.004113372530758554 0 0.024041446560865026 -0.0042475616585756128 0 0.023905456927661908 -0.0041481536335422229 0 0.024145630230037022 -0.0041566010726104431 0 0.02401644055678704 -0.004113372530758554 0 0.024041446560865026 -0.0042475616585756128 0 0.03502258792857095 -0.0027404338720415809 0 0.034971406763198945 -0.0026335943425645669 0 0.035027940161444289 -0.0026665348628689624 0 0.03533978764336234 -0.0020299908224257527 0 0.0355639562815201 -0.0013584451032269628 0 0.035220239516768934 -0.001508193212152815 0 0.034742658853013961 -0.0020538905768762773 0 0.034694182615001797 -0.0016288642822168519 0 0.034971406763198945 -0.0026335943425645669 0 0.035027940161444289 -0.0026665348628689624 0 0.035018484071513749 -0.0026303225954712271 0 0.034971406763198945 -0.0026335943425645669 0 0.035005447059586983 -0.0025829372847936678 0 0.035018484071513749 -0.0026303225954712271 0 0.034921917232298962 -0.0015909777291072916 0 0.034907579041074339 -0.0020365666850018053 0 0.034647297328479126 -0.0016264103771807274 0 0.034921917232298962 -0.0015909777291072916 0 0.034907579041074339 -0.0020365666850018053 0 0.035220239516768934 -0.001508193212152815 0 0.03533978764336234 -0.0020299908224257527 0 0.034907579041074339 -0.0020365666850018053 0 0.035220239516768934 -0.001508193212152815 0 0.03502258792857095 -0.0027404338720415809 0 0.034971406763198945 -0.0026335943425645669 0 0.034834955855992791 -0.0028322753724418759 0 0.034907579041074339 -0.0020365666850018053 0 0.034834955855992791 -0.0028322753724418759 0 0.034677751604472978 -0.0025588241443070463 0 0.034742658853013961 -0.0020538905768762773 0 0.034695397081896659 -0.0022681912617774041 0 0.03533978764336234 -0.0020299908224257527 0 0.034907579041074339 -0.0020365666850018053 0 0.034834955855992791 -0.0028322753724418759 0 0.034699103059748493 -0.0029602798633745178 0 0.034834955855992791 -0.0028322753724418759 0 0.034677751604472978 -0.0025588241443070463 0 0.034699103059748493 -0.0029602798633745178 0 0.034307709823915018 -0.0026904793324204522 0 0.034677751604472978 -0.0025588241443070463 0 0.034307709823915018 -0.0026904793324204522 0 0.033952991969842826 -0.0022071827456632766 0 0.034584483218089573 -0.0021916857542015862 0 0.034307709823915018 -0.0026904793324204522 0 0.034677751604472978 -0.0025588241443070463 0 0.034584483218089573 -0.0021916857542015862 0 0.034907579041074339 -0.0020365666850018053 0 0.034677751604472978 -0.0025588241443070463 0 0.034584483218089573 -0.0021916857542015862 0 0.033283360036754382 -0.0036973789172912979 0 0.034307709823915018 -0.0026904793324204522 0 0.033952991969842826 -0.0022071827456632766 0 0.033952991969842826 -0.0022071827456632766 0 0.033740174472836518 -0.0015222666622812569 0 0.033252765310475697 -0.0019617754690308665 0 0.033952991969842826 -0.0022071827456632766 0 0.03416939372309942 -0.0015921349776185833 0 0.034346885208065628 -0.0018969118965960672 0 0.033952991969842826 -0.0022071827456632766 0 0.03416939372309942 -0.0015921349776185833 0 0.033740174472836518 -0.0015222666622812569 0 0.033952991969842826 -0.0022071827456632766 0 0.034584483218089573 -0.0021916857542015862 0 0.034346885208065628 -0.0018969118965960672 0 0.034584483218089573 -0.0021916857542015862 0 0.034346885208065628 -0.0018969118965960672 0 0.034647297328479126 -0.0016264103771807274 0 0.034907579041074339 -0.0020365666850018053 0 0.034584483218089573 -0.0021916857542015862 0 0.034647297328479126 -0.0016264103771807274 0 0.03416939372309942 -0.0015921349776185833 0 0.034346885208065628 -0.0018969118965960672 0 0.034647297328479126 -0.0016264103771807274 0 0.034647297328479126 -0.0016264103771807274 0 0.034481101000005031 -0.0011491088533959041 0 0.03491170170389863 -0.0012232381135369058 0 0.03416939372309942 -0.0015921349776185833 0 0.034647297328479126 -0.0016264103771807274 0 0.034481101000005031 -0.0011491088533959041 0 0.034481101000005031 -0.0011491088533959041 0 0.034735371565982276 -0.00099632888385305833 0 0.03491170170389863 -0.0012232381135369058 0 0.033740174472836518 -0.0015222666622812569 0 0.034121527090756235 -0.0011782260272164599 0 0.033693947973472013 -0.0011237472626997548 0 0.03416939372309942 -0.0015921349776185833 0 0.034481101000005031 -0.0011491088533959041 0 0.034121527090756235 -0.0011782260272164599 0 0.03416939372309942 -0.0015921349776185833 0 0.033740174472836518 -0.0015222666622812569 0 0.034121527090756235 -0.0011782260272164599 0 0.034481101000005031 -0.0011491088533959041 0 0.034121527090756235 -0.0011782260272164599 0 0.034196318829500326 -0.0008129450665354857 0 0.034121527090756235 -0.0011782260272164599 0 0.033969783939419775 -0.0009706858645726949 0 0.034196318829500326 -0.0008129450665354857 0 0.033969783939419775 -0.0009706858645726949 0 0.033693947973472013 -0.0011237472626997548 0 0.033869244700761685 -0.00079979009361248385 0 0.034121527090756235 -0.0011782260272164599 0 0.033969783939419775 -0.0009706858645726949 0 0.033693947973472013 -0.0011237472626997548 0 0.034196318829500326 -0.0008129450665354857 0 0.034072716923862663 -0.00053811051217834559 0 0.034533159602542052 -0.00048877629845646984 0 0.033969783939419775 -0.0009706858645726949 0 0.034196318829500326 -0.0008129450665354857 0 0.033869244700761685 -0.00079979009361248385 0 0.034196318829500326 -0.0008129450665354857 0 0.033869244700761685 -0.00079979009361248385 0 0.034072716923862663 -0.00053811051217834559 0 0.034196318829500326 -0.0008129450665354857 0 0.034610553733318575 -0.00079742167880159673 0 0.034533159602542052 -0.00048877629845646984 0 0.034481101000005031 -0.0011491088533959041 0 0.034735371565982276 -0.00099632888385305833 0 0.034610553733318575 -0.00079742167880159673 0 0.034735371565982276 -0.00099632888385305833 0 0.034610553733318575 -0.00079742167880159673 0 0.034929855484886516 -0.00083708232270238105 0 0.034481101000005031 -0.0011491088533959041 0 0.034196318829500326 -0.0008129450665354857 0 0.034610553733318575 -0.00079742167880159673 0 0.034610553733318575 -0.00079742167880159673 0 0.034929855484886516 -0.00083708232270238105 0 0.034778624607178281 -0.00059303538301462165 0 0.034735371565982276 -0.00099632888385305833 0 0.034929855484886516 -0.00083708232270238105 0 0.03491170170389863 -0.0012232381135369058 0 0.034929855484886516 -0.00083708232270238105 0 0.035240468837632939 -0.00075319198330463027 0 0.035215524416609946 -0.0010743919128110091 0 0.034929855484886516 -0.00083708232270238105 0 0.035215524416609946 -0.0010743919128110091 0 0.03491170170389863 -0.0012232381135369058 0 0.034929855484886516 -0.00083708232270238105 0 0.035240468837632939 -0.00075319198330463027 0 0.035025382396502464 -0.00053478464094205904 0 0.035240468837632939 -0.00075319198330463027 0 0.035450586813077452 -0.00095156771932862266 0 0.035462156559546654 -0.0007091339192098271 0 0.035240468837632939 -0.00075319198330463027 0 0.035450586813077452 -0.00095156771932862266 0 0.035215524416609946 -0.0010743919128110091 0 0.035450586813077452 -0.00095156771932862266 0 0.035215524416609946 -0.0010743919128110091 0 0.0355639562815201 -0.0013584451032269628 0 0.035215524416609946 -0.0010743919128110091 0 0.0355639562815201 -0.0013584451032269628 0 0.035220239516768934 -0.001508193212152815 0 0.034921917232298962 -0.0015909777291072916 0 0.035220239516768934 -0.001508193212152815 0 0.03491170170389863 -0.0012232381135369058 0 0.034921917232298962 -0.0015909777291072916 0 0.034647297328479126 -0.0016264103771807274 0 0.03491170170389863 -0.0012232381135369058 0 0.035215524416609946 -0.0010743919128110091 0 0.035220239516768934 -0.001508193212152815 0 0.03491170170389863 -0.0012232381135369058 0 0.026528529361564263 -0.0013990259479376046 0 0.027584440209947773 -0.00090068871358662368 0 0.02673831205854069 -0.0018707134552808805 0 0.027584440209947773 -0.00090068871358662368 0 0.02673831205854069 -0.0018707134552808805 0 0.028105443273633856 -0.001918956899179803 0 0.02673831205854069 -0.0018707134552808805 0 0.026896996288726334 -0.0031260304536256086 0 0.028105443273633856 -0.001918956899179803 0 0.026425819013803774 -0.0017972049799477269 0 0.026125854541270522 -0.00177620806127786 0 0.02673831205854069 -0.0018707134552808805 0 0.026050039710732692 -0.00468271940123969 0 0.02673831205854069 -0.0018707134552808805 0 0.026896996288726334 -0.0031260304536256086 0 0.026028201215292947 -0.0028480386019879853 0 0.026171750034487656 -0.0024601268406912518 0 0.026896996288726334 -0.0031260304536256086 0 0.028105443273633856 -0.001918956899179803 0 0.028402927089895669 -0.0031333947512610727 0 0.03043366219699362 -0.0044243886089093288 0 0.028402927089895669 -0.0031333947512610727 0 0.029760514311262858 -0.0025349786325919348 0 0.028105443273633856 -0.001918956899179803 0 0.028402927089895669 -0.0031333947512610727 0 0.029760514311262858 -0.0025349786325919348 0 0.027584440209947773 -0.00090068871358662368 0 0.0293808667307177 -0.0011970073315943186 0 0.028516069043530816 0.00067626992222931186 0 0.027584440209947773 -0.00090068871358662368 0 0.028105443273633856 -0.001918956899179803 0 0.0293808667307177 -0.0011970073315943186 0 0.028105443273633856 -0.001918956899179803 0 0.029760514311262858 -0.0025349786325919348 0 0.0293808667307177 -0.0011970073315943186 0 0.0293808667307177 -0.0011970073315943186 0 0.031845910719581205 -0.0020508517697509759 0 0.031451119394940746 -0.00023576959898990944 0 0.032598865492572272 -0.0012336643178474352 0 0.032650887479011848 -0.00085578927124021196 0 0.029760514311262858 -0.0025349786325919348 0 0.0293808667307177 -0.0011970073315943186 0 0.031845910719581205 -0.0020508517697509759 0 0.031845910719581205 -0.0020508517697509759 0 0.033111850180093043 -0.0014636680104692489 0 0.032612379330141897 -0.0013771593698932866 0 0.03043366219699362 -0.0044243886089093288 0 0.029760514311262858 -0.0025349786325919348 0 0.031845910719581205 -0.0020508517697509759 0 0.03043366219699362 -0.0044243886089093288 0 0.031845910719581205 -0.0020508517697509759 0 0.032842608492719763 -0.0027333453889810122 0 0.031845910719581205 -0.0020508517697509759 0 0.032842608492719763 -0.0027333453889810122 0 0.033252765310475697 -0.0019617754690308665 0 0.033952991969842826 -0.0022071827456632766 0 0.032842608492719763 -0.0027333453889810122 0 0.033252765310475697 -0.0019617754690308665 0 0.033283360036754382 -0.0036973789172912979 0 0.033952991969842826 -0.0022071827456632766 0 0.032842608492719763 -0.0027333453889810122 0 0.031845910719581205 -0.0020508517697509759 0 0.033252765310475697 -0.0019617754690308665 0 0.033111850180093043 -0.0014636680104692489 0 0.033740174472836518 -0.0015222666622812569 0 0.033252765310475697 -0.0019617754690308665 0 0.033111850180093043 -0.0014636680104692489 0 0.033740174472836518 -0.0015222666622812569 0 0.033111850180093043 -0.0014636680104692489 0 0.033693947973472013 -0.0011237472626997548 0 0.033111850180093043 -0.0014636680104692489 0 0.033256243237199987 -0.001095984825580186 0 0.033693947973472013 -0.0011237472626997548 0 0.033111850180093043 -0.0014636680104692489 0 0.033256243237199987 -0.001095984825580186 0 0.032612379330141897 -0.0013771593698932866 0 0.033256243237199987 -0.001095984825580186 0 0.033543172528007426 -0.00071408427973141645 0 0.032974200955462551 -0.00076732146169318169 0 0.033256243237199987 -0.001095984825580186 0 0.033594931009258255 -0.00088733741351043952 0 0.033543172528007426 -0.00071408427973141645 0 0.033256243237199987 -0.001095984825580186 0 0.033594931009258255 -0.00088733741351043952 0 0.033693947973472013 -0.0011237472626997548 0 0.033594931009258255 -0.00088733741351043952 0 0.033693947973472013 -0.0011237472626997548 0 0.033869244700761685 -0.00079979009361248385 0 0.033812526239363094 -0.00063244245995947208 0 0.033543172528007426 -0.00071408427973141645 0 0.033982101528594925 -0.00040436007980715761 0 0.033594931009258255 -0.00088733741351043952 0 0.033869244700761685 -0.00079979009361248385 0 0.033812526239363094 -0.00063244245995947208 0 0.033869244700761685 -0.00079979009361248385 0 0.033812526239363094 -0.00063244245995947208 0 0.034072716923862663 -0.00053811051217834559 0 0.033594931009258255 -0.00088733741351043952 0 0.033812526239363094 -0.00063244245995947208 0 0.033543172528007426 -0.00071408427973141645 0 0.033543172528007426 -0.00071408427973141645 0 0.033530216972355198 -0.00071247116198987085 0 0.033982101528594925 -0.00040436007980715761 0 0.035110460053813651 -0.00063025066855700561 0 0.034977392854212586 -0.00053756137826058929 0 0.035090727963820942 -0.00039099024478048643 0 0.032824064802695674 -0.00026556471898876439 0 0.033875288649059282 -0.00044999960949503531 0 0.032873523884494299 -0.00027068338923099018 0 0.032824064802695674 -0.00026556471898876439 0 0.031303076232187699 0.0015374012589886477 0 0.031451119394940746 -0.00023576959898990944 0 0.028516069043530816 0.00067626992222931186 0 0.033256243237199987 -0.001095984825580186 0 0.032974200955462551 -0.00076732146169318169 0 0.032612379330141897 -0.0013771593698932866 0 0.032824064802695674 -0.00026556471898876439 0 0.032650887479011848 -0.00085578927124021196 0 0.032824064802695674 -0.00026556471898876439 0 0.031983964974985561 -0.00043081238736814205 0 0.0293808667307177 -0.0011970073315943186 0 0.031451119394940746 -0.00023576959898990944 0 0.028516069043530816 0.00067626992222931186 0 0.034903339661586617 -0.00070166467972940651 0 0.034977392854212586 -0.00053756137826058929 0 0.034838029525524082 -0.00049457650430890533 0 0.035110460053813651 -0.00063025066855700561 0 0.034903339661586617 -0.00070166467972940651 0 0.034977392854212586 -0.00053756137826058929 0 0.034689699810270341 -0.00058798587063828311 0 0.034903339661586617 -0.00070166467972940651 0 0.034838029525524082 -0.00049457650430890533 0 0.034689699810270341 -0.00058798587063828311 0 0.034742435751736363 -0.00042952422066719575 0 0.034838029525524082 -0.00049457650430890533 0 0.034664876486310871 -0.00081503913344661708 0 0.034689699810270341 -0.00058798587063828311 0 0.034903339661586617 -0.00070166467972940651 0 0.026590134834516898 -0.00067750635880128862 0 0.027584440209947773 -0.00090068871358662368 0 0.028516069043530816 0.00067626992222931186 0 0.031162814705033536 -0.00080806819166609684 0 0.031983964974985561 -0.00043081238736814205 0 0.034747968034650571 -0.00026669753676806363 0 0.034844033494928942 -0.00025728624816109103 0 0.034794202083346486 -0.0003001174435743485 0 0.034844033494928942 -0.00025728624816109103 0 0.034794202083346486 -0.0003001174435743485 0 0.034826161231998574 -0.00035033602352434092 0 0.034844033494928942 -0.00025728624816109103 0 0.034826161231998574 -0.00035033602352434092 0 0.034931369737093432 -0.00027627817316664126 0 0.034747968034650571 -0.00026669753676806363 0 0.034794202083346486 -0.0003001174435743485 0 0.034744263648159517 -0.00034854206572390806 0 0.034794202083346486 -0.0003001174435743485 0 0.034744263648159517 -0.00034854206572390806 0 0.034826161231998574 -0.00035033602352434092 0 0.034744263648159517 -0.00034854206572390806 0 0.034742435751736363 -0.00042952422066719575 0 0.034826161231998574 -0.00035033602352434092 0 0.034742435751736363 -0.00042952422066719575 0 0.034838029525524082 -0.00049457650430890533 0 0.034826161231998574 -0.00035033602352434092 0 0.034838029525524082 -0.00049457650430890533 0 0.034826161231998574 -0.00035033602352434092 0 0.03493295112592408 -0.0004090793655259716 0 0.034977392854212586 -0.00053756137826058929 0 0.03493295112592408 -0.0004090793655259716 0 0.035090727963820942 -0.00039099024478048643 0 0.03493295112592408 -0.0004090793655259716 0 0.034931369737093432 -0.00027627817316664126 0 0.035090727963820942 -0.00039099024478048643 0 0.034977392854212586 -0.00053756137826058929 0 0.034838029525524082 -0.00049457650430890533 0 0.03493295112592408 -0.0004090793655259716 0 0.034826161231998574 -0.00035033602352434092 0 0.03493295112592408 -0.0004090793655259716 0 0.034931369737093432 -0.00027627817316664126 0 0.034931369737093432 -0.00027627817316664126 0 0.035090727963820942 -0.00039099024478048643 0 0.035054740775538135 -0.00016382517838925439 0 0.033982101528594925 -0.00040436007980715761 0 0.034498795742862139 -0.00016175796529589907 0 0.034497573314498348 -0.00010525803613397357 0 0.033875288649059282 -0.00044999960949503531 0 0.034516805605858437 -0.00027443831799941104 0 0.033812526239363094 -0.00063244245995947208 0 0.033982101528594925 -0.00040436007980715761 0 0.034072716923862663 -0.00053811051217834559 0 0.033982101528594925 -0.00040436007980715761 0 0.034072716923862663 -0.00053811051217834559 0 0.034420777865379809 -0.0003056261676828873 0 0.033982101528594925 -0.00040436007980715761 0 0.034498795742862139 -0.00016175796529589907 0 0.034420777865379809 -0.0003056261676828873 0 0.034498795742862139 -0.00016175796529589907 0 0.034746204871544728 -4.6682977466934146e-05 0 0.034497573314498348 -0.00010525803613397357 0 0.034498795742862139 -0.00016175796529589907 0 0.034746204871544728 -4.6682977466934146e-05 0 0.034779535499162434 -6.8250043587422387e-05 0 0.034746204871544728 -4.6682977466934146e-05 0 0.03499939264873083 -7.5884686232445746e-09 0 0.034999632346468378 -2.1187333845035283e-08 0 0.035000289046028053 -6.9526128861866702e-08 0 0.035054740775538135 -0.00016382517838925439 0 0.0349997142415579 6.2514127951058067e-08 0 0.034746204871544728 -4.6682977466934146e-05 0 0.03499939264873083 -7.5884686232445746e-09 0 0.034497573314498348 -0.00010525803613397357 0 0.034999096869014819 -3.9212516904120318e-07 0 0.034516805605858437 -0.00027443831799941104 0 0.034931369737093432 -0.00027627817316664126 0 0.035054740775538135 -0.00016382517838925439 0 0.034883871668920166 -0.00011804712209882716 0 0.034844033494928942 -0.00025728624816109103 0 0.034931369737093432 -0.00027627817316664126 0 0.034883871668920166 -0.00011804712209882716 0 0.034999920282404624 -7.1878030411813674e-08 0 0.034929569764082666 -7.5686937883334885e-05 0 0.035000005045891583 -3.7861402755900027e-09 0 0.034999985818156845 7.2822166204394731e-09 0 0.03499559121583079 -7.6497557877796589e-07 0 0.035054740775538135 -0.00016382517838925439 0 0.0349997142415579 6.2514127951058067e-08 0 0.034883871668920166 -0.00011804712209882716 0 0.034976780696348998 -2.474252666910362e-06 0 0.034999985818156845 7.2822166204394731e-09 0 0.03499559121583079 -7.6497557877796589e-07 0 0.034844424210717054 -0.00017088124108815783 0 0.034929569764082666 -7.5686937883334885e-05 0 0.034747968034650571 -0.00026669753676806363 0 0.034844033494928942 -0.00025728624816109103 0 0.034883871668920166 -0.00011804712209882716 0 0.034965339277874305 -5.9703113243272658e-06 0 0.034976780696348998 -2.474252666910362e-06 0 0.03499559121583079 -7.6497557877796589e-07 0 0.034965339277874305 -5.9703113243272658e-06 0 0.034985371080924227 -2.4868538186333741e-05 0 0.03499559121583079 -7.6497557877796589e-07 0 0.035037706541918096 -0.0002768861085074449 0 0.034847124124299578 -0.00040019416052144481 0 0.034763049009931449 -0.00023719718689678573 0 0.035037706541918096 -0.0002768861085074449 0 0.034763049009931449 -0.00023719718689678573 0 0.034977470675953706 -7.165419826161954e-05 0 0.035037706541918096 -0.0002768861085074449 0 0.035263804409494059 -0.00047171360292808291 0 0.035259729843009936 -0.00012030952211205077 0 0.035037706541918096 -0.0002768861085074449 0 0.035263804409494059 -0.00047171360292808291 0 0.035025382396502464 -0.00053478464094205904 0 0.035240468837632939 -0.00075319198330463027 0 0.035263804409494059 -0.00047171360292808291 0 0.035462156559546654 -0.0007091339192098271 0 0.035240468837632939 -0.00075319198330463027 0 0.035263804409494059 -0.00047171360292808291 0 0.035025382396502464 -0.00053478464094205904 0 0.035037706541918096 -0.0002768861085074449 0 0.035025382396502464 -0.00053478464094205904 0 0.034847124124299578 -0.00040019416052144481 0 0.035025382396502464 -0.00053478464094205904 0 0.034847124124299578 -0.00040019416052144481 0 0.034778624607178281 -0.00059303538301462165 0 0.034929855484886516 -0.00083708232270238105 0 0.035025382396502464 -0.00053478464094205904 0 0.034778624607178281 -0.00059303538301462165 0 0.034847124124299578 -0.00040019416052144481 0 0.034533159602542052 -0.00048877629845646984 0 0.034763049009931449 -0.00023719718689678573 0 0.034610553733318575 -0.00079742167880159673 0 0.034778624607178281 -0.00059303538301462165 0 0.034533159602542052 -0.00048877629845646984 0 0.034847124124299578 -0.00040019416052144481 0 0.034778624607178281 -0.00059303538301462165 0 0.034533159602542052 -0.00048877629845646984 0 0.034072716923862663 -0.00053811051217834559 0 0.034533159602542052 -0.00048877629845646984 0 0.034420777865379809 -0.0003056261676828873 0 0.034498795742862139 -0.00016175796529589907 0 0.034420777865379809 -0.0003056261676828873 0 0.034779535499162434 -6.8250043587422387e-05 0 0.034533159602542052 -0.00048877629845646984 0 0.034420777865379809 -0.0003056261676828873 0 0.034763049009931449 -0.00023719718689678573 0 0.034420777865379809 -0.0003056261676828873 0 0.034763049009931449 -0.00023719718689678573 0 0.034779535499162434 -6.8250043587422387e-05 0 0.034763049009931449 -0.00023719718689678573 0 0.034779535499162434 -6.8250043587422387e-05 0 0.034977470675953706 -7.165419826161954e-05 0 0.034746204871544728 -4.6682977466934146e-05 0 0.034779535499162434 -6.8250043587422387e-05 0 0.034999632346468378 -2.1187333845035283e-08 0 0.034779535499162434 -6.8250043587422387e-05 0 0.034999632346468378 -2.1187333845035283e-08 0 0.034999834569880921 -1.6703363382704958e-08 0 0.034779535499162434 -6.8250043587422387e-05 0 0.034999834569880921 -1.6703363382704958e-08 0 0.034977470675953706 -7.165419826161954e-05 0 0.034999834569880921 -1.6703363382704958e-08 0 0.034977470675953706 -7.165419826161954e-05 0 0.035000460930877893 8.1392330930707783e-08 0 0.035037706541918096 -0.0002768861085074449 0 0.034977470675953706 -7.165419826161954e-05 0 0.035259729843009936 -0.00012030952211205077 0 0.034977470675953706 -7.165419826161954e-05 0 0.035000460930877893 8.1392330930707783e-08 0 0.035259729843009936 -0.00012030952211205077 0 0.034999976715134086 7.0719659678236613e-09 0 0.034996590119161175 -6.9067503177362687e-06 0 0.034999990103579667 -1.1565447171323933e-08 0 0.034999976715134086 7.0719659678236613e-09 0 0.034996590119161175 -6.9067503177362687e-06 0 0.03498628940196831 -2.8484296765680335e-05 0 0.034999805232182407 -2.5614707416036833e-07 0 0.034888639534975174 -0.00022152089738217658 0 0.034996590119161175 -6.9067503177362687e-06 0 0.034988749378718598 -6.9789715610045817e-06 0 0.034987486323699739 -8.7075344214112416e-06 0 0.034996590119161175 -6.9067503177362687e-06 0 0.034999990103579667 -1.1565447171323933e-08 0 0.034988749378718598 -6.9789715610045817e-06 0 0.034999990103579667 -1.1565447171323933e-08 0 0.034988749378718598 -6.9789715610045817e-06 0 0.03499311483816997 -3.265792363008669e-06 0 0.034988749378718598 -6.9789715610045817e-06 0 0.034982833844399361 -8.4282094554066505e-06 0 0.03499311483816997 -3.265792363008669e-06 0 0.034988749378718598 -6.9789715610045817e-06 0 0.034983695251299872 -9.8603130078181598e-06 0 0.034987486323699739 -8.7075344214112416e-06 0 0.034988749378718598 -6.9789715610045817e-06 0 0.034983695251299872 -9.8603130078181598e-06 0 0.034980317438026494 -1.0668446459923986e-05 0 0.034983695251299872 -9.8603130078181598e-06 0 0.034980317438026494 -1.0668446459923986e-05 0 0.034977253830565068 -1.2589673164052776e-05 0 0.034988749378718598 -6.9789715610045817e-06 0 0.034980317438026494 -1.0668446459923986e-05 0 0.034982833844399361 -8.4282094554066505e-06 0 0.034781427349634284 -0.00010305029809605316 0 0.034743365082618091 -0.00017690482449803338 0 0.034996590119161175 -6.9067503177362687e-06 0 0.03498628940196831 -2.8484296765680335e-05 0 0.0349893746381124 -3.5867140619824359e-05 0 0.034996590119161175 -6.9067503177362687e-06 0 0.034987486323699739 -8.7075344214112416e-06 0 0.034981049758674623 -1.1240174028651537e-05 0 0.034983695251299872 -9.8603130078181598e-06 0 0.034987486323699739 -8.7075344214112416e-06 0 0.034981049758674623 -1.1240174028651537e-05 0 0.034983695251299872 -9.8603130078181598e-06 0 0.034981049758674623 -1.1240174028651537e-05 0 0.034977253830565068 -1.2589673164052776e-05 0 0.034981049758674623 -1.1240174028651537e-05 0 0.034977253830565068 -1.2589673164052776e-05 0 0.034974856565958203 -1.2897369518570048e-05 0 0.035263804409494059 -0.00047171360292808291 0 0.035259729843009936 -0.00012030952211205077 0 0.035567481896240122 -0.00049963191646319499 0 0.034888639534975174 -0.00022152089738217658 0 0.034626894530255747 -0.00052497157937277702 0 0.034743365082618091 -0.00017690482449803338 0 0.034626894530255747 -0.00052497157937277702 0 0.03498628940196831 -2.8484296765680335e-05 0 0.0349893746381124 -3.5867140619824359e-05 0 0.034980968268815082 -7.908566359006104e-05 0 0.034980317438026494 -1.0668446459923986e-05 0 0.034964497049072583 -1.3957106465640129e-05 0 0.034982833844399361 -8.4282094554066505e-06 0 0.034980317438026494 -1.0668446459923986e-05 0 0.034977253830565068 -1.2589673164052776e-05 0 0.034964497049072583 -1.3957106465640129e-05 0 0.034977253830565068 -1.2589673164052776e-05 0 0.034974856565958203 -1.2897369518570048e-05 0 0.034964497049072583 -1.3957106465640129e-05 0 0.034806034590126947 -0.00028402124378673757 0 0.034384372040061305 -0.00086801900893660009 0 0.034964497049072583 -1.3957106465640129e-05 0 0.034918631228163959 -3.5069493759043959e-05 0 0.034945480400771015 -2.9274392784438534e-05 0 0.034974856565958203 -1.2897369518570048e-05 0 0.034964497049072583 -1.3957106465640129e-05 0 0.034971523323169641 -9.4219529490580972e-06 0 0.034626894530255747 -0.00052497157937277702 0 0.034396963685525542 -0.0010588080456414614 0 0.035263804409494059 -0.00047171360292808291 0 0.035567481896240122 -0.00049963191646319499 0 0.035462156559546654 -0.0007091339192098271 0 0.035567481896240122 -0.00049963191646319499 0 0.035725583009440794 -0.00089478556707172675 0 0.035462156559546654 -0.0007091339192098271 0 0.034626894530255747 -0.00052497157937277702 0 0.034384372040061305 -0.00086801900893660009 0 0.034966159409168585 -1.9789735998883651e-05 0 0.034964315143489307 -2.3908943639922575e-05 0 0.034956975694122115 -3.1350178086897933e-05 0 0.034966159409168585 -1.9789735998883651e-05 0 0.034955859653164556 -2.591908580045716e-05 0 0.034956975694122115 -3.1350178086897933e-05 0 0.034955859653164556 -2.591908580045716e-05 0 0.034964497049072583 -1.3957106465640129e-05 0 0.034945480400771015 -2.9274392784438534e-05 0 0.034966159409168585 -1.9789735998883651e-05 0 0.034955859653164556 -2.591908580045716e-05 0 0.034964497049072583 -1.3957106465640129e-05 0 0.034964497049072583 -1.3957106465640129e-05 0 0.034979589277710256 -1.1050807069943868e-05 0 0.034982833844399361 -8.4282094554066505e-06 0 0.034966159409168585 -1.9789735998883651e-05 0 0.034964497049072583 -1.3957106465640129e-05 0 0.034979589277710256 -1.1050807069943868e-05 0 0.034968033580056464 -8.2426692783375355e-06 0 0.034962304866237727 -6.4117586533300049e-06 0 0.034966159409168585 -1.9789735998883651e-05 0 0.034979589277710256 -1.1050807069943868e-05 0 0.034967253146819095 -1.9350895340809487e-05 0 0.034979589277710256 -1.1050807069943868e-05 0 0.034993116948097543 -2.4508449070464837e-06 0 0.034993993454690633 -4.404702593256573e-06 0 0.034979589277710256 -1.1050807069943868e-05 0 0.034993116948097543 -2.4508449070464837e-06 0 0.034982833844399361 -8.4282094554066505e-06 0 0.034993116948097543 -2.4508449070464837e-06 0 0.034982833844399361 -8.4282094554066505e-06 0 0.03499311483816997 -3.265792363008669e-06 0 0.034993116948097543 -2.4508449070464837e-06 0 0.034999988087115193 1.4958254617120836e-09 0 0.03499311483816997 -3.265792363008669e-06 0 0.034999990103579667 -1.1565447171323933e-08 0 0.034999988087115193 1.4958254617120836e-09 0 0.03499311483816997 -3.265792363008669e-06 0 0.034993116948097543 -2.4508449070464837e-06 0 0.034999988087115193 1.4958254617120836e-09 0 0.034999986091084088 -7.3007303676232422e-09 0 0.034993116948097543 -2.4508449070464837e-06 0 0.034999986091084088 -7.3007303676232422e-09 0 0.034995882362813847 -2.0498205665718782e-06 0 0.03499999324610234 -8.4791463988651466e-10 0 0.034995445146761957 3.0875981236611138e-07 0 0.034999986091084088 -7.3007303676232422e-09 0 0.034995882362813847 -2.0498205665718782e-06 0 0.034992643119601381 -4.5478779341916894e-06 0 0.034999998684645976 -8.3119134587203334e-10 0 0.035000003628467002 2.0627051155150188e-09 0 0.03500017378254059 4.8402749267181278e-07 0 0.034995882362813847 -2.0498205665718782e-06 0 0.034992643119601381 -4.5478779341916894e-06 0 0.034993101852752978 -2.1515467183873549e-06 0 0.034995882362813847 -2.0498205665718782e-06 0 0.034993101852752978 -2.1515467183873549e-06 0 0.034994587006212316 -2.3810586397042706e-06 0 0.034993101852752978 -2.1515467183873549e-06 0 0.03499166407321215 4.5306172231454364e-08 0 0.034994587006212316 -2.3810586397042706e-06 0 0.034993116948097543 -2.4508449070464837e-06 0 0.034995882362813847 -2.0498205665718782e-06 0 0.034994587006212316 -2.3810586397042706e-06 0 0.034993116948097543 -2.4508449070464837e-06 0 0.034994587006212316 -2.3810586397042706e-06 0 0.034993993454690633 -4.404702593256573e-06 0 0.034999990058086412 -3.0215476217176028e-09 0 0.034990447998342319 2.2250905111962868e-06 0 0.034999520944095676 2.8763222709254292e-06 0 0.035000003628467002 2.0627051155150188e-09 0 0.03500017378254059 4.8402749267181278e-07 0 0.034999520944095676 2.8763222709254292e-06 0 0.034992643119601381 -4.5478779341916894e-06 0 0.034993101852752978 -2.1515467183873549e-06 0 0.034984255614536372 -2.5675612490056028e-06 0 0.035000003628467002 2.0627051155150188e-09 0 0.034999990058086412 -3.0215476217176028e-09 0 0.034999520944095676 2.8763222709254292e-06 0 0.034995445146761957 3.0875981236611138e-07 0 0.034991279401703088 1.0843042671113872e-06 0 0.034993101852752978 -2.1515467183873549e-06 0 0.03499166407321215 4.5306172231454364e-08 0 0.034984255614536372 -2.5675612490056028e-06 0 0.03499166407321215 4.5306172231454364e-08 0 0.034984255614536372 -2.5675612490056028e-06 0 0.034984590072784573 4.3980038694097662e-06 0 0.034991279401703088 1.0843042671113872e-06 0 0.034987367373573754 2.2793961102965452e-06 0 0.034984255614536372 -2.5675612490056028e-06 0 0.034978232629569721 4.4779112004301139e-06 0 0.034975683238222005 4.6244443971638028e-06 0 0.034990447998342319 2.2250905111962868e-06 0 0.034999520944095676 2.8763222709254292e-06 0 0.034975683238222005 4.6244443971638028e-06 0 0.034984255614536372 -2.5675612490056028e-06 0 0.034978232629569721 4.4779112004301139e-06 0 0.034984590072784573 4.3980038694097662e-06 0 0.034978957948980496 7.9656551422111204e-06 0 0.034984590072784573 4.3980038694097662e-06 0 0.03498286872666867 1.0401389691431109e-05 0 0.034978957948980496 7.9656551422111204e-06 0 0.034978232629569721 4.4779112004301139e-06 0 0.034984590072784573 4.3980038694097662e-06 0 0.03499166407321215 4.5306172231454364e-08 0 0.034984590072784573 4.3980038694097662e-06 0 0.03499055145273039 4.8674620204785214e-06 0 0.034972497867112914 -2.6966361107831905e-05 0 0.034977137896106333 -2.489151017274366e-05 0 0.034970363752139202 -2.2542523641739872e-05 0 0.034790237891218011 5.2450656932018252e-05 0 0.034928366903295531 4.9889377326767995e-06 0 0.034984590072784573 4.3980038694097662e-06 0 0.03498286872666867 1.0401389691431109e-05 0 0.03499055145273039 4.8674620204785214e-06 0 0.034781731772221096 -3.569340347842506e-05 0 0.034816363409322613 -8.5290443243123037e-05 0 0.034894796895941022 -6.4076322335515472e-05 0 0.034905658206494529 -1.4057652448010618e-05 0 0.034865138545601027 -4.8689614211469406e-05 0 0.034920868630169313 -3.7394803009818831e-05 0 0.034790237891218011 5.2450656932018252e-05 0 0.034826549833153947 3.0775846542924697e-05 0 0.034865138545601027 -4.8689614211469406e-05 0 0.034894796895941022 -6.4076322335515472e-05 0 0.034920868630169313 -3.7394803009818831e-05 0 0.034839290472257881 4.9147748567694426e-05 0 0.034790237891218011 5.2450656932018252e-05 0 0.03499166407321215 4.5306172231454364e-08 0 0.034993993454690633 -4.404702593256573e-06 0 0.03499055145273039 4.8674620204785214e-06 0 0.034962304866237727 -6.4117586533300049e-06 0 0.034928366903295531 4.9889377326767995e-06 0 0.03499166407321215 4.5306172231454364e-08 0 0.034994587006212316 -2.3810586397042706e-06 0 0.034993993454690633 -4.404702593256573e-06 0 0.034972497867112914 -2.6966361107831905e-05 0 0.034970363752139202 -2.2542523641739872e-05 0 0.034968395531876181 -2.8437052063125006e-05 0 0.034970363752139202 -2.2542523641739872e-05 0 0.034966721740003995 -2.3994835996969155e-05 0 0.034968395531876181 -2.8437052063125006e-05 0 0.034967253146819095 -1.9350895340809487e-05 0 0.034970363752139202 -2.2542523641739872e-05 0 0.034966721740003995 -2.3994835996969155e-05 0 0.034967253146819095 -1.9350895340809487e-05 0 0.034966721740003995 -2.3994835996969155e-05 0 0.034964315143489307 -2.3908943639922575e-05 0 0.034966721740003995 -2.3994835996969155e-05 0 0.034964315143489307 -2.3908943639922575e-05 0 0.03496251079262138 -3.1468018162185004e-05 0 0.034966159409168585 -1.9789735998883651e-05 0 0.034967253146819095 -1.9350895340809487e-05 0 0.034964315143489307 -2.3908943639922575e-05 0 0.034964315143489307 -2.3908943639922575e-05 0 0.03496251079262138 -3.1468018162185004e-05 0 0.034956975694122115 -3.1350178086897933e-05 0 0.03496251079262138 -3.1468018162185004e-05 0 0.034955739194051733 -4.0074994690546018e-05 0 0.034959344065686467 -4.0908467153719058e-05 0 0.03496251079262138 -3.1468018162185004e-05 0 0.034955739194051733 -4.0074994690546018e-05 0 0.034956975694122115 -3.1350178086897933e-05 0 0.03496251079262138 -3.1468018162185004e-05 0 0.034963891590417823 -3.7912540410456014e-05 0 0.034959344065686467 -4.0908467153719058e-05 0 0.034966721740003995 -2.3994835996969155e-05 0 0.03496251079262138 -3.1468018162185004e-05 0 0.034968395531876181 -2.8437052063125006e-05 0 0.034968395531876181 -2.8437052063125006e-05 0 0.034963891590417823 -3.7912540410456014e-05 0 0.034971982419630766 -3.3518375853359998e-05 0 0.034972497867112914 -2.6966361107831905e-05 0 0.034968395531876181 -2.8437052063125006e-05 0 0.034971982419630766 -3.3518375853359998e-05 0 0.03496251079262138 -3.1468018162185004e-05 0 0.034968395531876181 -2.8437052063125006e-05 0 0.034963891590417823 -3.7912540410456014e-05 0 0.034792571710629806 -0.00010030120205620227 0 0.034738827048789438 -0.00012731486968049513 0 0.03475554484629656 -0.00010970325105797777 0 0.034963891590417823 -3.7912540410456014e-05 0 0.034961470158895808 -4.8508661407945405e-05 0 0.034971982419630766 -3.3518375853359998e-05 0 0.03358791217402541 0.0001097311305188309 0 0.034416501127449345 0.00014612550110032203 0 0.034963891590417823 -3.7912540410456014e-05 0 0.034961470158895808 -4.8508661407945405e-05 0 0.034958544520763739 -4.8052512173685475e-05 0 0.03358791217402541 0.0001097311305188309 0 0.033635178046924466 9.5173191211085477e-05 0 0.034961560505282763 -4.9605074377233542e-05 0 0.034958544520763739 -4.8052512173685475e-05 0 0.034954069769692495 -5.1279406326558529e-05 0 0.034958544520763739 -4.8052512173685475e-05 0 0.034955586017623962 -4.5756177788003314e-05 0 0.034959344065686467 -4.0908467153719058e-05 0 0.034958544520763739 -4.8052512173685475e-05 0 0.034955586017623962 -4.5756177788003314e-05 0 0.034954069769692495 -5.1279406326558529e-05 0 0.034955586017623962 -4.5756177788003314e-05 0 0.034955739194051733 -4.0074994690546018e-05 0 0.034950258215255013 -4.9085986724476874e-05 0 0.034955586017623962 -4.5756177788003314e-05 0 0.034954069769692495 -5.1279406326558529e-05 0 0.034950258215255013 -4.9085986724476874e-05 0 0.034955586017623962 -4.5756177788003314e-05 0 0.034955739194051733 -4.0074994690546018e-05 0 0.034959344065686467 -4.0908467153719058e-05 0 0.034963891590417823 -3.7912540410456014e-05 0 0.034958544520763739 -4.8052512173685475e-05 0 0.034959344065686467 -4.0908467153719058e-05 0 0.034781731772221096 -3.569340347842506e-05 0 0.034816363409322613 -8.5290443243123037e-05 0 0.034772469181681497 -0.00011171304270867284 0 0.034829556245962366 -0.00012832190099434077 0 0.034816363409322613 -8.5290443243123037e-05 0 0.034894796895941022 -6.4076322335515472e-05 0 0.034829556245962366 -0.00012832190099434077 0 0.034816363409322613 -8.5290443243123037e-05 0 0.034772469181681497 -0.00011171304270867284 0 0.034790237891218011 5.2450656932018252e-05 0 0.034416501127449345 0.00014612550110032203 0 0.034972497867112914 -2.6966361107831905e-05 0 0.034977137896106333 -2.489151017274366e-05 0 0.034971982419630766 -3.3518375853359998e-05 0 0.034781731772221096 -3.569340347842506e-05 0 0.034772469181681497 -0.00011171304270867284 0 0.034738827048789438 -0.00012731486968049513 0 0.034772469181681497 -0.00011171304270867284 0 0.034738827048789438 -0.00012731486968049513 0 0.034720107576559051 -0.00013358878607494347 0 0.034738827048789438 -0.00012731486968049513 0 0.03475554484629656 -0.00010970325105797777 0 0.034720107576559051 -0.00013358878607494347 0 0.03475554484629656 -0.00010970325105797777 0 0.034720107576559051 -0.00013358878607494347 0 0.034762123192202357 -6.2701575659876601e-05 0 0.034829556245962366 -0.00012832190099434077 0 0.034772469181681497 -0.00011171304270867284 0 0.034720107576559051 -0.00013358878607494347 0 0.034537952739754005 -0.00031554359818038467 0 0.034720107576559051 -0.00013358878607494347 0 0.034536372531931786 -0.00010130987403486409 0 0.034647490884015017 -0.00016655562156396561 0 0.034673639252349696 -0.00014919699426227124 0 0.034519683552243011 2.8966427692173794e-05 0 0.034648890804543066 4.9308045187307275e-05 0 0.034389050586817613 0.00015939748634568606 0 0.034720107576559051 -0.00013358878607494347 0 0.034536372531931786 -0.00010130987403486409 0 0.034650146515885681 2.9079091869171318e-05 0 0.034536372531931786 -0.00010130987403486409 0 0.034519683552243011 2.8966427692173794e-05 0 0.034650146515885681 2.9079091869171318e-05 0 0.033127935842999223 0.00045102942506244719 0 0.032860951442051638 0.00043697465223135277 0 0.032963502633294936 0.00032130052028900307 0 0.032831048601501295 0.00036791240327615062 0 0.032755273215012363 0.00027998249886983554 0 0.032860951442051638 0.00043697465223135277 0 0.031870573590839418 0.00033553946049470692 0 0.032860951442051638 0.00043697465223135277 0 0.033416372882400874 0.00021126772539572562 0 0.034720107576559051 -0.00013358878607494347 0 0.034650146515885681 2.9079091869171318e-05 0 0.034762123192202357 -6.2701575659876601e-05 0 0.030681471216897432 0.001598898819262503 0 0.03011822541995704 0.0015468279539574581 0 0.030402079343153896 0.0011928133012648722 0 0.032860951442051638 0.00043697465223135277 0 0.032780748126974249 0.0006546264723617651 0 0.030681471216897432 0.001598898819262503 0 0.031123093801526319 0.0013728354986547364 0 0.030926197956841359 0.0010658131865301282 0 0.030681471216897432 0.001598898819262503 0 0.030926197956841359 0.0010658131865301282 0 0.030402079343153896 0.0011928133012648722 0 0.034961560505282763 -4.9605074377233542e-05 0 0.034954069769692495 -5.1279406326558529e-05 0 0.034946497375349383 -5.9726664722500185e-05 0 0.032697818762313188 0.00041747630421474884 0 0.032755273215012363 0.00027998249886983554 0 0.03254326123372972 0.00024024442738986346 0 0.03358791217402541 0.0001097311305188309 0 0.032012559581462048 5.6685447971650833e-05 0 0.034961560505282763 -4.9605074377233542e-05 0 0.034941545919792066 -7.2663490346089787e-05 0 0.034946497375349383 -5.9726664722500185e-05 0 0.034954069769692495 -5.1279406326558529e-05 0 0.034946497375349383 -5.9726664722500185e-05 0 0.034950258215255013 -4.9085986724476874e-05 0 0.032697818762313188 0.00041747630421474884 0 0.032831048601501295 0.00036791240327615062 0 0.032755273215012363 0.00027998249886983554 0 0.03358791217402541 0.0001097311305188309 0 0.033416372882400874 0.00021126772539572562 0 0.034792571710629806 -0.00010030120205620227 0 0.03475554484629656 -0.00010970325105797777 0 0.034762123192202357 -6.2701575659876601e-05 0 0.03011822541995704 0.0015468279539574581 0 0.029906209458946977 0.0011110530077370014 0 0.030402079343153896 0.0011928133012648722 0 0.03011822541995704 0.0015468279539574581 0 0.029543659966070314 0.0014628497158255471 0 0.029906209458946977 0.0011110530077370014 0 0.031870573590839418 0.00033553946049470692 0 0.032012559581462048 5.6685447971650833e-05 0 0.031146618572639954 -0.00012236365555002009 0 0.030666587660725421 -0.00020782494324956435 0 0.030801668040992436 -0.00051713209388804633 0 0.032012559581462048 5.6685447971650833e-05 0 0.03211143846634288 -0.00045292958487212851 0 0.032012559581462048 5.6685447971650833e-05 0 0.030458928737075806 -0.00012389090938613365 0 0.034941545919792066 -7.2663490346089787e-05 0 0.034930000384669903 -6.4455122382497561e-05 0 0.034924603191061145 -7.80728742243626e-05 0 0.034946497375349383 -5.9726664722500185e-05 0 0.034941564190499166 -5.379463081094623e-05 0 0.034930000384669903 -6.4455122382497561e-05 0 0.034941545919792066 -7.2663490346089787e-05 0 0.034946497375349383 -5.9726664722500185e-05 0 0.034930000384669903 -6.4455122382497561e-05 0 0.034946497375349383 -5.9726664722500185e-05 0 0.034941564190499166 -5.379463081094623e-05 0 0.034950258215255013 -4.9085986724476874e-05 0 0.034930000384669903 -6.4455122382497561e-05 0 0.034913268414710118 -5.8696115411748147e-05 0 0.034935049131363624 -4.9990435377554254e-05 0 0.034941564190499166 -5.379463081094623e-05 0 0.034930000384669903 -6.4455122382497561e-05 0 0.034935049131363624 -4.9990435377554254e-05 0 0.03211143846634288 -0.00045292958487212851 0 0.031340321433341319 -0.0011621608759837154 0 0.034930000384669903 -6.4455122382497561e-05 0 0.034924603191061145 -7.80728742243626e-05 0 0.034904207780731687 -8.2742104017983627e-05 0 0.030666587660725421 -0.00020782494324956435 0 0.030410597028330461 -0.0003319783320241409 0 0.03019635143732478 -0.00029546468980854091 0 0.03058688708869841 -0.0004046203053596022 0 0.030666587660725421 -0.00020782494324956435 0 0.030801668040992436 -0.00051713209388804633 0 0.03058688708869841 -0.0004046203053596022 0 0.030666587660725421 -0.00020782494324956435 0 0.030410597028330461 -0.0003319783320241409 0 0.030410597028330461 -0.0003319783320241409 0 0.03019635143732478 -0.00029546468980854091 0 0.030208594156250372 -0.00035024684688199532 0 0.029669483166326196 -0.0020437716004570914 0 0.030269032722274197 -0.0019998447597284609 0 0.029586889425316513 -0.0016726234828778174 0 0.030410597028330461 -0.0003319783320241409 0 0.030205085758740965 -0.00034723723843464531 0 0.030232479166980429 -0.00047258064917852485 0 0.035044390482557947 -0.0026620614478531754 0 0.035046707914981365 -0.0026538090709453811 0 0.035061549492731381 -0.0026345756282412603 0 0.031340321433341319 -0.0011621608759837154 0 0.032919307154657983 -0.0017961139035431919 0 0.030780659709637448 -0.0010202391828864153 0 0.03081891510478248 -0.0010340704774541094 0 0.03081891510478248 -0.0010340704774541094 0 0.030026168304803348 -0.00098680048956530271 0 0.035044390482557947 -0.0026620614478531754 0 0.035042906703622388 -0.002661442384678297 0 0.035039581597938518 -0.0026627945377489721 0 0.031340321433341319 -0.0011621608759837154 0 0.03081891510478248 -0.0010340704774541094 0 0.035044390482557947 -0.0026620614478531754 0 0.035039996264588098 -0.0026633833501360804 0 0.035041752699094521 -0.0026635019456769482 0 0.035044390482557947 -0.0026620614478531754 0 0.035039581597938518 -0.0026627945377489721 0 0.035039996264588098 -0.0026633833501360804 0 0.03081891510478248 -0.0010340704774541094 0 0.029919416489787059 -0.0012993425401435831 0 0.029919416489787059 -0.0012993425401435831 0 0.029943118474492766 -0.0013191062594763404 0 0.035044390482557947 -0.0026620614478531754 0 0.035046707914981365 -0.0026538090709453811 0 0.035041752699094521 -0.0026635019456769482 0 0.03502258792857095 -0.0027404338720415809 0 0.035040029005411269 -0.0026604546426625157 0 0.035036840686058765 -0.0026764245345723176 0 0.029479579209387225 -0.0026306913973131712 0 0.029919416489787059 -0.0012993425401435831 0 0.03502258792857095 -0.0027404338720415809 0 0.035036840686058765 -0.0026764245345723176 0 0.035027940161444289 -0.0026665348628689624 0 0.035039996264588098 -0.0026633833501360804 0 0.035036840686058765 -0.0026764245345723176 0 0.035041752699094521 -0.0026635019456769482 0 0.035040029005411269 -0.0026604546426625157 0 0.035039996264588098 -0.0026633833501360804 0 0.035036840686058765 -0.0026764245345723176 0 0.035036840686058765 -0.0026764245345723176 0 0.035040636996865 -0.0026602094257448705 0 0.035041752699094521 -0.0026635019456769482 0 0.035046707914981365 -0.0026538090709453811 0 0.035040636996865 -0.0026602094257448705 0 0.035041752699094521 -0.0026635019456769482 0 0.035046707914981365 -0.0026538090709453811 0 0.035042469421655772 -0.0026515409159205798 0 0.035045090846037318 -0.0026427388009671532 0 0.035046707914981365 -0.0026538090709453811 0 0.035040636996865 -0.0026602094257448705 0 0.035042469421655772 -0.0026515409159205798 0 0.035040636996865 -0.0026602094257448705 0 0.035042469421655772 -0.0026515409159205798 0 0.035036787848219252 -0.0026492671403401408 0 0.035040636996865 -0.0026602094257448705 0 0.035027940161444289 -0.0026665348628689624 0 0.035036787848219252 -0.0026492671403401408 0 0.035036840686058765 -0.0026764245345723176 0 0.035040636996865 -0.0026602094257448705 0 0.035027940161444289 -0.0026665348628689624 0 0.035041030763119194 -0.0026093794794957836 0 0.035047322167841344 -0.002629739659249973 0 0.035052247667400192 -0.0025728385232694304 0 0.034122909749042717 -0.0021791975707520293 0 0.033997732310556271 -0.0019298839336828598 0 0.035027940161444289 -0.0026665348628689624 0 0.035018484071513749 -0.0026303225954712271 0 0.035036787848219252 -0.0026492671403401408 0 0.035018484071513749 -0.0026303225954712271 0 0.035037233476919317 -0.0026297433635613832 0 0.035036787848219252 -0.0026492671403401408 0 0.035037233476919317 -0.0026297433635613832 0 0.035036787848219252 -0.0026492671403401408 0 0.035045090846037318 -0.0026427388009671532 0 0.035042469421655772 -0.0026515409159205798 0 0.035036787848219252 -0.0026492671403401408 0 0.035045090846037318 -0.0026427388009671532 0 0.035037233476919317 -0.0026297433635613832 0 0.035045090846037318 -0.0026427388009671532 0 0.035047322167841344 -0.002629739659249973 0 0.035037233476919317 -0.0026297433635613832 0 0.035041030763119194 -0.0026093794794957836 0 0.035047322167841344 -0.002629739659249973 0 0.035041030763119194 -0.0026093794794957836 0 0.035029152976581136 -0.0026112275254338438 0 0.035034117774445664 -0.0025856065782071465 0 0.035037233476919317 -0.0026297433635613832 0 0.035041030763119194 -0.0026093794794957836 0 0.035029152976581136 -0.0026112275254338438 0 0.035018484071513749 -0.0026303225954712271 0 0.035037233476919317 -0.0026297433635613832 0 0.035029152976581136 -0.0026112275254338438 0 0.035005447059586983 -0.0025829372847936678 0 0.035018484071513749 -0.0026303225954712271 0 0.035029152976581136 -0.0026112275254338438 0 0.033094165647551188 -0.0013045419366124042 0 0.033085696764938576 -0.0012131358217545634 0 0.033167725806393697 -0.0013911381321284487 0 0.032991348968689896 -0.0010360345462352611 0 0.033094165647551188 -0.0013045419366124042 0 0.033085696764938576 -0.0012131358217545634 0 0.035047322167841344 -0.002629739659249973 0 0.035061549492731381 -0.0026345756282412603 0 0.035034671834808413 -0.0025341655451583079 0 0.031340321433341319 -0.0011621608759837154 0 0.033121035965718519 -0.00090250114225820695 0 0.032919307154657983 -0.0017961139035431919 0 0.033997732310556271 -0.0019298839336828598 0 0.034930000384669903 -6.4455122382497561e-05 0 0.034904207780731687 -8.2742104017983627e-05 0 0.034913268414710118 -5.8696115411748147e-05 0 0.035046707914981365 -0.0026538090709453811 0 0.035045090846037318 -0.0026427388009671532 0 0.035061549492731381 -0.0026345756282412603 0 0.035045090846037318 -0.0026427388009671532 0 0.035047322167841344 -0.002629739659249973 0 0.035061549492731381 -0.0026345756282412603 0 0.033094165647551188 -0.0013045419366124042 0 0.033167725806393697 -0.0013911381321284487 0 0.033184454912167059 -0.0015721236331870745 0 0.033121035965718519 -0.00090250114225820695 0 0.034384372040061305 -0.00086801900893660009 0 0.034913268414710118 -5.8696115411748147e-05 0 0.03493249160395244 -4.2421009455633778e-05 0 0.034935049131363624 -4.9990435377554254e-05 0 0.034913268414710118 -5.8696115411748147e-05 0 0.03493249160395244 -4.2421009455633778e-05 0 0.034918631228163959 -3.5069493759043959e-05 0 0.035005447059586983 -0.0025829372847936678 0 0.035042322914219833 -0.0025466081318900112 0 0.035042014679496365 -0.0025144615037710669 0 0.034694182615001797 -0.0016288642822168519 0 0.034396963685525542 -0.0010588080456414614 0 0.035005447059586983 -0.0025829372847936678 0 0.035029152976581136 -0.0026112275254338438 0 0.035034117774445664 -0.0025856065782071465 0 0.035005447059586983 -0.0025829372847936678 0 0.035034117774445664 -0.0025856065782071465 0 0.035042322914219833 -0.0025466081318900112 0 0.035041030763119194 -0.0026093794794957836 0 0.035034117774445664 -0.0025856065782071465 0 0.035052247667400192 -0.0025728385232694304 0 0.035049552634945795 -0.0025695539469568164 0 0.035042322914219833 -0.0025466081318900112 0 0.035042014679496365 -0.0025144615037710669 0 0.035034117774445664 -0.0025856065782071465 0 0.035052247667400192 -0.0025728385232694304 0 0.035042322914219833 -0.0025466081318900112 0 0.033997732310556271 -0.0019298839336828598 0 0.034396963685525542 -0.0010588080456414614 0 0.033997732310556271 -0.0019298839336828598 0 0.034030587628767581 -0.0019854923153035079 0 0.035450586813077452 -0.00095156771932862266 0 0.0355639562815201 -0.0013584451032269628 0 0.035725583009440794 -0.00089478556707172675 0 0.034547012489454701 -0.00063758966859827715 0 0.034564666309763389 -0.00082998972291546983 0 0.034582001771640079 -0.00080712811132136115 0 0.033167725806393697 -0.0013911381321284487 0 0.033200579744155259 -0.001548288560323933 0 0.033184454912167059 -0.0015721236331870745 0 0.034396963685525542 -0.0010588080456414614 0 0.034384372040061305 -0.00086801900893660009 0 0.035450586813077452 -0.00095156771932862266 0 0.035725583009440794 -0.00089478556707172675 0 0.035462156559546654 -0.0007091339192098271 0 0.03493249160395244 -4.2421009455633778e-05 0 0.034918631228163959 -3.5069493759043959e-05 0 0.034945480400771015 -2.9274392784438534e-05 0 0.03493249160395244 -4.2421009455633778e-05 0 0.034945480400771015 -2.9274392784438534e-05 0 0.034946311849689674 -3.7384206548847748e-05 0 0.034955859653164556 -2.591908580045716e-05 0 0.034945480400771015 -2.9274392784438534e-05 0 0.034946311849689674 -3.7384206548847748e-05 0 0.034955859653164556 -2.591908580045716e-05 0 0.034946311849689674 -3.7384206548847748e-05 0 0.034956975694122115 -3.1350178086897933e-05 0 0.034955739194051733 -4.0074994690546018e-05 0 0.034956975694122115 -3.1350178086897933e-05 0 0.034947935209073432 -4.326174766350384e-05 0 0.034946311849689674 -3.7384206548847748e-05 0 0.034956975694122115 -3.1350178086897933e-05 0 0.034947935209073432 -4.326174766350384e-05 0 0.034955739194051733 -4.0074994690546018e-05 0 0.034947935209073432 -4.326174766350384e-05 0 0.034950258215255013 -4.9085986724476874e-05 0 0.034941564190499166 -5.379463081094623e-05 0 0.034947935209073432 -4.326174766350384e-05 0 0.034950258215255013 -4.9085986724476874e-05 0 0.034941564190499166 -5.379463081094623e-05 0 0.034947935209073432 -4.326174766350384e-05 0 0.034935049131363624 -4.9990435377554254e-05 0 0.03493249160395244 -4.2421009455633778e-05 0 0.034946311849689674 -3.7384206548847748e-05 0 0.034935049131363624 -4.9990435377554254e-05 0 0.034946311849689674 -3.7384206548847748e-05 0 0.034947935209073432 -4.326174766350384e-05 0 0.034935049131363624 -4.9990435377554254e-05 0 0.034998049954562904 -1.464623680567172e-06 0 0.03391213013748396 -0.00023420429555019457 0 0.031396187795293358 -3.5991273998525815e-05 0 0.034998049954562904 -1.464623680567172e-06 0 0.029230500588395245 1.3434260263591167e-06 0 0.031396187795293358 -3.5991273998525815e-05 0 0.03391213013748396 -0.00023420429555019457 0 0.032988259603372108 -0.00020978651491886303 0 0.031396187795293358 -3.5991273998525815e-05 0 0.031448123370572172 -0.00073916379784732731 0 0.03057125091077029 -0.00050832231459229543 0 0.034998049954562904 -1.464623680567172e-06 0 0.03391213013748396 -0.00023420429555019457 0 0.03499537114950544 9.2108561214039938e-07 0 0.03391213013748396 -0.00023420429555019457 0 0.033860646434483964 -0.00028901636539709573 0 0.033141923490201584 -0.00070617398070025412 0 0.03391213013748396 -0.00023420429555019457 0 0.03499537114950544 9.2108561214039938e-07 0 0.033860646434483964 -0.00028901636539709573 0 0.034998766648129662 -4.645376074520139e-07 0 0.034264302431850156 -0.0004271014115339967 0 0.03499537114950544 9.2108561214039938e-07 0 0.033860646434483964 -0.00028901636539709573 0 0.032939904370252779 -0.00029622435416584985 0 0.033860646434483964 -0.00028901636539709573 0 0.033141923490201584 -0.00070617398070025412 0 0.032939904370252779 -0.00029622435416584985 0 0.033141923490201584 -0.00070617398070025412 0 0.032348250460213321 -0.00092663102836006617 0 0.032530807143645757 -0.0008440578643725289 0 0.031773239985916191 -0.00079416291414035429 0 0.031448123370572172 -0.00073916379784732731 0 0.03391213013748396 -0.00023420429555019457 0 0.033141923490201584 -0.00070617398070025412 0 0.032988259603372108 -0.00020978651491886303 0 0.03136555941998273 -0.0011469119238899685 0 0.032348250460213321 -0.00092663102836006617 0 0.031118178387705846 -0.00059303994510416546 0 0.033141923490201584 -0.00070617398070025412 0 0.03136555941998273 -0.0011469119238899685 0 0.032348250460213321 -0.00092663102836006617 0 0.032348250460213321 -0.00092663102836006617 0 0.032069094140538948 -0.0010497237943303454 0 0.032530807143645757 -0.0008440578643725289 0 0.032348250460213321 -0.00092663102836006617 0 0.032069094140538948 -0.0010497237943303454 0 0.032179977873922377 -0.00053024799885509192 0 0.032069094140538948 -0.0010497237943303454 0 0.03206716834633376 -0.00088519560805037131 0 0.032530807143645757 -0.0008440578643725289 0 0.033959349874904572 -0.00057026903214420623 0 0.034101477957095679 -0.00047980026624186385 0 0.032069094140538948 -0.0010497237943303454 0 0.03206716834633376 -0.00088519560805037131 0 0.032094453922286298 -0.0010008909878446639 0 0.034995723519356037 -4.3320424560691622e-05 0 0.034987084736451388 -2.6162794542160263e-05 0 0.035003449721686342 -9.0672028889915889e-06 0 0.034995723519356037 -4.3320424560691622e-05 0 0.034987084736451388 -2.6162794542160263e-05 0 0.034941320720797052 -5.8603838122921476e-05 0 0.033141923490201584 -0.00070617398070025412 0 0.032530807143645757 -0.0008440578643725289 0 0.032939904370252779 -0.00029622435416584985 0 0.03206716834633376 -0.00088519560805037131 0 0.032530807143645757 -0.0008440578643725289 0 0.032939904370252779 -0.00029622435416584985 0 0.033959349874904572 -0.00057026903214420623 0 0.034264302431850156 -0.0004271014115339967 0 0.035000005360729572 -6.4015255693194237e-10 0 0.035003449721686342 -9.0672028889915889e-06 0 0.03500000210093273 -4.216582307917474e-09 0 0.03500000210093273 -4.216582307917474e-09 0 0.034994215301534418 -7.6628085130463695e-06 0 0.034999971940295048 -2.0052723757483027e-09 0 0.035003449721686342 -9.0672028889915889e-06 0 0.03500000210093273 -4.216582307917474e-09 0 0.034994215301534418 -7.6628085130463695e-06 0 0.034987084736451388 -2.6162794542160263e-05 0 0.035003449721686342 -9.0672028889915889e-06 0 0.034994215301534418 -7.6628085130463695e-06 0 0.034987084736451388 -2.6162794542160263e-05 0 0.034994215301534418 -7.6628085130463695e-06 0 0.034983578177815153 -1.4337262682511063e-05 0 0.034982201409625491 7.7185028639107525e-06 0 0.034982610466075419 4.6258547080654312e-06 0 0.034970685427064115 2.9859783973868355e-06 0 0.034982201409625491 7.7185028639107525e-06 0 0.03499996684974678 5.4644726243420662e-09 0 0.034990329064092537 2.8635876843427851e-06 0 0.034994215301534418 -7.6628085130463695e-06 0 0.034983578177815153 -1.4337262682511063e-05 0 0.034999971940295048 -2.0052723757483027e-09 0 0.034811363563952882 -4.018383516014577e-05 0 0.034999622378424911 -4.3245532589377018e-08 0 0.034999990058086412 -3.0215476217176028e-09 0 0.03499996684974678 5.4644726243420662e-09 0 0.034990329064092537 2.8635876843427851e-06 0 0.034999990058086412 -3.0215476217176028e-09 0 0.034990447998342319 2.2250905111962868e-06 0 0.034990329064092537 2.8635876843427851e-06 0 0.034990447998342319 2.2250905111962868e-06 0 0.034982610466075419 4.6258547080654312e-06 0 0.034975683238222005 4.6244443971638028e-06 0 0.034990447998342319 2.2250905111962868e-06 0 0.034990329064092537 2.8635876843427851e-06 0 0.034982610466075419 4.6258547080654312e-06 0 0.034982201409625491 7.7185028639107525e-06 0 0.034990329064092537 2.8635876843427851e-06 0 0.034982610466075419 4.6258547080654312e-06 0 0.034982610466075419 4.6258547080654312e-06 0 0.034975683238222005 4.6244443971638028e-06 0 0.034970685427064115 2.9859783973868355e-06 0 0.034968382378073544 5.9998913845302189e-06 0 0.034975683238222005 4.6244443971638028e-06 0 0.034970685427064115 2.9859783973868355e-06 0 0.034978232629569721 4.4779112004301139e-06 0 0.034968382378073544 5.9998913845302189e-06 0 0.034975683238222005 4.6244443971638028e-06 0 0.034978957948980496 7.9656551422111204e-06 0 0.034978232629569721 4.4779112004301139e-06 0 0.034968382378073544 5.9998913845302189e-06 0 0.034839290472257881 4.9147748567694426e-05 0 0.034855367626834229 4.8352675482596609e-05 0 0.034905658206494529 -1.4057652448010618e-05 0 0.034951390156448513 -1.6334804038677824e-05 0 0.034920868630169313 -3.7394803009818831e-05 0 0.034905658206494529 -1.4057652448010618e-05 0 0.034968382378073544 5.9998913845302189e-06 0 0.034951390156448513 -1.6334804038677824e-05 0 0.034968382378073544 5.9998913845302189e-06 0 0.034951390156448513 -1.6334804038677824e-05 0 0.034970685427064115 2.9859783973868355e-06 0 0.034987084736451388 -2.6162794542160263e-05 0 0.034983578177815153 -1.4337262682511063e-05 0 0.034978342828088781 -3.4053346523957228e-05 0 0.034811363563952882 -4.018383516014577e-05 0 0.034543472819973338 -0.00014310367201784272 0 0.034982201409625491 7.7185028639107525e-06 0 0.034970685427064115 2.9859783973868355e-06 0 0.034982341965819209 -2.1095032053922288e-05 0 0.034648561022581376 -7.0924434722491661e-05 0 0.034543472819973338 -0.00014310367201784272 0 0.034951390156448513 -1.6334804038677824e-05 0 0.034970685427064115 2.9859783973868355e-06 0 0.034982341965819209 -2.1095032053922288e-05 0 0.034995723519356037 -4.3320424560691622e-05 0 0.034941320720797052 -5.8603838122921476e-05 0 0.034942350583653949 -0.0001248798598083764 0 0.034543472819973338 -0.00014310367201784272 0 0.034101477957095679 -0.00047980026624186385 0 0.034204694591223238 -0.00063107087691551477 0 0.034366191681592252 -0.00047551603114506064 0 0.03419318239616323 -0.00043411176111834927 0 0.034543472819973338 -0.00014310367201784272 0 0.034595657630349455 -0.00017950263353062925 0 0.034951390156448513 -1.6334804038677824e-05 0 0.034939893827606497 -6.2341509873589399e-05 0 0.034920868630169313 -3.7394803009818831e-05 0 0.034951390156448513 -1.6334804038677824e-05 0 0.034982341965819209 -2.1095032053922288e-05 0 0.034939893827606497 -6.2341509873589399e-05 0 0.034939893827606497 -6.2341509873589399e-05 0 0.034894796895941022 -6.4076322335515472e-05 0 0.034920868630169313 -3.7394803009818831e-05 0 0.034367502396111332 -0.00034749067873468997 0 0.03419318239616323 -0.00043411176111834927 0 0.034377451304299665 -0.00016374385700874109 0 0.034537952739754005 -0.00031554359818038467 0 0.034366191681592252 -0.00047551603114506064 0 0.034367502396111332 -0.00034749067873468997 0 0.034829556245962366 -0.00012832190099434077 0 0.034939893827606497 -6.2341509873589399e-05 0 0.034894796895941022 -6.4076322335515472e-05 0 0.034647490884015017 -0.00016655562156396561 0 0.034595657630349455 -0.00017950263353062925 0 0.034366191681592252 -0.00047551603114506064 0 0.034367502396111332 -0.00034749067873468997 0 0.03419318239616323 -0.00043411176111834927 0 0.034101477957095679 -0.00047980026624186385 0 0.034234449466411493 -0.00031277652360228345 0 0.034101477957095679 -0.00047980026624186385 0 0.033392988759448475 -8.8141543911084122e-05 0 0.034162121701568064 -0.00046699892707607784 0 0.034143371070690105 -9.9332307407560674e-05 0 0.034377451304299665 -0.00016374385700874109 0 0.034537952739754005 -0.00031554359818038467 0 0.034367502396111332 -0.00034749067873468997 0 0.034377451304299665 -0.00016374385700874109 0 0.034537952739754005 -0.00031554359818038467 0 0.034536372531931786 -0.00010130987403486409 0 0.034377451304299665 -0.00016374385700874109 0 0.034536372531931786 -0.00010130987403486409 0 0.034519683552243011 2.8966427692173794e-05 0 0.034363765591075179 -2.3429547124233558e-06 0 0.034143371070690105 -9.9332307407560674e-05 0 0.034377451304299665 -0.00016374385700874109 0 0.034363765591075179 -2.3429547124233558e-06 0 0.034536372531931786 -0.00010130987403486409 0 0.034377451304299665 -0.00016374385700874109 0 0.034363765591075179 -2.3429547124233558e-06 0 0.034519683552243011 2.8966427692173794e-05 0 0.034363765591075179 -2.3429547124233558e-06 0 0.034389050586817613 0.00015939748634568606 0 0.034363765591075179 -2.3429547124233558e-06 0 0.034389050586817613 0.00015939748634568606 0 0.034119071372694001 0.00026537217966694646 0 0.032780748126974249 0.0006546264723617651 0 0.032889542440384924 0.0007602775240235514 0 0.031123093801526319 0.0013728354986547364 0 0.031507768286859437 0.0010535189529275733 0 0.031365966023283939 0.00097138023264080916 0 0.032889542440384924 0.0007602775240235514 0 0.032845916962908277 0.00077357172364769268 0 0.031527464140280508 0.00097980071235773646 0 0.031520882935505173 0.00097126029058899335 0 0.031611997300303049 0.00084348776503181185 0 0.032889542440384924 0.0007602775240235514 0 0.032884653531591215 0.00076365633197078022 0 0.034143371070690105 -9.9332307407560674e-05 0 0.034363765591075179 -2.3429547124233558e-06 0 0.034119071372694001 0.00026537217966694646 0 0.033392988759448475 -8.8141543911084122e-05 0 0.032889542440384924 0.0007602775240235514 0 0.032078007053477957 -0.00032190945187136514 0 0.031414431033483438 0.00044329749064615749 0 0.031283545888651808 -0.00027774691611384043 0 0.032078007053477957 -0.00032190945187136514 0 0.031815056264995693 0.00074783923654133061 0 0.031414431033483438 0.00044329749064615749 0 0.031414431033483438 0.00044329749064615749 0 0.031107802861791836 0.00090476937878297822 0 0.031379277009978043 0.00084085276792910041 0 0.031414431033483438 0.00044329749064615749 0 0.031611997300303049 0.00084348776503181185 0 0.031379277009978043 0.00084085276792910041 0 0.031815056264995693 0.00074783923654133061 0 0.031414431033483438 0.00044329749064615749 0 0.031611997300303049 0.00084348776503181185 0 0.031414431033483438 0.00044329749064615749 0 0.03080956228247192 0.00029549652498485004 0 0.031107802861791836 0.00090476937878297822 0 0.031414431033483438 0.00044329749064615749 0 0.031283545888651808 -0.00027774691611384043 0 0.03080956228247192 0.00029549652498485004 0 0.031283545888651808 -0.00027774691611384043 0 0.031755467035895296 -0.00078442783357906057 0 0.030887087056374798 -0.00099394781757134809 0 0.032094453922286298 -0.0010008909878446639 0 0.032078007053477957 -0.00032190945187136514 0 0.031755467035895296 -0.00078442783357906057 0 0.032078007053477957 -0.00032190945187136514 0 0.031283545888651808 -0.00027774691611384043 0 0.031755467035895296 -0.00078442783357906057 0 0.032069094140538948 -0.0010497237943303454 0 0.032094453922286298 -0.0010008909878446639 0 0.031755467035895296 -0.00078442783357906057 0 0.03138650356305734 -0.00087333305826967805 0 0.031069847362822121 -0.00072672327610721899 0 0.032069094140538948 -0.0010497237943303454 0 0.031755467035895296 -0.00078442783357906057 0 0.030887087056374798 -0.00099394781757134809 0 0.032348250460213321 -0.00092663102836006617 0 0.032179977873922377 -0.00053024799885509192 0 0.031118178387705846 -0.00059303994510416546 0 0.032179977873922377 -0.00053024799885509192 0 0.031118178387705846 -0.00059303994510416546 0 0.030402884211682434 0.00012944948791636374 0 0.031069847362822121 -0.00072672327610721899 0 0.030283053159912188 -0.00036996639709999454 0 0.030887087056374798 -0.00099394781757134809 0 0.029780393621822332 -0.00065111592765141268 0 0.030554325993340205 -0.00029760506188633459 0 0.031283545888651808 -0.00027774691611384043 0 0.030887087056374798 -0.00099394781757134809 0 0.030554325993340205 -0.00029760506188633459 0 0.031283545888651808 -0.00027774691611384043 0 0.030554325993340205 -0.00029760506188633459 0 0.03080956228247192 0.00029549652498485004 0 0.030554325993340205 -0.00029760506188633459 0 0.03080956228247192 0.00029549652498485004 0 0.029898068648019308 0.0002264017006421143 0 0.03080956228247192 0.00029549652498485004 0 0.030348009640758161 0.00080164680151411575 0 0.031107802861791836 0.00090476937878297822 0 0.03080956228247192 0.00029549652498485004 0 0.029898068648019308 0.0002264017006421143 0 0.030348009640758161 0.00080164680151411575 0 0.029898068648019308 0.0002264017006421143 0 0.029074458675440958 0.0012310044023184793 0 0.030348009640758161 0.00080164680151411575 0 0.029780393621822332 -0.00065111592765141268 0 0.030554325993340205 -0.00029760506188633459 0 0.029898068648019308 0.0002264017006421143 0 0.030283053159912188 -0.00036996639709999454 0 0.029735461698086243 -0.00012598832422741559 0 0.029780393621822332 -0.00065111592765141268 0 0.029898068648019308 0.0002264017006421143 0 0.028508329402271316 -9.71146784196587e-05 0 0.029898068648019308 0.0002264017006421143 0 0.028508329402271316 -9.71146784196587e-05 0 0.029074458675440958 0.0012310044023184793 0 0.026326141675127982 3.1047943620651991e-06 0 0.028508329402271316 -9.71146784196587e-05 0 0.029074458675440958 0.0012310044023184793 0 0.026326141675127982 3.1047943620651991e-06 0 0.027774585790082535 -6.7567448745748762e-07 0 0.028508329402271316 -9.71146784196587e-05 0 0.027774585790082535 -6.7567448745748762e-07 0 0.028508329402271316 -9.71146784196587e-05 0 0.029221477452769949 -1.2180737491405156e-06 0 0.030402884211682434 0.00012944948791636374 0 0.029221477452769949 -1.2180737491405156e-06 0 0.030026151633418187 -0.00062507937338965877 0 0.030402884211682434 0.00012944948791636374 0 0.028508329402271316 -9.71146784196587e-05 0 0.029221477452769949 -1.2180737491405156e-06 0 0.031118178387705846 -0.00059303994510416546 0 0.030402884211682434 0.00012944948791636374 0 0.030026151633418187 -0.00062507937338965877 0 0.03136555941998273 -0.0011469119238899685 0 0.031118178387705846 -0.00059303994510416546 0 0.030026151633418187 -0.00062507937338965877 0 0.029226582463874533 -3.3418988539828327e-07 0 0.03057125091077029 -0.00050832231459229543 0 0.022550321532277522 -3.159816545714923e-07 0 0.022204519976742679 -0.00010145888927949591 0 0.02124622034384941 -0.00026932906819072375 0 0.022204519976742679 -0.00010145888927949591 0 0.02107559380716352 -0.00031684778760369525 0 0.02124622034384941 -0.00026932906819072375 0 0.022550321532277522 -3.159816545714923e-07 0 0.022204519976742679 -0.00010145888927949591 0 0.024436758818251036 -7.4041948023374221e-07 0 0.026318825685299318 3.1463439010141748e-06 0 0.024436758818251036 -7.4041948023374221e-07 0 0.022979284091466844 0.00081834242208715235 0 0.026321918753780059 7.2296660407679146e-07 0 0.025946286357350846 0.00037628251128428609 0 0.022204519976742679 -0.00010145888927949591 0 0.024436758818251036 -7.4041948023374221e-07 0 0.022979284091466844 0.00081834242208715235 0 0.022204519976742679 -0.00010145888927949591 0 0.022979284091466844 0.00081834242208715235 0 0.021159978973374842 0.00060453226773347175 0 0.025946286357350846 0.00037628251128428609 0 0.025830522627917431 0.00055789281648157109 0 0.029074458675440958 0.0012310044023184793 0 0.030348009640758161 0.00080164680151411575 0 0.03045974009894523 0.001391964194226621 0 0.030348009640758161 0.00080164680151411575 0 0.03045974009894523 0.001391964194226621 0 0.031107802861791836 0.00090476937878297822 0 0.021159978973374842 0.00060453226773347175 0 0.020995285596327372 -3.4082444896982878e-05 0 0.020336613468455306 0.00019386196548145228 0 0.022204519976742679 -0.00010145888927949591 0 0.021159978973374842 0.00060453226773347175 0 0.020995285596327372 -3.4082444896982878e-05 0 0.022204519976742679 -0.00010145888927949591 0 0.020995285596327372 -3.4082444896982878e-05 0 0.02107559380716352 -0.00031684778760369525 0 0.020995285596327372 -3.4082444896982878e-05 0 0.02107559380716352 -0.00031684778760369525 0 0.020484160625983596 -0.00026709276172364751 0 0.02107559380716352 -0.00031684778760369525 0 0.020484160625983596 -0.00026709276172364751 0 0.020454718822526172 -0.00044398716661596995 0 0.020484160625983596 -0.00026709276172364751 0 0.020158703007358635 -0.00025323160549919877 0 0.020177974824849568 -0.00043654789664732271 0 0.020158703007358635 -0.00025323160549919877 0 0.020336613468455306 0.00019386196548145228 0 0.020042852731692446 -2.9027997758160322e-05 0 0.025735534724654185 0.00048567590640174758 0 0.025557704700359538 0.00026614005664582507 0 0.020995285596327372 -3.4082444896982878e-05 0 0.020484160625983596 -0.00026709276172364751 0 0.020336613468455306 0.00019386196548145228 0 0.020484160625983596 -0.00026709276172364751 0 0.020158703007358635 -0.00025323160549919877 0 0.020336613468455306 0.00019386196548145228 0 0.03045974009894523 0.001391964194226621 0 0.031292743771792142 0.0011801903476787124 0 0.031107802861791836 0.00090476937878297822 0 0.025830522627917431 0.00055789281648157109 0 0.025735534724654185 0.00048567590640174758 0 0.031107802861791836 0.00090476937878297822 0 0.031379277009978043 0.00084085276792910041 0 0.031442593913648904 0.00095884912150624106 0 0.031501857498257152 0.00092275343989332024 0 0.031379277009978043 0.00084085276792910041 0 0.031442593913648904 0.00095884912150624106 0 0.031611997300303049 0.00084348776503181185 0 0.031501857498257152 0.00092275343989332024 0 0.031379277009978043 0.00084085276792910041 0 0.031520882935505173 0.00097126029058899335 0 0.031611997300303049 0.00084348776503181185 0 0.031501857498257152 0.00092275343989332024 0 0.031501857498257152 0.00092275343989332024 0 0.031442593913648904 0.00095884912150624106 0 0.031459923839436604 0.00094842861932342617 0 0.031292743771792142 0.0011801903476787124 0 0.031442593913648904 0.00095884912150624106 0 0.031371285650505738 0.00088430553924224835 0 0.031292743771792142 0.0011801903476787124 0 0.031107802861791836 0.00090476937878297822 0 0.031442593913648904 0.00095884912150624106 0 0.031292743771792142 0.0011801903476787124 0 0.031371285650505738 0.00088430553924224835 0 0.031342166384818168 0.00066901109777160088 0 0.031371285650505738 0.00088430553924224835 0 0.031208079430240069 0.00084263108114676459 0 0.031342166384818168 0.00066901109777160088 0 0.031371285650505738 0.00088430553924224835 0 0.031365966023283939 0.00097138023264080916 0 0.031208079430240069 0.00084263108114676459 0 0.031442593913648904 0.00095884912150624106 0 0.031365966023283939 0.00097138023264080916 0 0.031459923839436604 0.00094842861932342617 0 0.031442593913648904 0.00095884912150624106 0 0.031371285650505738 0.00088430553924224835 0 0.031365966023283939 0.00097138023264080916 0 0.031520882935505173 0.00097126029058899335 0 0.031365966023283939 0.00097138023264080916 0 0.031459923839436604 0.00094842861932342617 0 0.031507768286859437 0.0010535189529275733 0 0.031520882935505173 0.00097126029058899335 0 0.031365966023283939 0.00097138023264080916 0 0.031520882935505173 0.00097126029058899335 0 0.031501857498257152 0.00092275343989332024 0 0.031459923839436604 0.00094842861932342617 0 0.031123093801526319 0.0013728354986547364 0 0.031365966023283939 0.00097138023264080916 0 0.030926197956841359 0.0010658131865301282 0 0.031365966023283939 0.00097138023264080916 0 0.031208079430240069 0.00084263108114676459 0 0.030926197956841359 0.0010658131865301282 0 0.031208079430240069 0.00084263108114676459 0 0.031342166384818168 0.00066901109777160088 0 0.030910058285836577 0.00065726630010257137 0 0.031208079430240069 0.00084263108114676459 0 0.030926197956841359 0.0010658131865301282 0 0.030910058285836577 0.00065726630010257137 0 0.025557704700359538 0.00026614005664582507 0 0.025242043535538269 -3.1845299006438713e-05 0 0.031342166384818168 0.00066901109777160088 0 0.030910058285836577 0.00065726630010257137 0 0.030876817887541302 0.00024903542960705625 0 0.020158703007358635 -0.00025323160549919877 0 0.020042852731692446 -2.9027997758160322e-05 0 0.020022521658162325 -0.00041777557879209645 0 0.020042852731692446 -2.9027997758160322e-05 0 0.020022521658162325 -0.00041777557879209645 0 0.019725661815422655 -0.00013577406614563974 0 0.020022521658162325 -0.00041777557879209645 0 0.019725661815422655 -0.00013577406614563974 0 0.019706080903833308 -0.00045761216147498549 0 0.020022521658162325 -0.00041777557879209645 0 0.019783918223634876 -0.000785441338614941 0 0.019706080903833308 -0.00045761216147498549 0 0.020158703007358635 -0.00025323160549919877 0 0.020022521658162325 -0.00041777557879209645 0 0.020177974824849568 -0.00043654789664732271 0 0.020022521658162325 -0.00041777557879209645 0 0.020090117032027857 -0.0004171903643123546 0 0.020177974824849568 -0.00043654789664732271 0 0.020090117032027857 -0.0004171903643123546 0 0.020116253552434907 -0.0003544525484948459 0 0.0201087477189364 -0.00041083309397079598 0 0.020090117032027857 -0.0004171903643123546 0 0.020167891891135679 -0.00040564555252288481 0 0.020142013457423873 -0.00036554795060694481 0 0.020022521658162325 -0.00041777557879209645 0 0.020090117032027857 -0.0004171903643123546 0 0.020167891891135679 -0.00040564555252288481 0 0.017652238536427615 0.00022611648274315529 0 0.016766876943276651 -0.00019107005927423173 0 0.020167891891135679 -0.00040564555252288481 0 0.020187869480504321 -0.00033691262121780097 0 0.020142013457423873 -0.00036554795060694481 0 0.020187869480504321 -0.00033691262121780097 0 0.020142013457423873 -0.00036554795060694481 0 0.020156591263259097 -0.00030948314613676181 0 0.020187869480504321 -0.00033691262121780097 0 0.020156591263259097 -0.00030948314613676181 0 0.020199948814048366 -0.00027105621855207925 0 0.020156591263259097 -0.00030948314613676181 0 0.020199948814048366 -0.00027105621855207925 0 0.02016158884520133 -0.00021604107742257265 0 0.020199948814048366 -0.00027105621855207925 0 0.02016158884520133 -0.00021604107742257265 0 0.020229108219481724 -0.00017171699369739255 0 0.020113811427729913 -0.0001555403572451894 0 0.020120606080348324 -0.00027394596561722598 0 0.020054909427854855 -0.00020395853805339 0 0.02016158884520133 -0.00021604107742257265 0 0.020113811427729913 -0.0001555403572451894 0 0.020140862689731084 -0.00010015511737311423 0 0.02016158884520133 -0.00021604107742257265 0 0.020113811427729913 -0.0001555403572451894 0 0.020120606080348324 -0.00027394596561722598 0 0.020156591263259097 -0.00030948314613676181 0 0.02016158884520133 -0.00021604107742257265 0 0.020120606080348324 -0.00027394596561722598 0 0.020120606080348324 -0.00027394596561722598 0 0.020116253552434907 -0.0003544525484948459 0 0.020091795598616357 -0.00034155931031084539 0 0.020156591263259097 -0.00030948314613676181 0 0.020120606080348324 -0.00027394596561722598 0 0.020116253552434907 -0.0003544525484948459 0 0.020090117032027857 -0.0004171903643123546 0 0.020142013457423873 -0.00036554795060694481 0 0.020116253552434907 -0.0003544525484948459 0 0.020142013457423873 -0.00036554795060694481 0 0.020156591263259097 -0.00030948314613676181 0 0.020116253552434907 -0.0003544525484948459 0 0.020116253552434907 -0.0003544525484948459 0 0.020091795598616357 -0.00034155931031084539 0 0.0201087477189364 -0.00041083309397079598 0 0.020091795598616357 -0.00034155931031084539 0 0.020054909427854855 -0.00020395853805339 0 0.020040218810162783 -0.00040978446382611581 0 0.020091795598616357 -0.00034155931031084539 0 0.020040218810162783 -0.00040978446382611581 0 0.0201087477189364 -0.00041083309397079598 0 0.020120606080348324 -0.00027394596561722598 0 0.020091795598616357 -0.00034155931031084539 0 0.020054909427854855 -0.00020395853805339 0 0.020113811427729913 -0.0001555403572451894 0 0.020054909427854855 -0.00020395853805339 0 0.020071270919004271 -8.5215021137022122e-05 0 0.020054909427854855 -0.00020395853805339 0 0.01985703955300621 -0.00020745699289448821 0 0.019976271924832055 -4.1056032617892113e-05 0 0.020054909427854855 -0.00020395853805339 0 0.01985703955300621 -0.00020745699289448821 0 0.020040218810162783 -0.00040978446382611581 0 0.01985703955300621 -0.00020745699289448821 0 0.020040218810162783 -0.00040978446382611581 0 0.01972499274457926 -0.0004063501700869315 0 0.020040218810162783 -0.00040978446382611581 0 0.020177974824849568 -0.00043654789664732271 0 0.020098983205177175 -0.00046540636851140094 0 0.020177974824849568 -0.00043654789664732271 0 0.020454718822526172 -0.00044398716661596995 0 0.020098983205177175 -0.00046540636851140094 0 0.020090117032027857 -0.0004171903643123546 0 0.0201087477189364 -0.00041083309397079598 0 0.020177974824849568 -0.00043654789664732271 0 0.020040218810162783 -0.00040978446382611581 0 0.0201087477189364 -0.00041083309397079598 0 0.020177974824849568 -0.00043654789664732271 0 0.020484160625983596 -0.00026709276172364751 0 0.020177974824849568 -0.00043654789664732271 0 0.020454718822526172 -0.00044398716661596995 0 0.02107559380716352 -0.00031684778760369525 0 0.020454718822526172 -0.00044398716661596995 0 0.020107758062916217 -0.00045467533787538894 0 0.020454718822526172 -0.00044398716661596995 0 0.020107758062916217 -0.00045467533787538894 0 0.020098983205177175 -0.00046540636851140094 0 0.020040218810162783 -0.00040978446382611581 0 0.020098983205177175 -0.00046540636851140094 0 0.01972499274457926 -0.0004063501700869315 0 0.020107758062916217 -0.00045467533787538894 0 0.020098983205177175 -0.00046540636851140094 0 0.01972499274457926 -0.0004063501700869315 0 0.01985703955300621 -0.00020745699289448821 0 0.01972499274457926 -0.0004063501700869315 0 0.019317421909695397 -2.2903445931320848e-05 0 0.01972499274457926 -0.0004063501700869315 0 0.019006485473870231 -0.00031160033137760286 0 0.019317421909695397 -2.2903445931320848e-05 0 0.020107758062916217 -0.00045467533787538894 0 0.01972499274457926 -0.0004063501700869315 0 0.019006485473870231 -0.00031160033137760286 0 0.020107758062916217 -0.00045467533787538894 0 0.019006485473870231 -0.00031160033137760286 0 0.019264708240588135 -0.00030442272042039136 0 0.019006485473870231 -0.00031160033137760286 0 0.019264708240588135 -0.00030442272042039136 0 0.018019094697270793 -0.00014312161533328475 0 0.019006485473870231 -0.00031160033137760286 0 0.018019094697270793 -0.00014312161533328475 0 0.017781332719745638 2.6733725869214493e-05 0 0.018019094697270793 -0.00014312161533328475 0 0.018779162611714303 -4.9088758926255354e-07 0 0.016892996738426511 9.5155699204806705e-08 0 0.019264708240588135 -0.00030442272042039136 0 0.018019094697270793 -0.00014312161533328475 0 0.018779162611714303 -4.9088758926255354e-07 0 0.019264708240588135 -0.00030442272042039136 0 0.018779162611714303 -4.9088758926255354e-07 0 0.02066463452204963 -6.2468283315227261e-07 0 0.020107758062916217 -0.00045467533787538894 0 0.019264708240588135 -0.00030442272042039136 0 0.02066463452204963 -6.2468283315227261e-07 0 0.020107758062916217 -0.00045467533787538894 0 0.02066463452204963 -6.2468283315227261e-07 0 0.02124622034384941 -0.00026932906819072375 0 0.02107559380716352 -0.00031684778760369525 0 0.020107758062916217 -0.00045467533787538894 0 0.02124622034384941 -0.00026932906819072375 0 0.022550321532277522 -3.159816545714923e-07 0 0.02066463452204963 -6.2468283315227261e-07 0 0.02124622034384941 -0.00026932906819072375 0 0.028480133315677534 0.00053290227917896069 0 0.028929326091050034 0.00055719532637614521 0 0.028378157618133521 0.0011646644334778911 0 0.028480133315677534 0.00053290227917896069 0 0.028418088860742229 0.00040303123211384695 0 0.028324874600347678 0.00090103388430380009 0 0.025017005753280579 -0.0013162156074733485 0 0.027962804461763573 -0.001109205911208814 0 0.025017005753280579 -0.0013162156074733485 0 0.025624230169589961 -0.0010775287784877065 0 0.028480133315677534 0.00053290227917896069 0 0.028418088860742229 0.00040303123211384695 0 0.028702248735057053 0.00048051818203094092 0 0.028326276836708356 0.0003564128153427257 0 0.028702248735057053 0.00048051818203094092 0 0.028693185357976703 0.00014765269357444775 0 0.029355091461550395 0.00036075607946591405 0 0.02932776258165052 0.00064826251448614025 0 0.029617284659778798 0.00058755676305644283 0 0.028929326091050034 0.00055719532637614521 0 0.028702248735057053 0.00048051818203094092 0 0.028973086566290638 0.00019566189322314115 0 0.028480133315677534 0.00053290227917896069 0 0.028929326091050034 0.00055719532637614521 0 0.028702248735057053 0.00048051818203094092 0 0.028693185357976703 0.00014765269357444775 0 0.028973086566290638 0.00019566189322314115 0 0.029015648856726427 -5.8282864601354523e-05 0 0.028973086566290638 0.00019566189322314115 0 0.029015648856726427 -5.8282864601354523e-05 0 0.02967426810247091 -0.00019207099073519603 0 0.028929326091050034 0.00055719532637614521 0 0.028973086566290638 0.00019566189322314115 0 0.02967426810247091 -0.00019207099073519603 0 0.028702248735057053 0.00048051818203094092 0 0.028693185357976703 0.00014765269357444775 0 0.028973086566290638 0.00019566189322314115 0 0.029015648856726427 -5.8282864601354523e-05 0 0.028446025786140573 -0.0002476726061700665 0 0.028984008067489637 -0.00038005374505036595 0 0.028693185357976703 0.00014765269357444775 0 0.029015648856726427 -5.8282864601354523e-05 0 0.028446025786140573 -0.0002476726061700665 0 0.019772569357251253 -0.0041769090120030499 0 0.01978227914006242 -0.0041443871794090955 0 0.019749123390841766 -0.0041272997882304046 0 0.028326276836708356 0.0003564128153427257 0 0.028693185357976703 0.00014765269357444775 0 0.028446025786140573 -0.0002476726061700665 0 0.025017005753280579 -0.0013162156074733485 0 0.023382681601969001 -0.0021357051459149935 0 0.025017005753280579 -0.0013162156074733485 0 0.023121921610494239 -0.0027018363310798619 0 0.019772569357251253 -0.0041769090120030499 0 0.01978227914006242 -0.0041443871794090955 0 0.019818096194177692 -0.0041734032670041115 0 0.01978227914006242 -0.0041443871794090955 0 0.019818096194177692 -0.0041734032670041115 0 0.019794869362193573 -0.0041166114116763805 0 0.019818096194177692 -0.0041734032670041115 0 0.019834851874268044 -0.0041391018698557621 0 0.019794869362193573 -0.0041166114116763805 0 0.023121921610494239 -0.0027018363310798619 0 0.022541790885468045 -0.0034180934067014742 0 0.019818096194177692 -0.0041734032670041115 0 0.019894661993937086 -0.0041893069266409309 0 0.019834851874268044 -0.0041391018698557621 0 0.024952459438498168 -0.003028738844284771 0 0.023695819926641749 -0.003478577799282389 0 0.024780991536990919 -0.0022383752361766602 0 0.022541790885468045 -0.0034180934067014742 0 0.024768398027346424 -0.0027494675146770078 0 0.023952761297934822 -0.0038245330264948438 0 0.023767102845765921 -0.0038133225812440139 0 0.023896805634160436 -0.0040082904417385453 0 0.023952761297934822 -0.0038245330264948438 0 0.023908120954678088 -0.0036040662526737287 0 0.023767102845765921 -0.0038133225812440139 0 0.026199789620440412 -0.0025792469123767773 0 0.024952459438498168 -0.003028738844284771 0 0.024780991536990919 -0.0022383752361766602 0 0.024768398027346424 -0.0027494675146770078 0 0.027962804461763573 -0.001109205911208814 0 0.026199789620440412 -0.0025792469123767773 0 0.024780991536990919 -0.0022383752361766602 0 0.0258594316246629 -0.0010063526960915341 0 0.023767102845765921 -0.0038133225812440139 0 0.023758531097091213 -0.0039967114444543752 0 0.023640569868999796 -0.0039960500402110881 0 0.023758531097091213 -0.0039967114444543752 0 0.023673340455255758 -0.0041216640325322917 0 0.023640569868999796 -0.0039960500402110881 0 0.029275161661704647 -0.00095198519155419625 0 0.027962804461763573 -0.001109205911208814 0 0.023767102845765921 -0.0038133225812440139 0 0.023758531097091213 -0.0039967114444543752 0 0.023896805634160436 -0.0040082904417385453 0 0.023758531097091213 -0.0039967114444543752 0 0.023896805634160436 -0.0040082904417385453 0 0.0237919518285672 -0.0041259159544496018 0 0.024041446560865026 -0.0042475616585756128 0 0.023780177804761413 -0.0042426905061015881 0 0.023905456927661908 -0.0041481536335422229 0 0.02401644055678704 -0.004113372530758554 0 0.023896805634160436 -0.0040082904417385453 0 0.023905456927661908 -0.0041481536335422229 0 0.023896805634160436 -0.0040082904417385453 0 0.023905456927661908 -0.0041481536335422229 0 0.0237919518285672 -0.0041259159544496018 0 0.023780177804761413 -0.0042426905061015881 0 0.023905456927661908 -0.0041481536335422229 0 0.0237919518285672 -0.0041259159544496018 0 0.028762754839114044 -0.0013264397138441756 0 0.028633607453418173 -0.0011751929953012332 0 0.028475129708914481 -5.5752040499554662e-05 0 0.029676663433329586 -0.00087405647491088309 0 0.029657370880193747 -0.00085198959098296866 0 0.029705875350857197 -0.00099351233028955243 0 0.029275161661704647 -0.00095198519155419625 0 0.029237103753889482 -0.00086641806310588595 0 0.023758531097091213 -0.0039967114444543752 0 0.023673340455255758 -0.0041216640325322917 0 0.0237919518285672 -0.0041259159544496018 0 0.023780177804761413 -0.0042426905061015881 0 0.023673340455255758 -0.0041216640325322917 0 0.0237919518285672 -0.0041259159544496018 0 0.029275161661704647 -0.00095198519155419625 0 0.030026168304803348 -0.00098680048956530271 0 0.030269032722274197 -0.0019998447597284609 0 0.029442812641970465 -0.0010244035800772607 0 0.029586889425316513 -0.0016726234828778174 0 0.029919416489787059 -0.0012993425401435831 0 0.029275161661704647 -0.00095198519155419625 0 0.029237103753889482 -0.00086641806310588595 0 0.030026168304803348 -0.00098680048956530271 0 0.030410597028330461 -0.0003319783320241409 0 0.030232479166980429 -0.00047258064917852485 0 0.030470114630652158 -0.00056186616589958189 0 0.028982137971404108 0.00082476046063542055 0 0.029360224233539674 0.00081966866568228681 0 0.0292547671342465 0.0011413867452136539 0 0.030312782759948489 -0.00073056744243320216 0 0.030232479166980429 -0.00047258064917852485 0 0.030470114630652158 -0.00056186616589958189 0 0.03058688708869841 -0.0004046203053596022 0 0.030410597028330461 -0.0003319783320241409 0 0.030470114630652158 -0.00056186616589958189 0 0.03058688708869841 -0.0004046203053596022 0 0.030470114630652158 -0.00056186616589958189 0 0.030801668040992436 -0.00051713209388804633 0 0.030470114630652158 -0.00056186616589958189 0 0.030459320788118437 -0.00090510081374549183 0 0.030801668040992436 -0.00051713209388804633 0 0.029000308165650773 -0.00048114174411173662 0 0.030458928737075806 -0.00012389090938613365 0 0.030312782759948489 -0.00073056744243320216 0 0.030470114630652158 -0.00056186616589958189 0 0.030459320788118437 -0.00090510081374549183 0 0.029237103753889482 -0.00086641806310588595 0 0.029000308165650773 -0.00048114174411173662 0 0.029237103753889482 -0.00086641806310588595 0 0.028509019621215093 -0.00073036390445231864 0 0.028370136784525643 -0.00012559776131777485 0 0.028509019621215093 -0.00073036390445231864 0 0.028480133315677534 0.00053290227917896069 0 0.028356739456374184 0.00093685110236421015 0 0.028324874600347678 0.00090103388430380009 0 0.028633607453418173 -0.0011751929953012332 0 0.028326526501554428 -0.00022777135343192935 0 0.028475129708914481 -5.5752040499554662e-05 0 0.02899703109511997 7.0657211993076208e-05 0 0.029000308165650773 -0.00048114174411173662 0 0.028908918343969792 -0.00093565345191828496 0 0.028589114970833333 5.9881130340451273e-05 0 0.02832353877307793 -0.00024688431188093108 0 0.028480133315677534 0.00053290227917896069 0 0.028305553514259243 0.0010803266603814214 0 0.028378157618133521 0.0011646644334778911 0 0.028509019621215093 -0.00073036390445231864 0 0.029000308165650773 -0.00048114174411173662 0 0.028509019621215093 -0.00073036390445231864 0 0.027962804461763573 -0.001109205911208814 0 0.029360224233539674 0.00081966866568228681 0 0.029588265620305202 0.00098685900479867326 0 0.029617284659778798 0.00058755676305644283 0 0.028982137971404108 0.00082476046063542055 0 0.02932776258165052 0.00064826251448614025 0 0.029360224233539674 0.00081966866568228681 0 0.029355091461550395 0.00036075607946591405 0 0.028982137971404108 0.00082476046063542055 0 0.02932776258165052 0.00064826251448614025 0 0.02932776258165052 0.00064826251448614025 0 0.029360224233539674 0.00081966866568228681 0 0.029617284659778798 0.00058755676305644283 0 0.029543659966070314 0.0014628497158255471 0 0.0292547671342465 0.0011413867452136539 0 0.029588265620305202 0.00098685900479867326 0 0.029360224233539674 0.00081966866568228681 0 0.0292547671342465 0.0011413867452136539 0 0.029588265620305202 0.00098685900479867326 0 0.029543659966070314 0.0014628497158255471 0 0.029588265620305202 0.00098685900479867326 0 0.029906209458946977 0.0011110530077370014 0 0.029588265620305202 0.00098685900479867326 0 0.029906209458946977 0.0011110530077370014 0 0.029842989194197901 0.00080875727247801889 0 0.029906209458946977 0.0011110530077370014 0 0.030207239028003024 0.00083468145092730839 0 0.029842989194197901 0.00080875727247801889 0 0.029906209458946977 0.0011110530077370014 0 0.030207239028003024 0.00083468145092730839 0 0.030402079343153896 0.0011928133012648722 0 0.030207239028003024 0.00083468145092730839 0 0.030423935223606622 0.00046689723604692861 0 0.029976224218585579 0.00049571607577254167 0 0.030207239028003024 0.00083468145092730839 0 0.029842989194197901 0.00080875727247801889 0 0.029976224218585579 0.00049571607577254167 0 0.029617284659778798 0.00058755676305644283 0 0.029842989194197901 0.00080875727247801889 0 0.029976224218585579 0.00049571607577254167 0 0.029588265620305202 0.00098685900479867326 0 0.029617284659778798 0.00058755676305644283 0 0.029842989194197901 0.00080875727247801889 0 0.030926197956841359 0.0010658131865301282 0 0.030402079343153896 0.0011928133012648722 0 0.030595918075267126 0.00086621482479773502 0 0.030207239028003024 0.00083468145092730839 0 0.030402079343153896 0.0011928133012648722 0 0.030595918075267126 0.00086621482479773502 0 0.030207239028003024 0.00083468145092730839 0 0.030595918075267126 0.00086621482479773502 0 0.030423935223606622 0.00046689723604692861 0 0.030595918075267126 0.00086621482479773502 0 0.030910058285836577 0.00065726630010257137 0 0.030423935223606622 0.00046689723604692861 0 0.030926197956841359 0.0010658131865301282 0 0.030595918075267126 0.00086621482479773502 0 0.030910058285836577 0.00065726630010257137 0 0.030910058285836577 0.00065726630010257137 0 0.030423935223606622 0.00046689723604692861 0 0.030876817887541302 0.00024903542960705625 0 0.019279389116192314 -0.00035478316110555826 0 0.019725661815422655 -0.00013577406614563974 0 0.019476650694792631 -0.00041197463820313922 0 0.024809912030070175 -0.00042353640682058684 0 0.025242043535538269 -3.1845299006438713e-05 0 0.030423935223606622 0.00046689723604692861 0 0.030308204791104559 -8.4620422611773931e-05 0 0.030876817887541302 0.00024903542960705625 0 0.019725661815422655 -0.00013577406614563974 0 0.019706080903833308 -0.00045761216147498549 0 0.019476650694792631 -0.00041197463820313922 0 0.029617284659778798 0.00058755676305644283 0 0.029720482542211147 0.00027308773113652316 0 0.029976224218585579 0.00049571607577254167 0 0.029355091461550395 0.00036075607946591405 0 0.029617284659778798 0.00058755676305644283 0 0.029720482542211147 0.00027308773113652316 0 0.030423935223606622 0.00046689723604692861 0 0.029976224218585579 0.00049571607577254167 0 0.030022792243139109 0.00018064390170410236 0 0.029720482542211147 0.00027308773113652316 0 0.029976224218585579 0.00049571607577254167 0 0.030022792243139109 0.00018064390170410236 0 0.030308204791104559 -8.4620422611773931e-05 0 0.030022792243139109 0.00018064390170410236 0 0.02967426810247091 -0.00019207099073519603 0 0.030423935223606622 0.00046689723604692861 0 0.030308204791104559 -8.4620422611773931e-05 0 0.030022792243139109 0.00018064390170410236 0 0.029720482542211147 0.00027308773113652316 0 0.030022792243139109 0.00018064390170410236 0 0.02967426810247091 -0.00019207099073519603 0 0.02899703109511997 7.0657211993076208e-05 0 0.029249260263953313 -8.1739309134901798e-05 0 0.029015648856726427 -5.8282864601354523e-05 0 0.02967426810247091 -0.00019207099073519603 0 0.029315282289113103 -0.00027328110173186344 0 0.029355091461550395 0.00036075607946591405 0 0.029720482542211147 0.00027308773113652316 0 0.02967426810247091 -0.00019207099073519603 0 0.02967426810247091 -0.00019207099073519603 0 0.029582933662486675 -0.00046334696635330408 0 0.029315282289113103 -0.00027328110173186344 0 0.029582933662486675 -0.00046334696635330408 0 0.029315282289113103 -0.00027328110173186344 0 0.028984008067489637 -0.00038005374505036595 0 0.019279389116192314 -0.00035478316110555826 0 0.019304938325198081 -0.00046581479285247518 0 0.019260434399542552 -0.00044179935719491854 0 0.019304938325198081 -0.00046581479285247518 0 0.01930574251732568 -0.00044064240560472959 0 0.019260434399542552 -0.00044179935719491854 0 0.030308204791104559 -8.4620422611773931e-05 0 0.02967426810247091 -0.00019207099073519603 0 0.029582933662486675 -0.00046334696635330408 0 0.019259206086026548 -0.0018051762880086561 0 0.019210247015108831 -0.0014974333906438604 0 0.024809912030070175 -0.00042353640682058684 0 0.024112571792211768 -0.0010585793496013518 0 0.017818940024219687 -0.00067361569842379603 0 0.018536231521366645 -0.00088322928386579645 0 0.019260434399542552 -0.00044179935719491854 0 0.018536231521366645 -0.00088322928386579645 0 0.018985566630543137 -0.00080728076088931668 0 0.019260434399542552 -0.00044179935719491854 0 0.018536231521366645 -0.00088322928386579645 0 0.018985566630543137 -0.00080728076088931668 0 0.019021031938035577 -0.0012047765220229161 0 0.018985566630543137 -0.00080728076088931668 0 0.019021031938035577 -0.0012047765220229161 0 0.019236145471520721 -0.00064609622210647566 0 0.018536231521366645 -0.00088322928386579645 0 0.019021031938035577 -0.0012047765220229161 0 0.018679493644136076 -0.0016870960769397123 0 0.018536231521366645 -0.00088322928386579645 0 0.018034394505043964 -0.0012559041787935147 0 0.018679493644136076 -0.0016870960769397123 0 0.018034394505043964 -0.0012559041787935147 0 0.017566466075983275 -0.0011038157239087224 0 0.017298271566955698 -0.0016126391804089234 0 0.017818940024219687 -0.00067361569842379603 0 0.017566466075983275 -0.0011038157239087224 0 0.017987853484942209 -0.00097932251334090161 0 0.018536231521366645 -0.00088322928386579645 0 0.018034394505043964 -0.0012559041787935147 0 0.017987853484942209 -0.00097932251334090161 0 0.017818940024219687 -0.00067361569842379603 0 0.018536231521366645 -0.00088322928386579645 0 0.017987853484942209 -0.00097932251334090161 0 0.018034394505043964 -0.0012559041787935147 0 0.017566466075983275 -0.0011038157239087224 0 0.017987853484942209 -0.00097932251334090161 0 0.019706080903833308 -0.00045761216147498549 0 0.019507980149708004 -0.00055695987039983011 0 0.019476650694792631 -0.00041197463820313922 0 0.019706080903833308 -0.00045761216147498549 0 0.019507980149708004 -0.00055695987039983011 0 0.019621076940195527 -0.00065732644967493082 0 0.019393856112600812 -0.00054305982240998411 0 0.019476650694792631 -0.00041197463820313922 0 0.019260434399542552 -0.00044179935719491854 0 0.019393856112600812 -0.00054305982240998411 0 0.019236145471520721 -0.00064609622210647566 0 0.019425017809707193 -0.00069829115087478345 0 0.019507980149708004 -0.00055695987039983011 0 0.019393856112600812 -0.00054305982240998411 0 0.019476650694792631 -0.00041197463820313922 0 0.019507980149708004 -0.00055695987039983011 0 0.019393856112600812 -0.00054305982240998411 0 0.019425017809707193 -0.00069829115087478345 0 0.019279389116192314 -0.00035478316110555826 0 0.019476650694792631 -0.00041197463820313922 0 0.019260434399542552 -0.00044179935719491854 0 0.019393856112600812 -0.00054305982240998411 0 0.019260434399542552 -0.00044179935719491854 0 0.019236145471520721 -0.00064609622210647566 0 0.018985566630543137 -0.00080728076088931668 0 0.019260434399542552 -0.00044179935719491854 0 0.019236145471520721 -0.00064609622210647566 0 0.019236145471520721 -0.00064609622210647566 0 0.019425017809707193 -0.00069829115087478345 0 0.01941825698525743 -0.00090394601274350935 0 0.019021031938035577 -0.0012047765220229161 0 0.019236145471520721 -0.00064609622210647566 0 0.019782808339094897 -0.0015970830542436562 0 0.019021031938035577 -0.0012047765220229161 0 0.019782808339094897 -0.0015970830542436562 0 0.018679493644136076 -0.0016870960769397123 0 0.014541609425513385 -0.0024942837589741916 0 0.013382091162343665 -0.002179316196642828 0 0.019425017809707193 -0.00069829115087478345 0 0.019487672553771065 -0.00081128478906836827 0 0.01941825698525743 -0.00090394601274350935 0 0.013648140430430082 -0.001951361339933634 0 0.013382091162343665 -0.002179316196642828 0 0.019783918223634876 -0.000785441338614941 0 0.019706080903833308 -0.00045761216147498549 0 0.019621076940195527 -0.00065732644967493082 0 0.019783918223634876 -0.000785441338614941 0 0.019487672553771065 -0.00081128478906836827 0 0.01951680229130873 -0.0011326573971304267 0 0.019509226569113941 -0.00068778905947843494 0 0.019487672553771065 -0.00081128478906836827 0 0.019621076940195527 -0.00065732644967493082 0 0.019507980149708004 -0.00055695987039983011 0 0.019509226569113941 -0.00068778905947843494 0 0.019621076940195527 -0.00065732644967493082 0 0.019507980149708004 -0.00055695987039983011 0 0.019425017809707193 -0.00069829115087478345 0 0.019509226569113941 -0.00068778905947843494 0 0.019425017809707193 -0.00069829115087478345 0 0.019509226569113941 -0.00068778905947843494 0 0.019487672553771065 -0.00081128478906836827 0 0.019783918223634876 -0.000785441338614941 0 0.019487672553771065 -0.00081128478906836827 0 0.019621076940195527 -0.00065732644967493082 0 0.016766876943276651 -0.00019107005927423173 0 0.013059296835870761 -0.0025317204800062261 0 0.020167891891135679 -0.00040564555252288481 0 0.020187869480504321 -0.00033691262121780097 0 0.0202692005098415 -0.00031757427085126784 0 0.019487672553771065 -0.00081128478906836827 0 0.01951680229130873 -0.0011326573971304267 0 0.019395996446576604 -0.00092054097228647309 0 0.020187869480504321 -0.00033691262121780097 0 0.020199948814048366 -0.00027105621855207925 0 0.0202692005098415 -0.00031757427085126784 0 0.013059296835870761 -0.0025317204800062261 0 0.013382091162343665 -0.002179316196642828 0 0.013382091162343665 -0.002179316196642828 0 0.012807243989803322 -0.0033086519611103095 0 0.0074023078882646341 -0.004642777490256972 0 0.0073156346336040214 -0.0044771823490838128 0 0.0070841024212964475 -0.0047965700219923446 0 0.019782808339094897 -0.0015970830542436562 0 0.018679493644136076 -0.0016870960769397123 0 0.018933959882488454 -0.0027166314909796729 0 0.013059296835870761 -0.0025317204800062261 0 0.0091926590605714321 -0.0053952405026555725 0 0.0074023078882646341 -0.004642777490256972 0 0.0071443831075556317 -0.0049020539500507351 0 0.0070841024212964475 -0.0047965700219923446 0 0.0054730983782852191 -0.0069470419346740562 0 0.0061752149919053556 -0.0059948110774061553 0 0.0054923358173975447 -0.0056996119210370221 0 0.020199948814048366 -0.00027105621855207925 0 0.0202692005098415 -0.00031757427085126784 0 0.020229108219481724 -0.00017171699369739255 0 0.0054730983782852191 -0.0069470419346740562 0 0.0054923358173975447 -0.0056996119210370221 0 0.0048057625459824059 -0.0059068938443232718 0 0.013059296835870761 -0.0025317204800062261 0 0.01276064937221618 -0.0026943798285340506 0 0.018034394505043964 -0.0012559041787935147 0 0.01781374072040352 -0.0024325920896359878 0 0.018679493644136076 -0.0016870960769397123 0 0.018034394505043964 -0.0012559041787935147 0 0.01781374072040352 -0.0024325920896359878 0 0.017298271566955698 -0.0016126391804089234 0 0.01781374072040352 -0.0024325920896359878 0 0.018679493644136076 -0.0016870960769397123 0 0.018933959882488454 -0.0027166314909796729 0 0.012807243989803322 -0.0033086519611103095 0 0.012424291018169413 -0.0037674669141138633 0 0.01781374072040352 -0.0024325920896359878 0 0.018933959882488454 -0.0027166314909796729 0 0.018085467635466042 -0.0038263245898232717 0 0.0071443831075556317 -0.0049020539500507351 0 0.0070841024212964475 -0.0047965700219923446 0 0.0070418827253903044 -0.004991097440758159 0 0.01781374072040352 -0.0024325920896359878 0 0.016973997454737922 -0.0036163863762039665 0 0.018085467635466042 -0.0038263245898232717 0 0.01828491752174697 -0.0029694080551785178 0 0.015953141902317745 -0.0034921490173033059 0 0.01905602401379989 -0.003415769841258509 0 0.01884750666463969 -0.0037049750258570419 0 0.018723432707203509 -0.0032545122645268546 0 0.01781374072040352 -0.0024325920896359878 0 0.016701231930040378 -0.0022976334889817512 0 0.016973997454737922 -0.0036163863762039665 0 0.01905602401379989 -0.003415769841258509 0 0.019182526394524349 -0.0036382130441339356 0 0.01884750666463969 -0.0037049750258570419 0 0.01905602401379989 -0.003415769841258509 0 0.019182526394524349 -0.0036382130441339356 0 0.019292553853468803 -0.0033716996807122714 0 0.019182526394524349 -0.0036382130441339356 0 0.019139731725459921 -0.0038893410117717417 0 0.01884750666463969 -0.0037049750258570419 0 0.019139731725459921 -0.0038893410117717417 0 0.01884750666463969 -0.0037049750258570419 0 0.018962952409541878 -0.0041741678910368601 0 0.019182526394524349 -0.0036382130441339356 0 0.019139731725459921 -0.0038893410117717417 0 0.019358390965411018 -0.0037950299273311087 0 0.01781374072040352 -0.0024325920896359878 0 0.016701231930040378 -0.0022976334889817512 0 0.017298271566955698 -0.0016126391804089234 0 0.016701231930040378 -0.0022976334889817512 0 0.017298271566955698 -0.0016126391804089234 0 0.016419899953777458 -0.00097473498018201476 0 0.01828491752174697 -0.0029694080551785178 0 0.020932662425481526 -0.002614185502830779 0 0.019259206086026548 -0.0018051762880086561 0 0.020932662425481526 -0.002614185502830779 0 0.017566466075983275 -0.0011038157239087224 0 0.017298271566955698 -0.0016126391804089234 0 0.016419899953777458 -0.00097473498018201476 0 0.017818940024219687 -0.00067361569842379603 0 0.017566466075983275 -0.0011038157239087224 0 0.016419899953777458 -0.00097473498018201476 0 0.01930574251732568 -0.00044064240560472959 0 0.01947953252115164 -0.00044743353007771074 0 0.019482924003092743 -0.00046335231096137719 0 0.019139731725459921 -0.0038893410117717417 0 0.019197466075295638 -0.004129833131802184 0 0.018962952409541878 -0.0041741678910368601 0 0.019139731725459921 -0.0038893410117717417 0 0.019197466075295638 -0.004129833131802184 0 0.019360604419619031 -0.0040982565814779376 0 0.020666403290803988 -0.0029888957414879172 0 0.021529652791312151 -0.0027558499082241381 0 0.019764602636910319 -0.0040541428302920532 0 0.019733333497262247 -0.0040695639113025968 0 0.019767140910282862 -0.0040984388011763009 0 0.020831917108659698 -0.0033531108218567813 0 0.021708139103229922 -0.0031737311254982749 0 0.02166712660307122 -0.0029880724119868076 0 0.020666403290803988 -0.0029888957414879172 0 0.020932662425481526 -0.002614185502830779 0 0.020932662425481526 -0.002614185502830779 0 0.021529652791312151 -0.0027558499082241381 0 0.021529652791312151 -0.0027558499082241381 0 0.023382681601969001 -0.0021357051459149935 0 0.019733333497262247 -0.0040695639113025968 0 0.019767140910282862 -0.0040984388011763009 0 0.019749123390841766 -0.0041272997882304046 0 0.028562946833444718 -0.00090161237268934942 0 0.028446025786140573 -0.0002476726061700665 0 0.028984008067489637 -0.00038005374505036595 0 0.01978227914006242 -0.0041443871794090955 0 0.019767140910282862 -0.0040984388011763009 0 0.019749123390841766 -0.0041272997882304046 0 0.029582933662486675 -0.00046334696635330408 0 0.028562946833444718 -0.00090161237268934942 0 0.028984008067489637 -0.00038005374505036595 0 0.019304938325198081 -0.00046581479285247518 0 0.01930574251732568 -0.00044064240560472959 0 0.019482924003092743 -0.00046335231096137719 0 0.024112571792211768 -0.0010585793496013518 0 0.021529652791312151 -0.0027558499082241381 0 0.029015648856726427 -5.8282864601354523e-05 0 0.029315282289113103 -0.00027328110173186344 0 0.028984008067489637 -0.00038005374505036595 0 0.019808337463160446 -0.0040775293728052553 0 0.019872521633488953 -0.004105252951272704 0 0.019834851874268044 -0.0041391018698557621 0 0.019894661993937086 -0.0041893069266409309 0 0.019872521633488953 -0.004105252951272704 0 0.019834851874268044 -0.0041391018698557621 0 0.019808337463160446 -0.0040775293728052553 0 0.019834851874268044 -0.0041391018698557621 0 0.019794869362193573 -0.0041166114116763805 0 0.01978227914006242 -0.0041443871794090955 0 0.019767140910282862 -0.0040984388011763009 0 0.019794869362193573 -0.0041166114116763805 0 0.019764602636910319 -0.0040541428302920532 0 0.019767140910282862 -0.0040984388011763009 0 0.019783091395554297 -0.0040779926097637966 0 0.019767140910282862 -0.0040984388011763009 0 0.019794869362193573 -0.0041166114116763805 0 0.019783091395554297 -0.0040779926097637966 0 0.019808337463160446 -0.0040775293728052553 0 0.019794869362193573 -0.0041166114116763805 0 0.019783091395554297 -0.0040779926097637966 0 0.019808337463160446 -0.0040775293728052553 0 0.019783091395554297 -0.0040779926097637966 0 0.019781698001149099 -0.0040471525040934268 0 0.020666403290803988 -0.0029888957414879172 0 0.02027725564861212 -0.0031796840965217818 0 0.019764602636910319 -0.0040541428302920532 0 0.019783091395554297 -0.0040779926097637966 0 0.019781698001149099 -0.0040471525040934268 0 0.02027725564861212 -0.0031796840965217818 0 0.019985506532017822 -0.0033472995253026288 0 0.019808337463160446 -0.0040775293728052553 0 0.019781698001149099 -0.0040471525040934268 0 0.01980842036947816 -0.0039849282561516533 0 0.019808337463160446 -0.0040775293728052553 0 0.019872521633488953 -0.004105252951272704 0 0.01980842036947816 -0.0039849282561516533 0 0.019360604419619031 -0.0040982565814779376 0 0.01980842036947816 -0.0039849282561516533 0 0.019618511178624443 -0.0037622223719408839 0 0.01980842036947816 -0.0039849282561516533 0 0.019618511178624443 -0.0037622223719408839 0 0.019812473535595364 -0.0036570619015942828 0 0.019618511178624443 -0.0037622223719408839 0 0.019812473535595364 -0.0036570619015942828 0 0.019505023437613213 -0.0035953743275182084 0 0.019182526394524349 -0.0036382130441339356 0 0.019358390965411018 -0.0037950299273311087 0 0.019505023437613213 -0.0035953743275182084 0 0.019360604419619031 -0.0040982565814779376 0 0.019618511178624443 -0.0037622223719408839 0 0.019358390965411018 -0.0037950299273311087 0 0.019139731725459921 -0.0038893410117717417 0 0.019360604419619031 -0.0040982565814779376 0 0.019358390965411018 -0.0037950299273311087 0 0.019618511178624443 -0.0037622223719408839 0 0.019358390965411018 -0.0037950299273311087 0 0.019505023437613213 -0.0035953743275182084 0 0.019182526394524349 -0.0036382130441339356 0 0.019505023437613213 -0.0035953743275182084 0 0.019292553853468803 -0.0033716996807122714 0 0.019505023437613213 -0.0035953743275182084 0 0.019292553853468803 -0.0033716996807122714 0 0.019626750190416296 -0.003298784802414168 0 0.01998880375979762 -0.0033658934371325194 0 0.019812473535595364 -0.0036570619015942828 0 0.019626750190416296 -0.003298784802414168 0 0.019812473535595364 -0.0036570619015942828 0 0.019505023437613213 -0.0035953743275182084 0 0.019626750190416296 -0.003298784802414168 0 0.01998880375979762 -0.0033658934371325194 0 0.019626750190416296 -0.003298784802414168 0 0.019828524040666616 -0.0030594934335535741 0 0.019626750190416296 -0.003298784802414168 0 0.01954952342583734 -0.0029189300817555755 0 0.019828524040666616 -0.0030594934335535741 0 0.019626750190416296 -0.003298784802414168 0 0.01930626349091388 -0.0031132821580388582 0 0.01954952342583734 -0.0029189300817555755 0 0.019292553853468803 -0.0033716996807122714 0 0.019626750190416296 -0.003298784802414168 0 0.01930626349091388 -0.0031132821580388582 0 0.019292553853468803 -0.0033716996807122714 0 0.01930626349091388 -0.0031132821580388582 0 0.019084440826065221 -0.0031823022941171951 0 0.019242571876400216 -0.00285515052620519 0 0.019519712204774081 -0.0026711275208276108 0 0.01895988321873399 -0.0026283150037419278 0 0.01930626349091388 -0.0031132821580388582 0 0.019242571876400216 -0.00285515052620519 0 0.01954952342583734 -0.0029189300817555755 0 0.019242571876400216 -0.00285515052620519 0 0.01954952342583734 -0.0029189300817555755 0 0.019519712204774081 -0.0026711275208276108 0 0.01954952342583734 -0.0029189300817555755 0 0.019748076786547594 -0.0028464665750578683 0 0.019828524040666616 -0.0030594934335535741 0 0.01954952342583734 -0.0029189300817555755 0 0.019748076786547594 -0.0028464665750578683 0 0.019519712204774081 -0.0026711275208276108 0 0.018569112197619593 -0.0021034088575855887 0 0.017499882632180601 -0.0029129529645541261 0 0.017639475771147939 -0.0010063738018013047 0 0.017945494115641909 -0.0028032225497974118 0 0.018699457059472693 -0.0027681430613759471 0 0.019748076786547594 -0.0028464665750578683 0 0.019519712204774081 -0.0026711275208276108 0 0.019910776144140035 -0.002694579006824886 0 0.018569112197619593 -0.0021034088575855887 0 0.017499882632180601 -0.0029129529645541261 0 0.019463082593207833 -0.0026017757135971954 0 0.017499882632180601 -0.0029129529645541261 0 0.019463082593207833 -0.0026017757135971954 0 0.019910776144140035 -0.002694579006824886 0 0.018569112197619593 -0.0021034088575855887 0 0.017639475771147939 -0.0010063738018013047 0 0.019948862092334915 -0.0020510719111077338 0 0.015797764292084984 -0.0042323258209413742 0 0.017864886766953983 -0.0040475796310252303 0 0.017945494115641909 -0.0028032225497974118 0 0.016095704386057608 -0.0028854309685809117 0 0.017499882632180601 -0.0029129529645541261 0 0.015690248157352836 -0.0021533911190246753 0 0.014997476031608755 -0.0030350516198259501 0 0.017499882632180601 -0.0029129529645541261 0 0.015690248157352836 -0.0021533911190246753 0 0.016052283240896862 -0.0013287265877381773 0 0.017499882632180601 -0.0029129529645541261 0 0.016052283240896862 -0.0013287265877381773 0 0.017639475771147939 -0.0010063738018013047 0 0.015797764292084984 -0.0042323258209413742 0 0.011561220035323618 -0.0035355597030330287 0 0.015899546416863971 -0.0078352992098265333 0 0.015093676218841185 -0.0074580437197883575 0 0.015787325388675437 -0.0073225186091493066 0 0.016052283240896862 -0.0013287265877381773 0 0.017639475771147939 -0.0010063738018013047 0 0.015259651353833644 6.8160409362204533e-05 0 0.015899546416863971 -0.0078352992098265333 0 0.016699934036864473 -0.0081972635901015976 0 0.016426838152919485 -0.0076267737681644182 0 0.015899546416863971 -0.0078352992098265333 0 0.016124057848273868 -0.0074209970267289293 0 0.015787325388675437 -0.0073225186091493066 0 0.015899546416863971 -0.0078352992098265333 0 0.016124057848273868 -0.0074209970267289293 0 0.016426838152919485 -0.0076267737681644182 0 0.016124057848273868 -0.0074209970267289293 0 0.016426838152919485 -0.0076267737681644182 0 0.016417832924822844 -0.0073117928580620582 0 0.0060752993241959272 -0.0012388283795189724 0 0.0065850445675669136 -0.0014862115799016524 0 0.0062513061662843664 -0.0016435100450601571 0 0.0060752993241959272 -0.0012388283795189724 0 0.0062513061662843664 -0.0016435100450601571 0 0.0059468705658340306 -0.0016809447224428575 0 0.0060752993241959272 -0.0012388283795189724 0 0.0065850445675669136 -0.0014862115799016524 0 0.0066051394737341425 -0.00096283698827110732 0 0.0065850445675669136 -0.0014862115799016524 0 0.0066051394737341425 -0.00096283698827110732 0 0.0069577264830093955 -0.0012204605494215907 0 0.0065850445675669136 -0.0014862115799016524 0 0.0064979642731109923 -0.0018768837747686292 0 0.0071299060368074053 -0.0019798686435444461 0 0.0065850445675669136 -0.0014862115799016524 0 0.0064979642731109923 -0.0018768837747686292 0 0.0062513061662843664 -0.0016435100450601571 0 0.0064979642731109923 -0.0018768837747686292 0 0.0062513061662843664 -0.0016435100450601571 0 0.0061666018788309697 -0.0019822275136268711 0 0.0062513061662843664 -0.0016435100450601571 0 0.0059705493900150935 -0.0018262920569471794 0 0.0059468705658340306 -0.0016809447224428575 0 0.0061666018788309697 -0.0019822275136268711 0 0.0059705493900150935 -0.0018262920569471794 0 0.0059044099463893499 -0.002019398247418638 0 0.0062513061662843664 -0.0016435100450601571 0 0.0061666018788309697 -0.0019822275136268711 0 0.0059705493900150935 -0.0018262920569471794 0 0.011548397920959458 -0.0028336083383126427 0 0.011048956094819555 -0.0032209526798812589 0 0.0060752993241959272 -0.0012388283795189724 0 0.0059468705658340306 -0.0016809447224428575 0 0.0054982989052978735 -0.0020151069346985087 0 0.0059705493900150935 -0.0018262920569471794 0 0.0059468705658340306 -0.0016809447224428575 0 0.0054982989052978735 -0.0020151069346985087 0 0.0059705493900150935 -0.0018262920569471794 0 0.0054982989052978735 -0.0020151069346985087 0 0.0059044099463893499 -0.002019398247418638 0 0.011561220035323618 -0.0035355597030330287 0 0.012080733091668284 -0.0029165369205116955 0 0.015259651353833644 6.8160409362204533e-05 0 0.015246259670576863 -0.00091212287242509182 0 0.014468681671771609 -0.00098771507764139951 0 0.015210131456155296 -4.6768048222937135e-06 0 0.014468681671771609 -0.00098771507764139951 0 0.014973330602674135 0.00010695560038772212 0 0.011561220035323618 -0.0035355597030330287 0 0.011048956094819555 -0.0032209526798812589 0 0.016052283240896862 -0.0013287265877381773 0 0.015259651353833644 6.8160409362204533e-05 0 0.015246259670576863 -0.00091212287242509182 0 0.015205019283870226 -0.0013987955132313519 0 0.014468681671771609 -0.00098771507764139951 0 0.014693154562153043 -0.0018738824437057975 0 0.015246259670576863 -0.00091212287242509182 0 0.015205019283870226 -0.0013987955132313519 0 0.014468681671771609 -0.00098771507764139951 0 0.016052283240896862 -0.0013287265877381773 0 0.015246259670576863 -0.00091212287242509182 0 0.015205019283870226 -0.0013987955132313519 0 0.013784079155874011 -0.0014802298788992039 0 0.014468681671771609 -0.00098771507764139951 0 0.014973330602674135 0.00010695560038772212 0 0.013784079155874011 -0.0014802298788992039 0 0.014468681671771609 -0.00098771507764139951 0 0.014693154562153043 -0.0018738824437057975 0 0.013784079155874011 -0.0014802298788992039 0 0.014693154562153043 -0.0018738824437057975 0 0.014228268008597843 -0.0022020557819309671 0 0.014693154562153043 -0.0018738824437057975 0 0.014228268008597843 -0.0022020557819309671 0 0.014997476031608755 -0.0030350516198259501 0 0.013784079155874011 -0.0014802298788992039 0 0.014228268008597843 -0.0022020557819309671 0 0.01376403648599373 -0.0025675500208416917 0 0.015690248157352836 -0.0021533911190246753 0 0.014693154562153043 -0.0018738824437057975 0 0.014997476031608755 -0.0030350516198259501 0 0.015690248157352836 -0.0021533911190246753 0 0.015205019283870226 -0.0013987955132313519 0 0.014693154562153043 -0.0018738824437057975 0 0.015690248157352836 -0.0021533911190246753 0 0.016052283240896862 -0.0013287265877381773 0 0.015205019283870226 -0.0013987955132313519 0 0.014228268008597843 -0.0022020557819309671 0 0.014997476031608755 -0.0030350516198259501 0 0.01376403648599373 -0.0025675500208416917 0 0.016095704386057608 -0.0028854309685809117 0 0.012394563328220941 -0.0030549357963966413 0 0.014997476031608755 -0.0030350516198259501 0 0.01376403648599373 -0.0025675500208416917 0 0.012539806557660014 -0.0031326556954128278 0 0.013784079155874011 -0.0014802298788992039 0 0.01376403648599373 -0.0025675500208416917 0 0.012539806557660014 -0.0031326556954128278 0 0.011548397920959458 -0.0028336083383126427 0 0.012394563328220941 -0.0030549357963966413 0 0.0066051394737341425 -0.00096283698827110732 0 0.0068018773241946499 -0.00045738331076719302 0 0.0069577264830093955 -0.0012204605494215907 0 0.0060752993241959272 -0.0012388283795189724 0 0.0066051394737341425 -0.00096283698827110732 0 0.0066752510812997778 -0.00046224357791251844 0 0.0066051394737341425 -0.00096283698827110732 0 0.0066752510812997778 -0.00046224357791251844 0 0.0068018773241946499 -0.00045738331076719302 0 0.012394563328220941 -0.0030549357963966413 0 0.011784956150444729 -0.0030125516436287376 0 0.010971165903613599 -0.0054139607051810401 0 0.01445709950239739 -0.0052596951097895681 0 0.013672107121333052 -0.001854777529297852 0 0.012424662367743356 -0.0032316601273687413 0 0.015953141902317745 -0.0034921490173033059 0 0.018245184570767098 -0.002638197249548317 0 0.018182582204305572 -0.0027176289717904152 0 0.018781141142499107 -0.002963611349966002 0 0.012424662367743356 -0.0032316601273687413 0 0.016366365524534854 -0.0039752519967690822 0 0.018590243083211604 -0.0027898626625106246 0 0.018963340431590866 -0.0029484698581405495 0 0.018723432707203509 -0.0032545122645268546 0 0.011784956150444729 -0.0030125516436287376 0 0.012424662367743356 -0.0032316601273687413 0 0.012394563328220941 -0.0030549357963966413 0 0.012424662367743356 -0.0032316601273687413 0 0.01735199445915802 -0.0041086326191037527 0 0.016366365524534854 -0.0039752519967690822 0 0.019242571876400216 -0.00285515052620519 0 0.01895988321873399 -0.0026283150037419278 0 0.018781141142499107 -0.002963611349966002 0 0.01930626349091388 -0.0031132821580388582 0 0.019242571876400216 -0.00285515052620519 0 0.018781141142499107 -0.002963611349966002 0 0.01895988321873399 -0.0026283150037419278 0 0.018245184570767098 -0.002638197249548317 0 0.018781141142499107 -0.002963611349966002 0 0.01930626349091388 -0.0031132821580388582 0 0.018963340431590866 -0.0029484698581405495 0 0.019084440826065221 -0.0031823022941171951 0 0.01905602401379989 -0.003415769841258509 0 0.019084440826065221 -0.0031823022941171951 0 0.018723432707203509 -0.0032545122645268546 0 0.018963340431590866 -0.0029484698581405495 0 0.019084440826065221 -0.0031823022941171951 0 0.018723432707203509 -0.0032545122645268546 0 0.01905602401379989 -0.003415769841258509 0 0.019292553853468803 -0.0033716996807122714 0 0.019084440826065221 -0.0031823022941171951 0 0.017242944535656089 -0.0049258836415722474 0 0.016973997454737922 -0.0036163863762039665 0 0.018085467635466042 -0.0038263245898232717 0 0.0091926590605714321 -0.0053952405026555725 0 0.0084821460616582231 -0.0056653616185764182 0 0.0071443831075556317 -0.0049020539500507351 0 0.0070418827253903044 -0.004991097440758159 0 0.0069363782898554755 -0.0049271344863412864 0 0.0070418827253903044 -0.004991097440758159 0 0.0069363782898554755 -0.0049271344863412864 0 0.0071881982948387426 -0.0046572124961512407 0 0.0069363782898554755 -0.0049271344863412864 0 0.0064972697165488211 -0.0045421655893976912 0 0.0062570533762203459 -0.0048502648158554561 0 0.0069363782898554755 -0.0049271344863412864 0 0.0064972697165488211 -0.0045421655893976912 0 0.0068233344177871958 -0.0044882678719461609 0 0.0064972697165488211 -0.0045421655893976912 0 0.0068233344177871958 -0.0044882678719461609 0 0.0063992075899199693 -0.0042002205475406345 0 0.0068233344177871958 -0.0044882678719461609 0 0.0071881982948387426 -0.0046572124961512407 0 0.0072031039040590192 -0.0044308380241464464 0 0.0069363782898554755 -0.0049271344863412864 0 0.0068233344177871958 -0.0044882678719461609 0 0.0071881982948387426 -0.0046572124961512407 0 0.0075904063916982451 -0.0045333370654355607 0 0.0070418827253903044 -0.004991097440758159 0 0.0071881982948387426 -0.0046572124961512407 0 0.012424662367743356 -0.0032316601273687413 0 0.012424291018169413 -0.0037674669141138633 0 0.0071881982948387426 -0.0046572124961512407 0 0.0074551702983194123 -0.0044555030510411821 0 0.0072031039040590192 -0.0044308380241464464 0 0.0075904063916982451 -0.0045333370654355607 0 0.0071881982948387426 -0.0046572124961512407 0 0.0074551702983194123 -0.0044555030510411821 0 0.012424662367743356 -0.0032316601273687413 0 0.011010520978847683 -0.0030688742053962656 0 0.0050372844115853738 -0.0052937327017485852 0 0.0054923358173975447 -0.0056996119210370221 0 0.0048057625459824059 -0.0059068938443232718 0 0.0050372844115853738 -0.0052937327017485852 0 0.0054923358173975447 -0.0056996119210370221 0 0.0056406742999652783 -0.0050097080046569223 0 0.0061752149919053556 -0.0059948110774061553 0 0.0069363782898554755 -0.0049271344863412864 0 0.0060932223417926572 -0.0052974827906999067 0 0.0054923358173975447 -0.0056996119210370221 0 0.0060932223417926572 -0.0052974827906999067 0 0.0056406742999652783 -0.0050097080046569223 0 0.0061752149919053556 -0.0059948110774061553 0 0.0054923358173975447 -0.0056996119210370221 0 0.0060932223417926572 -0.0052974827906999067 0 0.0069363782898554755 -0.0049271344863412864 0 0.0060932223417926572 -0.0052974827906999067 0 0.0062570533762203459 -0.0048502648158554561 0 0.0064972697165488211 -0.0045421655893976912 0 0.0059995200336544416 -0.0044905317716986293 0 0.0063992075899199693 -0.0042002205475406345 0 0.0064972697165488211 -0.0045421655893976912 0 0.0062570533762203459 -0.0048502648158554561 0 0.0059995200336544416 -0.0044905317716986293 0 0.0059995200336544416 -0.0044905317716986293 0 0.0054282595373054522 -0.004633102763262449 0 0.0055491178617172324 -0.0042629683919947854 0 0.0059995200336544416 -0.0044905317716986293 0 0.0056406742999652783 -0.0050097080046569223 0 0.0054282595373054522 -0.004633102763262449 0 0.0062570533762203459 -0.0048502648158554561 0 0.0059995200336544416 -0.0044905317716986293 0 0.0056406742999652783 -0.0050097080046569223 0 0.0060932223417926572 -0.0052974827906999067 0 0.0062570533762203459 -0.0048502648158554561 0 0.0056406742999652783 -0.0050097080046569223 0 0.0056406742999652783 -0.0050097080046569223 0 0.0054282595373054522 -0.004633102763262449 0 0.0050369738420141374 -0.0048210619399873776 0 0.0054282595373054522 -0.004633102763262449 0 0.0050369738420141374 -0.0048210619399873776 0 0.0049710937021256374 -0.0043022104318672424 0 0.0050369738420141374 -0.0048210619399873776 0 0.0049710937021256374 -0.0043022104318672424 0 0.0045133197884736371 -0.0045733372708825857 0 0.0050372844115853738 -0.0052937327017485852 0 0.0050369738420141374 -0.0048210619399873776 0 0.0047959194657370644 -0.0049822641128132884 0 0.0050372844115853738 -0.0052937327017485852 0 0.0056406742999652783 -0.0050097080046569223 0 0.0050369738420141374 -0.0048210619399873776 0 0.0049710937021256374 -0.0043022104318672424 0 0.005269029787745353 -0.0037858008533836252 0 0.0046779491184628036 -0.0037384218867750492 0 0.0054282595373054522 -0.004633102763262449 0 0.0049710937021256374 -0.0043022104318672424 0 0.0055491178617172324 -0.0042629683919947854 0 0.0055491178617172324 -0.0042629683919947854 0 0.005269029787745353 -0.0037858008533836252 0 0.0059569452859759538 -0.0039963256338394751 0 0.0049710937021256374 -0.0043022104318672424 0 0.0055491178617172324 -0.0042629683919947854 0 0.005269029787745353 -0.0037858008533836252 0 0.0042483131944596334 -0.0025714356874692069 0 0.0055285422024153397 -0.0028181082564846544 0 0.0059569452859759538 -0.0039963256338394751 0 0.0057523516350483197 -0.0033700151353647872 0 0.0067686765081743545 -0.0038289532205048808 0 0.005269029787745353 -0.0037858008533836252 0 0.0059569452859759538 -0.0039963256338394751 0 0.0057523516350483197 -0.0033700151353647872 0 0.0059995200336544416 -0.0044905317716986293 0 0.0055491178617172324 -0.0042629683919947854 0 0.0059569452859759538 -0.0039963256338394751 0 0.0059569452859759538 -0.0039963256338394751 0 0.0063992075899199693 -0.0042002205475406345 0 0.0067686765081743545 -0.0038289532205048808 0 0.0059995200336544416 -0.0044905317716986293 0 0.0059569452859759538 -0.0039963256338394751 0 0.0063992075899199693 -0.0042002205475406345 0 0.00083580366300876094 -0.0022818747006526276 0 0.0013858062313542431 -0.0021468666828245043 0 0.0005331236066564906 -0.0017765757322069609 0 0.00083580366300876094 -0.0022818747006526276 0 0.0011329062843818945 -0.0026889641661370796 0 0.00047592013976944841 -0.0027256214952889094 0 0.00083580366300876094 -0.0022818747006526276 0 0.0011329062843818945 -0.0026889641661370796 0 0.0013858062313542431 -0.0021468666828245043 0 0.005269029787745353 -0.0037858008533836252 0 0.0046779491184628036 -0.0037384218867750492 0 0.0046568742992768803 -0.0029332887748314178 0 0.0011329062843818945 -0.0026889641661370796 0 0.0013858062313542431 -0.0021468666828245043 0 0.0022584768839831139 -0.0023962904832886545 0 0.0042483131944596334 -0.0025714356874692069 0 0.0038427020990403726 -0.0025473389972401283 0 0.005269029787745353 -0.0037858008533836252 0 0.0057523516350483197 -0.0033700151353647872 0 0.0046568742992768803 -0.0029332887748314178 0 0.011010520978847683 -0.0030688742053962656 0 0.0055285422024153397 -0.0028181082564846544 0 0.0077781244236915974 -0.0019465538694010836 0 0.0080947941520046179 -0.0020930512250157789 0 0.007757404628740497 -0.0021677065172987144 0 0.0075487338559724164 -0.0044350319186047676 0 0.0072031039040590192 -0.0044308380241464464 0 0.0066986136107953726 -0.0039647597622032068 0 0.011784956150444729 -0.0030125516436287376 0 0.0085989195069748423 -0.0024598823694909661 0 0.0077170704161519483 -0.0019498448819775694 0 0.0077781244236915974 -0.0019465538694010836 0 0.007757404628740497 -0.0021677065172987144 0 0.011784956150444729 -0.0030125516436287376 0 0.011010520978847683 -0.0030688742053962656 0 0.011010184101547273 -0.0030504107631150138 0 0.010679118917750861 -0.0016112166773576925 0 0.013580597916477186 -0.0029357583689763192 0 0.011010520978847683 -0.0030688742053962656 0 0.010571875821716124 -0.0031255488095355611 0 0.0068233344177871958 -0.0044882678719461609 0 0.0072031039040590192 -0.0044308380241464464 0 0.0066986136107953726 -0.0039647597622032068 0 0.0068233344177871958 -0.0044882678719461609 0 0.0063992075899199693 -0.0042002205475406345 0 0.0066986136107953726 -0.0039647597622032068 0 0.005546746721001989 -0.002880866299983206 0 0.0055285422024153397 -0.0028181082564846544 0 0.00083580366300876094 -0.0022818747006526276 0 0.0005331236066564906 -0.0017765757322069609 0 0.00047592013976944841 -0.0027256214952889094 0 0.0055285422024153397 -0.0028181082564846544 0 0.0057902386584644848 -0.002694704964140622 0 0.0005331236066564906 -0.0017765757322069609 0 0.00047592013976944841 -0.0027256214952889094 0 -0.00045658523688081549 -0.0027691323520927461 0 0.0080947941520046179 -0.0020930512250157789 0 0.007757404628740497 -0.0021677065172987144 0 0.0078002904871535906 -0.0023868500397540718 0 0.0085989195069748423 -0.0024598823694909661 0 0.0057902386584644848 -0.002694704964140622 0 0.0065850445675669136 -0.0014862115799016524 0 0.0069577264830093955 -0.0012204605494215907 0 0.0071299060368074053 -0.0019798686435444461 0 -0.00045658523688081549 -0.0027691323520927461 0 0.00015029408935962743 -0.0032575903701813334 0 -0.00011390646759955565 -0.0039603552888033871 0 -0.00010631200154951514 -0.0039781691223406742 0 -0.00014635499206688905 -0.0040705898487093228 0 -0.00011390646759955565 -0.0039603552888033871 0 0.0057902386584644848 -0.002694704964140622 0 0.0048621602955082515 -0.0027715556632718595 0 0.00047592013976944841 -0.0027256214952889094 0 -0.00045658523688081549 -0.0027691323520927461 0 0.00015029408935962743 -0.0032575903701813334 0 0.00059638459627601558 -0.0035240214663588153 0 0.00015029408935962743 -0.0032575903701813334 0 -0.00011390646759955565 -0.0039603552888033871 0 0.0011329062843818945 -0.0026889641661370796 0 0.00047592013976944841 -0.0027256214952889094 0 0.00059638459627601558 -0.0035240214663588153 0 0.00047592013976944841 -0.0027256214952889094 0 0.00059638459627601558 -0.0035240214663588153 0 0.00015029408935962743 -0.0032575903701813334 0 0.00059638459627601558 -0.0035240214663588153 0 0.00060465228583446321 -0.0041817224883476467 0 1.6956309116260487e-05 -0.0042702463100781273 0 0.00059638459627601558 -0.0035240214663588153 0 -0.00011390646759955565 -0.0039603552888033871 0 1.6956309116260487e-05 -0.0042702463100781273 0 -0.00011390646759955565 -0.0039603552888033871 0 1.6956309116260487e-05 -0.0042702463100781273 0 -0.00016957331001601518 -0.0042704985056081918 0 -0.00014635499206688905 -0.0040705898487093228 0 -0.00011390646759955565 -0.0039603552888033871 0 -0.00016957331001601518 -0.0042704985056081918 0 0.0011329062843818945 -0.0026889641661370796 0 0.0013908391543087082 -0.0031817320831889341 0 0.0022584768839831139 -0.0023962904832886545 0 0.0013908391543087082 -0.0031817320831889341 0 0.001909429845424364 -0.0034185407223954623 0 0.0022584768839831139 -0.0023962904832886545 0 0.001909429845424364 -0.0034185407223954623 0 0.0022584768839831139 -0.0023962904832886545 0 0.0025193353046052231 -0.0032210497160874091 0 0.0011329062843818945 -0.0026889641661370796 0 0.00059638459627601558 -0.0035240214663588153 0 0.0013908391543087082 -0.0031817320831889341 0 0.00059638459627601558 -0.0035240214663588153 0 0.0013908391543087082 -0.0031817320831889341 0 0.001200317396447687 -0.0038126101927292836 0 0.00059638459627601558 -0.0035240214663588153 0 0.001200317396447687 -0.0038126101927292836 0 0.00060465228583446321 -0.0041817224883476467 0 0.0013908391543087082 -0.0031817320831889341 0 0.001200317396447687 -0.0038126101927292836 0 0.001909429845424364 -0.0034185407223954623 0 0.001200317396447687 -0.0038126101927292836 0 0.001847079834734387 -0.0040251838001281503 0 0.001909429845424364 -0.0034185407223954623 0 0.001847079834734387 -0.0040251838001281503 0 0.001909429845424364 -0.0034185407223954623 0 0.0023494259279368828 -0.0037294561751951274 0 0.0018133230266358811 -0.0045396217228481353 0 0.0011742024801413911 -0.0046327255443691573 0 0.0020758434700977242 -0.0050305801829551421 0 0.001200317396447687 -0.0038126101927292836 0 0.001847079834734387 -0.0040251838001281503 0 0.0011742024801413911 -0.0046327255443691573 0 0.0018133230266358811 -0.0045396217228481353 0 0.0020758434700977242 -0.0050305801829551421 0 0.0025075196159049804 -0.0043508491962076581 0 0.001847079834734387 -0.0040251838001281503 0 0.0018133230266358811 -0.0045396217228481353 0 0.0025075196159049804 -0.0043508491962076581 0 0.001847079834734387 -0.0040251838001281503 0 0.0018133230266358811 -0.0045396217228481353 0 0.0011742024801413911 -0.0046327255443691573 0 0.00060465228583446321 -0.0041817224883476467 0 0.0011742024801413911 -0.0046327255443691573 0 0.00020522858782261757 -0.0046151443528499739 0 0.001200317396447687 -0.0038126101927292836 0 0.00060465228583446321 -0.0041817224883476467 0 0.0011742024801413911 -0.0046327255443691573 0 0.00064100370800425485 -0.0049316100840815363 0 0.001536368179641093 -0.0053687330593717841 0 0.00086332354432048467 -0.0055253686175519351 0 0.0011742024801413911 -0.0046327255443691573 0 0.00064100370800425485 -0.0049316100840815363 0 0.00020522858782261757 -0.0046151443528499739 0 0.0011742024801413911 -0.0046327255443691573 0 0.00064100370800425485 -0.0049316100840815363 0 0.001536368179641093 -0.0053687330593717841 0 0.00064100370800425485 -0.0049316100840815363 0 -5.2860400069534574e-05 -0.0049670841952869386 0 0.00086332354432048467 -0.0055253686175519351 0 0.0011742024801413911 -0.0046327255443691573 0 0.001536368179641093 -0.0053687330593717841 0 0.0020758434700977242 -0.0050305801829551421 0 0.001536368179641093 -0.0053687330593717841 0 0.0020758434700977242 -0.0050305801829551421 0 0.0026519039977756097 -0.0054972220733860468 0 -0.00016382930691112593 -0.0045031163364235563 0 1.6956309116260487e-05 -0.0042702463100781273 0 -0.00016957331001601518 -0.0042704985056081918 0 -0.00011556318965684381 -0.0045562214434337403 0 -0.00016382930691112593 -0.0045031163364235563 0 -0.00020311730380908672 -0.0046561517479332265 0 -0.00011556318965684381 -0.0045562214434337403 0 -0.00016382930691112593 -0.0045031163364235563 0 1.6956309116260487e-05 -0.0042702463100781273 0 0.00060465228583446321 -0.0041817224883476467 0 1.6956309116260487e-05 -0.0042702463100781273 0 0.00020522858782261757 -0.0046151443528499739 0 -0.00011556318965684381 -0.0045562214434337403 0 1.6956309116260487e-05 -0.0042702463100781273 0 0.00020522858782261757 -0.0046151443528499739 0 -0.00011556318965684381 -0.0045562214434337403 0 0.00020522858782261757 -0.0046151443528499739 0 -0.00024290383220665706 -0.0047855818180048554 0 0.00020522858782261757 -0.0046151443528499739 0 -5.2860400069534574e-05 -0.0049670841952869386 0 -0.00024290383220665706 -0.0047855818180048554 0 0.00064100370800425485 -0.0049316100840815363 0 0.00020522858782261757 -0.0046151443528499739 0 -5.2860400069534574e-05 -0.0049670841952869386 0 -5.2860400069534574e-05 -0.0049670841952869386 0 -0.00024290383220665706 -0.0047855818180048554 0 -0.00038905524819657686 -0.0047804567939475906 0 -0.00011556318965684381 -0.0045562214434337403 0 -0.00024290383220665706 -0.0047855818180048554 0 -0.00020311730380908672 -0.0046561517479332265 0 -0.00024290383220665706 -0.0047855818180048554 0 -0.00025057978360884937 -0.0046930929163012452 0 -0.0004075787925788254 -0.004663212894565485 0 -0.00024290383220665706 -0.0047855818180048554 0 -0.00020311730380908672 -0.0046561517479332265 0 -0.00025057978360884937 -0.0046930929163012452 0 -0.00025057978360884937 -0.0046930929163012452 0 -0.00012187530428860436 -0.0046962058523314972 0 -0.00012438341194874122 -0.0046148874276486758 0 -0.00012187530428860436 -0.0046962058523314972 0 4.1863375634316243e-05 -0.0046866799194756979 0 -0.00012438341194874122 -0.0046148874276486758 0 -0.00020311730380908672 -0.0046561517479332265 0 -0.00025057978360884937 -0.0046930929163012452 0 -0.00012187530428860436 -0.0046962058523314972 0 -0.00020311730380908672 -0.0046561517479332265 0 -0.00012187530428860436 -0.0046962058523314972 0 -0.00016363698499994111 -0.0045686944932614368 0 -0.00016382930691112593 -0.0045031163364235563 0 -0.00020311730380908672 -0.0046561517479332265 0 -0.00016363698499994111 -0.0045686944932614368 0 -0.00016363698499994111 -0.0045686944932614368 0 -0.00015976863833674798 -0.0044810763796701309 0 -9.444739346461805e-05 -0.0046578149354422503 0 -0.00012187530428860436 -0.0046962058523314972 0 -0.00016363698499994111 -0.0045686944932614368 0 -9.444739346461805e-05 -0.0046578149354422503 0 -0.00016363698499994111 -0.0045686944932614368 0 -0.00015976863833674798 -0.0044810763796701309 0 -0.00016957331001601518 -0.0042704985056081918 0 -0.00016382930691112593 -0.0045031163364235563 0 -0.00016363698499994111 -0.0045686944932614368 0 -0.00016957331001601518 -0.0042704985056081918 0 -0.00015976863833674798 -0.0044810763796701309 0 -0.00010963921876040352 -0.0046517976548020304 0 -9.444739346461805e-05 -0.0046578149354422503 0 -0.00010963921876040352 -0.0046517976548020304 0 -9.444739346461805e-05 -0.0046578149354422503 0 4.8631382737551724e-05 -0.0047380872934472528 0 -0.00012187530428860436 -0.0046962058523314972 0 -9.444739346461805e-05 -0.0046578149354422503 0 4.8631382737551724e-05 -0.0047380872934472528 0 -0.00012187530428860436 -0.0046962058523314972 0 4.8631382737551724e-05 -0.0047380872934472528 0 4.1863375634316243e-05 -0.0046866799194756979 0 4.8631382737551724e-05 -0.0047380872934472528 0 0.00026709916221486141 -0.0047434677974372078 0 4.1863375634316243e-05 -0.0046866799194756979 0 -0.00010963921876040352 -0.0046517976548020304 0 4.8631382737551724e-05 -0.0047380872934472528 0 0.00033093847532368359 -0.0048319738760890787 0 3.4035119319998721e-05 -0.0074029845090328979 0 0.00057304106350756405 -0.0062409078923879426 0 0.00089576284590950914 -0.0065601700994774199 0 4.8631382737551724e-05 -0.0047380872934472528 0 0.00033093847532368359 -0.0048319738760890787 0 0.00026709916221486141 -0.0047434677974372078 0 0.00057304106350756405 -0.0062409078923879426 0 0.00089576284590950914 -0.0065601700994774199 0 0.0019246122470009681 -0.0056296279395361545 0 0.004321390414543414 -0.0043544692078307246 0 0.0038041342459534853 -0.0044602085511073527 0 0.0036077648399375868 -0.004798659983143827 0 0.0027161420173519931 -0.0050178487331595896 0 0.00282102098804998 -0.0050003719327989405 0 0.004321390414543414 -0.0043544692078307246 0 0.0038041342459534853 -0.0044602085511073527 0 0.0040455350716964086 -0.0040820042831773446 0 0.0038041342459534853 -0.0044602085511073527 0 0.0036640701008521953 -0.0040872052046083728 0 0.0040455350716964086 -0.0040820042831773446 0 0.01007203030362263 -0.0047998870230928619 0 0.010377733949572547 -0.0046768936426007986 0 0.0036640701008521953 -0.0040872052046083728 0 0.0042249437661598683 -0.0037143655565895842 0 0.0044464201903045425 -0.0030670143027970872 0 0.016381773787475538 -0.0057858919547481343 0 0.015743655411085938 -0.0066286765805274135 0 0.016350456578818874 -0.0064228137582354539 0 0.0036640701008521953 -0.0040872052046083728 0 0.0040455350716964086 -0.0040820042831773446 0 0.0042249437661598683 -0.0037143655565895842 0 0.004321390414543414 -0.0043544692078307246 0 0.0040455350716964086 -0.0040820042831773446 0 0.0042249437661598683 -0.0037143655565895842 0 0.0051171919799264647 -0.0037106758876053916 0 0.004321390414543414 -0.0043544692078307246 0 0.0042249437661598683 -0.0037143655565895842 0 0.0051171919799264647 -0.0037106758876053916 0 0.0042249437661598683 -0.0037143655565895842 0 0.0045496969388553483 -0.0034286288692371284 0 0.002979769085578109 -0.004538119700478775 0 0.0018204895519041994 -0.0053461971110959402 0 0.002979769085578109 -0.004538119700478775 0 0.0027161420173519931 -0.0050178487331595896 0 0.0051171919799264647 -0.0037106758876053916 0 0.0048065924897002961 -0.0032292651360923607 0 0.0052208104666190648 -0.0030484255138774883 0 0.0051171919799264647 -0.0037106758876053916 0 0.0048065924897002961 -0.0032292651360923607 0 0.0045496969388553483 -0.0034286288692371284 0 0.0048065924897002961 -0.0032292651360923607 0 0.0045496969388553483 -0.0034286288692371284 0 0.0044464201903045425 -0.0030670143027970872 0 0.0042249437661598683 -0.0037143655565895842 0 0.0045496969388553483 -0.0034286288692371284 0 0.0044464201903045425 -0.0030670143027970872 0 0.0048065924897002961 -0.0032292651360923607 0 0.0044464201903045425 -0.0030670143027970872 0 0.0047792613629031892 -0.0028828280603229962 0 0.0048065924897002961 -0.0032292651360923607 0 0.0047792613629031892 -0.0028828280603229962 0 0.0052208104666190648 -0.0030484255138774883 0 0.0047792613629031892 -0.0028828280603229962 0 0.0051586240466460756 -0.002806006255035496 0 0.0052208104666190648 -0.0030484255138774883 0 0.015743655411085938 -0.0066286765805274135 0 0.016350456578818874 -0.0064228137582354539 0 0.01606661522175112 -0.0067855160713304842 0 0.015743655411085938 -0.0066286765805274135 0 0.01606661522175112 -0.0067855160713304842 0 0.015769142348181425 -0.0070175230384310139 0 0.016350456578818874 -0.0064228137582354539 0 0.01606661522175112 -0.0067855160713304842 0 0.016369326147507048 -0.0067865196296001094 0 0.016131245582265065 -0.0070399955776402554 0 0.016566168046202954 -0.0070267265775057182 0 0.016417832924822844 -0.0073117928580620582 0 0.016369326147507048 -0.0067865196296001094 0 0.016131245582265065 -0.0070399955776402554 0 0.016566168046202954 -0.0070267265775057182 0 0.01606661522175112 -0.0067855160713304842 0 0.016369326147507048 -0.0067865196296001094 0 0.016131245582265065 -0.0070399955776402554 0 0.01606661522175112 -0.0067855160713304842 0 0.016131245582265065 -0.0070399955776402554 0 0.015769142348181425 -0.0070175230384310139 0 0.016131245582265065 -0.0070399955776402554 0 0.015769142348181425 -0.0070175230384310139 0 0.015787325388675437 -0.0073225186091493066 0 0.016131245582265065 -0.0070399955776402554 0 0.016124057848273868 -0.0074209970267289293 0 0.015787325388675437 -0.0073225186091493066 0 0.016131245582265065 -0.0070399955776402554 0 0.016124057848273868 -0.0074209970267289293 0 0.016417832924822844 -0.0073117928580620582 0 0.015093676218841185 -0.0074580437197883575 0 0.015769142348181425 -0.0070175230384310139 0 0.015787325388675437 -0.0073225186091493066 0 0.011561220035323618 -0.0035355597030330287 0 0.010377733949572547 -0.0046768936426007986 0 0.015093676218841185 -0.0074580437197883575 0 0.015743655411085938 -0.0066286765805274135 0 0.015769142348181425 -0.0070175230384310139 0 0.0047792613629031892 -0.0028828280603229962 0 0.0054529137328066107 -0.0020236728783436385 0 0.0052620344493712482 -0.0025693033522612928 0 0.0054755031800652852 -0.00182774090763719 0 0.0044464201903045425 -0.0030670143027970872 0 0.0047792613629031892 -0.0028828280603229962 0 0.0093038044408416138 -0.0039683354224340564 0 0.011048956094819555 -0.0032209526798812589 0 0.0047792613629031892 -0.0028828280603229962 0 0.0051586240466460756 -0.002806006255035496 0 0.0052620344493712482 -0.0025693033522612928 0 0.0054529137328066107 -0.0020236728783436385 0 0.0055212726973579169 -0.0023533381509573859 0 0.0052620344493712482 -0.0025693033522612928 0 0.0054755031800652852 -0.00182774090763719 0 0.0047792613629031892 -0.0028828280603229962 0 0.0056052415284747331 -0.0018871634559855244 0 0.0054529137328066107 -0.0020236728783436385 0 0.0055212726973579169 -0.0023533381509573859 0 0.0056699688974979701 -0.0022428339689927485 0 0.0053763544488983923 -0.0027224785686153037 0 0.0058542991141352857 -0.002466252971222823 0 0.0052208104666190648 -0.0030484255138774883 0 0.0055212726973579169 -0.0023533381509573859 0 0.0052620344493712482 -0.0025693033522612928 0 0.0055211323628081288 -0.0025446571068142472 0 0.0052620344493712482 -0.0025693033522612928 0 0.0055211323628081288 -0.0025446571068142472 0 0.0053763544488983923 -0.0027224785686153037 0 0.0051586240466460756 -0.002806006255035496 0 0.0052620344493712482 -0.0025693033522612928 0 0.0053763544488983923 -0.0027224785686153037 0 0.0055211323628081288 -0.0025446571068142472 0 0.0053763544488983923 -0.0027224785686153037 0 0.0058542991141352857 -0.002466252971222823 0 0.0055211323628081288 -0.0025446571068142472 0 0.0056494013894715549 -0.0024356953849156474 0 0.0058542991141352857 -0.002466252971222823 0 0.0055212726973579169 -0.0023533381509573859 0 0.0055211323628081288 -0.0025446571068142472 0 0.0056494013894715549 -0.0024356953849156474 0 0.0056494013894715549 -0.0024356953849156474 0 0.0058542991141352857 -0.002466252971222823 0 0.0057214343573923042 -0.0023367705034531942 0 0.0054982989052978735 -0.0020151069346985087 0 0.0059044099463893499 -0.002019398247418638 0 0.0059908092399550616 -0.0022533767942909694 0 0.0054529137328066107 -0.0020236728783436385 0 0.0056699688974979701 -0.0022428339689927485 0 0.0059908092399550616 -0.0022533767942909694 0 0.0057214343573923042 -0.0023367705034531942 0 0.0056699688974979701 -0.0022428339689927485 0 0.0059908092399550616 -0.0022533767942909694 0 0.0058542991141352857 -0.002466252971222823 0 0.0057214343573923042 -0.0023367705034531942 0 0.0059908092399550616 -0.0022533767942909694 0 0.011048956094819555 -0.0032209526798812589 0 0.010188000471730125 -0.0028896982685557098 0 0.0055212726973579169 -0.0023533381509573859 0 0.0057214343573923042 -0.0023367705034531942 0 0.0056699688974979701 -0.0022428339689927485 0 0.0055212726973579169 -0.0023533381509573859 0 0.0056494013894715549 -0.0024356953849156474 0 0.0057214343573923042 -0.0023367705034531942 0 0.0071299060368074053 -0.0019798686435444461 0 0.00639276256452852 -0.0022940018636323401 0 0.0061443864965123407 -0.002979170217037455 0 0.0061666018788309697 -0.0019822275136268711 0 0.0059044099463893499 -0.002019398247418638 0 0.0059908092399550616 -0.0022533767942909694 0 0.0064979642731109923 -0.0018768837747686292 0 0.0061666018788309697 -0.0019822275136268711 0 0.00639276256452852 -0.0022940018636323401 0 -0.00010631200154951514 -0.0039781691223406742 0 -0.00014635499206688905 -0.0040705898487093228 0 -0.00021569149640908715 -0.0041893308501830557 0 0.0061666018788309697 -0.0019822275136268711 0 0.00639276256452852 -0.0022940018636323401 0 0.0059908092399550616 -0.0022533767942909694 0 0.0057902386584644848 -0.002694704964140622 0 0.0038077442693971513 -0.0038702784409011056 0 0.0058542991141352857 -0.002466252971222823 0 0.0059908092399550616 -0.0022533767942909694 0 0.0060950952337266379 -0.0024952307132703358 0 0.00639276256452852 -0.0022940018636323401 0 0.0059908092399550616 -0.0022533767942909694 0 0.0060950952337266379 -0.0024952307132703358 0 0.0064979642731109923 -0.0018768837747686292 0 0.0071299060368074053 -0.0019798686435444461 0 0.00639276256452852 -0.0022940018636323401 0 0.00639276256452852 -0.0022940018636323401 0 0.0060950952337266379 -0.0024952307132703358 0 0.0061443864965123407 -0.002979170217037455 0 0.0058542991141352857 -0.002466252971222823 0 0.0060950952337266379 -0.0024952307132703358 0 0.0061443864965123407 -0.002979170217037455 0 -0.00014635499206688905 -0.0040705898487093228 0 -0.00021569149640908715 -0.0041893308501830557 0 -0.00016957331001601518 -0.0042704985056081918 0 -0.00015976863833674798 -0.0044810763796701309 0 -0.00021569149640908715 -0.0041893308501830557 0 -0.00016957331001601518 -0.0042704985056081918 0 0.005023984873728884 -0.0040694951520892138 0 0.0058542991141352857 -0.002466252971222823 0 0.0061443864965123407 -0.002979170217037455 0 0.002979769085578109 -0.004538119700478775 0 0.0038077442693971513 -0.0038702784409011056 0 -0.00015976863833674798 -0.0044810763796701309 0 -0.00010963921876040352 -0.0046517976548020304 0 -0.00021569149640908715 -0.0041893308501830557 0 0.002979769085578109 -0.004538119700478775 0 0.0042543769964838631 -0.0030321187034306435 0 0.0051171919799264647 -0.0037106758876053916 0 0.0058542991141352857 -0.002466252971222823 0 0.0052208104666190648 -0.0030484255138774883 0 0.0051586240466460756 -0.002806006255035496 0 0.0053763544488983923 -0.0027224785686153037 0 0.0052208104666190648 -0.0030484255138774883 0 0.01500726084960677 1.0231477368108341e-06 0 0.014427211369997459 -9.5064179417512297e-05 0 0.013120863568818711 -1.2761392170681421e-06 0 0.013746342507674451 -0.00017867263475400172 0 0.014427211369997459 -9.5064179417512297e-05 0 0.013120863568818711 -1.2761392170681421e-06 0 0.013746342507674451 -0.00017867263475400172 0 0.013648415915776252 -0.00011954449716845013 0 0.012941282351062294 -0.00045611462274178308 0 0.013746342507674451 -0.00017867263475400172 0 0.013648415915776252 -0.00011954449716845013 0 0.014427211369997459 -9.5064179417512297e-05 0 0.014119774503678299 0.00037945768708454452 0 0.014427211369997459 -9.5064179417512297e-05 0 0.015802842315149088 0.00060694542076809702 0 0.013648415915776252 -0.00011954449716845013 0 0.014119774503678299 0.00037945768708454452 0 0.014427211369997459 -9.5064179417512297e-05 0 0.01500726084960677 1.0231477368108341e-06 0 0.014427211369997459 -9.5064179417512297e-05 0 0.015802842315149088 0.00060694542076809702 0 0.01500726084960677 1.0231477368108341e-06 0 0.016774308618313905 0.0001775337727598305 0 0.016892996738426511 9.5155699204806705e-08 0 0.01500726084960677 1.0231477368108341e-06 0 0.016774308618313905 0.0001775337727598305 0 0.015802842315149088 0.00060694542076809702 0 0.018019094697270793 -0.00014312161533328475 0 0.016774308618313905 0.0001775337727598305 0 0.016892996738426511 9.5155699204806705e-08 0 0.018019094697270793 -0.00014312161533328475 0 0.016774308618313905 0.0001775337727598305 0 0.017781332719745638 2.6733725869214493e-05 0 0.017781332719745638 2.6733725869214493e-05 0 0.015802842315149088 0.00060694542076809702 0 0.018791765108501345 0.00088081330918914427 0 0.014119774503678299 0.00037945768708454452 0 0.015802842315149088 0.00060694542076809702 0 0.012975466348614987 0.0012155259180706794 0 0.016774308618313905 0.0001775337727598305 0 0.017781332719745638 2.6733725869214493e-05 0 0.015802842315149088 0.00060694542076809702 0 0.015782736215701428 0.00035630767975734225 0 0.015666815021642577 0.00026969642245023955 0 0.014119774503678299 0.00037945768708454452 0 0.012975466348614987 0.0012155259180706794 0 0.011877369695904043 0.00057542491553324064 0 0.019006485473870231 -0.00031160033137760286 0 0.017781332719745638 2.6733725869214493e-05 0 0.018707431782426641 7.9765809406734446e-05 0 0.018791765108501345 0.00088081330918914427 0 0.018707431782426641 7.9765809406734446e-05 0 0.019317421909695397 -2.2903445931320848e-05 0 0.019006485473870231 -0.00031160033137760286 0 0.018707431782426641 7.9765809406734446e-05 0 0.019317421909695397 -2.2903445931320848e-05 0 0.017781332719745638 2.6733725869214493e-05 0 0.018791765108501345 0.00088081330918914427 0 0.018707431782426641 7.9765809406734446e-05 0 0.019317421909695397 -2.2903445931320848e-05 0 0.019739007367475549 0.00047523553486007394 0 0.019800674502663967 6.1370878765954837e-05 0 0.01985703955300621 -0.00020745699289448821 0 0.019317421909695397 -2.2903445931320848e-05 0 0.019800674502663967 6.1370878765954837e-05 0 0.015666815021642577 0.00026969642245023955 0 0.015363751420894028 -0.0001370584771419434 0 0.011877369695904043 0.00057542491553324064 0 0.0105975252249134 4.2698307271088134e-05 0 0.010984459564790853 0.0013060152698812976 0 0.012975466348614987 0.0012155259180706794 0 0.011877369695904043 0.00057542491553324064 0 0.010984459564790853 0.0013060152698812976 0 0.018791765108501345 0.00088081330918914427 0 0.019317421909695397 -2.2903445931320848e-05 0 0.019739007367475549 0.00047523553486007394 0 0.011689881052117473 -0.00064139178024502066 0 0.011877369695904043 0.00057542491553324064 0 0.0105975252249134 4.2698307271088134e-05 0 0.01306723005820677 -1.6840272492997128e-05 0 0.012321424570021956 -0.00038417218468417822 0 0.014119774503678299 0.00037945768708454452 0 0.011689881052117473 -0.00064139178024502066 0 0.011877369695904043 0.00057542491553324064 0 0.013648415915776252 -0.00011954449716845013 0 0.014119774503678299 0.00037945768708454452 0 0.01228959139052394 -8.2307453104371009e-05 0 0.013648415915776252 -0.00011954449716845013 0 0.01228959139052394 -8.2307453104371009e-05 0 0.012941282351062294 -0.00045611462274178308 0 0.01228959139052394 -8.2307453104371009e-05 0 0.012162638917372048 -0.00039969669639126529 0 0.01225852093299102 -0.00041294594532329459 0 0.01228959139052394 -8.2307453104371009e-05 0 0.01243040896245344 -0.00044205943396710885 0 0.01225852093299102 -0.00041294594532329459 0 0.01228959139052394 -8.2307453104371009e-05 0 0.012941282351062294 -0.00045611462274178308 0 0.01243040896245344 -0.00044205943396710885 0 0.011689881052117473 -0.00064139178024502066 0 0.0096105654804203213 -0.0016395983201293919 0 0.010312058080697359 -0.00057900187118637228 0 0.012321424570021956 -0.00038417218468417822 0 0.012246007265207928 -0.00051160215202226652 0 0.01228959139052394 -8.2307453104371009e-05 0 0.012062614145313422 -0.00034250576784702251 0 0.012162638917372048 -0.00039969669639126529 0 0.0096105654804203213 -0.0016395983201293919 0 0.0093658891586236494 -8.3537813841775936e-05 0 0.010312058080697359 -0.00057900187118637228 0 0.011584604565673721 -0.001277399684151762 0 0.012006044767540844 -0.0018750109951035762 0 0.012246007265207928 -0.00051160215202226652 0 0.013955672561352514 -0.0004391046022426112 0 0.019691223408510181 0.00057244897811643467 0 0.019773682584385392 0.00061408408029933899 0 0.019780430265591672 0.00026479268570204416 0 0.019773682584385392 0.00061408408029933899 0 0.019780430265591672 0.00026479268570204416 0 0.020008049138799753 0.00028969881424524666 0 0.012246007265207928 -0.00051160215202226652 0 0.011584604565673721 -0.001277399684151762 0 0.019780430265591672 0.00026479268570204416 0 0.01997288431188083 0.00011788340469191173 0 0.020008049138799753 0.00028969881424524666 0 0.0093658891586236494 -8.3537813841775936e-05 0 0.010312058080697359 -0.00057900187118637228 0 0.0105975252249134 4.2698307271088134e-05 0 0.0093658891586236494 -8.3537813841775936e-05 0 0.0105975252249134 4.2698307271088134e-05 0 0.010002974613950973 0.0006120826559567464 0 0.011689881052117473 -0.00064139178024502066 0 0.010312058080697359 -0.00057900187118637228 0 0.0105975252249134 4.2698307271088134e-05 0 0.0105975252249134 4.2698307271088134e-05 0 0.010002974613950973 0.0006120826559567464 0 0.010984459564790853 0.0013060152698812976 0 0.019739007367475549 0.00047523553486007394 0 0.019934637181867627 0.00014788068503732212 0 0.020089598117436411 0.00014715381457902814 0 0.015363751420894028 -0.0001370584771419434 0 0.015545884223673796 -0.0011065545035553028 0 0.010002974613950973 0.0006120826559567464 0 0.010984459564790853 0.0013060152698812976 0 0.0091348846070576639 0.0014684415891177585 0 0.019739007367475549 0.00047523553486007394 0 0.019800674502663967 6.1370878765954837e-05 0 0.019934637181867627 0.00014788068503732212 0 0.019800674502663967 6.1370878765954837e-05 0 0.019934637181867627 0.00014788068503732212 0 0.019976271924832055 -4.1056032617892113e-05 0 0.01985703955300621 -0.00020745699289448821 0 0.019800674502663967 6.1370878765954837e-05 0 0.019976271924832055 -4.1056032617892113e-05 0 0.020054909427854855 -0.00020395853805339 0 0.019976271924832055 -4.1056032617892113e-05 0 0.020071270919004271 -8.5215021137022122e-05 0 0.019976271924832055 -4.1056032617892113e-05 0 0.020071270919004271 -8.5215021137022122e-05 0 0.020076049952070529 3.2405731725277543e-05 0 0.019934637181867627 0.00014788068503732212 0 0.020076049952070529 3.2405731725277543e-05 0 0.020089598117436411 0.00014715381457902814 0 0.019934637181867627 0.00014788068503732212 0 0.019976271924832055 -4.1056032617892113e-05 0 0.020076049952070529 3.2405731725277543e-05 0 0.020071270919004271 -8.5215021137022122e-05 0 0.020076049952070529 3.2405731725277543e-05 0 0.020085028852849816 -6.4745477226713094e-05 0 0.013955672561352514 -0.0004391046022426112 0 0.015545884223673796 -0.0011065545035553028 0 0.020076049952070529 3.2405731725277543e-05 0 0.020078291094938305 -8.3931519223020217e-06 0 0.020027094173589784 -6.0730800869034838e-06 0 0.019869714080949681 -7.4747551095670679e-06 0 0.01997288431188083 0.00011788340469191173 0 0.020027094173589784 -6.0730800869034838e-06 0 0.015545884223673796 -0.0011065545035553028 0 0.016060319072674075 -0.0011122673893297918 0 0.019780430265591672 0.00026479268570204416 0 0.019869714080949681 -7.4747551095670679e-06 0 0.01997288431188083 0.00011788340469191173 0 0.0093658891586236494 -8.3537813841775936e-05 0 0.010002974613950973 0.0006120826559567464 0 0.0091348846070576639 0.0014684415891177585 0 0.015609234019949821 -0.0010696817890540385 0 0.015545884223673796 -0.0011065545035553028 0 0.01997288431188083 0.00011788340469191173 0 0.020169171232844518 9.5154186814154221e-06 0 0.020008049138799753 0.00028969881424524666 0 0.01997288431188083 0.00011788340469191173 0 0.020027094173589784 -6.0730800869034838e-06 0 0.020169171232844518 9.5154186814154221e-06 0 0.012381415732072163 -0.0023639168319996356 0 0.012006044767540844 -0.0018750109951035762 0 0.020027094173589784 -6.0730800869034838e-06 0 0.020140862689731084 -0.00010015511737311423 0 0.020085028852849816 -6.4745477226713094e-05 0 0.020076049952070529 3.2405731725277543e-05 0 0.020027094173589784 -6.0730800869034838e-06 0 0.020085028852849816 -6.4745477226713094e-05 0 0.020027094173589784 -6.0730800869034838e-06 0 0.020140862689731084 -0.00010015511737311423 0 0.020169171232844518 9.5154186814154221e-06 0 0.020113811427729913 -0.0001555403572451894 0 0.020071270919004271 -8.5215021137022122e-05 0 0.020085028852849816 -6.4745477226713094e-05 0 0.020113811427729913 -0.0001555403572451894 0 0.020140862689731084 -0.00010015511737311423 0 0.020085028852849816 -6.4745477226713094e-05 0 0.01276064937221618 -0.0026943798285340506 0 0.012381415732072163 -0.0023639168319996356 0 0.020140862689731084 -0.00010015511737311423 0 0.020229108219481724 -0.00017171699369739255 0 0.020169171232844518 9.5154186814154221e-06 0 0.0048057625459824059 -0.0059068938443232718 0 0.0045793678358634132 -0.0052139887534404118 0 0.004317246501020694 -0.0049673986326628254 0 0.02016158884520133 -0.00021604107742257265 0 0.020140862689731084 -0.00010015511737311423 0 0.020229108219481724 -0.00017171699369739255 0 0.0050372844115853738 -0.0052937327017485852 0 0.0048057625459824059 -0.0059068938443232718 0 0.0045793678358634132 -0.0052139887534404118 0 0.0045793678358634132 -0.0052139887534404118 0 0.0047959194657370644 -0.0049822641128132884 0 0.0045133197884736371 -0.0045733372708825857 0 0.0045793678358634132 -0.0052139887534404118 0 0.0045133197884736371 -0.0045733372708825857 0 0.0036919118157992632 -0.0039559470174482412 0 0.0045793678358634132 -0.0052139887534404118 0 0.004317246501020694 -0.0049673986326628254 0 0.0042401206507509557 -0.0041133434988212302 0 0.0050372844115853738 -0.0052937327017485852 0 0.0045793678358634132 -0.0052139887534404118 0 0.0047959194657370644 -0.0049822641128132884 0 0.0059656192393760365 -0.0036776467621807934 0 0.0063498950914003616 -0.0029289603712295042 0 0.0050369738420141374 -0.0048210619399873776 0 0.0047959194657370644 -0.0049822641128132884 0 0.0045133197884736371 -0.0045733372708825857 0 0.0049710937021256374 -0.0043022104318672424 0 0.0045133197884736371 -0.0045733372708825857 0 0.0043849483606082599 -0.0040282669571397537 0 0.0049710937021256374 -0.0043022104318672424 0 0.0043849483606082599 -0.0040282669571397537 0 0.0046779491184628036 -0.0037384218867750492 0 0.0043849483606082599 -0.0040282669571397537 0 0.0046779491184628036 -0.0037384218867750492 0 0.0040614725255530603 -0.0035690349508776188 0 0.0043849483606082599 -0.0040282669571397537 0 0.0036919118157992632 -0.0039559470174482412 0 0.0040614725255530603 -0.0035690349508776188 0 0.0045133197884736371 -0.0045733372708825857 0 0.0043849483606082599 -0.0040282669571397537 0 0.0036919118157992632 -0.0039559470174482412 0 0.004317246501020694 -0.0049673986326628254 0 0.0039764578507143324 -0.0040806889227637229 0 0.0042401206507509557 -0.0041133434988212302 0 0.0063498950914003616 -0.0029289603712295042 0 0.0085666201490556902 -0.0017642339842220145 0 0.0036919118157992632 -0.0039559470174482412 0 0.003310566890178637 -0.0030747289467619654 0 0.0040614725255530603 -0.0035690349508776188 0 0.0035816829028618058 -0.0033258264807189911 0 0.0042401206507509557 -0.0041133434988212302 0 0.0038624438481500182 -0.0031839288524194006 0 0.003310566890178637 -0.0030747289467619654 0 0.0039167660268944913 -0.0031081309982231584 0 0.0040614725255530603 -0.0035690349508776188 0 0.0036919118157992632 -0.0039559470174482412 0 0.003310566890178637 -0.0030747289467619654 0 0.0029756971938476695 -0.0026506072968875229 0 0.0035816829028618058 -0.0033258264807189911 0 0.0039764578507143324 -0.0040806889227637229 0 0.0042401206507509557 -0.0041133434988212302 0 0.003310566890178637 -0.0030747289467619654 0 0.0035629326295791995 -0.0029552045934489565 0 0.0039167660268944913 -0.0031081309982231584 0 0.003310566890178637 -0.0030747289467619654 0 0.0035629326295791995 -0.0029552045934489565 0 0.0033020300559501079 -0.0027131115908379006 0 0.0035629326295791995 -0.0029552045934489565 0 0.0039167660268944913 -0.0031081309982231584 0 0.003417535308812546 -0.0027112469769913117 0 0.0039167660268944913 -0.0031081309982231584 0 0.0046568742992768803 -0.0029332887748314178 0 0.003417535308812546 -0.0027112469769913117 0 0.0046779491184628036 -0.0037384218867750492 0 0.0046568742992768803 -0.0029332887748314178 0 0.0040614725255530603 -0.0035690349508776188 0 0.0039167660268944913 -0.0031081309982231584 0 0.0046568742992768803 -0.0029332887748314178 0 0.0040614725255530603 -0.0035690349508776188 0 0.0022584768839831139 -0.0023962904832886545 0 0.0029277791134098082 -0.0029683184220578368 0 0.0025193353046052231 -0.0032210497160874091 0 0.0038427020990403726 -0.0025473389972401283 0 0.0037556852892463967 -0.002558082396117612 0 0.0022584768839831139 -0.0023962904832886545 0 0.0029277791134098082 -0.0029683184220578368 0 0.003417535308812546 -0.0027112469769913117 0 0.0029277791134098082 -0.0029683184220578368 0 0.0033918441817050162 -0.0028542874866268018 0 0.0029768860638946155 -0.0036353627954269722 0 0.0029277791134098082 -0.0029683184220578368 0 0.0025193353046052231 -0.0032210497160874091 0 0.0029768860638946155 -0.0036353627954269722 0 0.0029277791134098082 -0.0029683184220578368 0 0.003417535308812546 -0.0027112469769913117 0 0.0033918441817050162 -0.0028542874866268018 0 0.0037034970078151561 -0.0026972558842739457 0 0.0033918441817050162 -0.0028542874866268018 0 0.0037598383541875076 -0.0039427761685935526 0 0.0035629326295791995 -0.0029552045934489565 0 0.003417535308812546 -0.0027112469769913117 0 0.0033020300559501079 -0.0027131115908379006 0 0.003417535308812546 -0.0027112469769913117 0 0.0033020300559501079 -0.0027131115908379006 0 0.0033918441817050162 -0.0028542874866268018 0 0.0074813964478441068 -0.0017617062075502836 0 0.0071987939279862445 -0.0018854913998282929 0 0.0073113837666688494 -0.0018814556407576099 0 0.0074813964478441068 -0.0017617062075502836 0 0.003310566890178637 -0.0030747289467619654 0 0.0029756971938476695 -0.0026506072968875229 0 0.0032234555839580877 -0.0025243029833553984 0 0.0085666201490556902 -0.0017642339842220145 0 0.0074813964478441068 -0.0017617062075502836 0 0.0033918441817050162 -0.0028542874866268018 0 0.0037598383541875076 -0.0039427761685935526 0 0.0029768860638946155 -0.0036353627954269722 0 0.0074813964478441068 -0.0017617062075502836 0 0.0067644935314935973 -0.0021172550203192564 0 0.0037598383541875076 -0.0039427761685935526 0 0.0029768860638946155 -0.0036353627954269722 0 0.003221289628122796 -0.0044773707620946049 0 0.0025193353046052231 -0.0032210497160874091 0 0.0029768860638946155 -0.0036353627954269722 0 0.0023494259279368828 -0.0037294561751951274 0 0.001909429845424364 -0.0034185407223954623 0 0.0025193353046052231 -0.0032210497160874091 0 0.0023494259279368828 -0.0037294561751951274 0 0.001847079834734387 -0.0040251838001281503 0 0.0023494259279368828 -0.0037294561751951274 0 0.0025075196159049804 -0.0043508491962076581 0 0.0029768860638946155 -0.0036353627954269722 0 0.0023494259279368828 -0.0037294561751951274 0 0.0025075196159049804 -0.0043508491962076581 0 0.0029768860638946155 -0.0036353627954269722 0 0.0025075196159049804 -0.0043508491962076581 0 0.003221289628122796 -0.0044773707620946049 0 0.0025075196159049804 -0.0043508491962076581 0 0.0027033975313724302 -0.0049314175775670589 0 0.003221289628122796 -0.0044773707620946049 0 0.0020758434700977242 -0.0050305801829551421 0 0.0025075196159049804 -0.0043508491962076581 0 0.0027033975313724302 -0.0049314175775670589 0 0.0020758434700977242 -0.0050305801829551421 0 0.0027033975313724302 -0.0049314175775670589 0 0.0026519039977756097 -0.0054972220733860468 0 0.0027033975313724302 -0.0049314175775670589 0 0.0026519039977756097 -0.0054972220733860468 0 0.0032700892705941642 -0.0050260773245302502 0 0.0033296139707375996 -0.0054799911391020372 0 0.0032700892705941642 -0.0050260773245302502 0 0.0038801344735514671 -0.0051026749491674579 0 0.0033296139707375996 -0.0054799911391020372 0 0.0038801344735514671 -0.0051026749491674579 0 0.0039439183245055633 -0.0055457472161338384 0 0.0026519039977756097 -0.0054972220733860468 0 0.0033296139707375996 -0.0054799911391020372 0 0.0032700892705941642 -0.0050260773245302502 0 0.0027033975313724302 -0.0049314175775670589 0 0.0032700892705941642 -0.0050260773245302502 0 0.003221289628122796 -0.0044773707620946049 0 0.0032700892705941642 -0.0050260773245302502 0 0.003221289628122796 -0.0044773707620946049 0 0.0038814370482713077 -0.005114830315011685 0 0.0050713413300809938 -0.0023909073118134581 0 0.0054097928703780527 -0.0022600309616566902 0 0.0037598383541875076 -0.0039427761685935526 0 0.003221289628122796 -0.0044773707620946049 0 0.0038814370482713077 -0.005114830315011685 0 0.0067644935314935973 -0.0021172550203192564 0 0.0054097928703780527 -0.0022600309616566902 0 0.012103571025615092 -0.00022824576030786538 0 0.012097243190503995 -0.00022083018640178307 0 0.012100188996627409 -0.00020528624114267075 0 0.012103571025615092 -0.00022824576030786538 0 0.012100188996627409 -0.00020528624114267075 0 0.012094762475877371 -0.00020231603311379319 0 0.012097243190503995 -0.00022083018640178307 0 0.012101260678142402 -0.00020964177520378649 0 0.012100188996627409 -0.00020528624114267075 0 0.012101260678142402 -0.00020964177520378649 0 0.012047160574020282 -0.00026057539070584705 0 0.012092221465585088 -0.00023009723922730495 0 0.012097243190503995 -0.00022083018640178307 0 0.012101260678142402 -0.00020964177520378649 0 0.012092221465585088 -0.00023009723922730495 0 0.012101260678142402 -0.00020964177520378649 0 0.012100188996627409 -0.00020528624114267075 0 0.012123869408922277 -0.00018182188272157889 0 0.012100188996627409 -0.00020528624114267075 0 0.012094762475877371 -0.00020231603311379319 0 0.012112893301919172 -0.00020290692461707318 0 0.012100188996627409 -0.00020528624114267075 0 0.012112893301919172 -0.00020290692461707318 0 0.012123869408922277 -0.00018182188272157889 0 0.0054097928703780527 -0.0022600309616566902 0 0.0065127295241793198 -0.0012524850949670232 0 0.00069725541671177135 0.0022658086445590717 0 -0.00015566829541228299 0.0016912166596755327 0 0.00034761656222031742 0.0011310298084322656 0 0.0065127295241793198 -0.0012524850949670232 0 0.0043836634958000324 -0.0019188643885709069 0 0.0048986206493210642 -0.0014425999131198446 0 0.0046247464677838038 -0.0013996649101377851 0 0.0048690236880751586 -0.0012391363795122665 0 0.0054097928703780527 -0.0022600309616566902 0 0.0043836634958000324 -0.0019188643885709069 0 0.012112893301919172 -0.00020290692461707318 0 0.012123869408922277 -0.00018182188272157889 0 0.012093545157304346 -0.00012785061158226597 0 0.0065127295241793198 -0.0012524850949670232 0 0.0072413253791550752 -0.00012399733824900084 0 0.00069725541671177135 0.0022658086445590717 0 0.0028699790901113983 0.0019906777572412122 0 0.0018502038627136188 0.00097833168130062142 0 0.0065127295241793198 -0.0012524850949670232 0 0.0095354935489081073 0.00015894237897117922 0 0.01265649893648327 0.0002652706272670584 0 0.012093545157304346 -0.00012785061158226597 0 0.011956361395826389 0.00041108368848487834 0 0.012101260678142402 -0.00020964177520378649 0 0.012123869408922277 -0.00018182188272157889 0 0.012047160574020282 -0.00026057539070584705 0 0.011955859636444523 -0.00045462051505223305 0 0.011944621460486575 -0.00053189163674667323 0 0.012123869408922277 -0.00018182188272157889 0 0.012154764699432901 -0.00024442114105842783 0 0.012093545157304346 -0.00012785061158226597 0 0.012123869408922277 -0.00018182188272157889 0 0.012154764699432901 -0.00024442114105842783 0 0.012219792382387507 -0.00030323302446783908 0 0.012154764699432901 -0.00024442114105842783 0 0.01217222523455346 -0.00031714697555125781 0 0.012136569989282172 -0.0003756072516936623 0 0.012191447065758875 -0.00041128995121492932 0 0.012219792382387507 -0.00030323302446783908 0 0.012207610410111163 -0.00045466373578947542 0 0.012154764699432901 -0.00024442114105842783 0 0.01217222523455346 -0.00031714697555125781 0 0.012219792382387507 -0.00030323302446783908 0 0.011944621460486575 -0.00053189163674667323 0 0.011911352410137049 -0.00078785258166628525 0 0.012179146166413834 -0.00036926391263084534 0 0.012182102045365616 -0.00042664987429491297 0 0.012136569989282172 -0.0003756072516936623 0 0.01217222523455346 -0.00031714697555125781 0 0.012179146166413834 -0.00036926391263084534 0 0.012136569989282172 -0.0003756072516936623 0 0.012179146166413834 -0.00036926391263084534 0 0.012191447065758875 -0.00041128995121492932 0 0.012182102045365616 -0.00042664987429491297 0 0.012179146166413834 -0.00036926391263084534 0 0.012191447065758875 -0.00041128995121492932 0 0.012219792382387507 -0.00030323302446783908 0 0.01217222523455346 -0.00031714697555125781 0 0.012179146166413834 -0.00036926391263084534 0 0.012219792382387507 -0.00030323302446783908 0 0.012092221465585088 -0.00023009723922730495 0 0.012089408310225791 -0.00024151301836145694 0 0.01207708010648215 -0.00026452016158756431 0 0.012097376367501444 -0.00030722022527458959 0 0.012103571025615092 -0.00022824576030786538 0 0.01207708010648215 -0.00026452016158756431 0 0.012047160574020282 -0.00026057539070584705 0 0.012092221465585088 -0.00023009723922730495 0 0.012197370426280957 -0.00042439835800556035 0 0.0096732829295637906 -0.0014212392517515752 0 0.0094190537023895651 -0.0015222026510415137 0 0.012047160574020282 -0.00026057539070584705 0 0.012197370426280957 -0.00042439835800556035 0 0.012059976665631742 -0.00051578005025066677 0 0.012097243190503995 -0.00022083018640178307 0 0.012092221465585088 -0.00023009723922730495 0 0.012089408310225791 -0.00024151301836145694 0 0.012103571025615092 -0.00022824576030786538 0 0.012097243190503995 -0.00022083018640178307 0 0.012089408310225791 -0.00024151301836145694 0 0.012103571025615092 -0.00022824576030786538 0 0.012089408310225791 -0.00024151301836145694 0 0.01207708010648215 -0.00026452016158756431 0 0.012197370426280957 -0.00042439835800556035 0 0.012059976665631742 -0.00051578005025066677 0 0.012187927708764887 -0.00058585928040384401 0 0.0085666201490556902 -0.0017642339842220145 0 0.0094190537023895651 -0.0015222026510415137 0 0.012082965962108595 -0.00031504377956934569 0 0.012097376367501444 -0.00030722022527458959 0 0.01207708010648215 -0.00026452016158756431 0 0.012316133358202605 -0.00066855874114816571 0 0.012197370426280957 -0.00042439835800556035 0 0.012187927708764887 -0.00058585928040384401 0 0.011584604565673721 -0.001277399684151762 0 0.0085666201490556902 -0.0017642339842220145 0 0.01218013978851306 -0.00073739124312515066 0 0.012316133358202605 -0.00066855874114816571 0 0.012187927708764887 -0.00058585928040384401 0 0.011584604565673721 -0.001277399684151762 0 0.011911352410137049 -0.00078785258166628525 0 0.012246007265207928 -0.00051160215202226652 0 0.011911352410137049 -0.00078785258166628525 0 0.01218013978851306 -0.00073739124312515066 0 0.012059976665631742 -0.00051578005025066677 0 0.012187927708764887 -0.00058585928040384401 0 0.011836577551591112 -0.0018939557163851011 0 0.012311294144644104 -0.0016543836227834682 0 0.011619277025249387 -0.00052901608291371994 0 0.012062614145313422 -0.00034250576784702251 0 0.012150368995972624 -0.00042538084836205454 0 0.012162638917372048 -0.00039969669639126529 0 0.012162638917372048 -0.00039969669639126529 0 0.012182102045365616 -0.00042664987429491297 0 0.01225852093299102 -0.00041294594532329459 0 0.012162638917372048 -0.00039969669639126529 0 0.012182102045365616 -0.00042664987429491297 0 0.012172847992100605 -0.00042158495551934639 0 0.012191447065758875 -0.00041128995121492932 0 0.012182102045365616 -0.00042664987429491297 0 0.012172847992100605 -0.00042158495551934639 0 0.012150368995972624 -0.00042538084836205454 0 0.012162638917372048 -0.00039969669639126529 0 0.012172847992100605 -0.00042158495551934639 0 0.012191447065758875 -0.00041128995121492932 0 0.012150368995972624 -0.00042538084836205454 0 0.012172847992100605 -0.00042158495551934639 0 0.011910661768493241 -0.00077713754845960879 0 0.011911352410137049 -0.00078785258166628525 0 0.012238704715657673 -0.0004404214667858923 0 0.01214735736171884 -0.00044420446752720328 0 0.012136569989282172 -0.0003756072516936623 0 0.012182102045365616 -0.00042664987429491297 0 0.012238704715657673 -0.0004404214667858923 0 0.01225852093299102 -0.00041294594532329459 0 0.012182102045365616 -0.00042664987429491297 0 0.012238704715657673 -0.0004404214667858923 0 0.012136569989282172 -0.0003756072516936623 0 0.01243040896245344 -0.00044205943396710885 0 0.012238704715657673 -0.0004404214667858923 0 0.01225852093299102 -0.00041294594532329459 0 0.01243040896245344 -0.00044205943396710885 0 0.012238704715657673 -0.0004404214667858923 0 0.01214735736171884 -0.00044420446752720328 0 0.012941282351062294 -0.00045611462274178308 0 0.01243040896245344 -0.00044205943396710885 0 0.01214735736171884 -0.00044420446752720328 0 0.012941282351062294 -0.00045611462274178308 0 0.01214735736171884 -0.00044420446752720328 0 0.011516815133091694 -0.0004398246191111887 0 0.01214735736171884 -0.00044420446752720328 0 0.011963667310111331 -0.00026431173442592783 0 0.01152681938812807 -0.00020385989572160437 0 0.01214735736171884 -0.00044420446752720328 0 0.012136569989282172 -0.0003756072516936623 0 0.011963667310111331 -0.00026431173442592783 0 0.012154764699432901 -0.00024442114105842783 0 0.012136569989282172 -0.0003756072516936623 0 0.011963667310111331 -0.00026431173442592783 0 0.012154764699432901 -0.00024442114105842783 0 0.011963667310111331 -0.00026431173442592783 0 0.012093545157304346 -0.00012785061158226597 0 0.011963667310111331 -0.00026431173442592783 0 0.012093545157304346 -0.00012785061158226597 0 0.011696456453809206 2.8997795892736563e-05 0 0.012093545157304346 -0.00012785061158226597 0 0.011956361395826389 0.00041108368848487834 0 0.011696456453809206 2.8997795892736563e-05 0 0.0072413253791550752 -0.00012399733824900084 0 0.0079135222383197156 0.00016275097461893886 0 0.011956361395826389 0.00041108368848487834 0 0.011696456453809206 2.8997795892736563e-05 0 0.010893068326899364 0.00048063072319244301 0 0.01152681938812807 -0.00020385989572160437 0 0.011696456453809206 2.8997795892736563e-05 0 0.010893068326899364 0.00048063072319244301 0 0.011963667310111331 -0.00026431173442592783 0 0.01152681938812807 -0.00020385989572160437 0 0.011696456453809206 2.8997795892736563e-05 0 0.01152681938812807 -0.00020385989572160437 0 0.010904377945538139 -0.00015584964619647407 0 0.010893068326899364 0.00048063072319244301 0 0.009831915856674792 -9.7922208206931751e-07 0 0.010904377945538139 -0.00015584964619647407 0 0.010893068326899364 0.00048063072319244301 0 0.009831915856674792 -9.7922208206931751e-07 0 0.0084337968675586884 2.5638356126065213e-06 0 0.010893068326899364 0.00048063072319244301 0 0.009831915856674792 -9.7922208206931751e-07 0 0.010904377945538139 -0.00015584964619647407 0 0.011233384055875591 -5.4784545515503467e-07 0 0.011236300097116032 -4.281529887825286e-07 0 0.011989502255488971 -0.00033580377321415576 0 0.010904377945538139 -0.00015584964619647407 0 0.011233384055875591 -5.4784545515503467e-07 0 0.011516815133091694 -0.0004398246191111887 0 0.01214735736171884 -0.00044420446752720328 0 0.01152681938812807 -0.00020385989572160437 0 0.011516815133091694 -0.0004398246191111887 0 0.01152681938812807 -0.00020385989572160437 0 0.010904377945538139 -0.00015584964619647407 0 0.011516815133091694 -0.0004398246191111887 0 0.012168901292519725 -0.00035950672049161629 0 0.011989502255488971 -0.00033580377321415576 0 0.013746342507674451 -0.00017867263475400172 0 0.012941282351062294 -0.00045611462274178308 0 0.013431019587541327 -0.00013400356601170999 0 0.011237355365895894 1.2940556977419466e-06 0 0.013431019587541327 -0.00013400356601170999 0 0.013120863568818711 -1.2761392170681421e-06 0 0.013746342507674451 -0.00017867263475400172 0 0.013431019587541327 -0.00013400356601170999 0 0.013120863568818711 -1.2761392170681421e-06 0 0.004714179776203648 -0.00036052482398342352 0 0.0048391232899992354 -1.1555418417335414e-06 0 0.0052937128418045184 -0.00012550950115962985 0 0.004714179776203648 -0.00036052482398342352 0 0.0044979902086161351 -0.00020972969773957231 0 0.0052937128418045184 -0.00012550950115962985 0 0.004714179776203648 -0.00036052482398342352 0 0.0043265468877599148 -0.00039899048999289972 0 0.0044405132692477145 -0.00064525585809311833 0 0.004714179776203648 -0.00036052482398342352 0 0.0048391232899992354 -1.1555418417335414e-06 0 0.0043265468877599148 -0.00039899048999289972 0 0.0035921799241265141 -0.00048343121800874142 0 0.0044979902086161351 -0.00020972969773957231 0 0.0026952257287383625 1.5685790112572919e-05 0 0.002014112983883157 -0.0010786979069851077 0 0.0044687136768274778 -0.0012026620375051218 0 0.0043794938154546308 -0.00089876000142965161 0 0.004714179776203648 -0.00036052482398342352 0 0.0044405132692477145 -0.00064525585809311833 0 0.0043518127906622189 -0.00052554149884129122 0 0.0044405132692477145 -0.00064525585809311833 0 0.0042896528518728593 -0.00071058294231971702 0 0.0043794938154546308 -0.00089876000142965161 0 0.0044405132692477145 -0.00064525585809311833 0 0.0042896528518728593 -0.00071058294231971702 0 0.0043518127906622189 -0.00052554149884129122 0 0.0042896528518728593 -0.00071058294231971702 0 0.003811460510946663 -0.0007131243099043796 0 0.0043794938154546308 -0.00089876000142965161 0 0.0042896528518728593 -0.00071058294231971702 0 0.003811460510946663 -0.0007131243099043796 0 0.0043518127906622189 -0.00052554149884129122 0 0.003811460510946663 -0.0007131243099043796 0 0.0035921799241265141 -0.00048343121800874142 0 0.0043518127906622189 -0.00052554149884129122 0 0.0035921799241265141 -0.00048343121800874142 0 0.0043518127906622189 -0.00052554149884129122 0 0.0044979902086161351 -0.00020972969773957231 0 0.004714179776203648 -0.00036052482398342352 0 0.0043518127906622189 -0.00052554149884129122 0 0.0044979902086161351 -0.00020972969773957231 0 0.0056030131145311619 -0.00053737006536442331 0 0.0036816132974722229 -0.00093942337593651639 0 0.0060748765687161236 -0.00095944307643764705 0 0.0043748437931636795 -0.0008546337200091461 0 0.004007899409539893 -0.0018391494651897394 0 0.0044979902086161351 -0.00020972969773957231 0 0.0052937128418045184 -0.00012550950115962985 0 0.0051348109416694031 0.00058508198724161798 0 0.0044979902086161351 -0.00020972969773957231 0 0.0051348109416694031 0.00058508198724161798 0 0.0026952257287383625 1.5685790112572919e-05 0 0.006352675631561144 1.5571308762118113e-08 0 0.0052937128418045184 -0.00012550950115962985 0 0.0051348109416694031 0.00058508198724161798 0 0.0048391232899992354 -1.1555418417335414e-06 0 0.006352675631561144 1.5571308762118113e-08 0 0.0052937128418045184 -0.00012550950115962985 0 0.0078679126736311243 -2.3681178319473913e-06 0 0.0065514387439158375 0.00013305204791847687 0 0.0060748765687161236 -0.00095944307643764705 0 0.006352675631561144 1.5571308762118113e-08 0 0.0078625857757736919 1.5003413032477456e-06 0 0.0051348109416694031 0.00058508198724161798 0 0.007861820007152345 4.2402643977848591e-08 0 0.0056030131145311619 -0.00053737006536442331 0 0.0078679126736311243 -2.3681178319473913e-06 0 0.0084262893108171741 3.2973958889305549e-06 0 0.0065514387439158375 0.00013305204791847687 0 0.0084262893108171741 3.2973958889305549e-06 0 0.0065514387439158375 0.00013305204791847687 0 0.0053992829237343295 0.0015521471574938106 0 0.0084293215180551648 3.9061249058078758e-07 0 0.0079135222383197156 0.00016275097461893886 0 0.0065514387439158375 0.00013305204791847687 0 0.0053992829237343295 0.0015521471574938106 0 0.0043497575364322312 0.00015380821713245911 0 0.0060748765687161236 -0.00095944307643764705 0 0.0043748437931636795 -0.0008546337200091461 0 0.0043497575364322312 0.00015380821713245911 0 0.0065514387439158375 0.00013305204791847687 0 0.0060748765687161236 -0.00095944307643764705 0 0.0043497575364322312 0.00015380821713245911 0 0.0043748437931636795 -0.0008546337200091461 0 0.0043497575364322312 0.00015380821713245911 0 0.0031471612713274335 -0.00075110036616562841 0 0.0028699790901113983 0.0019906777572412122 0 0.0053992829237343295 0.0015521471574938106 0 0.0043497575364322312 0.00015380821713245911 0 0.0028699790901113983 0.0019906777572412122 0 0.0025199367481620479 0.00020983566963512579 0 0.0018502038627136188 0.00097833168130062142 0 0.0028699790901113983 0.0019906777572412122 0 0.0043497575364322312 0.00015380821713245911 0 0.0025199367481620479 0.00020983566963512579 0 0.0043497575364322312 0.00015380821713245911 0 0.0025199367481620479 0.00020983566963512579 0 0.0031471612713274335 -0.00075110036616562841 0 0.0025199367481620479 0.00020983566963512579 0 0.0021099072007538119 -0.00085952559831316755 0 0.0016169959348973115 -0.00035519746506875875 0 0.0025199367481620479 0.00020983566963512579 0 0.0031471612713274335 -0.00075110036616562841 0 0.0021099072007538119 -0.00085952559831316755 0 0.0031471612713274335 -0.00075110036616562841 0 0.0021099072007538119 -0.00085952559831316755 0 0.0026271002191784608 -0.0015439735965496874 0 0.0031471612713274335 -0.00075110036616562841 0 0.0026271002191784608 -0.0015439735965496874 0 0.004007899409539893 -0.0018391494651897394 0 0.0021099072007538119 -0.00085952559831316755 0 0.0026271002191784608 -0.0015439735965496874 0 0.0016559363527078664 -0.0016755116003335068 0 0.0043748437931636795 -0.0008546337200091461 0 0.0031471612713274335 -0.00075110036616562841 0 0.004007899409539893 -0.0018391494651897394 0 0.002014112983883157 -0.0010786979069851077 0 0.0017544390713137652 -0.0012239910566186479 0 0.0012914457725100978 -0.00099078755335453746 0 0.0018760978353718958 -0.00013289701118637928 0 0.0019860433131215394 -5.493293268396315e-06 0 0.003811460510946663 -0.0007131243099043796 0 0.002014112983883157 -0.0010786979069851077 0 0.0043794938154546308 -0.00089876000142965161 0 0.0026952257287383625 1.5685790112572919e-05 0 0.002014112983883157 -0.0010786979069851077 0 0.0017544390713137652 -0.0012239910566186479 0 0.0035921799241265141 -0.00048343121800874142 0 0.0026952257287383625 1.5685790112572919e-05 0 0.002014112983883157 -0.0010786979069851077 0 0.003811460510946663 -0.0007131243099043796 0 0.0035921799241265141 -0.00048343121800874142 0 0.002014112983883157 -0.0010786979069851077 0 0.0036816132974722229 -0.00093942337593651639 0 0.0019867862024553406 -0.0012289958396422545 0 0.0026271002191784608 -0.0015439735965496874 0 0.004007899409539893 -0.0018391494651897394 0 0.0022707839363856129 -0.0025090418050858084 0 0.0026271002191784608 -0.0015439735965496874 0 0.0022707839363856129 -0.0025090418050858084 0 0.0016559363527078664 -0.0016755116003335068 0 0.0011596552175330264 -0.0023229358738351045 0 0.00061800922129701943 -0.001744346786482071 0 0.0016559363527078664 -0.0016755116003335068 0 0.0022707839363856129 -0.0025090418050858084 0 0.0011596552175330264 -0.0023229358738351045 0 0.0016559363527078664 -0.0016755116003335068 0 0.00061800922129701943 -0.001744346786482071 0 -0.00053789164072941362 -0.0017091446615797885 0 0.000384162827522651 -0.0024855335770237251 0 0.0011596552175330264 -0.0023229358738351045 0 0.00061800922129701943 -0.001744346786482071 0 0.000384162827522651 -0.0024855335770237251 0 0.00061800922129701943 -0.001744346786482071 0 -3.8991764152775756e-06 -0.00098818615312716226 0 -0.00053789164072941362 -0.0017091446615797885 0 0.00061800922129701943 -0.001744346786482071 0 -3.8991764152775756e-06 -0.00098818615312716226 0 0.0010355700314245357 -0.00096023076976922911 0 -3.8991764152775756e-06 -0.00098818615312716226 0 0.00046762648221241682 -0.00061494023147101989 0 0.00010838354742723929 -0.00027543013068928585 0 -3.8991764152775756e-06 -0.00098818615312716226 0 0.0010355700314245357 -0.00096023076976922911 0 0.00046762648221241682 -0.00061494023147101989 0 0.0010355700314245357 -0.00096023076976922911 0 0.00098458361258062818 -0.00037596921542514911 0 0.00046762648221241682 -0.00061494023147101989 0 0.00061800922129701943 -0.001744346786482071 0 0.0010355700314245357 -0.00096023076976922911 0 0.0016559363527078664 -0.0016755116003335068 0 0.0021099072007538119 -0.00085952559831316755 0 0.0010355700314245357 -0.00096023076976922911 0 0.0016559363527078664 -0.0016755116003335068 0 0.0021099072007538119 -0.00085952559831316755 0 0.0010355700314245357 -0.00096023076976922911 0 0.0016169959348973115 -0.00035519746506875875 0 0.0016169959348973115 -0.00035519746506875875 0 0.00098458361258062818 -0.00037596921542514911 0 0.0014516829324543032 0.00021623601713142388 0 0.0010355700314245357 -0.00096023076976922911 0 0.0016169959348973115 -0.00035519746506875875 0 0.00098458361258062818 -0.00037596921542514911 0 0.0014516829324543032 0.00021623601713142388 0 0.0010937958288766323 0.00063339541658269784 0 0.00070327442553184526 0.00010428117747907209 0 0.00098458361258062818 -0.00037596921542514911 0 0.0014516829324543032 0.00021623601713142388 0 0.00070327442553184526 0.00010428117747907209 0 0.0025199367481620479 0.00020983566963512579 0 0.0016169959348973115 -0.00035519746506875875 0 0.0014516829324543032 0.00021623601713142388 0 0.0014516829324543032 0.00021623601713142388 0 0.0018502038627136188 0.00097833168130062142 0 0.0010937958288766323 0.00063339541658269784 0 0.00069725541671177135 0.0022658086445590717 0 0.0018502038627136188 0.00097833168130062142 0 0.00089261375987541487 0.0011821796499158074 0 0.0025199367481620479 0.00020983566963512579 0 0.0014516829324543032 0.00021623601713142388 0 0.0018502038627136188 0.00097833168130062142 0 0.0018502038627136188 0.00097833168130062142 0 0.0010937958288766323 0.00063339541658269784 0 0.00089261375987541487 0.0011821796499158074 0 0.0010937958288766323 0.00063339541658269784 0 0.00089261375987541487 0.0011821796499158074 0 0.00058535782546067377 0.00070055579530017712 0 -0.00015566829541228299 0.0016912166596755327 0 0.00034761656222031742 0.0011310298084322656 0 1.1011222098418873e-05 0.00048721573862913332 0 0.0043836634958000324 -0.0019188643885709069 0 0.0026993886952983927 -0.0010197244991147054 0 0.00069725541671177135 0.0022658086445590717 0 0.00089261375987541487 0.0011821796499158074 0 0.00034761656222031742 0.0011310298084322656 0 0.00034761656222031742 0.0011310298084322656 0 0.00058535782546067377 0.00070055579530017712 0 1.1011222098418873e-05 0.00048721573862913332 0 0.00089261375987541487 0.0011821796499158074 0 0.00034761656222031742 0.0011310298084322656 0 0.00058535782546067377 0.00070055579530017712 0 0.0010937958288766323 0.00063339541658269784 0 0.00058535782546067377 0.00070055579530017712 0 0.00070327442553184526 0.00010428117747907209 0 0.00058535782546067377 0.00070055579530017712 0 1.1011222098418873e-05 0.00048721573862913332 0 0.00036544020111517082 0.00025337354806319573 0 1.1011222098418873e-05 0.00048721573862913332 0 0.00036544020111517082 0.00025337354806319573 0 0.00010838354742723929 -0.00027543013068928585 0 0.0026993886952983927 -0.0010197244991147054 0 0.002578615603688203 -0.00085321896458462776 0 -2.2778037504381834e-05 0.0001754828990155389 0 0.00010838354742723929 -0.00027543013068928585 0 -0.00045128094627924949 -0.00012298979778279487 0 0.00058535782546067377 0.00070055579530017712 0 0.00036544020111517082 0.00025337354806319573 0 0.00070327442553184526 0.00010428117747907209 0 0.00036544020111517082 0.00025337354806319573 0 0.00070327442553184526 0.00010428117747907209 0 0.00010838354742723929 -0.00027543013068928585 0 0.00070327442553184526 0.00010428117747907209 0 0.00046762648221241682 -0.00061494023147101989 0 0.00010838354742723929 -0.00027543013068928585 0 0.00098458361258062818 -0.00037596921542514911 0 0.00070327442553184526 0.00010428117747907209 0 0.00046762648221241682 -0.00061494023147101989 0 -3.8991764152775756e-06 -0.00098818615312716226 0 0.00010838354742723929 -0.00027543013068928585 0 -0.00068564550506821796 -0.0005302257901831567 0 -0.00068564550506821796 -0.0005302257901831567 0 -0.00045128094627924949 -0.00012298979778279487 0 -0.0011481925229975657 9.5816948375745752e-05 0 0.00010838354742723929 -0.00027543013068928585 0 -0.00068564550506821796 -0.0005302257901831567 0 -0.00045128094627924949 -0.00012298979778279487 0 -2.2778037504381834e-05 0.0001754828990155389 0 -0.00045128094627924949 -0.00012298979778279487 0 -0.0011481925229975657 9.5816948375745752e-05 0 0.0043836634958000324 -0.0019188643885709069 0 0.001281501766527496 -0.001977983895664448 0 0.0026993886952983927 -0.0010197244991147054 0 0.001281501766527496 -0.001977983895664448 0 0.0034989162340846474 -0.0015157796271032678 0 0.0035809040489561588 -0.0021179631871468263 0 0.0026823303623505299 -0.0020443087203072612 0 0.0033296139707375996 -0.0054799911391020372 0 0.0039439183245055633 -0.0055457472161338384 0 0.0028913946307574587 -0.006236237588082099 0 0.0026519039977756097 -0.0054972220733860468 0 0.0028913946307574587 -0.006236237588082099 0 0.0015576187682481315 -0.0061279623695344931 0 0.001281501766527496 -0.001977983895664448 0 0.00012257342313282455 -0.0028007325853300316 0 0.0026519039977756097 -0.0054972220733860468 0 0.0033296139707375996 -0.0054799911391020372 0 0.0028913946307574587 -0.006236237588082099 0 0.001281501766527496 -0.001977983895664448 0 -5.2032529680479991e-05 -0.0019918671204297374 0 -0.0011481925229975657 9.5816948375745752e-05 0 -0.0013678959254517437 -0.00083184555022915434 0 -0.0018635042961944038 -0.00075121267251101618 0 -0.00068564550506821796 -0.0005302257901831567 0 -0.0011481925229975657 9.5816948375745752e-05 0 -0.0013678959254517437 -0.00083184555022915434 0 -0.0013678959254517437 -0.00083184555022915434 0 -0.00084516154649106332 -0.0010825122143374463 0 -0.0014127113857201341 -0.0013866179775132968 0 -0.0013678959254517437 -0.00083184555022915434 0 -0.0014127113857201341 -0.0013866179775132968 0 -0.001733655021627126 -0.0012267930081589844 0 -0.00068564550506821796 -0.0005302257901831567 0 -0.0013678959254517437 -0.00083184555022915434 0 -0.00084516154649106332 -0.0010825122143374463 0 -3.8991764152775756e-06 -0.00098818615312716226 0 -0.00084516154649106332 -0.0010825122143374463 0 -0.00053789164072941362 -0.0017091446615797885 0 -3.8991764152775756e-06 -0.00098818615312716226 0 -0.00068564550506821796 -0.0005302257901831567 0 -0.00084516154649106332 -0.0010825122143374463 0 -0.00053789164072941362 -0.0017091446615797885 0 -0.0014127113857201341 -0.0013866179775132968 0 -0.0016142757337182577 -0.0017387129320165517 0 -0.00084516154649106332 -0.0010825122143374463 0 -0.00053789164072941362 -0.0017091446615797885 0 -0.0014127113857201341 -0.0013866179775132968 0 -0.0014127113857201341 -0.0013866179775132968 0 -0.0017429305657348044 -0.0014987668343213127 0 -0.0016142757337182577 -0.0017387129320165517 0 -0.0014127113857201341 -0.0013866179775132968 0 -0.0017429305657348044 -0.0014987668343213127 0 -0.001733655021627126 -0.0012267930081589844 0 -0.0017429305657348044 -0.0014987668343213127 0 -0.0019047151665549931 -0.0012526898322401158 0 -0.00193931865649432 -0.0012253200322920931 0 -0.0017429305657348044 -0.0014987668343213127 0 -0.0016142757337182577 -0.0017387129320165517 0 -0.0019047151665549931 -0.0012526898322401158 0 -0.0016142757337182577 -0.0017387129320165517 0 -0.0020260666967695652 -0.0012197245636361466 0 -0.0022254683539039378 -0.0012960934438774744 0 -0.00053789164072941362 -0.0017091446615797885 0 -0.0016142757337182577 -0.0017387129320165517 0 -0.00036144848662738373 -0.0027211372509341907 0 -0.00069969737175873804 -0.0014472930773819629 0 -0.00049897788115387941 -0.0014258718384469642 0 -0.0020260666967695652 -0.0012197245636361466 0 -0.0022220519538734712 -0.0010222771459835319 0 -0.0022254683539039378 -0.0012960934438774744 0 -0.0016142757337182577 -0.0017387129320165517 0 -0.0020260666967695652 -0.0012197245636361466 0 -0.0019047151665549931 -0.0012526898322401158 0 -0.0020260666967695652 -0.0012197245636361466 0 -0.0021824385134444632 -0.00099073769246033018 0 -0.0019047151665549931 -0.0012526898322401158 0 -0.0020260666967695652 -0.0012197245636361466 0 -0.0021824385134444632 -0.00099073769246033018 0 -0.0022220519538734712 -0.0010222771459835319 0 -0.0021824385134444632 -0.00099073769246033018 0 -0.0019047151665549931 -0.0012526898322401158 0 -0.0021467511108159815 -0.0010009579222495547 0 -0.0019047151665549931 -0.0012526898322401158 0 -0.0021467511108159815 -0.0010009579222495547 0 -0.00193931865649432 -0.0012253200322920931 0 -0.0021467511108159815 -0.0010009579222495547 0 -0.0023776783365548277 -0.00085402374703927439 0 -0.0021117057283034841 -0.00092778385653116973 0 -0.0023698906308937894 -0.00065098586575804281 0 -0.0023776783365548277 -0.00085402374703927439 0 -0.0021117057283034841 -0.00092778385653116973 0 -0.0021824385134444632 -0.00099073769246033018 0 -0.0023776783365548277 -0.00085402374703927439 0 -0.0022735708338029537 -0.00085411094667832725 0 -0.0021824385134444632 -0.00099073769246033018 0 -0.0021467511108159815 -0.0010009579222495547 0 -0.0023776783365548277 -0.00085402374703927439 0 -0.0023776783365548277 -0.00085402374703927439 0 -0.0022735708338029537 -0.00085411094667832725 0 -0.0022505825749737861 -0.00088348321148398095 0 -0.002688841435966734 -0.00062376022584396452 0 -0.0023776783365548277 -0.00085402374703927439 0 -0.0029090345072420544 -0.00070830156908260585 0 -0.0024188859160905914 -0.00072992731329446687 0 -0.0024583198977359442 -0.00069462590895970973 0 -0.0024583198977359442 -0.00069462590895970973 0 -0.0023849043667620523 -0.00059975345251218903 0 -0.0022735708338029537 -0.00085411094667832725 0 -0.0022505825749737861 -0.00088348321148398095 0 -0.0021074594778443321 -0.00068635184034920567 0 -0.0022505825749737861 -0.00088348321148398095 0 -0.0021074594778443321 -0.00068635184034920567 0 -0.001890270992282869 -0.00071013204769754853 0 -0.0022735708338029537 -0.00085411094667832725 0 -0.0021074594778443321 -0.00068635184034920567 0 -0.0022033279466151467 -0.00073556114839195142 0 -0.0022033279466151467 -0.00073556114839195142 0 -0.002256733717485384 -0.00078512117562323845 0 -0.0019854600976715272 -0.00037857846763035845 0 -0.0022033279466151467 -0.00073556114839195142 0 -0.002306343628329894 -0.00091961197718493516 0 -0.002256733717485384 -0.00078512117562323845 0 -0.0021824385134444632 -0.00099073769246033018 0 -0.0022735708338029537 -0.00085411094667832725 0 -0.0022220519538734712 -0.0010222771459835319 0 -0.0022735708338029537 -0.00085411094667832725 0 -0.0022033279466151467 -0.00073556114839195142 0 -0.002306343628329894 -0.00091961197718493516 0 -0.0022735708338029537 -0.00085411094667832725 0 -0.0022220519538734712 -0.0010222771459835319 0 -0.002306343628329894 -0.00091961197718493516 0 -0.00049897788115387941 -0.0014258718384469642 0 0.00010962647218630913 -0.0013243558078051957 0 -0.002306343628329894 -0.00091961197718493516 0 -0.0022254683539039378 -0.0012960934438774744 0 -0.0023792467500283396 -0.00096743546683275702 0 -0.00036144848662738373 -0.0027211372509341907 0 0.000384162827522651 -0.0024855335770237251 0 0.00082452202197474565 -0.0032332725171271858 0 1.9071817958372459e-05 -0.0013607234559008107 0 0.00010962647218630913 -0.0013243558078051957 0 -0.0022220519538734712 -0.0010222771459835319 0 -0.002306343628329894 -0.00091961197718493516 0 -0.0022254683539039378 -0.0012960934438774744 0 -0.00053789164072941362 -0.0017091446615797885 0 -0.00036144848662738373 -0.0027211372509341907 0 0.000384162827522651 -0.0024855335770237251 0 0.00010962647218630913 -0.0013243558078051957 0 -0.00020662983075695469 -0.00082066924687244068 0 0.0019867862024553406 -0.0012289958396422545 0 0.00010962647218630913 -0.0013243558078051957 0 0.0022707839363856129 -0.0025090418050858084 0 0.0011596552175330264 -0.0023229358738351045 0 0.00082452202197474565 -0.0032332725171271858 0 0.0011596552175330264 -0.0023229358738351045 0 0.000384162827522651 -0.0024855335770237251 0 0.00082452202197474565 -0.0032332725171271858 0 0.0017544390713137652 -0.0012239910566186479 0 0.0025100320670321504 -0.00063865683470957265 0 0.001673402410563388 -0.0003455077389271662 0 0.0017544390713137652 -0.0012239910566186479 0 0.0012914457725100978 -0.00099078755335453746 0 0.001673402410563388 -0.0003455077389271662 0 0.0012914457725100978 -0.00099078755335453746 0 0.00030252107595351403 -0.00061285149639266816 0 0.001673402410563388 -0.0003455077389271662 0 0.002014112983883157 -0.0010786979069851077 0 0.0012914457725100978 -0.00099078755335453746 0 -0.00029046174763657244 -0.0013142810229535269 0 0.0012914457725100978 -0.00099078755335453746 0 0.00030252107595351403 -0.00061285149639266816 0 8.6047747194979471e-05 -0.00089706560840305065 0 -0.00020662983075695469 -0.00082066924687244068 0 -0.00051107670502196524 -0.00061776474397453218 0 0.00030252107595351403 -0.00061285149639266816 0 0.001673402410563388 -0.0003455077389271662 0 -0.0010881083877281211 -8.1254137529909504e-05 0 -0.0019854600976715272 -0.00037857846763035845 0 -0.0018089843889452224 -0.0004962736211364206 0 -0.0010881083877281211 -8.1254137529909504e-05 0 -0.0021074594778443321 -0.00068635184034920567 0 -0.0022033279466151467 -0.00073556114839195142 0 -0.0019854600976715272 -0.00037857846763035845 0 -0.0021074594778443321 -0.00068635184034920567 0 -0.0019854600976715272 -0.00037857846763035845 0 -0.0018089843889452224 -0.0004962736211364206 0 -0.0021074594778443321 -0.00068635184034920567 0 -0.001890270992282869 -0.00071013204769754853 0 -0.0018089843889452224 -0.0004962736211364206 0 -0.0030133690500929351 -0.00053766666824232672 0 -0.0029090345072420544 -0.00070830156908260585 0 -0.0029528931296959257 -0.00040062398646667046 0 -0.0029528931296959257 -0.00040062398646667046 0 -0.0019815508356692186 -0.00029729778396200309 0 -0.0024107068847535043 -0.00041355630248050981 0 -0.0027301806821599275 -0.00047853735438368073 0 -0.0029528931296959257 -0.00040062398646667046 0 -0.0024107068847535043 -0.00041355630248050981 0 -0.0030133690500929351 -0.00053766666824232672 0 -0.0027301806821599275 -0.00047853735438368073 0 -0.0029528931296959257 -0.00040062398646667046 0 -0.0023849043667620523 -0.00059975345251218903 0 -0.0022566759313320979 -0.00053517630949382017 0 -0.001890270992282869 -0.00071013204769754853 0 -0.0018089843889452224 -0.0004962736211364206 0 -0.0016510873973785505 -0.00031006094431161141 0 -0.001890270992282869 -0.00071013204769754853 0 -0.0016510873973785505 -0.00031006094431161141 0 -0.0019815508356692186 -0.00029729778396200309 0 -0.0019815508356692186 -0.00029729778396200309 0 -0.0021500823339978751 -0.00036458357582675138 0 -0.0013064109324524599 -3.5289837751889243e-05 0 -6.9527802097784527e-05 -0.00022039072865452812 0 0.00080790698314963901 -2.9066772694742682e-05 0 -0.0016510873973785505 -0.00031006094431161141 0 -0.0019815508356692186 -0.00029729778396200309 0 -0.0013064109324524599 -3.5289837751889243e-05 0 -0.0019815508356692186 -0.00029729778396200309 0 -0.0024107068847535043 -0.00041355630248050981 0 -0.0021500823339978751 -0.00036458357582675138 0 -0.0025584272191221287 -0.00040526315187918138 0 -0.0024107068847535043 -0.00041355630248050981 0 -0.0021500823339978751 -0.00036458357582675138 0 -0.0027301806821599275 -0.00047853735438368073 0 -0.0025584272191221287 -0.00040526315187918138 0 -0.0024107068847535043 -0.00041355630248050981 0 -0.002821167079929591 -0.0003360408268809788 0 -0.0025584272191221287 -0.00040526315187918138 0 -0.0021500823339978751 -0.00036458357582675138 0 -0.00071922135668505847 -0.00040348561180446069 0 -6.9527802097784527e-05 -0.00022039072865452812 0 -0.00080410407344280645 5.2383810375500315e-07 0 0.0011193131621158846 -6.3092155520104673e-05 0 0.0012622270197727617 -8.9202833391448331e-07 0 0.0012622270197727617 -8.9202833391448331e-07 0 0.0016583346111699274 -0.00013734894900709258 0 0.0033245014008823457 1.1223561897776055e-06 0 0.0011193131621158846 -6.3092155520104673e-05 0 0.0016583346111699274 -0.00013734894900709258 0 0.0019497446206851819 -0.00020343927018510099 0 0.0011193131621158846 -6.3092155520104673e-05 0 0.0012622270197727617 -8.9202833391448331e-07 0 0.0016583346111699274 -0.00013734894900709258 0 0.0016583346111699274 -0.00013734894900709258 0 0.0019497446206851819 -0.00020343927018510099 0 0.0033245014008823457 1.1223561897776055e-06 0 -0.0018089843889452224 -0.0004962736211364206 0 -0.0016510873973785505 -0.00031006094431161141 0 -0.0010881083877281211 -8.1254137529909504e-05 0 -0.0016510873973785505 -0.00031006094431161141 0 -0.0010881083877281211 -8.1254137529909504e-05 0 -0.0013064109324524599 -3.5289837751889243e-05 0 0.00030252107595351403 -0.00061285149639266816 0 -0.0010881083877281211 -8.1254137529909504e-05 0 -0.00051654245640688986 -0.00057372602937066301 0 -0.0013064109324524599 -3.5289837751889243e-05 0 -0.00051654245640688986 -0.00057372602937066301 0 -0.00048169492131749757 -0.00078538423253660138 0 -0.0010881083877281211 -8.1254137529909504e-05 0 -0.0013064109324524599 -3.5289837751889243e-05 0 -0.00051654245640688986 -0.00057372602937066301 0 0.0012914457725100978 -0.00099078755335453746 0 8.6047747194979471e-05 -0.00089706560840305065 0 -0.00029046174763657244 -0.0013142810229535269 0 -0.0013064109324524599 -3.5289837751889243e-05 0 -0.00048169492131749757 -0.00078538423253660138 0 -0.00029046174763657244 -0.0013142810229535269 0 0.00080790698314963901 -2.9066772694742682e-05 0 0.0019860433131215394 -5.493293268396315e-06 0 0.00030252107595351403 -0.00061285149639266816 0 -0.00051654245640688986 -0.00057372602937066301 0 8.6047747194979471e-05 -0.00089706560840305065 0 -0.00048169492131749757 -0.00078538423253660138 0 8.6047747194979471e-05 -0.00089706560840305065 0 -0.00029046174763657244 -0.0013142810229535269 0 -0.00051654245640688986 -0.00057372602937066301 0 -0.00048169492131749757 -0.00078538423253660138 0 8.6047747194979471e-05 -0.00089706560840305065 0 0.0019860433131215394 -5.493293268396315e-06 0 0.0019991045007609195 -2.1984210472438772e-05 0 0.0043265468877599148 -0.00039899048999289972 0 0.0044405132692477145 -0.00064525585809311833 0 0.0045127616097392475 -0.00065838865016822133 0 0.0044405132692477145 -0.00064525585809311833 0 0.0045127616097392475 -0.00065838865016822133 0 0.0043794938154546308 -0.00089876000142965161 0 0.0048391232899992354 -1.1555418417335414e-06 0 0.0043265468877599148 -0.00039899048999289972 0 0.0033298884449736122 2.0768797753294071e-07 0 0.0019860433131215394 -5.493293268396315e-06 0 0.003326216256687236 -5.2305481291924431e-07 0 0.0019497446206851819 -0.00020343927018510099 0 0.0018137546387167656 0.00090623492097566738 0 0.0033245014008823457 1.1223561897776055e-06 0 0.0043265468877599148 -0.00039899048999289972 0 0.0045127616097392475 -0.00065838865016822133 0 0.0033298884449736122 2.0768797753294071e-07 0 -0.00012024732645880843 -0.0037444140255841938 0 -0.00053219246747417668 -0.0028551044749357941 0 9.4294940335262837e-05 -0.0031379064121553062 0 -0.00012024732645880843 -0.0037444140255841938 0 0.00055735785281432445 -0.0037551416699086035 0 0.00027799218643567182 -0.0042440946381436953 0 -0.00012024732645880843 -0.0037444140255841938 0 9.4294940335262837e-05 -0.0031379064121553062 0 0.00055735785281432445 -0.0037551416699086035 0 -0.00012024732645880843 -0.0037444140255841938 0 -0.00060353945140965569 -0.0035614000328281423 0 -0.00053219246747417668 -0.0028551044749357941 0 -0.00012024732645880843 -0.0037444140255841938 0 -0.00060353945140965569 -0.0035614000328281423 0 -0.00043152365124260065 -0.0041151657811245527 0 -0.00053219246747417668 -0.0028551044749357941 0 9.4294940335262837e-05 -0.0031379064121553062 0 -8.0984591783724586e-05 -0.0023687063702522576 0 9.4294940335262837e-05 -0.0031379064121553062 0 0.00072240122145029399 -0.0026457534473602372 0 -8.0984591783724586e-05 -0.0023687063702522576 0 0.00072240122145029399 -0.0026457534473602372 0 0.00062695798069905661 -0.0032481840597082061 0 0.0011819094548515627 -0.0034542500362228219 0 9.4294940335262837e-05 -0.0031379064121553062 0 0.00072240122145029399 -0.0026457534473602372 0 0.00062695798069905661 -0.0032481840597082061 0 0.00072240122145029399 -0.0026457534473602372 0 0.0014702801983502078 -0.0029383212745458485 0 0.0011819094548515627 -0.0034542500362228219 0 0.0014702801983502078 -0.0029383212745458485 0 0.0017556505918563451 -0.0024969167150122335 0 0.0021250888745139172 -0.0029735461388413391 0 0.00072240122145029399 -0.0026457534473602372 0 0.0014702801983502078 -0.0029383212745458485 0 0.001236589231722901 -0.0024455829984297997 0 0.0014702801983502078 -0.0029383212745458485 0 0.0017556505918563451 -0.0024969167150122335 0 0.001236589231722901 -0.0024455829984297997 0 0.0014702801983502078 -0.0029383212745458485 0 0.001929991069626092 -0.0034875686718505525 0 0.0011819094548515627 -0.0034542500362228219 0 0.0014702801983502078 -0.0029383212745458485 0 0.001929991069626092 -0.0034875686718505525 0 0.0021250888745139172 -0.0029735461388413391 0 0.001929991069626092 -0.0034875686718505525 0 0.0011819094548515627 -0.0034542500362228219 0 0.0018648930894670263 -0.0039957639835211745 0 0.0011819094548515627 -0.0034542500362228219 0 0.0018648930894670263 -0.0039957639835211745 0 0.0012604991496122421 -0.0041210113219310495 0 9.4294940335262837e-05 -0.0031379064121553062 0 0.00062695798069905661 -0.0032481840597082061 0 0.00055735785281432445 -0.0037551416699086035 0 0.00062695798069905661 -0.0032481840597082061 0 0.0011819094548515627 -0.0034542500362228219 0 0.00055735785281432445 -0.0037551416699086035 0 0.0011819094548515627 -0.0034542500362228219 0 0.00055735785281432445 -0.0037551416699086035 0 0.0012604991496122421 -0.0041210113219310495 0 0.00055735785281432445 -0.0037551416699086035 0 0.00072867011226850629 -0.0043248053051507538 0 0.00027799218643567182 -0.0042440946381436953 0 0.00055735785281432445 -0.0037551416699086035 0 0.00072867011226850629 -0.0043248053051507538 0 0.0012604991496122421 -0.0041210113219310495 0 0.00072867011226850629 -0.0043248053051507538 0 0.0011925233559673578 -0.0048314746576756931 0 0.0004930903494996566 -0.00461691314764252 0 0.00072867011226850629 -0.0043248053051507538 0 0.0004930903494996566 -0.00461691314764252 0 0.00027799218643567182 -0.0042440946381436953 0 0.0018648930894670263 -0.0039957639835211745 0 0.0018410457558222272 -0.0044024381866220189 0 0.0012604991496122421 -0.0041210113219310495 0 0.00072867011226850629 -0.0043248053051507538 0 0.0012604991496122421 -0.0041210113219310495 0 0.0011925233559673578 -0.0048314746576756931 0 0.0018410457558222272 -0.0044024381866220189 0 0.0012604991496122421 -0.0041210113219310495 0 0.0011925233559673578 -0.0048314746576756931 0 0.0018410457558222272 -0.0044024381866220189 0 0.0011925233559673578 -0.0048314746576756931 0 0.0021211969042913706 -0.004854242480883484 0 0.00057304106350756405 -0.0062409078923879426 0 0.0011925233559673578 -0.0048314746576756931 0 0.0019246122470009681 -0.0056296279395361545 0 0.0011925233559673578 -0.0048314746576756931 0 0.0019246122470009681 -0.0056296279395361545 0 0.0021211969042913706 -0.004854242480883484 0 0.0018204895519041994 -0.0053461971110959402 0 0.0016910951063575264 -0.0052270355536553105 0 0.00033093847532368359 -0.0048319738760890787 0 0.0011925233559673578 -0.0048314746576756931 0 0.0005574850208508636 -0.0047690212169364081 0 0.0011925233559673578 -0.0048314746576756931 0 0.0004930903494996566 -0.00461691314764252 0 0.0005574850208508636 -0.0047690212169364081 0 0.0004930903494996566 -0.00461691314764252 0 0.0005574850208508636 -0.0047690212169364081 0 0.00026709916221486141 -0.0047434677974372078 0 0.00033093847532368359 -0.0048319738760890787 0 0.0005574850208508636 -0.0047690212169364081 0 0.00026709916221486141 -0.0047434677974372078 0 0.00026709916221486141 -0.0047434677974372078 0 4.1863375634316243e-05 -0.0046866799194756979 0 0.00013181472512360814 -0.0045524541446411463 0 4.1863375634316243e-05 -0.0046866799194756979 0 0.00013181472512360814 -0.0045524541446411463 0 -0.00012438341194874122 -0.0046148874276486758 0 0.00013181472512360814 -0.0045524541446411463 0 -0.00011623881436962917 -0.0043194157448089854 0 -0.00012438341194874122 -0.0046148874276486758 0 0.0004930903494996566 -0.00461691314764252 0 0.00026709916221486141 -0.0047434677974372078 0 0.00013181472512360814 -0.0045524541446411463 0 0.0004930903494996566 -0.00461691314764252 0 0.00013181472512360814 -0.0045524541446411463 0 0.00027799218643567182 -0.0042440946381436953 0 -0.00012024732645880843 -0.0037444140255841938 0 0.00027799218643567182 -0.0042440946381436953 0 -0.00011623881436962917 -0.0043194157448089854 0 0.00013181472512360814 -0.0045524541446411463 0 0.00027799218643567182 -0.0042440946381436953 0 -0.00011623881436962917 -0.0043194157448089854 0 -0.00012024732645880843 -0.0037444140255841938 0 -0.00043152365124260065 -0.0041151657811245527 0 -0.00011623881436962917 -0.0043194157448089854 0 -0.00043152365124260065 -0.0041151657811245527 0 -0.00011623881436962917 -0.0043194157448089854 0 -0.00031909998551988037 -0.0044951534958966588 0 -0.00011623881436962917 -0.0043194157448089854 0 -0.00031909998551988037 -0.0044951534958966588 0 -0.00012438341194874122 -0.0046148874276486758 0 -0.00025057978360884937 -0.0046930929163012452 0 -0.00031909998551988037 -0.0044951534958966588 0 -0.00012438341194874122 -0.0046148874276486758 0 -0.00025057978360884937 -0.0046930929163012452 0 -0.00031909998551988037 -0.0044951534958966588 0 -0.0004075787925788254 -0.004663212894565485 0 -0.00031909998551988037 -0.0044951534958966588 0 -0.0004075787925788254 -0.004663212894565485 0 -0.00052939435749400421 -0.004359263517856711 0 -0.0004075787925788254 -0.004663212894565485 0 -0.00072919275898352689 -0.00440555695761209 0 -0.00052939435749400421 -0.004359263517856711 0 -0.0004075787925788254 -0.004663212894565485 0 -0.00054963447458675121 -0.0046266554660035859 0 -0.00072919275898352689 -0.00440555695761209 0 -0.0004075787925788254 -0.004663212894565485 0 -0.00038905524819657686 -0.0047804567939475906 0 -0.00054963447458675121 -0.0046266554660035859 0 -0.00024290383220665706 -0.0047855818180048554 0 -0.0004075787925788254 -0.004663212894565485 0 -0.00038905524819657686 -0.0047804567939475906 0 -5.2860400069534574e-05 -0.0049670841952869386 0 -0.00038905524819657686 -0.0047804567939475906 0 -0.00074609764726582138 -0.0046375217820141127 0 -0.00038905524819657686 -0.0047804567939475906 0 -0.00074609764726582138 -0.0046375217820141127 0 -0.00070991039394641673 -0.0046375935265262416 0 -0.00038905524819657686 -0.0047804567939475906 0 -0.00054963447458675121 -0.0046266554660035859 0 -0.00070991039394641673 -0.0046375935265262416 0 -0.00017737002964691951 -0.00376029974567926 0 -0.00019447585577682131 -0.0033641105238491789 0 -5.2860400069534574e-05 -0.0049670841952869386 0 1.8540271323034815e-05 -0.0059965589799246899 0 0.00086332354432048467 -0.0055253686175519351 0 -0.00019447585577682131 -0.0033641105238491789 0 -0.00019839942602327464 -0.0033667207909510977 0 -0.00054963447458675121 -0.0046266554660035859 0 -0.00070991039394641673 -0.0046375935265262416 0 -0.00072919275898352689 -0.00440555695761209 0 -0.00082351328014299897 -0.0046248159222974398 0 -0.00070991039394641673 -0.0046375935265262416 0 -0.00072919275898352689 -0.00440555695761209 0 -0.00019447585577682131 -0.0033641105238491789 0 -0.0010178041958666673 -0.0023727504115465241 0 -0.00082351328014299897 -0.0046248159222974398 0 -0.00072919275898352689 -0.00440555695761209 0 -0.001428163656000568 -0.0037900979597623244 0 -0.00072919275898352689 -0.00440555695761209 0 -0.00083474834701199776 -0.0039548211782675568 0 -0.001428163656000568 -0.0037900979597623244 0 -0.0021931955529708646 -0.00055586682963078629 0 -0.0020243888943572825 -0.0007279837410661199 0 -0.0021849497392487289 -0.00089682182622621322 0 -0.00060353945140965569 -0.0035614000328281423 0 -0.00043152365124260065 -0.0041151657811245527 0 -0.00083474834701199776 -0.0039548211782675568 0 -0.00043152365124260065 -0.0041151657811245527 0 -0.00031909998551988037 -0.0044951534958966588 0 -0.00052939435749400421 -0.004359263517856711 0 -0.00043152365124260065 -0.0041151657811245527 0 -0.00083474834701199776 -0.0039548211782675568 0 -0.00052939435749400421 -0.004359263517856711 0 -0.00072919275898352689 -0.00440555695761209 0 -0.00083474834701199776 -0.0039548211782675568 0 -0.00052939435749400421 -0.004359263517856711 0 0.001536368179641093 -0.0053687330593717841 0 0.0026519039977756097 -0.0054972220733860468 0 0.0015576187682481315 -0.0061279623695344931 0 1.8540271323034815e-05 -0.0059965589799246899 0 0.0015576187682481315 -0.0061279623695344931 0 0.00086332354432048467 -0.0055253686175519351 0 -0.00019447585577682131 -0.0033641105238491789 0 0.00012257342313282455 -0.0028007325853300316 0 -0.0021931955529708646 -0.00055586682963078629 0 -0.0018758149878084361 -0.00058190226304358943 0 -0.0020243888943572825 -0.0007279837410661199 0 0.001536368179641093 -0.0053687330593717841 0 0.0015576187682481315 -0.0061279623695344931 0 0.00086332354432048467 -0.0055253686175519351 0 -0.001591051384904745 -0.00060727688934968289 0 -0.0018758149878084361 -0.00058190226304358943 0 -0.0018635042961944038 -0.00075121267251101618 0 -0.0018758149878084361 -0.00058190226304358943 0 -0.0020243888943572825 -0.0007279837410661199 0 -0.0018635042961944038 -0.00075121267251101618 0 -0.0013678959254517437 -0.00083184555022915434 0 -0.0018635042961944038 -0.00075121267251101618 0 -0.001733655021627126 -0.0012267930081589844 0 -0.0018635042961944038 -0.00075121267251101618 0 -0.0019717489914886782 -0.0010639230098175979 0 -0.001733655021627126 -0.0012267930081589844 0 -0.0020243888943572825 -0.0007279837410661199 0 -0.0018635042961944038 -0.00075121267251101618 0 -0.0019717489914886782 -0.0010639230098175979 0 -0.0019717489914886782 -0.0010639230098175979 0 -0.0021849497392487289 -0.00089682182622621322 0 -0.0020671566299228818 -0.0012435383860563793 0 -0.0020243888943572825 -0.0007279837410661199 0 -0.0019717489914886782 -0.0010639230098175979 0 -0.0021849497392487289 -0.00089682182622621322 0 -0.0019717489914886782 -0.0010639230098175979 0 -0.0020671566299228818 -0.0012435383860563793 0 -0.0018895570038024419 -0.0013745748244314059 0 -0.0019717489914886782 -0.0010639230098175979 0 -0.001733655021627126 -0.0012267930081589844 0 -0.0018895570038024419 -0.0013745748244314059 0 -0.0017429305657348044 -0.0014987668343213127 0 -0.001733655021627126 -0.0012267930081589844 0 -0.0018895570038024419 -0.0013745748244314059 0 -0.00060353945140965569 -0.0035614000328281423 0 -0.00083474834701199776 -0.0039548211782675568 0 -0.0010861425640847787 -0.0031936329857536199 0 -0.001428163656000568 -0.0037900979597623244 0 -0.0018115085823639033 -0.0027653299418123126 0 -0.0010861425640847787 -0.0031936329857536199 0 -0.0010178041958666673 -0.0023727504115465241 0 -0.001446477846191171 -0.0019069309239361499 0 -0.00083474834701199776 -0.0039548211782675568 0 -0.001428163656000568 -0.0037900979597623244 0 -0.0010861425640847787 -0.0031936329857536199 0 -0.0018115085823639033 -0.0027653299418123126 0 -0.0010861425640847787 -0.0031936329857536199 0 -0.0012724259927881032 -0.0021052670792907533 0 -0.00053219246747417668 -0.0028551044749357941 0 -0.0010861425640847787 -0.0031936329857536199 0 -0.0012724259927881032 -0.0021052670792907533 0 -0.00060353945140965569 -0.0035614000328281423 0 -0.00053219246747417668 -0.0028551044749357941 0 -0.0010861425640847787 -0.0031936329857536199 0 -0.001446477846191171 -0.0019069309239361499 0 -0.0016421659951235163 -0.0015420086794102213 0 -0.0018115085823639033 -0.0027653299418123126 0 -0.0012724259927881032 -0.0021052670792907533 0 -0.0019574224404148798 -0.0017366989840699573 0 -0.0012724259927881032 -0.0021052670792907533 0 -0.0015883594884346024 -0.0013573342971529411 0 -0.0019574224404148798 -0.0017366989840699573 0 -0.0015883594884346024 -0.0013573342971529411 0 -0.0019574224404148798 -0.0017366989840699573 0 -0.0018755562551183516 -0.00099392959392970051 0 -0.0016421659951235163 -0.0015420086794102213 0 -0.0016973593452592134 -0.0013427893401595729 0 -0.0012724259927881032 -0.0021052670792907533 0 -0.0015883594884346024 -0.0013573342971529411 0 -0.001190291575186552 -0.0013709416559512257 0 -0.0012724259927881032 -0.0021052670792907533 0 -0.001190291575186552 -0.0013709416559512257 0 -0.00070883990111870912 -0.0018690578224159441 0 -0.0017429305657348044 -0.0014987668343213127 0 -0.0018895570038024419 -0.0013745748244314059 0 -0.00193931865649432 -0.0012253200322920931 0 -0.0020671566299228818 -0.0012435383860563793 0 -0.0018841938289896826 -0.0012989675766216107 0 -0.0018895570038024419 -0.0013745748244314059 0 -0.0018841938289896826 -0.0012989675766216107 0 -0.0019370431671046258 -0.0011780344709584358 0 -0.0018755562551183516 -0.00099392959392970051 0 -0.0018841938289896826 -0.0012989675766216107 0 -0.0018895570038024419 -0.0013745748244314059 0 -0.0019370431671046258 -0.0011780344709584358 0 -0.0018895570038024419 -0.0013745748244314059 0 -0.0019370431671046258 -0.0011780344709584358 0 -0.00193931865649432 -0.0012253200322920931 0 -0.0021467511108159815 -0.0010009579222495547 0 -0.00193931865649432 -0.0012253200322920931 0 -0.0021117057283034841 -0.00092778385653116973 0 -0.0019370431671046258 -0.0011780344709584358 0 -0.00193931865649432 -0.0012253200322920931 0 -0.0021117057283034841 -0.00092778385653116973 0 -0.0019370431671046258 -0.0011780344709584358 0 -0.0021117057283034841 -0.00092778385653116973 0 -0.0018755562551183516 -0.00099392959392970051 0 -0.002165156945967619 -0.00061862997093745456 0 -0.0021117057283034841 -0.00092778385653116973 0 -0.0018755562551183516 -0.00099392959392970051 0 -0.0017282097683231771 -0.00055833181123490457 0 -0.002165156945967619 -0.00061862997093745456 0 -0.0018755562551183516 -0.00099392959392970051 0 -0.002165156945967619 -0.00061862997093745456 0 -0.0023698906308937894 -0.00065098586575804281 0 -0.0021117057283034841 -0.00092778385653116973 0 -0.001190291575186552 -0.0013709416559512257 0 -0.0014714549767507439 -0.00090395528304134233 0 -0.00087056924728420848 -0.0010215409667667676 0 -0.0015883594884346024 -0.0013573342971529411 0 -0.001190291575186552 -0.0013709416559512257 0 -0.0014714549767507439 -0.00090395528304134233 0 -0.0014714549767507439 -0.00090395528304134233 0 -0.0011513526546864739 -0.00054780791312119452 0 -0.00087056924728420848 -0.0010215409667667676 0 -0.0015883594884346024 -0.0013573342971529411 0 -0.0014714549767507439 -0.00090395528304134233 0 -0.0018755562551183516 -0.00099392959392970051 0 -0.0017282097683231771 -0.00055833181123490457 0 -0.0014714549767507439 -0.00090395528304134233 0 -0.0018755562551183516 -0.00099392959392970051 0 -0.0017282097683231771 -0.00055833181123490457 0 -0.0014714549767507439 -0.00090395528304134233 0 -0.0011513526546864739 -0.00054780791312119452 0 -0.0011603430292668154 -0.00032286270994060656 0 -0.0011513526546864739 -0.00054780791312119452 0 -0.00097115401534864749 -0.00027664069539549329 0 -0.0011513526546864739 -0.00054780791312119452 0 -0.00097115401534864749 -0.00027664069539549329 0 -0.00071198649329206991 -0.00049284636181212086 0 -0.00097115401534864749 -0.00027664069539549329 0 -0.0007088224299959205 -6.2134555815893309e-05 0 -0.00071198649329206991 -0.00049284636181212086 0 -0.0009651811688620596 -0.00015058355918448014 0 -0.00097115401534864749 -0.00027664069539549329 0 -0.0007088224299959205 -6.2134555815893309e-05 0 -0.0007088224299959205 -6.2134555815893309e-05 0 -0.00071198649329206991 -0.00049284636181212086 0 -0.00033856884529525515 -0.00032626234630438991 0 -0.00071198649329206991 -0.00049284636181212086 0 -0.00035698213733790688 -0.00090145449229284895 0 -0.00087056924728420848 -0.0010215409667667676 0 -0.00071198649329206991 -0.00049284636181212086 0 -0.00035698213733790688 -0.00090145449229284895 0 -0.00033856884529525515 -0.00032626234630438991 0 -0.0011513526546864739 -0.00054780791312119452 0 -0.00071198649329206991 -0.00049284636181212086 0 -0.00087056924728420848 -0.0010215409667667676 0 -0.001190291575186552 -0.0013709416559512257 0 -0.00087056924728420848 -0.0010215409667667676 0 -0.00070883990111870912 -0.0018690578224159441 0 -0.00087056924728420848 -0.0010215409667667676 0 -0.00026627543563253445 -0.0015651826070256056 0 -0.00070883990111870912 -0.0018690578224159441 0 -0.00035698213733790688 -0.00090145449229284895 0 -0.00087056924728420848 -0.0010215409667667676 0 -0.00026627543563253445 -0.0015651826070256056 0 -0.00035698213733790688 -0.00090145449229284895 0 -0.00026627543563253445 -0.0015651826070256056 0 9.2416476832871925e-05 -0.0013064946974177183 0 -0.00026627543563253445 -0.0015651826070256056 0 0.00032671416608730225 -0.0019875562925459169 0 9.2416476832871925e-05 -0.0013064946974177183 0 -0.00026627543563253445 -0.0015651826070256056 0 -8.0984591783724586e-05 -0.0023687063702522576 0 0.00032671416608730225 -0.0019875562925459169 0 -0.00026627543563253445 -0.0015651826070256056 0 -8.0984591783724586e-05 -0.0023687063702522576 0 -0.00070883990111870912 -0.0018690578224159441 0 -0.00053219246747417668 -0.0028551044749357941 0 -8.0984591783724586e-05 -0.0023687063702522576 0 -0.00070883990111870912 -0.0018690578224159441 0 -0.00053219246747417668 -0.0028551044749357941 0 -0.0012724259927881032 -0.0021052670792907533 0 -0.00070883990111870912 -0.0018690578224159441 0 0.0014204777823492493 -0.0020540846329739466 0 0.0011051675660417701 -0.0015604740615363659 0 0.0016720492671533761 -0.0015941991642893245 0 0.0014204777823492493 -0.0020540846329739466 0 0.0008822842898128328 -0.0020521886249869115 0 0.0011051675660417701 -0.0015604740615363659 0 0.0014204777823492493 -0.0020540846329739466 0 0.0016720492671533761 -0.0015941991642893245 0 0.0020417352930206349 -0.0020007798122978031 0 0.0014204777823492493 -0.0020540846329739466 0 0.0017556505918563451 -0.0024969167150122335 0 0.0020417352930206349 -0.0020007798122978031 0 0.0014204777823492493 -0.0020540846329739466 0 0.001236589231722901 -0.0024455829984297997 0 0.0008822842898128328 -0.0020521886249869115 0 0.0014204777823492493 -0.0020540846329739466 0 0.0017556505918563451 -0.0024969167150122335 0 0.001236589231722901 -0.0024455829984297997 0 0.00072240122145029399 -0.0026457534473602372 0 0.001236589231722901 -0.0024455829984297997 0 0.0008822842898128328 -0.0020521886249869115 0 0.00072240122145029399 -0.0026457534473602372 0 -8.0984591783724586e-05 -0.0023687063702522576 0 0.00032671416608730225 -0.0019875562925459169 0 0.00072240122145029399 -0.0026457534473602372 0 0.00032671416608730225 -0.0019875562925459169 0 0.0008822842898128328 -0.0020521886249869115 0 0.0008822842898128328 -0.0020521886249869115 0 0.00055494914969890453 -0.0015894486209277472 0 0.0011051675660417701 -0.0015604740615363659 0 0.00032671416608730225 -0.0019875562925459169 0 0.0008822842898128328 -0.0020521886249869115 0 0.00055494914969890453 -0.0015894486209277472 0 0.00055494914969890453 -0.0015894486209277472 0 0.00084010952199159146 -0.00088085440920159853 0 0.0011051675660417701 -0.0015604740615363659 0 0.00032671416608730225 -0.0019875562925459169 0 0.00055494914969890453 -0.0015894486209277472 0 9.2416476832871925e-05 -0.0013064946974177183 0 0.00055494914969890453 -0.0015894486209277472 0 9.2416476832871925e-05 -0.0013064946974177183 0 0.00018584907210142639 -0.00082796373259720298 0 -0.00035698213733790688 -0.00090145449229284895 0 9.2416476832871925e-05 -0.0013064946974177183 0 0.00018584907210142639 -0.00082796373259720298 0 0.00055494914969890453 -0.0015894486209277472 0 0.00084010952199159146 -0.00088085440920159853 0 0.00018584907210142639 -0.00082796373259720298 0 0.0013220989314512632 -0.0011449953081262162 0 0.00084010952199159146 -0.00088085440920159853 0 0.0011051675660417701 -0.0015604740615363659 0 0.0013220989314512632 -0.0011449953081262162 0 0.00084010952199159146 -0.00088085440920159853 0 0.0017607615100876134 -0.00069067424374889505 0 0.0013220989314512632 -0.0011449953081262162 0 0.0011051675660417701 -0.0015604740615363659 0 0.0016720492671533761 -0.0015941991642893245 0 0.0016720492671533761 -0.0015941991642893245 0 0.0017607615100876134 -0.00069067424374889505 0 0.0023057233026373965 -0.0013824973358325422 0 0.0013220989314512632 -0.0011449953081262162 0 0.0016720492671533761 -0.0015941991642893245 0 0.0017607615100876134 -0.00069067424374889505 0 0.00084010952199159146 -0.00088085440920159853 0 0.0009871403016575664 -0.00018386084555961082 0 0.00022374889111276356 -0.00025862023202399484 0 0.00084010952199159146 -0.00088085440920159853 0 0.0017607615100876134 -0.00069067424374889505 0 0.0009871403016575664 -0.00018386084555961082 0 0.0017607615100876134 -0.00069067424374889505 0 0.0009871403016575664 -0.00018386084555961082 0 0.0016804666154136153 0.00031497849469261483 0 -0.00035698213733790688 -0.00090145449229284895 0 0.00018584907210142639 -0.00082796373259720298 0 -0.00033856884529525515 -0.00032626234630438991 0 0.00084010952199159146 -0.00088085440920159853 0 0.00018584907210142639 -0.00082796373259720298 0 0.00022374889111276356 -0.00025862023202399484 0 0.00022374889111276356 -0.00025862023202399484 0 -0.00033856884529525515 -0.00032626234630438991 0 -0.00033531828487177594 0.00023122038666647613 0 0.00018584907210142639 -0.00082796373259720298 0 0.00022374889111276356 -0.00025862023202399484 0 -0.00033856884529525515 -0.00032626234630438991 0 0.00043418775098179503 0.0023220578961773083 0 -0.00033531828487177594 0.00023122038666647613 0 0.0006630772700369844 0.00093831235539161507 0 -0.0007088224299959205 -6.2134555815893309e-05 0 -0.00033856884529525515 -0.00032626234630438991 0 -0.00033531828487177594 0.00023122038666647613 0 0.00022374889111276356 -0.00025862023202399484 0 -0.00033531828487177594 0.00023122038666647613 0 0.0006630772700369844 0.00093831235539161507 0 -0.00096262530590308427 3.6059111283470159e-05 0 -0.0007088224299959205 -6.2134555815893309e-05 0 -0.00033531828487177594 0.00023122038666647613 0 0.0016804666154136153 0.00031497849469261483 0 0.0006630772700369844 0.00093831235539161507 0 0.0017809673682788556 0.0012023525497078401 0 0.0009871403016575664 -0.00018386084555961082 0 0.00022374889111276356 -0.00025862023202399484 0 0.0006630772700369844 0.00093831235539161507 0 0.0009871403016575664 -0.00018386084555961082 0 0.0016804666154136153 0.00031497849469261483 0 0.0006630772700369844 0.00093831235539161507 0 0.0013968509902929952 0.0017361226947981468 0 0.0006630772700369844 0.00093831235539161507 0 0.0017809673682788556 0.0012023525497078401 0 0.0013968509902929952 0.0017361226947981468 0 0.0019502522249628829 0.0019895774734395859 0 0.0017809673682788556 0.0012023525497078401 0 0.0017809673682788556 0.0012023525497078401 0 0.0024154486438494245 0.0015466085472618158 0 0.0025573069101281491 0.00081985985927166547 0 0.0019502522249628829 0.0019895774734395859 0 0.0017809673682788556 0.0012023525497078401 0 0.0024154486438494245 0.0015466085472618158 0 0.0016804666154136153 0.00031497849469261483 0 0.0017809673682788556 0.0012023525497078401 0 0.0025573069101281491 0.00081985985927166547 0 0.0025573069101281491 0.00081985985927166547 0 0.0036912571924889773 0.0010389551641651472 0 0.0030403125863467224 0.00019244972453727246 0 0.0024154486438494245 0.0015466085472618158 0 0.0025573069101281491 0.00081985985927166547 0 0.0031816373748640493 0.0017102715839943689 0 0.0043157820939563928 0.0020312885895566622 0 0.0036912571924889773 0.0010389551641651472 0 0.0051601552945593722 0.0012226569658230365 0 0.0043157820939563928 0.0020312885895566622 0 0.0031816373748640493 0.0017102715839943689 0 0.0036912571924889773 0.0010389551641651472 0 0.0036912571924889773 0.0010389551641651472 0 0.0041307287365692433 0.00022455401200634776 0 0.0051601552945593722 0.0012226569658230365 0 0.0025573069101281491 0.00081985985927166547 0 0.0031816373748640493 0.0017102715839943689 0 0.0036912571924889773 0.0010389551641651472 0 0.0036912571924889773 0.0010389551641651472 0 0.0041307287365692433 0.00022455401200634776 0 0.0030403125863467224 0.00019244972453727246 0 0.0041307287365692433 0.00022455401200634776 0 0.0034653723712469056 -0.00034966398056280842 0 0.0039512702066518334 -0.0008608901329656178 0 0.0041307287365692433 0.00022455401200634776 0 0.0034653723712469056 -0.00034966398056280842 0 0.0030403125863467224 0.00019244972453727246 0 0.0034653723712469056 -0.00034966398056280842 0 0.0030403125863467224 0.00019244972453727246 0 0.0026119583435365587 -0.00067679082102864625 0 0.0023032160272486069 -2.4270472749100334e-05 0 0.0030403125863467224 0.00019244972453727246 0 0.0026119583435365587 -0.00067679082102864625 0 0.0017607615100876134 -0.00069067424374889505 0 0.0023032160272486069 -2.4270472749100334e-05 0 0.0026119583435365587 -0.00067679082102864625 0 0.0017607615100876134 -0.00069067424374889505 0 0.0016804666154136153 0.00031497849469261483 0 0.0023032160272486069 -2.4270472749100334e-05 0 0.0016804666154136153 0.00031497849469261483 0 0.0025573069101281491 0.00081985985927166547 0 0.0023032160272486069 -2.4270472749100334e-05 0 0.0025573069101281491 0.00081985985927166547 0 0.0023032160272486069 -2.4270472749100334e-05 0 0.0030403125863467224 0.00019244972453727246 0 0.0066583906973631856 0.0024551031328312418 0 0.0065633460959944679 0.0013216940768829729 0 0.0051601552945593722 0.0012226569658230365 0 0.0065633460959944679 0.0013216940768829729 0 0.0051601552945593722 0.0012226569658230365 0 0.005859536188447487 0.00060653650575499232 0 0.0041307287365692433 0.00022455401200634776 0 0.0051601552945593722 0.0012226569658230365 0 0.0052077842212420091 -0.00019864028512019466 0 0.0051601552945593722 0.0012226569658230365 0 0.0052077842212420091 -0.00019864028512019466 0 0.005859536188447487 0.00060653650575499232 0 0.0041307287365692433 0.00022455401200634776 0 0.0052077842212420091 -0.00019864028512019466 0 0.0039512702066518334 -0.0008608901329656178 0 0.0052077842212420091 -0.00019864028512019466 0 0.005859536188447487 0.00060653650575499232 0 0.0065306601950222342 8.4985071980634412e-05 0 0.0065633460959944679 0.0013216940768829729 0 0.005859536188447487 0.00060653650575499232 0 0.0065306601950222342 8.4985071980634412e-05 0 0.0065633460959944679 0.0013216940768829729 0 0.0065306601950222342 8.4985071980634412e-05 0 0.0075741703980357197 0.00098746827235985475 0 0.0065306601950222342 8.4985071980634412e-05 0 0.0061229034475296425 -0.0011752787235655079 0 0.0078437863970457072 -0.00035557077256033579 0 0.0052077842212420091 -0.00019864028512019466 0 0.0065306601950222342 8.4985071980634412e-05 0 0.0061229034475296425 -0.0011752787235655079 0 0.0061229034475296425 -0.0011752787235655079 0 0.0046602043468463722 -0.001244287503764694 0 0.0050507814759332692 -0.0021333576526175492 0 0.0052077842212420091 -0.00019864028512019466 0 0.0061229034475296425 -0.0011752787235655079 0 0.0046602043468463722 -0.001244287503764694 0 0.0052077842212420091 -0.00019864028512019466 0 0.0046602043468463722 -0.001244287503764694 0 0.0039512702066518334 -0.0008608901329656178 0 0.0046602043468463722 -0.001244287503764694 0 0.0050507814759332692 -0.0021333576526175492 0 0.0041780680134065433 -0.0019672028698272045 0 0.0043002859154298847 -0.0025687123458350094 0 0.0050507814759332692 -0.0021333576526175492 0 0.0041780680134065433 -0.0019672028698272045 0 0.0043002859154298847 -0.0025687123458350094 0 0.0050507814759332692 -0.0021333576526175492 0 0.0052895491981833839 -0.0029456324481641721 0 0.0050507814759332692 -0.0021333576526175492 0 0.0060620499937486111 -0.0021885347497327045 0 0.0052895491981833839 -0.0029456324481641721 0 0.0061229034475296425 -0.0011752787235655079 0 0.0060620499937486111 -0.0021885347497327045 0 0.0075902948232134601 -0.0018817669979497155 0 0.0061229034475296425 -0.0011752787235655079 0 0.0050507814759332692 -0.0021333576526175492 0 0.0060620499937486111 -0.0021885347497327045 0 0.0029900297273418464 -0.0012032541439753784 0 0.0023057233026373965 -0.0013824973358325422 0 0.0027510463557067284 -0.0019567914361715965 0 0.0029900297273418464 -0.0012032541439753784 0 0.0034795852674161382 -0.0015252134875874254 0 0.0027510463557067284 -0.0019567914361715965 0 0.0017607615100876134 -0.00069067424374889505 0 0.0023057233026373965 -0.0013824973358325422 0 0.0026119583435365587 -0.00067679082102864625 0 0.0029900297273418464 -0.0012032541439753784 0 0.0023057233026373965 -0.0013824973358325422 0 0.0026119583435365587 -0.00067679082102864625 0 0.0034653723712469056 -0.00034966398056280842 0 0.0029900297273418464 -0.0012032541439753784 0 0.0026119583435365587 -0.00067679082102864625 0 0.0034653723712469056 -0.00034966398056280842 0 0.0029900297273418464 -0.0012032541439753784 0 0.0039512702066518334 -0.0008608901329656178 0 0.0046602043468463722 -0.001244287503764694 0 0.0039512702066518334 -0.0008608901329656178 0 0.0034795852674161382 -0.0015252134875874254 0 0.0029900297273418464 -0.0012032541439753784 0 0.0039512702066518334 -0.0008608901329656178 0 0.0034795852674161382 -0.0015252134875874254 0 0.0034795852674161382 -0.0015252134875874254 0 0.0034316906242310408 -0.002341366708228845 0 0.0027510463557067284 -0.0019567914361715965 0 0.0034795852674161382 -0.0015252134875874254 0 0.0041780680134065433 -0.0019672028698272045 0 0.0034316906242310408 -0.002341366708228845 0 0.0046602043468463722 -0.001244287503764694 0 0.0034795852674161382 -0.0015252134875874254 0 0.0041780680134065433 -0.0019672028698272045 0 0.0043002859154298847 -0.0025687123458350094 0 0.0034316906242310408 -0.002341366708228845 0 0.00376015806733603 -0.0027719171941113984 0 0.0043002859154298847 -0.0025687123458350094 0 0.0041780680134065433 -0.0019672028698272045 0 0.0034316906242310408 -0.002341366708228845 0 0.0034316906242310408 -0.002341366708228845 0 0.0028921852262451275 -0.0025448375339775617 0 0.0027510463557067284 -0.0019567914361715965 0 0.0028921852262451275 -0.0025448375339775617 0 0.0027510463557067284 -0.0019567914361715965 0 0.0023604523702218149 -0.0024874316295782242 0 0.0016720492671533761 -0.0015941991642893245 0 0.0023057233026373965 -0.0013824973358325422 0 0.0020417352930206349 -0.0020007798122978031 0 0.0023057233026373965 -0.0013824973358325422 0 0.0027510463557067284 -0.0019567914361715965 0 0.0020417352930206349 -0.0020007798122978031 0 0.0017556505918563451 -0.0024969167150122335 0 0.0020417352930206349 -0.0020007798122978031 0 0.0023604523702218149 -0.0024874316295782242 0 0.0027510463557067284 -0.0019567914361715965 0 0.0020417352930206349 -0.0020007798122978031 0 0.0023604523702218149 -0.0024874316295782242 0 0.0017556505918563451 -0.0024969167150122335 0 0.0023604523702218149 -0.0024874316295782242 0 0.0021250888745139172 -0.0029735461388413391 0 0.0023604523702218149 -0.0024874316295782242 0 0.0021250888745139172 -0.0029735461388413391 0 0.0027294762074746861 -0.0029880956996683455 0 0.0028921852262451275 -0.0025448375339775617 0 0.0023604523702218149 -0.0024874316295782242 0 0.0027294762074746861 -0.0029880956996683455 0 0.0028921852262451275 -0.0025448375339775617 0 0.0027294762074746861 -0.0029880956996683455 0 0.0032779634300502528 -0.0028483104414818339 0 0.0027294762074746861 -0.0029880956996683455 0 0.002534427288107835 -0.0034217322124746453 0 0.0032211404347869876 -0.0034177501770529168 0 0.001929991069626092 -0.0034875686718505525 0 0.0021250888745139172 -0.0029735461388413391 0 0.002534427288107835 -0.0034217322124746453 0 0.0021250888745139172 -0.0029735461388413391 0 0.0027294762074746861 -0.0029880956996683455 0 0.002534427288107835 -0.0034217322124746453 0 0.001929991069626092 -0.0034875686718505525 0 0.0018648930894670263 -0.0039957639835211745 0 0.0024126052311784761 -0.0038387288782749116 0 0.001929991069626092 -0.0034875686718505525 0 0.002534427288107835 -0.0034217322124746453 0 0.0024126052311784761 -0.0038387288782749116 0 0.002534427288107835 -0.0034217322124746453 0 0.0024126052311784761 -0.0038387288782749116 0 0.0029123819050743539 -0.00376480719468298 0 0.002534427288107835 -0.0034217322124746453 0 0.0029123819050743539 -0.00376480719468298 0 0.0032211404347869876 -0.0034177501770529168 0 0.0024126052311784761 -0.0038387288782749116 0 0.0028352456964207931 -0.0041047478777178764 0 0.0024057150817869029 -0.0042396090748360836 0 0.0024126052311784761 -0.0038387288782749116 0 0.0029123819050743539 -0.00376480719468298 0 0.0028352456964207931 -0.0041047478777178764 0 0.0029123819050743539 -0.00376480719468298 0 0.0028352456964207931 -0.0041047478777178764 0 0.003249696122247635 -0.0041923773090564087 0 0.0028352456964207931 -0.0041047478777178764 0 0.003249696122247635 -0.0041923773090564087 0 0.0028622713086576151 -0.0044457375177242445 0 0.0028352456964207931 -0.0041047478777178764 0 0.0024057150817869029 -0.0042396090748360836 0 0.0028622713086576151 -0.0044457375177242445 0 0.0018648930894670263 -0.0039957639835211745 0 0.0024126052311784761 -0.0038387288782749116 0 0.0024057150817869029 -0.0042396090748360836 0 0.0037408847845964159 -0.0040523549857356634 0 0.0037779576323112214 -0.0043667859973226435 0 0.003249696122247635 -0.0041923773090564087 0 0.0037408847845964159 -0.0040523549857356634 0 0.0037779576323112214 -0.0043667859973226435 0 0.0041772333221925025 -0.0041260157378104484 0 0.0037779576323112214 -0.0043667859973226435 0 0.0041772333221925025 -0.0041260157378104484 0 0.0041664331341039916 -0.0043906083533688514 0 0.0037779576323112214 -0.0043667859973226435 0 0.0041664331341039916 -0.0043906083533688514 0 0.0039720454963598746 -0.0046168258061928605 0 0.0037779576323112214 -0.0043667859973226435 0 0.003249696122247635 -0.0041923773090564087 0 0.0032235579437950566 -0.0047176238424851786 0 0.0037408847845964159 -0.0040523549857356634 0 0.003249696122247635 -0.0041923773090564087 0 0.0034798169183102119 -0.0038126559511825826 0 0.0029123819050743539 -0.00376480719468298 0 0.0034798169183102119 -0.0038126559511825826 0 0.0032211404347869876 -0.0034177501770529168 0 0.0029123819050743539 -0.00376480719468298 0 0.003249696122247635 -0.0041923773090564087 0 0.0034798169183102119 -0.0038126559511825826 0 0.0034798169183102119 -0.0038126559511825826 0 0.0037006489745973017 -0.003519669543532564 0 0.0032211404347869876 -0.0034177501770529168 0 0.0034798169183102119 -0.0038126559511825826 0 0.0040469011822253289 -0.0037550507634996851 0 0.0037006489745973017 -0.003519669543532564 0 0.0037408847845964159 -0.0040523549857356634 0 0.0034798169183102119 -0.0038126559511825826 0 0.0040469011822253289 -0.0037550507634996851 0 0.0037408847845964159 -0.0040523549857356634 0 0.0040469011822253289 -0.0037550507634996851 0 0.0041772333221925025 -0.0041260157378104484 0 0.0040469011822253289 -0.0037550507634996851 0 0.0037006489745973017 -0.003519669543532564 0 0.0042626344389387087 -0.0032868748350510036 0 0.0036784887709463555 -0.0031701872526491278 0 0.00376015806733603 -0.0027719171941113984 0 0.0042626344389387087 -0.0032868748350510036 0 0.0037006489745973017 -0.003519669543532564 0 0.0036784887709463555 -0.0031701872526491278 0 0.0042626344389387087 -0.0032868748350510036 0 0.0027294762074746861 -0.0029880956996683455 0 0.0032211404347869876 -0.0034177501770529168 0 0.0032779634300502528 -0.0028483104414818339 0 0.0036784887709463555 -0.0031701872526491278 0 0.0032211404347869876 -0.0034177501770529168 0 0.0032779634300502528 -0.0028483104414818339 0 0.0037006489745973017 -0.003519669543532564 0 0.0036784887709463555 -0.0031701872526491278 0 0.0032211404347869876 -0.0034177501770529168 0 0.0034316906242310408 -0.002341366708228845 0 0.0028921852262451275 -0.0025448375339775617 0 0.0032779634300502528 -0.0028483104414818339 0 0.0034316906242310408 -0.002341366708228845 0 0.0032779634300502528 -0.0028483104414818339 0 0.00376015806733603 -0.0027719171941113984 0 0.0036784887709463555 -0.0031701872526491278 0 0.0032779634300502528 -0.0028483104414818339 0 0.00376015806733603 -0.0027719171941113984 0 0.0043002859154298847 -0.0025687123458350094 0 0.00376015806733603 -0.0027719171941113984 0 0.0042626344389387087 -0.0032868748350510036 0 0.0043002859154298847 -0.0025687123458350094 0 0.0052895491981833839 -0.0029456324481641721 0 0.0042626344389387087 -0.0032868748350510036 0 0.0052895491981833839 -0.0029456324481641721 0 0.0042626344389387087 -0.0032868748350510036 0 0.0049415451195637733 -0.0036715878357802259 0 0.0052895491981833839 -0.0029456324481641721 0 0.0060194833158425855 -0.0038873129791255697 0 0.0049415451195637733 -0.0036715878357802259 0 0.0060620499937486111 -0.0021885347497327045 0 0.0052895491981833839 -0.0029456324481641721 0 0.0064898342409543137 -0.0028532224845166094 0 0.0052895491981833839 -0.0029456324481641721 0 0.0064898342409543137 -0.0028532224845166094 0 0.0060194833158425855 -0.0038873129791255697 0 0.0060194833158425855 -0.0038873129791255697 0 0.0060783320912712047 -0.0049004678265940349 0 0.0076607975088195382 -0.0047844228589632182 0 0.0060194833158425855 -0.0038873129791255697 0 0.0048305352179967703 -0.0042916262214483577 0 0.0060783320912712047 -0.0049004678265940349 0 0.0048305352179967703 -0.0042916262214483577 0 0.0043928966506795895 -0.0049227374585462209 0 0.0060783320912712047 -0.0049004678265940349 0 0.0040469011822253289 -0.0037550507634996851 0 0.0042626344389387087 -0.0032868748350510036 0 0.004475156351791393 -0.0038947093568255874 0 0.004475156351791393 -0.0038947093568255874 0 0.0049415451195637733 -0.0036715878357802259 0 0.0048305352179967703 -0.0042916262214483577 0 0.0042626344389387087 -0.0032868748350510036 0 0.004475156351791393 -0.0038947093568255874 0 0.0049415451195637733 -0.0036715878357802259 0 0.0040469011822253289 -0.0037550507634996851 0 0.004475156351791393 -0.0038947093568255874 0 0.0041772333221925025 -0.0041260157378104484 0 0.0060194833158425855 -0.0038873129791255697 0 0.0049415451195637733 -0.0036715878357802259 0 0.0048305352179967703 -0.0042916262214483577 0 0.004475156351791393 -0.0038947093568255874 0 0.0048305352179967703 -0.0042916262214483577 0 0.0041772333221925025 -0.0041260157378104484 0 0.0048305352179967703 -0.0042916262214483577 0 0.0041772333221925025 -0.0041260157378104484 0 0.0041664331341039916 -0.0043906083533688514 0 0.0048305352179967703 -0.0042916262214483577 0 0.0041664331341039916 -0.0043906083533688514 0 0.0044315596811470188 -0.0045306059817819102 0 0.0048305352179967703 -0.0042916262214483577 0 0.0044315596811470188 -0.0045306059817819102 0 0.0043928966506795895 -0.0049227374585462209 0 0.0041664331341039916 -0.0043906083533688514 0 0.004309884900419645 -0.0046827722875771209 0 0.0039720454963598746 -0.0046168258061928605 0 0.0041664331341039916 -0.0043906083533688514 0 0.0044315596811470188 -0.0045306059817819102 0 0.004309884900419645 -0.0046827722875771209 0 0.004309884900419645 -0.0046827722875771209 0 0.0043928966506795895 -0.0049227374585462209 0 0.0039720454963598746 -0.0046168258061928605 0 0.0044315596811470188 -0.0045306059817819102 0 0.004309884900419645 -0.0046827722875771209 0 0.0043928966506795895 -0.0049227374585462209 0 0.010150119244746514 -0.0037187749412917323 0 0.012089888394128128 -0.0045251429411228422 0 0.017715422182960027 -0.0039653271095842968 0 0.018205431926183464 -0.004317094552757062 0 0.018606943504248373 -0.0038713712789290896 0 0.017715422182960027 -0.0039653271095842968 0 0.017846707175353381 -0.0044375060829280446 0 0.01756984428212589 -0.0046694029898295313 0 0.017715422182960027 -0.0039653271095842968 0 0.018205431926183464 -0.004317094552757062 0 0.017846707175353381 -0.0044375060829280446 0 0.018606943504248373 -0.0038713712789290896 0 0.018734567820895685 -0.0046140021803568595 0 0.019270207906416828 -0.0044201872109167727 0 0.018205431926183464 -0.004317094552757062 0 0.018606943504248373 -0.0038713712789290896 0 0.018734567820895685 -0.0046140021803568595 0 0.018734567820895685 -0.0046140021803568595 0 0.018572382149275379 -0.0050423720342804229 0 0.018044153004996209 -0.0048020383464937892 0 0.018205431926183464 -0.004317094552757062 0 0.018734567820895685 -0.0046140021803568595 0 0.018044153004996209 -0.0048020383464937892 0 0.018734567820895685 -0.0046140021803568595 0 0.018572382149275379 -0.0050423720342804229 0 0.019208375589377612 -0.0050275691281203077 0 0.017846707175353381 -0.0044375060829280446 0 0.018044153004996209 -0.0048020383464937892 0 0.01756984428212589 -0.0046694029898295313 0 0.018205431926183464 -0.004317094552757062 0 0.017846707175353381 -0.0044375060829280446 0 0.018044153004996209 -0.0048020383464937892 0 0.018044153004996209 -0.0048020383464937892 0 0.01756984428212589 -0.0046694029898295313 0 0.017501058893923303 -0.0052437199529209166 0 0.01756984428212589 -0.0046694029898295313 0 0.017035277271700587 -0.004898347155183537 0 0.017501058893923303 -0.0052437199529209166 0 0.017715422182960027 -0.0039653271095842968 0 0.01756984428212589 -0.0046694029898295313 0 0.017035277271700587 -0.004898347155183537 0 0.0036077648399375868 -0.004798659983143827 0 0.0031188186294025034 -0.0048206672053147243 0 0.0030856619485396973 -0.0048380677164954347 0 0.0038041342459534853 -0.0044602085511073527 0 0.0036077648399375868 -0.004798659983143827 0 0.0031188186294025034 -0.0048206672053147243 0 0.0019246122470009681 -0.0056296279395361545 0 0.0030856619485396973 -0.0048380677164954347 0 0.0021211969042913706 -0.004854242480883484 0 0.00282102098804998 -0.0050003719327989405 0 0.002941385738711901 -0.0049014260716162801 0 0.0018410457558222272 -0.0044024381866220189 0 0.0021211969042913706 -0.004854242480883484 0 0.0025043534431571789 -0.0045661636389330252 0 0.0030856619485396973 -0.0048380677164954347 0 0.0021211969042913706 -0.004854242480883484 0 0.0025043534431571789 -0.0045661636389330252 0 0.0018410457558222272 -0.0044024381866220189 0 0.0025043534431571789 -0.0045661636389330252 0 0.0024057150817869029 -0.0042396090748360836 0 0.0018648930894670263 -0.0039957639835211745 0 0.0018410457558222272 -0.0044024381866220189 0 0.0024057150817869029 -0.0042396090748360836 0 0.0030856619485396973 -0.0048380677164954347 0 0.0025043534431571789 -0.0045661636389330252 0 0.0028622713086576151 -0.0044457375177242445 0 0.0025043534431571789 -0.0045661636389330252 0 0.0024057150817869029 -0.0042396090748360836 0 0.0028622713086576151 -0.0044457375177242445 0 0.0030856619485396973 -0.0048380677164954347 0 0.0028622713086576151 -0.0044457375177242445 0 0.0032235579437950566 -0.0047176238424851786 0 0.003249696122247635 -0.0041923773090564087 0 0.0028622713086576151 -0.0044457375177242445 0 0.0032235579437950566 -0.0047176238424851786 0 0.010150119244746514 -0.0037187749412917323 0 0.010026997648560122 -0.0045251568535815368 0 0.0033932283654197 -0.0047415491780107418 0 0.0031188186294025034 -0.0048206672053147243 0 0.0030856619485396973 -0.0048380677164954347 0 0.0033932283654197 -0.0047415491780107418 0 0.0030856619485396973 -0.0048380677164954347 0 0.0032235579437950566 -0.0047176238424851786 0 0.0037779576323112214 -0.0043667859973226435 0 0.0032235579437950566 -0.0047176238424851786 0 0.0039720454963598746 -0.0046168258061928605 0 0.0043928966506795895 -0.0049227374585462209 0 0.0032235579437950566 -0.0047176238424851786 0 0.0039720454963598746 -0.0046168258061928605 0 0.010150119244746514 -0.0037187749412917323 0 0.0084536382962559133 -0.0039050403775630371 0 0.017913677844861142 -0.0056718004518760013 0 0.018824804669669126 -0.0060478920699658942 0 0.017270503910390048 -0.0065108398470102181 0 0.017913677844861142 -0.0056718004518760013 0 0.018824804669669126 -0.0060478920699658942 0 0.018603473366633004 -0.0051315140687207376 0 0.018824804669669126 -0.0060478920699658942 0 0.017270503910390048 -0.0065108398470102181 0 0.018655278605382651 -0.0071800742934767627 0 0.017270503910390048 -0.0065108398470102181 0 0.01634755734538771 -0.0065182504727717867 0 0.015750435322876514 -0.0075070332909407539 0 0.01634755734538771 -0.0065182504727717867 0 0.015632619479359552 -0.0065845295365247192 0 0.015750435322876514 -0.0075070332909407539 0 0.015632619479359552 -0.0065845295365247192 0 0.016735007050500711 -0.005468517948312243 0 0.015389251091531166 -0.0052944659330507451 0 0.01634755734538771 -0.0065182504727717867 0 0.015632619479359552 -0.0065845295365247192 0 0.016735007050500711 -0.005468517948312243 0 0.017270503910390048 -0.0065108398470102181 0 0.01634755734538771 -0.0065182504727717867 0 0.016735007050500711 -0.005468517948312243 0 0.017913677844861142 -0.0056718004518760013 0 0.017270503910390048 -0.0065108398470102181 0 0.016735007050500711 -0.005468517948312243 0 0.016735007050500711 -0.005468517948312243 0 0.0180907328596632 -0.0048126384798060683 0 0.017311520142773696 -0.0037767308013162727 0 0.016735007050500711 -0.005468517948312243 0 0.016132813182584443 -0.0043855542285146359 0 0.017311520142773696 -0.0037767308013162727 0 0.016735007050500711 -0.005468517948312243 0 0.016132813182584443 -0.0043855542285146359 0 0.015389251091531166 -0.0052944659330507451 0 0.018639694553642509 -0.0041643534801927172 0 0.0180907328596632 -0.0048126384798060683 0 0.017311520142773696 -0.0037767308013162727 0 0.018639694553642509 -0.0041643534801927172 0 0.0180907328596632 -0.0048126384798060683 0 0.018814169270008025 -0.0045372679076264785 0 0.017913677844861142 -0.0056718004518760013 0 0.0180907328596632 -0.0048126384798060683 0 0.018603473366633004 -0.0051315140687207376 0 0.017913677844861142 -0.0056718004518760013 0 0.016735007050500711 -0.005468517948312243 0 0.0180907328596632 -0.0048126384798060683 0 0.018824804669669126 -0.0060478920699658942 0 0.018603473366633004 -0.0051315140687207376 0 0.019187577861766364 -0.0046280867328195724 0 0.0180907328596632 -0.0048126384798060683 0 0.018603473366633004 -0.0051315140687207376 0 0.018814169270008025 -0.0045372679076264785 0 0.018603473366633004 -0.0051315140687207376 0 0.019187577861766364 -0.0046280867328195724 0 0.018814169270008025 -0.0045372679076264785 0 0.019187577861766364 -0.0046280867328195724 0 0.018814169270008025 -0.0045372679076264785 0 0.019217784354411668 -0.003986379558209528 0 0.018639694553642509 -0.0041643534801927172 0 0.018814169270008025 -0.0045372679076264785 0 0.019217784354411668 -0.003986379558209528 0 0.018639694553642509 -0.0041643534801927172 0 0.019217784354411668 -0.003986379558209528 0 0.019010392385244979 -0.0034816220462655619 0 0.01923701413218042 -0.0051812826039888543 0 0.019569237066525434 -0.0046902161354456387 0 0.019483648821960093 -0.0040448625907484109 0 0.019686570293100215 -0.0041940814381744391 0 0.019706161722925324 -0.0035523686528623143 0 0.018824804669669126 -0.0060478920699658942 0 0.019670622210657258 -0.0049801268101949975 0 0.019671844787998775 -0.0050861803581688627 0 0.018824804669669126 -0.0060478920699658942 0 0.019686570293100215 -0.0041940814381744391 0 0.020408009007598323 -0.0037897343732345191 0 0.018824804669669126 -0.0060478920699658942 0 0.019187577861766364 -0.0046280867328195724 0 0.019686570293100215 -0.0041940814381744391 0 0.019187577861766364 -0.0046280867328195724 0 0.019483648821960093 -0.0040448625907484109 0 0.019686570293100215 -0.0041940814381744391 0 0.019187577861766364 -0.0046280867328195724 0 0.019217784354411668 -0.003986379558209528 0 0.019483648821960093 -0.0040448625907484109 0 0.019686570293100215 -0.0041940814381744391 0 0.020408009007598323 -0.0037897343732345191 0 0.020028594551823837 -0.0036718860393616924 0 0.018734567820895685 -0.0046140021803568595 0 0.019208375589377612 -0.0050275691281203077 0 0.019255449969752723 -0.0047736725253077796 0 0.019671844787998775 -0.0050861803581688627 0 0.019208375589377612 -0.0050275691281203077 0 0.019255449969752723 -0.0047736725253077796 0 0.019670622210657258 -0.0049801268101949975 0 0.019671844787998775 -0.0050861803581688627 0 0.019208375589377612 -0.0050275691281203077 0 0.019671844787998775 -0.0050861803581688627 0 0.019255449969752723 -0.0047736725253077796 0 0.019270207906416828 -0.0044201872109167727 0 0.018734567820895685 -0.0046140021803568595 0 0.019255449969752723 -0.0047736725253077796 0 0.019270207906416828 -0.0044201872109167727 0 0.018606943504248373 -0.0038713712789290896 0 0.019270207906416828 -0.0044201872109167727 0 0.019562620268906001 -0.0037529962799471681 0 0.015041780954582801 -0.0054727323741783898 0 0.013469200981351234 -0.0054321159868340194 0 0.012089888394128128 -0.0045251429411228422 0 0.013469200981351234 -0.0054321159868340194 0 0.019671844787998775 -0.0050861803581688627 0 0.019270207906416828 -0.0044201872109167727 0 0.019562620268906001 -0.0037529962799471681 0 0.018824804669669126 -0.0060478920699658942 0 0.020064042569153787 -0.0067517963454335837 0 0.018655278605382651 -0.0071800742934767627 0 0.018824804669669126 -0.0060478920699658942 0 0.019671844787998775 -0.0050861803581688627 0 0.020064042569153787 -0.0067517963454335837 0 0.011286098156766657 -0.0066599980184339396 0 0.0089218769799858395 -0.0089535451481815177 0 0.012150780483111665 -0.008673431361278414 0 0.011286098156766657 -0.0066599980184339396 0 0.0089218769799858395 -0.0089535451481815177 0 0.008673486555748457 -0.0058654919114773021 0 0.013469200981351234 -0.0054321159868340194 0 0.014602453010272824 -0.006228742662966782 0 0.0060194833158425855 -0.0038873129791255697 0 0.0076607975088195382 -0.0047844228589632182 0 0.0075513719762428976 -0.0032895218858562964 0 0.013469200981351234 -0.0054321159868340194 0 0.011152820670281094 -0.0041894600974414125 0 0.0064898342409543137 -0.0028532224845166094 0 0.0075513719762428976 -0.0032895218858562964 0 0.0075902948232134601 -0.0018817669979497155 0 0.0064898342409543137 -0.0028532224845166094 0 0.0060194833158425855 -0.0038873129791255697 0 0.0075513719762428976 -0.0032895218858562964 0 0.011286098156766657 -0.0066599980184339396 0 0.008673486555748457 -0.0058654919114773021 0 0.010153676997938441 -0.0046811739946807382 0 0.008673486555748457 -0.0058654919114773021 0 0.010153676997938441 -0.0046811739946807382 0 0.008341103918773532 -0.0030127594820878643 0 0.011286098156766657 -0.0066599980184339396 0 0.010153676997938441 -0.0046811739946807382 0 0.011783079575456218 -0.0048653901514416481 0 0.011783079575456218 -0.0048653901514416481 0 0.013544001036601841 -0.0054633141853218051 0 0.012980207159282848 -0.0062516095970667441 0 0.011783079575456218 -0.0048653901514416481 0 0.013544001036601841 -0.0054633141853218051 0 0.012335428760357333 -0.003805531745141148 0 0.013544001036601841 -0.0054633141853218051 0 0.012980207159282848 -0.0062516095970667441 0 0.014320812194254977 -0.0068650411147196709 0 0.011286098156766657 -0.0066599980184339396 0 0.011783079575456218 -0.0048653901514416481 0 0.012980207159282848 -0.0062516095970667441 0 0.017270503910390048 -0.0065108398470102181 0 0.018655278605382651 -0.0071800742934767627 0 0.015750435322876514 -0.0075070332909407539 0 0.011286098156766657 -0.0066599980184339396 0 0.013349710820886939 -0.0073320027124078547 0 0.012150780483111665 -0.008673431361278414 0 0.014602453010272824 -0.006228742662966782 0 0.014936524288093708 -0.0064445614751337081 0 0.011286098156766657 -0.0066599980184339396 0 0.012980207159282848 -0.0062516095970667441 0 0.013349710820886939 -0.0073320027124078547 0 0.013349710820886939 -0.0073320027124078547 0 0.012150780483111665 -0.008673431361278414 0 0.015750435322876514 -0.0075070332909407539 0 0.012980207159282848 -0.0062516095970667441 0 0.013349710820886939 -0.0073320027124078547 0 0.014320812194254977 -0.0068650411147196709 0 0.015632619479359552 -0.0065845295365247192 0 0.015750435322876514 -0.0075070332909407539 0 0.015772271011896086 -0.0074594275105243288 0 0.013349710820886939 -0.0073320027124078547 0 0.015750435322876514 -0.0075070332909407539 0 0.014320812194254977 -0.0068650411147196709 0 0.015750435322876514 -0.0075070332909407539 0 0.014320812194254977 -0.0068650411147196709 0 0.015772271011896086 -0.0074594275105243288 0 0.00053573309008188698 0.0019722075043309543 0 0.00022737315984364012 0.0032340840469957319 0 -0.00039864580965384125 0.0038447519315862417 0 0.0084558978756601021 -0.0015819859320346671 0 0.0068228965179320282 5.7910157797290404e-05 0 0.013544001036601841 -0.0054633141853218051 0 0.015772271011896086 -0.0074594275105243288 0 0.01377334335377133 -0.0038102009430292416 0 0.00053573309008188698 0.0019722075043309543 0 0.00057580214012791582 0.0030165814220651883 0 0.00022737315984364012 0.0032340840469957319 0 0.013544001036601841 -0.0054633141853218051 0 0.014320812194254977 -0.0068650411147196709 0 0.015772271011896086 -0.0074594275105243288 0 0.00057580214012791582 0.0030165814220651883 0 0.00022737315984364012 0.0032340840469957319 0 0.00021786321797525202 0.0041238162895729817 0 0.00021786321797525202 0.0041238162895729817 0 -0.00039864580965384125 0.0038447519315862417 0 -0.0010267703417463964 0.0060143211589025764 0 -0.00090667894537225309 0.0049380208910265854 0 -0.00054605502967904572 0.0054751743349430023 0 0.0003005372417369856 0.0048946962312168439 0 0.00022737315984364012 0.0032340840469957319 0 0.00021786321797525202 0.0041238162895729817 0 -0.00039864580965384125 0.0038447519315862417 0 0.013544001036601841 -0.0054633141853218051 0 0.01377334335377133 -0.0038102009430292416 0 0.012335428760357333 -0.003805531745141148 0 0.011783079575456218 -0.0048653901514416481 0 0.012335428760357333 -0.003805531745141148 0 0.010751057811387651 -0.0030897601252061384 0 0.011939162388739674 -0.0023770500573149808 0 0.010751057811387651 -0.0030897601252061384 0 0.010850702363009284 -0.001899917965838165 0 0.012335428760357333 -0.003805531745141148 0 0.011939162388739674 -0.0023770500573149808 0 0.010751057811387651 -0.0030897601252061384 0 0.01377334335377133 -0.0038102009430292416 0 0.012335428760357333 -0.003805531745141148 0 0.011939162388739674 -0.0023770500573149808 0 0.01377334335377133 -0.0038102009430292416 0 0.011939162388739674 -0.0023770500573149808 0 0.011218691733013771 -0.0006914293280815524 0 -0.00039864580965384125 0.0038447519315862417 0 -0.0010267703417463964 0.0060143211589025764 0 -0.0011825999867606143 0.006109248708433772 0 -0.00090667894537225309 0.0049380208910265854 0 -0.0010267703417463964 0.0060143211589025764 0 -0.0009019943609532659 0.0058172687019939495 0 -8.2423003155452306e-05 0.0042765010540565555 0 -0.0006274090455106147 0.004965519185290904 0 0.0068228965179320282 5.7910157797290404e-05 0 0.0051028444327720348 0.0020876889728778424 0 0.011939162388739674 -0.0023770500573149808 0 0.011146827321755235 -0.0015255319746318179 0 0.011218691733013771 -0.0006914293280815524 0 0.011939162388739674 -0.0023770500573149808 0 0.011146827321755235 -0.0015255319746318179 0 0.010850702363009284 -0.001899917965838165 0 0.011146827321755235 -0.0015255319746318179 0 0.011218691733013771 -0.0006914293280815524 0 0.010599896847785097 -0.0011467504799225594 0 -0.0010267703417463964 0.0060143211589025764 0 -0.00095023657721427402 0.0060842147909526507 0 -0.0010340687355013135 0.0061426914938179592 0 -0.0010267703417463964 0.0060143211589025764 0 -0.0011825999867606143 0.006109248708433772 0 -0.0010340687355013135 0.0061426914938179592 0 -0.0010267703417463964 0.0060143211589025764 0 -0.00095023657721427402 0.0060842147909526507 0 -0.0009019943609532659 0.0058172687019939495 0 -0.00095023657721427402 0.0060842147909526507 0 -0.0009019943609532659 0.0058172687019939495 0 -0.00083865039765674773 0.0061328756804887915 0 -0.00090667894537225309 0.0049380208910265854 0 -0.0009019943609532659 0.0058172687019939495 0 -0.00080018459397178138 0.0057524566384724325 0 -0.0009019943609532659 0.0058172687019939495 0 -0.00080018459397178138 0.0057524566384724325 0 -0.00083865039765674773 0.0061328756804887915 0 -0.0006130544271138904 0.0062219672664681246 0 -0.00080018459397178138 0.0057524566384724325 0 -0.00083865039765674773 0.0061328756804887915 0 -0.0006130544271138904 0.0062219672664681246 0 -0.00054605502967904572 0.0054751743349430023 0 -0.00080018459397178138 0.0057524566384724325 0 -0.00090667894537225309 0.0049380208910265854 0 -0.00054605502967904572 0.0054751743349430023 0 -0.00080018459397178138 0.0057524566384724325 0 0.011152820670281094 -0.0041894600974414125 0 0.0099689050970649552 -0.0025865050948587201 0 0.0060620499937486111 -0.0021885347497327045 0 0.0064898342409543137 -0.0028532224845166094 0 0.0075902948232134601 -0.0018817669979497155 0 0.010153676997938441 -0.0046811739946807382 0 0.008341103918773532 -0.0030127594820878643 0 0.010751057811387651 -0.0030897601252061384 0 0.008341103918773532 -0.0030127594820878643 0 0.010751057811387651 -0.0030897601252061384 0 0.0095441870191338395 -0.0016074797727475387 0 0.010153676997938441 -0.0046811739946807382 0 0.011783079575456218 -0.0048653901514416481 0 0.010751057811387651 -0.0030897601252061384 0 0.010850702363009284 -0.001899917965838165 0 0.010599896847785097 -0.0011467504799225594 0 0.0095441870191338395 -0.0016074797727475387 0 0.010751057811387651 -0.0030897601252061384 0 0.010850702363009284 -0.001899917965838165 0 0.0095441870191338395 -0.0016074797727475387 0 0.011146827321755235 -0.0015255319746318179 0 0.010850702363009284 -0.001899917965838165 0 0.010599896847785097 -0.0011467504799225594 0 0.011218691733013771 -0.0006914293280815524 0 0.01047568443182076 -0.00070761272824342784 0 0.0098187736159532288 -7.0228607299747972e-05 0 0.010599896847785097 -0.0011467504799225594 0 0.0099906685116951475 -0.00079834746440558043 0 0.0095441870191338395 -0.0016074797727475387 0 0.011218691733013771 -0.0006914293280815524 0 0.010599896847785097 -0.0011467504799225594 0 0.01047568443182076 -0.00070761272824342784 0 0.010599896847785097 -0.0011467504799225594 0 0.01047568443182076 -0.00070761272824342784 0 0.0099906685116951475 -0.00079834746440558043 0 0.01047568443182076 -0.00070761272824342784 0 0.0099906685116951475 -0.00079834746440558043 0 0.0098187736159532288 -7.0228607299747972e-05 0 0.0090392930541140556 -0.00051819229379187353 0 0.0095441870191338395 -0.0016074797727475387 0 0.0078437863970457072 -0.00035557077256033579 0 0.0099906685116951475 -0.00079834746440558043 0 0.0090392930541140556 -0.00051819229379187353 0 0.0095441870191338395 -0.0016074797727475387 0 0.008341103918773532 -0.0030127594820878643 0 0.0095441870191338395 -0.0016074797727475387 0 0.0078437863970457072 -0.00035557077256033579 0 0.0061229034475296425 -0.0011752787235655079 0 0.0075902948232134601 -0.0018817669979497155 0 0.0078437863970457072 -0.00035557077256033579 0 0.0099689050970649552 -0.0025865050948587201 0 0.0095903694111631015 -0.001704690408990601 0 0.0065306601950222342 8.4985071980634412e-05 0 0.0075741703980357197 0.00098746827235985475 0 0.0078437863970457072 -0.00035557077256033579 0 0.0090392930541140556 -0.00051819229379187353 0 0.0078437863970457072 -0.00035557077256033579 0 0.0083816514058150174 0.00052022143453297185 0 0.0075741703980357197 0.00098746827235985475 0 0.0083816514058150174 0.00052022143453297185 0 0.0087318461981231756 0.0013897180367786269 0 0.0075741703980357197 0.00098746827235985475 0 0.0078437863970457072 -0.00035557077256033579 0 0.0083816514058150174 0.00052022143453297185 0 -0.0011825999867606143 0.006109248708433772 0 -0.00083254440241544217 0.006306565231334803 0 -0.00098729116677712461 0.0062123557178386654 0 0.011218691733013771 -0.0006914293280815524 0 0.0098187736159532288 -7.0228607299747972e-05 0 0.0089799500926782318 0.0017261290489807067 0 0.0090826128551996579 0.00072265160826755508 0 0.0098187736159532288 -7.0228607299747972e-05 0 0.0089799500926782318 0.0017261290489807067 0 0.0051028444327720348 0.0020876889728778424 0 0.0033825670882802793 0.0038099009049892356 0 0.0083816514058150174 0.00052022143453297185 0 0.0090826128551996579 0.00072265160826755508 0 0.0087318461981231756 0.0013897180367786269 0 0.0083816514058150174 0.00052022143453297185 0 0.0090826128551996579 0.00072265160826755508 0 0.0091436538352907826 0.00011883604611606776 0 0.0090392930541140556 -0.00051819229379187353 0 0.0083816514058150174 0.00052022143453297185 0 0.0091436538352907826 0.00011883604611606776 0 0.0090826128551996579 0.00072265160826755508 0 0.0091436538352907826 0.00011883604611606776 0 0.0098187736159532288 -7.0228607299747972e-05 0 0.0099906685116951475 -0.00079834746440558043 0 0.0090392930541140556 -0.00051819229379187353 0 0.0098187736159532288 -7.0228607299747972e-05 0 0.0090392930541140556 -0.00051819229379187353 0 0.0091436538352907826 0.00011883604611606776 0 0.0098187736159532288 -7.0228607299747972e-05 0 -0.00083254440241544217 0.006306565231334803 0 -0.00089004768430378013 0.0062646120013483018 0 -0.00098729116677712461 0.0062123557178386654 0 -0.00083254440241544217 0.006306565231334803 0 -0.00089004768430378013 0.0062646120013483018 0 -0.00076447696818610458 0.0062828764137875682 0 0.0090826128551996579 0.00072265160826755508 0 0.0089799500926782318 0.0017261290489807067 0 0.0087318461981231756 0.0013897180367786269 0 0.0088679577067905784 0.001571366920098783 0 0.0087318461981231756 0.0013897180367786269 0 0.0079389266613319187 0.0019964896834067788 0 0.0033825670882802793 0.0038099009049892356 0 0.0034302617483334755 0.0038193165833788826 0 0.003494523815280968 0.0033663215799773251 0 0.0033825670882802793 0.0038099009049892356 0 0.0078247483002324217 0.0028780037234476708 0 0.0088679577067905784 0.001571366920098783 0 0.0079389266613319187 0.0019964896834067788 0 0.0075741703980357197 0.00098746827235985475 0 0.0087318461981231756 0.0013897180367786269 0 0.0079389266613319187 0.0019964896834067788 0 0.0066583906973631856 0.0024551031328312418 0 0.0065633460959944679 0.0013216940768829729 0 0.0079389266613319187 0.0019964896834067788 0 0.0065633460959944679 0.0013216940768829729 0 0.0075741703980357197 0.00098746827235985475 0 0.0079389266613319187 0.0019964896834067788 0 -0.00082313868901932061 0.0062628330668730017 0 -0.00074688854068300035 0.0063381683260876976 0 -0.00078851248560904592 0.0063109991139727786 0 -0.0006130544271138904 0.0062219672664681246 0 -0.00074688854068300035 0.0063381683260876976 0 -0.00083865039765674773 0.0061328756804887915 0 -0.00082313868901932061 0.0062628330668730017 0 -0.00074688854068300035 0.0063381683260876976 0 -0.00083865039765674773 0.0061328756804887915 0 -0.00095023657721427402 0.0060842147909526507 0 -0.00083865039765674773 0.0061328756804887915 0 -0.00092439744782866736 0.0062186817545145613 0 -0.00082313868901932061 0.0062628330668730017 0 -0.00083865039765674773 0.0061328756804887915 0 -0.00092439744782866736 0.0062186817545145613 0 -0.00095023657721427402 0.0060842147909526507 0 -0.00092439744782866736 0.0062186817545145613 0 -0.0010340687355013135 0.0061426914938179592 0 -0.0011825999867606143 0.006109248708433772 0 -0.0010340687355013135 0.0061426914938179592 0 -0.00098729116677712461 0.0062123557178386654 0 -0.00092439744782866736 0.0062186817545145613 0 -0.0010340687355013135 0.0061426914938179592 0 -0.00098729116677712461 0.0062123557178386654 0 -0.00092439744782866736 0.0062186817545145613 0 -0.00089004768430378013 0.0062646120013483018 0 -0.00078851248560904592 0.0063109991139727786 0 -0.00092439744782866736 0.0062186817545145613 0 -0.00089004768430378013 0.0062646120013483018 0 -0.00098729116677712461 0.0062123557178386654 0 -0.00082313868901932061 0.0062628330668730017 0 -0.00092439744782866736 0.0062186817545145613 0 -0.00078851248560904592 0.0063109991139727786 0 -0.0005469113518454746 0.0062047169473246656 0 -0.00078851248560904592 0.0063109991139727786 0 -0.00076447696818610458 0.0062828764137875682 0 -0.0005469113518454746 0.0062047169473246656 0 -0.00083254440241544217 0.006306565231334803 0 -0.00076447696818610458 0.0062828764137875682 0 -0.0005469113518454746 0.0062047169473246656 0 -0.00078851248560904592 0.0063109991139727786 0 -0.00070811797097900474 0.0063274035858926249 0 -0.00089004768430378013 0.0062646120013483018 0 -0.00078851248560904592 0.0063109991139727786 0 -0.00076447696818610458 0.0062828764137875682 0 -0.00074688854068300035 0.0063381683260876976 0 -0.00078851248560904592 0.0063109991139727786 0 -0.00070811797097900474 0.0063274035858926249 0 -0.00074688854068300035 0.0063381683260876976 0 -0.00070811797097900474 0.0063274035858926249 0 -0.00090625128548541272 0.0064896704892773169 0 -0.00074688854068300035 0.0063381683260876976 0 -0.00090625128548541272 0.0064896704892773169 0 -0.00090675708819655542 0.0063965569159245422 0 -0.0006130544271138904 0.0062219672664681246 0 -0.00074688854068300035 0.0063381683260876976 0 -0.00090675708819655542 0.0063965569159245422 0 -0.00090675708819655542 0.0063965569159245422 0 -0.00088515903028103121 0.0067317445972221741 0 -0.00057680953642889833 0.0064667751100651247 0 -0.0011067808116060869 0.0065886437071105038 0 -0.00090625128548541272 0.0064896704892773169 0 -0.00088515903028103121 0.0067317445972221741 0 -0.00090625128548541272 0.0064896704892773169 0 -0.00090675708819655542 0.0063965569159245422 0 -0.00088515903028103121 0.0067317445972221741 0 -0.00088515903028103121 0.0067317445972221741 0 -0.00087482016608015831 0.0068328038200318238 0 -5.7607619006923633e-06 0.0073949832002619025 0 -0.0011067808116060869 0.0065886437071105038 0 -0.00088515903028103121 0.0067317445972221741 0 -0.00087482016608015831 0.0068328038200318238 0 -0.00087482016608015831 0.0068328038200318238 0 -0.0010292446806563428 0.0068539525348040092 0 -5.7607619006923633e-06 0.0073949832002619025 0 -0.0011227432910636322 0.0067023511953404466 0 -0.00087482016608015831 0.0068328038200318238 0 -0.0010292446806563428 0.0068539525348040092 0 0.00047352040441662021 0.0081756981294143858 0 0.00033692343468587897 0.0079563127996121249 0 0.0012949045522401713 0.010218202369947676 0 -5.7607619006923633e-06 0.0073949832002619025 0 0.0022101863522385676 0.0082286352267444823 0 -5.7607619006923633e-06 0.0073949832002619025 0 0.0022101863522385676 0.0082286352267444823 0 0.0019435030942530278 0.0062469623315728143 0 -5.7607619006923633e-06 0.0073949832002619025 0 -0.00057680953642889833 0.0064667751100651247 0 0.0019435030942530278 0.0062469623315728143 0 -0.00088515903028103121 0.0067317445972221741 0 -5.7607619006923633e-06 0.0073949832002619025 0 -0.00057680953642889833 0.0064667751100651247 0 -0.00057680953642889833 0.0064667751100651247 0 0.00038540085879146984 0.0047530153981105794 0 -0.0010129391837631139 0.0060513806345671075 0 0.0025671536196801787 0.004824902285435315 0 0.00091019592344840936 0.0054897861614681557 0 -0.00057680953642889833 0.0064667751100651247 0 0.00038540085879146984 0.0047530153981105794 0 0.0019435030942530278 0.0062469623315728143 0 0.0040966361799606305 0.0048208993536094022 0 0.0060914405395962792 0.0039476584276790941 0 0.0047681120940594708 0.0029409382053966452 0 0.0040966361799606305 0.0048208993536094022 0 0.0018230842373704588 0.0056880237268123459 0 0.0028553314454897996 0.00321564029272453 0 0.0014180283249470983 0.0041817916173715781 0 0.0003005372417369856 0.0048946962312168439 0 0.0018230842373704588 0.0056880237268123459 0 0.0014180283249470983 0.0041817916173715781 0 0.0018230842373704588 0.0056880237268123459 0 0.0028553314454897996 0.00321564029272453 0 -0.00090667894537225309 0.0049380208910265854 0 0.0003005372417369856 0.0048946962312168439 0 0.00067925433768923564 0.0029151602289554566 0 0.0014180283249470983 0.0041817916173715781 0 0.0003005372417369856 0.0048946962312168439 0 0.00067925433768923564 0.0029151602289554566 0 -0.0006130544271138904 0.0062219672664681246 0 -0.00054605502967904572 0.0054751743349430023 0 0.0003005372417369856 0.0048946962312168439 0 -0.0006130544271138904 0.0062219672664681246 0 0.0003005372417369856 0.0048946962312168439 0 0.0018230842373704588 0.0056880237268123459 0 -0.0006130544271138904 0.0062219672664681246 0 -0.00090675708819655542 0.0063965569159245422 0 -0.0010129391837631139 0.0060513806345671075 0 0.00020012611594490812 0.0057698973423312792 0 0.00091019592344840936 0.0054897861614681557 0 -0.00090675708819655542 0.0063965569159245422 0 -0.00057680953642889833 0.0064667751100651247 0 -0.0010129391837631139 0.0060513806345671075 0 0.010738770118661414 0.0067092729384757707 0 0.00894489580934737 0.0091353735301913635 0 0.008801018990307205 0.005797501330520166 0 0.0087022587968698731 0.010374068115116318 0 0.0099096787898175515 0.010164821245760186 0 0.00894489580934737 0.0091353735301913635 0 0.00894489580934737 0.0091353735301913635 0 0.0067925360741723827 0.0078057352135085037 0 0.0058856979781318165 0.01073765045961626 0 0.006431134358477893 0.0083269482399717949 0 0.0047766724654656435 0.0085203594846267917 0 0.0087022587968698731 0.010374068115116318 0 0.00894489580934737 0.0091353735301913635 0 0.00695070183288885 0.010142876607896088 0 0.00894489580934737 0.0091353735301913635 0 0.0067925360741723827 0.0078057352135085037 0 0.008801018990307205 0.005797501330520166 0 0.0067925360741723827 0.0078057352135085037 0 0.0043298197850807074 0.0079925016640961244 0 0.0057867138953132443 0.0057199874287782509 0 0.0067925360741723827 0.0078057352135085037 0 0.0043298197850807074 0.0079925016640961244 0 0.0058856979781318165 0.01073765045961626 0 0.0043298197850807074 0.0079925016640961244 0 0.0058856979781318165 0.01073765045961626 0 0.0032853336928921977 0.0099162486197348406 0 0.0024949244624379351 0.012405418335027832 0 0.0012949045522401713 0.010218202369947676 0 0.0032853336928921977 0.0099162486197348406 0 0.0012949045522401713 0.010218202369947676 0 0.0032853336928921977 0.0099162486197348406 0 0.0022101863522385676 0.0082286352267444823 0 0.0043298197850807074 0.0079925016640961244 0 0.0022101863522385676 0.0082286352267444823 0 0.0019435030942530278 0.0062469623315728143 0 0.0043298197850807074 0.0079925016640961244 0 0.0032853336928921977 0.0099162486197348406 0 0.0022101863522385676 0.0082286352267444823 0 0.0019435030942530278 0.0062469623315728143 0 0.0037114395312954269 0.0035848841915059209 0 0.0057867138953132443 0.0057199874287782509 0 0.0025671536196801787 0.004824902285435315 0 0.0045944740763681595 0.0040966441520955002 0 0.00038540085879146984 0.0047530153981105794 0 0.0019435030942530278 0.0062469623315728143 0 0.0037114395312954269 0.0035848841915059209 0 0.0045944740763681595 0.0040966441520955002 0 0.0058194071889217068 0.0037100614515492075 0 0.0037114395312954269 0.0035848841915059209 0 0.0057867138953132443 0.0057199874287782509 0 0.0076811728077228678 0.0032347949931258312 0 0.0043298197850807074 0.0079925016640961244 0 0.0019435030942530278 0.0062469623315728143 0 0.0057867138953132443 0.0057199874287782509 0 0.0067925360741723827 0.0078057352135085037 0 0.0057867138953132443 0.0057199874287782509 0 0.008801018990307205 0.005797501330520166 0 0.0057867138953132443 0.0057199874287782509 0 0.008801018990307205 0.005797501330520166 0 0.0076811728077228678 0.0032347949931258312 0 0.011079296181618497 0.0049042902284674953 0 0.008801018990307205 0.005797501330520166 0 0.010000200954515115 0.003430931402457418 0 0.008801018990307205 0.005797501330520166 0 0.010000200954515115 0.003430931402457418 0 0.0076811728077228678 0.0032347949931258312 0 0.0093773231654532847 0.0017532220369280223 0 0.0076811728077228678 0.0032347949931258312 0 0.0078449589235819635 0.00088943965376396539 0 0.010886940567217522 0.0021002169108776353 0 0.0093773231654532847 0.0017532220369280223 0 0.010000200954515115 0.003430931402457418 0 0.010886940567217522 0.0021002169108776353 0 0.010675606870593176 0.00086607663331539201 0 0.0093773231654532847 0.0017532220369280223 0 0.0093773231654532847 0.0017532220369280223 0 0.010000200954515115 0.003430931402457418 0 0.0076811728077228678 0.0032347949931258312 0 0.0076811728077228678 0.0032347949931258312 0 0.0066036287520629044 0.0022498552202345856 0 0.0078449589235819635 0.00088943965376396539 0 0.0066036287520629044 0.0022498552202345856 0 0.0064771298312458299 0.00077908908529861849 0 0.0078449589235819635 0.00088943965376396539 0 0.0060914405395962792 0.0039476584276790941 0 0.0076811728077228678 0.0032347949931258312 0 0.0066036287520629044 0.0022498552202345856 0 0.0060914405395962792 0.0039476584276790941 0 0.0066036287520629044 0.0022498552202345856 0 0.0047681120940594708 0.0029409382053966452 0 0.0066036287520629044 0.0022498552202345856 0 0.0053241484556609802 0.0013417146185008375 0 0.0047681120940594708 0.0029409382053966452 0 0.0066036287520629044 0.0022498552202345856 0 0.0053241484556609802 0.0013417146185008375 0 0.0064771298312458299 0.00077908908529861849 0 0.0053241484556609802 0.0013417146185008375 0 0.0055427588854401388 -6.6614694216623853e-05 0 0.0064771298312458299 0.00077908908529861849 0 0.0055427588854401388 -6.6614694216623853e-05 0 0.004578782503754329 -0.00071543739966698665 0 0.0056679116410583933 -0.0015137591445705087 0 0.0055427588854401388 -6.6614694216623853e-05 0 0.0070955498921859289 -0.0005795390470448911 0 0.0056679116410583933 -0.0015137591445705087 0 0.0070955498921859289 -0.0005795390470448911 0 0.0068306298299823376 -0.0017751981856157146 0 0.0056679116410583933 -0.0015137591445705087 0 0.0070955498921859289 -0.0005795390470448911 0 0.0084508855702812649 -0.0017767541603387826 0 0.0068306298299823376 -0.0017751981856157146 0 0.0055427588854401388 -6.6614694216623853e-05 0 0.0070955498921859289 -0.0005795390470448911 0 0.0064771298312458299 0.00077908908529861849 0 0.0070955498921859289 -0.0005795390470448911 0 0.0064771298312458299 0.00077908908529861849 0 0.0078449589235819635 0.00088943965376396539 0 0.0070955498921859289 -0.0005795390470448911 0 0.0078449589235819635 0.00088943965376396539 0 0.0093425336215990518 -0.00021314302162327725 0 0.0093773231654532847 0.0017532220369280223 0 0.0078449589235819635 0.00088943965376396539 0 0.0093425336215990518 -0.00021314302162327725 0 0.0070955498921859289 -0.0005795390470448911 0 0.0093425336215990518 -0.00021314302162327725 0 0.0084508855702812649 -0.0017767541603387826 0 0.011112268764101282 -0.00057866412550547364 0 0.010653224290239684 -0.0022358971456462244 0 0.0093425336215990518 -0.00021314302162327725 0 0.010675606870593176 0.00086607663331539201 0 0.0093773231654532847 0.0017532220369280223 0 0.0093425336215990518 -0.00021314302162327725 0 0.011112268764101282 -0.00057866412550547364 0 0.010675606870593176 0.00086607663331539201 0 0.0093425336215990518 -0.00021314302162327725 0 0.0025447507218850931 0.0011729932280908305 0 0.0014694193027173551 0.0014821201438961669 0 0.0014129261326902491 0.0025404995302039353 0 0.0025447507218850931 0.0011729932280908305 0 0.00067925433768923564 0.0029151602289554566 0 0.0028553314454897996 0.00321564029272453 0 0.0017015150186732693 0.0022106574852538479 0 0.0010060425781347189 0.0029878162740472544 0 0.00053573309008188698 0.0019722075043309543 0 0.0014694193027173551 0.0014821201438961669 0 0.0013170855629936508 0.0011214193676548263 0 0.00053573309008188698 0.0019722075043309543 0 0.0010734407351690404 0.0021150263813592314 0 0.00086392540988343891 0.0024729489447306201 0 0.00053573309008188698 0.0019722075043309543 0 0.0014694193027173551 0.0014821201438961669 0 0.0010734407351690404 0.0021150263813592314 0 0.0014694193027173551 0.0014821201438961669 0 0.0010734407351690404 0.0021150263813592314 0 0.0014129261326902491 0.0025404995302039353 0 0.00057580214012791582 0.0030165814220651883 0 0.00021786321797525202 0.0041238162895729817 0 0.0014129261326902491 0.0025404995302039353 0 -8.2423003155452306e-05 0.0042765010540565555 0 0.0010060425781347189 0.0029878162740472544 0 0.00057580214012791582 0.0030165814220651883 0 0.0014129261326902491 0.0025404995302039353 0 0.00086392540988343891 0.0024729489447306201 0 0.0010734407351690404 0.0021150263813592314 0 0.0014129261326902491 0.0025404995302039353 0 0.00086392540988343891 0.0024729489447306201 0 0.00053573309008188698 0.0019722075043309543 0 0.00057580214012791582 0.0030165814220651883 0 0.00086392540988343891 0.0024729489447306201 0 0.0014180283249470983 0.0041817916173715781 0 0.00067925433768923564 0.0029151602289554566 0 0.0028553314454897996 0.00321564029272453 0 0.0040966361799606305 0.0048208993536094022 0 0.0028553314454897996 0.00321564029272453 0 0.0047681120940594708 0.0029409382053966452 0 0.0028553314454897996 0.00321564029272453 0 0.0047681120940594708 0.0029409382053966452 0 0.0038357549754068146 0.0014945242423005907 0 0.0053241484556609802 0.0013417146185008375 0 0.0047681120940594708 0.0029409382053966452 0 0.0038357549754068146 0.0014945242423005907 0 0.0025447507218850931 0.0011729932280908305 0 0.0028553314454897996 0.00321564029272453 0 0.0038357549754068146 0.0014945242423005907 0 0.0025447507218850931 0.0011729932280908305 0 0.0038357549754068146 0.0014945242423005907 0 0.0029668411172418048 0.00027741666897951919 0 0.0038357549754068146 0.0014945242423005907 0 0.0029668411172418048 0.00027741666897951919 0 0.0042834378857310633 0.00022596147686522854 0 0.0029668411172418048 0.00027741666897951919 0 0.0042834378857310633 0.00022596147686522854 0 0.0036634647429259087 -0.00055373168605707206 0 0.0053241484556609802 0.0013417146185008375 0 0.0038357549754068146 0.0014945242423005907 0 0.0042834378857310633 0.00022596147686522854 0 0.0053241484556609802 0.0013417146185008375 0 0.0055427588854401388 -6.6614694216623853e-05 0 0.0042834378857310633 0.00022596147686522854 0 0.004578782503754329 -0.00071543739966698665 0 0.0038024902950163958 -0.0015657195276068123 0 0.0056679116410583933 -0.0015137591445705087 0 0.0055427588854401388 -6.6614694216623853e-05 0 0.0042834378857310633 0.00022596147686522854 0 0.004578782503754329 -0.00071543739966698665 0 0.0042834378857310633 0.00022596147686522854 0 0.004578782503754329 -0.00071543739966698665 0 0.0036634647429259087 -0.00055373168605707206 0 0.004578782503754329 -0.00071543739966698665 0 0.0036634647429259087 -0.00055373168605707206 0 0.0038024902950163958 -0.0015657195276068123 0 0.0029668411172418048 0.00027741666897951919 0 0.0036634647429259087 -0.00055373168605707206 0 0.002780037162339342 -0.00078948407987077093 0 0.0064244547148889272 -0.00062819953659283599 0 0.0099121324009806364 -0.0021799686986712671 0 0.0036634647429259087 -0.00055373168605707206 0 0.002780037162339342 -0.00078948407987077093 0 0.0038024902950163958 -0.0015657195276068123 0 0.014441957548163053 -0.0060499816182492255 0 0.014216902415717344 -0.0043668193977862806 0 0.012710055439535217 -0.0032286724293488435 0 0.0099769175324639376 -0.0018280686634867863 0 0.013271132094784963 -0.0020249877476484226 0 0.0029668411172418048 0.00027741666897951919 0 0.002780037162339342 -0.00078948407987077093 0 0.0018896005731360052 -0.00011526760390879887 0 0.0018896005731360052 -0.00011526760390879887 0 0.0013186446571610186 0.00027860589416308751 0 0.0026638129368932797 -0.0021543725103499245 0 0.0033059405101973616 -0.0010456051770234163 0 0.0018896005731360052 -0.00011526760390879887 0 0.0026638129368932797 -0.0021543725103499245 0 0.0064244547148889272 -0.00062819953659283599 0 0.0053327306466406394 -0.00013943934536017047 0 0.0025447507218850931 0.0011729932280908305 0 0.0014694193027173551 0.0014821201438961669 0 0.0019818342781835413 0.00074430578553147191 0 0.0029668411172418048 0.00027741666897951919 0 0.0018896005731360052 -0.00011526760390879887 0 0.0019818342781835413 0.00074430578553147191 0 0.0018896005731360052 -0.00011526760390879887 0 0.0019818342781835413 0.00074430578553147191 0 0.0013186446571610186 0.00027860589416308751 0 0.0014694193027173551 0.0014821201438961669 0 0.0019818342781835413 0.00074430578553147191 0 0.0013170855629936508 0.0011214193676548263 0 0.0025447507218850931 0.0011729932280908305 0 0.0029668411172418048 0.00027741666897951919 0 0.0019818342781835413 0.00074430578553147191 0 0.0084558978756601021 -0.0015819859320346671 0 0.0099769175324639376 -0.0018280686634867863 0 0.015632619479359552 -0.0065845295365247192 0 0.015772271011896086 -0.0074594275105243288 0 0.014441957548163053 -0.0060499816182492255 0 0.00053573309008188698 0.0019722075043309543 0 0.0013170855629936508 0.0011214193676548263 0 0.0013186446571610186 0.00027860589416308751 0 0.0019818342781835413 0.00074430578553147191 0 0.0013170855629936508 0.0011214193676548263 0 0.0013186446571610186 0.00027860589416308751 0 0.015632619479359552 -0.0065845295365247192 0 0.014441957548163053 -0.0060499816182492255 0 0.015389251091531166 -0.0052944659330507451 0 0.014441957548163053 -0.0060499816182492255 0 0.015389251091531166 -0.0052944659330507451 0 0.014216902415717344 -0.0043668193977862806 0 0.016132813182584443 -0.0043855542285146359 0 0.015407337706376532 -0.0042501183660492723 0 0.015897773602736458 -0.0029270533601574401 0 0.014216902415717344 -0.0043668193977862806 0 0.015407337706376532 -0.0042501183660492723 0 0.015897773602736458 -0.0029270533601574401 0 0.016132813182584443 -0.0043855542285146359 0 0.015389251091531166 -0.0052944659330507451 0 0.015407337706376532 -0.0042501183660492723 0 0.015389251091531166 -0.0052944659330507451 0 0.014216902415717344 -0.0043668193977862806 0 0.015407337706376532 -0.0042501183660492723 0 0.014216902415717344 -0.0043668193977862806 0 0.012710055439535217 -0.0032286724293488435 0 0.015897773602736458 -0.0029270533601574401 0 0.013271132094784963 -0.0020249877476484226 0 0.017280885186373704 -0.0022993477674113664 0 0.020392484699588972 -0.0027542048216016002 0 0.020504776782303426 -0.002570997262163545 0 0.020182116684267712 -0.0025585518469086431 0 0.020213601072609996 -0.0027885617201465289 0 0.020392484699588972 -0.0027542048216016002 0 0.020182116684267712 -0.0025585518469086431 0 0.020392484699588972 -0.0027542048216016002 0 0.020289686716479995 -0.0028116790944853524 0 0.020376103649037171 -0.002826221298620939 0 0.020213601072609996 -0.0027885617201465289 0 0.020289686716479995 -0.0028116790944853524 0 0.020204258567121606 -0.0028332434332440965 0 0.020213601072609996 -0.0027885617201465289 0 0.020392484699588972 -0.0027542048216016002 0 0.020289686716479995 -0.0028116790944853524 0 0.020392484699588972 -0.0027542048216016002 0 0.020826868195274507 -0.0026978359033568216 0 0.02050575788412887 -0.0028639328943150682 0 0.021308951948269043 -0.0030502602207236429 0 0.021379404326224708 -0.0031549403399769825 0 0.020392484699588972 -0.0027542048216016002 0 0.020504776782303426 -0.002570997262163545 0 0.020826868195274507 -0.0026978359033568216 0 0.020504776782303426 -0.002570997262163545 0 0.020549038823176331 -0.0022977942930663213 0 0.020182116684267712 -0.0025585518469086431 0 0.020504776782303426 -0.002570997262163545 0 0.020549038823176331 -0.0022977942930663213 0 0.020826868195274507 -0.0026978359033568216 0 0.02006692241792022 -0.0010873185025770532 0 0.021660264121716143 -0.00097325698674159418 0 0.021860178457904455 -0.0021358539520520401 0 0.0033059405101973616 -0.0010456051770234163 0 0.0026638129368932797 -0.0021543725103499245 0 0.0047686935203573181 -0.0020412131690854089 0 0.013271132094784963 -0.0020249877476484226 0 0.0099121324009806364 -0.0021799686986712671 0 0.0099121324009806364 -0.0021799686986712671 0 0.0072558806923943616 -0.0021882227512690093 0 0.0037604919705518085 -0.0016609130109753582 0 0.0056679116410583933 -0.0015137591445705087 0 0.0056937797449430182 -0.0030634646522853994 0 0.021660264121716143 -0.00097325698674159418 0 0.021860178457904455 -0.0021358539520520401 0 0.023504322736978934 -0.0024174384841900514 0 0.0099121324009806364 -0.0021799686986712671 0 0.013681133664965039 -0.0032090062308031738 0 0.021860178457904455 -0.0021358539520520401 0 0.022708460105173304 -0.0031173877088789066 0 0.023504322736978934 -0.0024174384841900514 0 0.021860178457904455 -0.0021358539520520401 0 0.021239030037683793 -0.0030399129321325735 0 0.022708460105173304 -0.0031173877088789066 0 0.013271132094784963 -0.0020249877476484226 0 0.016221471088078965 -0.0037908584474801027 0 0.020549038823176331 -0.0022977942930663213 0 0.020826868195274507 -0.0026978359033568216 0 0.021239030037683793 -0.0030399129321325735 0 0.020826868195274507 -0.0026978359033568216 0 0.021239030037683793 -0.0030399129321325735 0 0.020562127006428687 -0.0034904013028138792 0 0.02006692241792022 -0.0010873185025770532 0 0.021860178457904455 -0.0021358539520520401 0 0.021239030037683793 -0.0030399129321325735 0 0.021239030037683793 -0.0030399129321325735 0 0.021058874843158493 -0.0038511179380773665 0 0.020562127006428687 -0.0034904013028138792 0 0.021239030037683793 -0.0030399129321325735 0 0.021058874843158493 -0.0038511179380773665 0 0.021902214989829832 -0.0036419341649334314 0 0.021058874843158493 -0.0038511179380773665 0 0.021902214989829832 -0.0036419341649334314 0 0.021363243088994913 -0.004443464794052685 0 0.021239030037683793 -0.0030399129321325735 0 0.022708460105173304 -0.0031173877088789066 0 0.021902214989829832 -0.0036419341649334314 0 0.021902214989829832 -0.0036419341649334314 0 0.022627046226820179 -0.0041794900364694361 0 0.021363243088994913 -0.004443464794052685 0 0.022708460105173304 -0.0031173877088789066 0 0.021902214989829832 -0.0036419341649334314 0 0.022627046226820179 -0.0041794900364694361 0 0.022708460105173304 -0.0031173877088789066 0 0.022627046226820179 -0.0041794900364694361 0 0.023670515194850469 -0.0035368831397498733 0 0.022643365873924848 -0.0031424029762746287 0 0.022035616200037161 -0.003214585273525515 0 0.023961610163755431 -0.0036220709477478249 0 0.023998895498502898 -0.0035492877874769269 0 0.024117060223629139 -0.0035462846043435004 0 0.023998895498502898 -0.0035492877874769269 0 0.024117060223629139 -0.0035462846043435004 0 0.024122014353889016 -0.0035185923672508318 0 0.022643365873924848 -0.0031424029762746287 0 0.022695156822796748 -0.0029849686475987968 0 0.023961610163755431 -0.0036220709477478249 0 0.023998895498502898 -0.0035492877874769269 0 0.023808852574602128 -0.0035789805701012568 0 0.022311484946821947 -0.0031588853087529383 0 0.022325745990263823 -0.0031003302393202356 0 0.022129315363368405 -0.0031475968536632429 0 0.022035616200037161 -0.003214585273525515 0 0.021746917481555064 -0.0030696738465905288 0 0.021058874843158493 -0.0038511179380773665 0 0.021363243088994913 -0.004443464794052685 0 0.020248486675661304 -0.004693217856704214 0 0.022524907641527286 -0.0030552732049913592 0 0.022311484946821947 -0.0031588853087529383 0 0.022325745990263823 -0.0031003302393202356 0 0.022695156822796748 -0.0029849686475987968 0 0.02219950667029235 -0.0028761849155245151 0 0.022311484946821947 -0.0031588853087529383 0 0.022129315363368405 -0.0031475968536632429 0 0.022101060224598033 -0.0032640528868893813 0 0.020347675181705265 -0.0028232187083073461 0 0.020336881300454884 -0.0027783744718623388 0 0.020372115421791751 -0.0028321661838594339 0 0.021746917481555064 -0.0030696738465905288 0 0.02219950667029235 -0.0028761849155245151 0 0.020347675181705265 -0.0028232187083073461 0 0.020343909313951348 -0.0026418258101261654 0 0.020336881300454884 -0.0027783744718623388 0 0.021786420265294665 -0.0022493652227587313 0 0.021420960690078161 -0.0023335909547962403 0 0.021745813982882205 -0.0024185049316843075 0 0.021746917481555064 -0.0030696738465905288 0 0.021210270185336104 -0.0028983143022329994 0 0.020343909313951348 -0.0026418258101261654 0 0.020336881300454884 -0.0027783744718623388 0 0.020385548646467223 -0.0027547179836340343 0 0.020336881300454884 -0.0027783744718623388 0 0.020312590982069927 -0.0028203380568786367 0 0.020372115421791751 -0.0028321661838594339 0 0.020312590982069927 -0.0028203380568786367 0 0.020376103649037171 -0.002826221298620939 0 0.020372115421791751 -0.0028321661838594339 0 0.020336881300454884 -0.0027783744718623388 0 0.020312590982069927 -0.0028203380568786367 0 0.020385548646467223 -0.0027547179836340343 0 0.020289686716479995 -0.0028116790944853524 0 0.020312590982069927 -0.0028203380568786367 0 0.020204258567121606 -0.0028332434332440965 0 0.020289686716479995 -0.0028116790944853524 0 0.020312590982069927 -0.0028203380568786367 0 0.020376103649037171 -0.002826221298620939 0 0.021746917481555064 -0.0030696738465905288 0 0.021379404326224708 -0.0031549403399769825 0 0.021058874843158493 -0.0038511179380773665 0 0.020248486675661304 -0.004693217856704214 0 0.020562127006428687 -0.0034904013028138792 0 0.020392484699588972 -0.0027542048216016002 0 0.020376103649037171 -0.002826221298620939 0 0.02050575788412887 -0.0028639328943150682 0 0.020376103649037171 -0.002826221298620939 0 0.02050575788412887 -0.0028639328943150682 0 0.020372115421791751 -0.0028321661838594339 0 0.020347675181705265 -0.0028232187083073461 0 0.02050575788412887 -0.0028639328943150682 0 0.020372115421791751 -0.0028321661838594339 0 0.010653224290239684 -0.0022358971456462244 0 0.010542965983479962 -0.004044338107641981 0 0.0089637679603360252 -0.0035049769006816611 0 0.010653224290239684 -0.0022358971456462244 0 0.0084508855702812649 -0.0017767541603387826 0 0.0089637679603360252 -0.0035049769006816611 0 0.010653224290239684 -0.0022358971456462244 0 0.0093425336215990518 -0.00021314302162327725 0 0.0084508855702812649 -0.0017767541603387826 0 0.0084508855702812649 -0.0017767541603387826 0 0.0089637679603360252 -0.0035049769006816611 0 0.0073046422320778544 -0.0029327258247877925 0 0.0089637679603360252 -0.0035049769006816611 0 0.0073046422320778544 -0.0029327258247877925 0 0.0077499358476951609 -0.0045814171280227408 0 0.0073046422320778544 -0.0029327258247877925 0 0.0056937797449430182 -0.0030634646522853994 0 0.0077499358476951609 -0.0045814171280227408 0 0.023504322736978934 -0.0024174384841900514 0 0.023662632144145768 -0.0030414409383871031 0 0.024119001407869444 -0.0034246225843542672 0 0.013681133664965039 -0.0032090062308031738 0 0.015730823647729958 -0.0038450169690403672 0 0.0073046422320778544 -0.0029327258247877925 0 0.0068306298299823376 -0.0017751981856157146 0 0.0056937797449430182 -0.0030634646522853994 0 0.0084508855702812649 -0.0017767541603387826 0 0.0073046422320778544 -0.0029327258247877925 0 0.0068306298299823376 -0.0017751981856157146 0 0.0068306298299823376 -0.0017751981856157146 0 0.0056679116410583933 -0.0015137591445705087 0 0.0056937797449430182 -0.0030634646522853994 0 0.022708460105173304 -0.0031173877088789066 0 0.023504322736978934 -0.0024174384841900514 0 0.023662632144145768 -0.0030414409383871031 0 0.022708460105173304 -0.0031173877088789066 0 0.023662632144145768 -0.0030414409383871031 0 0.023670515194850469 -0.0035368831397498733 0 0.023662632144145768 -0.0030414409383871031 0 0.023670515194850469 -0.0035368831397498733 0 0.023886017751318732 -0.0033955311581259002 0 0.023670515194850469 -0.0035368831397498733 0 0.023808852574602128 -0.0035789805701012568 0 0.023886017751318732 -0.0033955311581259002 0 0.022643365873924848 -0.0031424029762746287 0 0.022817029362686463 -0.0031265671801904873 0 0.023961610163755431 -0.0036220709477478249 0 0.023670515194850469 -0.0035368831397498733 0 0.023808852574602128 -0.0035789805701012568 0 0.023808852574602128 -0.0035789805701012568 0 0.023881753998952867 -0.0035681914126389058 0 0.023886017751318732 -0.0033955311581259002 0 0.023998895498502898 -0.0035492877874769269 0 0.023808852574602128 -0.0035789805701012568 0 0.023881753998952867 -0.0035681914126389058 0 0.023998895498502898 -0.0035492877874769269 0 0.023881753998952867 -0.0035681914126389058 0 0.023995937677768205 -0.0035208221871110908 0 0.02470510942657422 -0.0030370297075275887 0 0.024968517492737523 -0.0028453651004741705 0 0.023881753998952867 -0.0035681914126389058 0 0.023886017751318732 -0.0033955311581259002 0 0.023881885051058645 -0.003569904457369483 0 0.023662632144145768 -0.0030414409383871031 0 0.024119001407869444 -0.0034246225843542672 0 0.023886017751318732 -0.0033955311581259002 0 0.024119001407869444 -0.0034246225843542672 0 0.023886017751318732 -0.0033955311581259002 0 0.024117771208719149 -0.0033905560890502844 0 0.015730823647729958 -0.0038450169690403672 0 0.017325856807907099 -0.0041888073597474654 0 0.0089637679603360252 -0.0035049769006816611 0 0.0077499358476951609 -0.0045814171280227408 0 0.0099288860780763835 -0.0061103075463362043 0 0.024119001407869444 -0.0034246225843542672 0 0.023952846421745014 -0.0034296073449966093 0 0.024117771208719149 -0.0033905560890502844 0 0.011468751995679064 -0.0050459794918650902 0 0.010542965983479962 -0.004044338107641981 0 0.0099288860780763835 -0.0061103075463362043 0 0.010542965983479962 -0.004044338107641981 0 0.0089637679603360252 -0.0035049769006816611 0 0.0099288860780763835 -0.0061103075463362043 0 0.023890565273919279 -0.0031192902667074515 0 0.023987717076286594 -0.0031487931529210035 0 0.023969535150219753 -0.0030228265278345458 0 0.023987717076286594 -0.0031487931529210035 0 0.024020632696125657 -0.00306567857425738 0 0.023969535150219753 -0.0030228265278345458 0 0.023890565273919279 -0.0031192902667074515 0 0.023987717076286594 -0.0031487931529210035 0 0.02395743225679962 -0.0032717135360203851 0 0.023833692847648035 -0.003254280965926979 0 0.023890565273919279 -0.0031192902667074515 0 0.02395743225679962 -0.0032717135360203851 0 0.023833692847648035 -0.003254280965926979 0 0.023952846421745014 -0.0034296073449966093 0 0.02395743225679962 -0.0032717135360203851 0 0.023952846421745014 -0.0034296073449966093 0 0.02395743225679962 -0.0032717135360203851 0 0.024117771208719149 -0.0033905560890502844 0 0.023987717076286594 -0.0031487931529210035 0 0.02395743225679962 -0.0032717135360203851 0 0.024117771208719149 -0.0033905560890502844 0 0.025779790526229848 -0.0017354405276372739 0 0.024968517492737523 -0.0028453651004741705 0 0.023987717076286594 -0.0031487931529210035 0 0.02409164964693955 -0.0031083018365361367 0 0.024117771208719149 -0.0033905560890502844 0 0.023663491495800722 -0.0032542145618637362 0 0.023787829028370067 -0.0033366311975426082 0 0.023881885051058645 -0.003569904457369483 0 0.023987717076286594 -0.0031487931529210035 0 0.02409164964693955 -0.0031083018365361367 0 0.024020632696125657 -0.00306567857425738 0 0.023663491495800722 -0.0032542145618637362 0 0.023711595635052336 -0.0032401720776541118 0 0.023734993818389637 -0.0032723839649932617 0 0.023663491495800722 -0.0032542145618637362 0 0.023711595635052336 -0.0032401720776541118 0 0.023739649808851186 -0.0031655873345497231 0 0.023711595635052336 -0.0032401720776541118 0 0.023769475245079025 -0.0032499254446769557 0 0.023739649808851186 -0.0031655873345497231 0 0.023711595635052336 -0.0032401720776541118 0 0.023769475245079025 -0.0032499254446769557 0 0.023734993818389637 -0.0032723839649932617 0 0.023663491495800722 -0.0032542145618637362 0 0.023734993818389637 -0.0032723839649932617 0 0.023787829028370067 -0.0033366311975426082 0 0.023769475245079025 -0.0032499254446769557 0 0.023734993818389637 -0.0032723839649932617 0 0.023787829028370067 -0.0033366311975426082 0 0.023832389950720654 -0.0032834150804128413 0 0.023833775586240259 -0.003199052141253969 0 0.023966320997208437 -0.003226102914337288 0 0.023769475245079025 -0.0032499254446769557 0 0.023832389950720654 -0.0032834150804128413 0 0.023787829028370067 -0.0033366311975426082 0 0.023769475245079025 -0.0032499254446769557 0 0.023832389950720654 -0.0032834150804128413 0 0.023833775586240259 -0.003199052141253969 0 0.023769475245079025 -0.0032499254446769557 0 0.023833775586240259 -0.003199052141253969 0 0.023739649808851186 -0.0031655873345497231 0 0.023966320997208437 -0.003226102914337288 0 0.023907619394112314 -0.0033433110919051331 0 0.024039972286317851 -0.0033568235999477613 0 0.023832389950720654 -0.0032834150804128413 0 0.023966320997208437 -0.003226102914337288 0 0.023907619394112314 -0.0033433110919051331 0 0.023907619394112314 -0.0033433110919051331 0 0.023930404721060963 -0.0035007292157523255 0 0.024039972286317851 -0.0033568235999477613 0 0.023832389950720654 -0.0032834150804128413 0 0.023907619394112314 -0.0033433110919051331 0 0.023787829028370067 -0.0033366311975426082 0 0.023907619394112314 -0.0033433110919051331 0 0.023787829028370067 -0.0033366311975426082 0 0.023930404721060963 -0.0035007292157523255 0 0.023881753998952867 -0.0035681914126389058 0 0.023881885051058645 -0.003569904457369483 0 0.023930404721060963 -0.0035007292157523255 0 0.023787829028370067 -0.0033366311975426082 0 0.023881885051058645 -0.003569904457369483 0 0.023930404721060963 -0.0035007292157523255 0 0.023930404721060963 -0.0035007292157523255 0 0.024049753576830674 -0.0034567173236906283 0 0.024039972286317851 -0.0033568235999477613 0 0.023930404721060963 -0.0035007292157523255 0 0.023995937677768205 -0.0035208221871110908 0 0.024049753576830674 -0.0034567173236906283 0 0.023881753998952867 -0.0035681914126389058 0 0.023930404721060963 -0.0035007292157523255 0 0.023995937677768205 -0.0035208221871110908 0 0.023995937677768205 -0.0035208221871110908 0 0.024049753576830674 -0.0034567173236906283 0 0.024122014353889016 -0.0035185923672508318 0 0.024367508728136887 -0.0032587115257364184 0 0.024501091199275703 -0.0030787064312136621 0 0.024049753576830674 -0.0034567173236906283 0 0.024205991026256053 -0.0032550853474479433 0 0.024529774665450119 -0.0031167058932143436 0 0.024049753576830674 -0.0034567173236906283 0 0.024039972286317851 -0.0033568235999477613 0 0.024205991026256053 -0.0032550853474479433 0 0.023966320997208437 -0.003226102914337288 0 0.024039972286317851 -0.0033568235999477613 0 0.024205991026256053 -0.0032550853474479433 0 0.024205991026256053 -0.0032550853474479433 0 0.02450768121868506 -0.0029833022434744556 0 0.024529774665450119 -0.0031167058932143436 0 0.024205991026256053 -0.0032550853474479433 0 0.024080945246822177 -0.0030455109283716981 0 0.024333615006013058 -0.0028418302128728375 0 0.02450167211875692 -0.0030404740599134124 0 0.024585086609322696 -0.0028483293978018025 0 0.023966320997208437 -0.003226102914337288 0 0.024205991026256053 -0.0032550853474479433 0 0.024080945246822177 -0.0030455109283716981 0 0.024080945246822177 -0.0030455109283716981 0 0.024333615006013058 -0.0028418302128728375 0 0.024033329768037383 -0.0028381336846298147 0 0.02444987123915876 -0.0024042056745871244 0 0.024333615006013058 -0.0028418302128728375 0 0.024169468831367735 -0.0026023091209684997 0 0.024333615006013058 -0.0028418302128728375 0 0.024169468831367735 -0.0026023091209684997 0 0.024033329768037383 -0.0028381336846298147 0 0.024169468831367735 -0.0026023091209684997 0 0.024033329768037383 -0.0028381336846298147 0 0.023840483819884656 -0.0026390652824808984 0 0.024033329768037383 -0.0028381336846298147 0 0.023840483819884656 -0.0026390652824808984 0 0.023798728539249768 -0.0029115984095642714 0 0.023798728539249768 -0.0029115984095642714 0 0.023885230146750772 -0.0030585523095526829 0 0.023703500760335141 -0.003063386403296408 0 0.024080945246822177 -0.0030455109283716981 0 0.024033329768037383 -0.0028381336846298147 0 0.023885230146750772 -0.0030585523095526829 0 0.024033329768037383 -0.0028381336846298147 0 0.023798728539249768 -0.0029115984095642714 0 0.023885230146750772 -0.0030585523095526829 0 0.023833775586240259 -0.003199052141253969 0 0.023966320997208437 -0.003226102914337288 0 0.023885230146750772 -0.0030585523095526829 0 0.023966320997208437 -0.003226102914337288 0 0.024080945246822177 -0.0030455109283716981 0 0.023885230146750772 -0.0030585523095526829 0 0.023833775586240259 -0.003199052141253969 0 0.023885230146750772 -0.0030585523095526829 0 0.023739649808851186 -0.0031655873345497231 0 0.023885230146750772 -0.0030585523095526829 0 0.023703500760335141 -0.003063386403296408 0 0.023739649808851186 -0.0031655873345497231 0 0.025841696959022047 -0.0013834353684204919 0 0.025916447912494273 -0.001587429396234999 0 0.025958904740344554 -0.001548671118093876 0 0.025779790526229848 -0.0017354405276372739 0 0.026214148432987604 -0.00091346027405115942 0 0.023663491495800722 -0.0032542145618637362 0 0.023703500760335141 -0.003063386403296408 0 0.023536306948382466 -0.0029522104160377037 0 0.023663491495800722 -0.0032542145618637362 0 0.023703500760335141 -0.003063386403296408 0 0.023739649808851186 -0.0031655873345497231 0 0.025779790526229848 -0.0017354405276372739 0 0.026095002751562821 -0.0012323598824830677 0 0.02409164964693955 -0.0031083018365361367 0 0.024020632696125657 -0.00306567857425738 0 0.024022299145815936 -0.0029760490764285607 0 0.026214148432987604 -0.00091346027405115942 0 0.026095002751562821 -0.0012323598824830677 0 0.023798728539249768 -0.0029115984095642714 0 0.023703500760335141 -0.003063386403296408 0 0.023536306948382466 -0.0029522104160377037 0 0.028813236257819369 0.0020763016030391043 0 0.028439674252065752 0.0031300445034234368 0 0.028304510524199758 0.0023954460415899709 0 0.0276741463138797 0.0024612318973527719 0 0.028439674252065752 0.0031300445034234368 0 0.028304510524199758 0.0023954460415899709 0 0.023840483819884656 -0.0026390652824808984 0 0.023798728539249768 -0.0029115984095642714 0 0.023536306948382466 -0.0029522104160377037 0 0.026002956698076524 -0.00060200306530758978 0 0.026214148432987604 -0.00091346027405115942 0 0.028813236257819369 0.0020763016030391043 0 0.028574483072329224 0.0027343229049271089 0 0.028931264235401901 0.0024640305551338034 0 0.026463789906765744 0.00062304792038155791 0 0.026214148432987604 -0.00091346027405115942 0 0.026517150328961788 -0.00043708713988754833 0 0.026095002751562821 -0.0012323598824830677 0 0.029251023044274189 0.0020763060632149589 0 0.029035742000213881 0.0020882553586622833 0 0.028931264235401901 0.0024640305551338034 0 0.027056493967739056 0.00015485217208222434 0 0.026517150328961788 -0.00043708713988754833 0 0.023837119715297048 -0.0029355394888044674 0 0.023951468494039108 -0.0028026988319104526 0 0.02394853231380124 -0.0029136605388147005 0 0.023837119715297048 -0.0029355394888044674 0 0.02394853231380124 -0.0029136605388147005 0 0.023969535150219753 -0.0030228265278345458 0 0.023837119715297048 -0.0029355394888044674 0 0.023890565273919279 -0.0031192902667074515 0 0.023969535150219753 -0.0030228265278345458 0 0.02394853231380124 -0.0029136605388147005 0 0.024048845432857471 -0.0029546170755316531 0 0.023969535150219753 -0.0030228265278345458 0 0.028574483072329224 0.0027343229049271089 0 0.028931264235401901 0.0024640305551338034 0 0.028665698074942968 0.0028166073230204594 0 0.023951468494039108 -0.0028026988319104526 0 0.02394853231380124 -0.0029136605388147005 0 0.024048845432857471 -0.0029546170755316531 0 0.024020632696125657 -0.00306567857425738 0 0.024022299145815936 -0.0029760490764285607 0 0.023969535150219753 -0.0030228265278345458 0 0.026095002751562821 -0.0012323598824830677 0 0.025894373621252128 -0.0014121482595215828 0 0.024129703504571182 -0.0035112009594137068 0 0.024142601012047491 -0.0034992793365236888 0 0.024129920622369971 -0.0034850287039942681 0 0.022993837955082884 -0.0030130541253275247 0 0.02219950667029235 -0.0028761849155245151 0 0.024129703504571182 -0.0035112009594137068 0 0.024118745299887469 -0.0035110271715957024 0 0.024129920622369971 -0.0034850287039942681 0 0.024129703504571182 -0.0035112009594137068 0 0.024142601012047491 -0.0034992793365236888 0 0.024135139757751126 -0.003529640215662053 0 0.021767482051097756 -0.0027186910273295424 0 0.021602873856475753 -0.0026670483423940385 0 0.021641756335308647 -0.00249170859722448 0 0.021767482051097756 -0.0027186910273295424 0 0.021602873856475753 -0.0026670483423940385 0 0.021614933496418767 -0.002778645777669599 0 0.021420960690078161 -0.0023335909547962403 0 0.021422582346191162 -0.0025798572131769614 0 0.021745813982882205 -0.0024185049316843075 0 0.021767482051097756 -0.0027186910273295424 0 0.021641756335308647 -0.00249170859722448 0 0.021864298946220367 -0.0023794116577924812 0 0.021827945563299995 -0.0028449210738324066 0 0.02219950667029235 -0.0028761849155245151 0 0.024129703504571182 -0.0035112009594137068 0 0.024135139757751126 -0.003529640215662053 0 0.024122381475982689 -0.0035240509745690651 0 0.024117060223629139 -0.0035462846043435004 0 0.024135139757751126 -0.003529640215662053 0 0.024122381475982689 -0.0035240509745690651 0 0.024122381475982689 -0.0035240509745690651 0 0.024122014353889016 -0.0035185923672508318 0 0.024118745299887469 -0.0035110271715957024 0 0.024117060223629139 -0.0035462846043435004 0 0.024122381475982689 -0.0035240509745690651 0 0.024122014353889016 -0.0035185923672508318 0 0.024049753576830674 -0.0034567173236906283 0 0.024122014353889016 -0.0035185923672508318 0 0.024333438752204995 -0.003318024734182743 0 0.023998895498502898 -0.0035492877874769269 0 0.023995937677768205 -0.0035208221871110908 0 0.024122014353889016 -0.0035185923672508318 0 0.024198807272302135 -0.0032764043552479141 0 0.024230422911828652 -0.0031945407619402813 0 0.024049753576830674 -0.0034567173236906283 0 0.024333438752204995 -0.003318024734182743 0 0.024342620154469603 -0.0030707993439865657 0 0.024122014353889016 -0.0035185923672508318 0 0.024333438752204995 -0.003318024734182743 0 0.024653771168229643 -0.0033499002175158632 0 0.024129703504571182 -0.0035112009594137068 0 0.024122381475982689 -0.0035240509745690651 0 0.024118745299887469 -0.0035110271715957024 0 0.024333438752204995 -0.003318024734182743 0 0.024653771168229643 -0.0033499002175158632 0 0.02457771693813748 -0.0031394667287683066 0 0.024230422911828652 -0.0031945407619402813 0 0.024195185993323782 -0.0030149489995651346 0 0.02457771693813748 -0.0031394667287683066 0 0.024731985092036848 -0.0029485472182613115 0 0.025039288114666318 -0.0030601745774519701 0 0.024653771168229643 -0.0033499002175158632 0 0.02457771693813748 -0.0031394667287683066 0 0.025039288114666318 -0.0030601745774519701 0 0.02457771693813748 -0.0031394667287683066 0 0.024342620154469603 -0.0030707993439865657 0 0.024731985092036848 -0.0029485472182613115 0 0.024333438752204995 -0.003318024734182743 0 0.02457771693813748 -0.0031394667287683066 0 0.024342620154469603 -0.0030707993439865657 0 0.024858618427438407 -0.0028183183283896234 0 0.024710724012467308 -0.0027448230296580152 0 0.02450768121868506 -0.0029833022434744556 0 0.024715943873686756 -0.0028083066267688612 0 0.024501091199275703 -0.0030787064312136621 0 0.024751469951218619 -0.0026868760347969253 0 0.024342620154469603 -0.0030707993439865657 0 0.024731985092036848 -0.0029485472182613115 0 0.024858618427438407 -0.0028183183283896234 0 0.02450768121868506 -0.0029833022434744556 0 0.024529774665450119 -0.0031167058932143436 0 0.024794467976548048 -0.0023782435842892818 0 0.024585086609322696 -0.0028483293978018025 0 0.024751469951218619 -0.0026868760347969253 0 0.024731985092036848 -0.0029485472182613115 0 0.024855030428146928 -0.0027786588722223623 0 0.024731985092036848 -0.0029485472182613115 0 0.025000502005845505 -0.0028240921071509177 0 0.025039288114666318 -0.0030601745774519701 0 0.024731985092036848 -0.0029485472182613115 0 0.024855030428146928 -0.0027786588722223623 0 0.025000502005845505 -0.0028240921071509177 0 0.024949431119636534 -0.0027022151631588497 0 0.024855030428146928 -0.0027786588722223623 0 0.025000502005845505 -0.0028240921071509177 0 0.024195185993323782 -0.0030149489995651346 0 0.023871786835907263 -0.0028403890853388523 0 0.025000502005845505 -0.0028240921071509177 0 0.025039288114666318 -0.0030601745774519701 0 0.025268092326967834 -0.0028021838238184112 0 0.025084829752742635 -0.0026531566635691521 0 0.025000502005845505 -0.0028240921071509177 0 0.025268092326967834 -0.0028021838238184112 0 0.024142601012047491 -0.0034992793365236888 0 0.024129920622369971 -0.0034850287039942681 0 0.024150460904178141 -0.0034567280020481811 0 0.021767482051097756 -0.0027186910273295424 0 0.021723223104186701 -0.0028734454836166308 0 0.021614933496418767 -0.002778645777669599 0 0.022993837955082884 -0.0030130541253275247 0 0.023871786835907263 -0.0028403890853388523 0 0.021723223104186701 -0.0028734454836166308 0 0.021643037826708462 -0.0028264881018777092 0 0.021819972019650604 -0.0028699547360130791 0 0.021643037826708462 -0.0028264881018777092 0 0.021819972019650604 -0.0028699547360130791 0 0.021502318965123071 -0.0027805886581546489 0 0.021700030787080462 -0.002836137640714585 0 0.021819972019650604 -0.0028699547360130791 0 0.021502318965123071 -0.0027805886581546489 0 0.021643037826708462 -0.0028264881018777092 0 0.02139662410062549 -0.0027347658104529536 0 0.021502318965123071 -0.0027805886581546489 0 0.021723223104186701 -0.0028734454836166308 0 0.021643037826708462 -0.0028264881018777092 0 0.021614933496418767 -0.002778645777669599 0 0.021643037826708462 -0.0028264881018777092 0 0.02139662410062549 -0.0027347658104529536 0 0.021614933496418767 -0.002778645777669599 0 0.021827945563299995 -0.0028449210738324066 0 0.021684428646409848 -0.0028520707956135095 0 0.02139662410062549 -0.0027347658104529536 0 0.021614933496418767 -0.002778645777669599 0 0.021313204920663395 -0.0026463021497997348 0 0.021602873856475753 -0.0026670483423940385 0 0.021641756335308647 -0.00249170859722448 0 0.021313204920663395 -0.0026463021497997348 0 0.021602873856475753 -0.0026670483423940385 0 0.021614933496418767 -0.002778645777669599 0 0.021313204920663395 -0.0026463021497997348 0 0.02139662410062549 -0.0027347658104529536 0 0.021313204920663395 -0.0026463021497997348 0 0.02114164285817571 -0.0026116573373215469 0 0.021313204920663395 -0.0026463021497997348 0 0.02114164285817571 -0.0026116573373215469 0 0.020905650545104307 -0.0024918240303948677 0 0.02114164285817571 -0.0026116573373215469 0 0.020905650545104307 -0.0024918240303948677 0 0.020930407792093157 -0.0025199521537560025 0 0.021420960690078161 -0.0023335909547962403 0 0.020905650545104307 -0.0024918240303948677 0 0.021258151858973916 -0.0025452127274780559 0 0.021422582346191162 -0.0025798572131769614 0 0.021313204920663395 -0.0026463021497997348 0 0.021258151858973916 -0.0025452127274780559 0 0.021313204920663395 -0.0026463021497997348 0 0.020905650545104307 -0.0024918240303948677 0 0.021258151858973916 -0.0025452127274780559 0 0.021210270185336104 -0.0028983143022329994 0 0.021087173384066838 -0.0028390919418515362 0 0.021420960690078161 -0.0023335909547962403 0 0.021422582346191162 -0.0025798572131769614 0 0.021258151858973916 -0.0025452127274780559 0 0.020882154901921236 -0.0025522231653195724 0 0.020930407792093157 -0.0025199521537560025 0 0.020821676402609967 -0.0025237177146367963 0 0.020882154901921236 -0.0025522231653195724 0 0.020930407792093157 -0.0025199521537560025 0 0.021225372008861258 -0.0027320673419358133 0 0.02114164285817571 -0.0026116573373215469 0 0.020930407792093157 -0.0025199521537560025 0 0.021225372008861258 -0.0027320673419358133 0 0.02139662410062549 -0.0027347658104529536 0 0.02114164285817571 -0.0026116573373215469 0 0.021225372008861258 -0.0027320673419358133 0 0.020882154901921236 -0.0025522231653195724 0 0.021225372008861258 -0.0027320673419358133 0 0.020877139824345959 -0.0026949555106028783 0 0.021224022721902058 -0.002923184272616551 0 0.021152819625872829 -0.0030480125908309377 0 0.021225372008861258 -0.0027320673419358133 0 0.020972152679298573 -0.0031178860044585662 0 0.020877139824345959 -0.0026949555106028783 0 0.021225372008861258 -0.0027320673419358133 0 0.021502318965123071 -0.0027805886581546489 0 0.021348866839663541 -0.0027222454554942334 0 0.02139662410062549 -0.0027347658104529536 0 0.021225372008861258 -0.0027320673419358133 0 0.021502318965123071 -0.0027805886581546489 0 0.021700030787080462 -0.002836137640714585 0 0.021502318965123071 -0.0027805886581546489 0 0.021348866839663541 -0.0027222454554942334 0 0.021004704645344097 -0.0033391148414230712 0 0.021152819625872829 -0.0030480125908309377 0 0.020717387515263627 -0.003478505499666538 0 0.020972152679298573 -0.0031178860044585662 0 0.020524541369570482 -0.0031383668386005211 0 0.020524541369570482 -0.0031383668386005211 0 0.02069853619533233 -0.0028673746891837862 0 0.020429121277100139 -0.0027721045185929139 0 0.020972152679298573 -0.0031178860044585662 0 0.02069853619533233 -0.0028673746891837862 0 0.020877139824345959 -0.0026949555106028783 0 0.020972152679298573 -0.0031178860044585662 0 0.020524541369570482 -0.0031383668386005211 0 0.02069853619533233 -0.0028673746891837862 0 0.01998880375979762 -0.0033658934371325194 0 0.020146795815899395 -0.0030419258259201079 0 0.019828524040666616 -0.0030594934335535741 0 0.02033778679880098 -0.0034637743796921043 0 0.020524541369570482 -0.0031383668386005211 0 0.020248752008194544 -0.0032524570912172072 0 0.01998880375979762 -0.0033658934371325194 0 0.020248752008194544 -0.0032524570912172072 0 0.020146795815899395 -0.0030419258259201079 0 0.020524541369570482 -0.0031383668386005211 0 0.020248752008194544 -0.0032524570912172072 0 0.020146795815899395 -0.0030419258259201079 0 0.020524541369570482 -0.0031383668386005211 0 0.020146795815899395 -0.0030419258259201079 0 0.020429121277100139 -0.0027721045185929139 0 0.020146795815899395 -0.0030419258259201079 0 0.020074233152360076 -0.002800450077585745 0 0.020429121277100139 -0.0027721045185929139 0 0.020146795815899395 -0.0030419258259201079 0 0.019951691353571183 -0.002896411214057234 0 0.019828524040666616 -0.0030594934335535741 0 0.020074233152360076 -0.002800450077585745 0 0.019951691353571183 -0.002896411214057234 0 0.019910776144140035 -0.002694579006824886 0 0.020146795815899395 -0.0030419258259201079 0 0.020074233152360076 -0.002800450077585745 0 0.019951691353571183 -0.002896411214057234 0 0.019748076786547594 -0.0028464665750578683 0 0.019951691353571183 -0.002896411214057234 0 0.019910776144140035 -0.002694579006824886 0 0.019748076786547594 -0.0028464665750578683 0 0.019951691353571183 -0.002896411214057234 0 0.019828524040666616 -0.0030594934335535741 0 0.018569112197619593 -0.0021034088575855887 0 0.019948862092334915 -0.0020510719111077338 0 0.019463082593207833 -0.0026017757135971954 0 0.017864886766953983 -0.0040475796310252303 0 0.017971166714715079 -0.0039325412971347789 0 0.019921347994792719 -0.0024376473328883586 0 0.019463082593207833 -0.0026017757135971954 0 0.019910776144140035 -0.002694579006824886 0 0.020074233152360076 -0.002800450077585745 0 0.019921347994792719 -0.0024376473328883586 0 0.019910776144140035 -0.002694579006824886 0 0.020429121277100139 -0.0027721045185929139 0 0.02045085911831028 -0.0026398991881064495 0 0.020598112330261039 -0.0025984036984300534 0 0.017864886766953983 -0.0040475796310252303 0 0.018774756436256555 -0.004050628299705367 0 0.020074233152360076 -0.002800450077585745 0 0.019921347994792719 -0.0024376473328883586 0 0.020429121277100139 -0.0027721045185929139 0 0.020282240693147994 -0.0026934817806030134 0 0.020429121277100139 -0.0027721045185929139 0 0.02045085911831028 -0.0026398991881064495 0 0.017864886766953983 -0.0040475796310252303 0 0.018544266908694162 -0.004543107090792811 0 0.020282240693147994 -0.0026934817806030134 0 0.02045085911831028 -0.0026398991881064495 0 0.020509398735811219 -0.0025047358213406696 0 0.02045085911831028 -0.0026398991881064495 0 0.020598112330261039 -0.0025984036984300534 0 0.020509398735811219 -0.0025047358213406696 0 0.016699934036864473 -0.0081972635901015976 0 0.016426838152919485 -0.0076267737681644182 0 0.016798756184656698 -0.0074155969526068779 0 0.016699934036864473 -0.0081972635901015976 0 0.016798756184656698 -0.0074155969526068779 0 0.017375181882291542 -0.007438546270161126 0 0.016426838152919485 -0.0076267737681644182 0 0.016417832924822844 -0.0073117928580620582 0 0.016798756184656698 -0.0074155969526068779 0 0.020877139824345959 -0.0026949555106028783 0 0.020691858863584343 -0.002676725544494659 0 0.020761078432547653 -0.0025610893716758744 0 0.02069853619533233 -0.0028673746891837862 0 0.020877139824345959 -0.0026949555106028783 0 0.020691858863584343 -0.002676725544494659 0 0.02069853619533233 -0.0028673746891837862 0 0.020429121277100139 -0.0027721045185929139 0 0.020691858863584343 -0.002676725544494659 0 0.020429121277100139 -0.0027721045185929139 0 0.020691858863584343 -0.002676725544494659 0 0.020598112330261039 -0.0025984036984300534 0 0.020598112330261039 -0.0025984036984300534 0 0.020761078432547653 -0.0025610893716758744 0 0.020698259491794293 -0.0024993845916595411 0 0.020691858863584343 -0.002676725544494659 0 0.020598112330261039 -0.0025984036984300534 0 0.020761078432547653 -0.0025610893716758744 0 0.020598112330261039 -0.0025984036984300534 0 0.020698259491794293 -0.0024993845916595411 0 0.020509398735811219 -0.0025047358213406696 0 0.020882154901921236 -0.0025522231653195724 0 0.020761078432547653 -0.0025610893716758744 0 0.020807988778516768 -0.0025246128672864335 0 0.020882154901921236 -0.0025522231653195724 0 0.020877139824345959 -0.0026949555106028783 0 0.020761078432547653 -0.0025610893716758744 0 0.020761078432547653 -0.0025610893716758744 0 0.020807988778516768 -0.0025246128672864335 0 0.020698259491794293 -0.0024993845916595411 0 0.020807988778516768 -0.0025246128672864335 0 0.020698259491794293 -0.0024993845916595411 0 0.020834914369333154 -0.0025545569669552571 0 0.020634643890063281 -0.0025498619357360148 0 0.020562323824287545 -0.0026071995453872021 0 0.020698259491794293 -0.0024993845916595411 0 0.020739493126117874 -0.0024831662448251504 0 0.020509398735811219 -0.0025047358213406696 0 0.019162144511899785 -0.00449618553033469 0 0.018544266908694162 -0.004543107090792811 0 0.018086506194892559 -0.0066920144092244274 0 0.017375181882291542 -0.007438546270161126 0 0.017486817307044829 -0.0067922506276311715 0 0.018086506194892559 -0.0066920144092244274 0 0.017674712618931998 -0.0063204602929848213 0 0.018101838685111508 -0.0060430317676813628 0 0.018086506194892559 -0.0066920144092244274 0 0.017674712618931998 -0.0063204602929848213 0 0.017486817307044829 -0.0067922506276311715 0 0.020698259491794293 -0.0024993845916595411 0 0.020739493126117874 -0.0024831662448251504 0 0.020666288474895437 -0.0025004866171619176 0 0.020739493126117874 -0.0024831662448251504 0 0.020666288474895437 -0.0025004866171619176 0 0.020729432356745171 -0.0028249827793165581 0 0.016566168046202954 -0.0070267265775057182 0 0.016417832924822844 -0.0073117928580620582 0 0.016798756184656698 -0.0074155969526068779 0 0.016566168046202954 -0.0070267265775057182 0 0.017068420383313628 -0.0069732606230724636 0 0.016733803244067702 -0.0066559106324416122 0 0.016566168046202954 -0.0070267265775057182 0 0.016798756184656698 -0.0074155969526068779 0 0.017068420383313628 -0.0069732606230724636 0 0.017068420383313628 -0.0069732606230724636 0 0.017375181882291542 -0.007438546270161126 0 0.017486817307044829 -0.0067922506276311715 0 0.016798756184656698 -0.0074155969526068779 0 0.017068420383313628 -0.0069732606230724636 0 0.017375181882291542 -0.007438546270161126 0 0.017674712618931998 -0.0063204602929848213 0 0.017231482302171128 -0.0065255933002999547 0 0.017297183447383922 -0.0060949017481055608 0 0.017674712618931998 -0.0063204602929848213 0 0.017486817307044829 -0.0067922506276311715 0 0.017231482302171128 -0.0065255933002999547 0 0.017068420383313628 -0.0069732606230724636 0 0.017231482302171128 -0.0065255933002999547 0 0.016733803244067702 -0.0066559106324416122 0 0.017068420383313628 -0.0069732606230724636 0 0.017486817307044829 -0.0067922506276311715 0 0.017231482302171128 -0.0065255933002999547 0 0.017231482302171128 -0.0065255933002999547 0 0.016733803244067702 -0.0066559106324416122 0 0.016847912480310839 -0.0061611837909010441 0 0.016350456578818874 -0.0064228137582354539 0 0.016733803244067702 -0.0066559106324416122 0 0.016847912480310839 -0.0061611837909010441 0 0.016369326147507048 -0.0067865196296001094 0 0.016566168046202954 -0.0070267265775057182 0 0.016733803244067702 -0.0066559106324416122 0 0.016350456578818874 -0.0064228137582354539 0 0.016369326147507048 -0.0067865196296001094 0 0.016733803244067702 -0.0066559106324416122 0 0.016381773787475538 -0.0057858919547481343 0 0.016350456578818874 -0.0064228137582354539 0 0.016847912480310839 -0.0061611837909010441 0 0.016381773787475538 -0.0057858919547481343 0 0.016847912480310839 -0.0061611837909010441 0 0.017110435048452156 -0.0056690147666959134 0 0.016847912480310839 -0.0061611837909010441 0 0.017297183447383922 -0.0060949017481055608 0 0.017110435048452156 -0.0056690147666959134 0 0.017231482302171128 -0.0065255933002999547 0 0.016847912480310839 -0.0061611837909010441 0 0.017297183447383922 -0.0060949017481055608 0 0.017674712618931998 -0.0063204602929848213 0 0.017297183447383922 -0.0060949017481055608 0 0.017625740041839862 -0.0057908777428416023 0 0.017297183447383922 -0.0060949017481055608 0 0.017110435048452156 -0.0056690147666959134 0 0.017625740041839862 -0.0057908777428416023 0 0.017035277271700587 -0.004898347155183537 0 0.017501058893923303 -0.0052437199529209166 0 0.017110435048452156 -0.0056690147666959134 0 0.017501058893923303 -0.0052437199529209166 0 0.017110435048452156 -0.0056690147666959134 0 0.017625740041839862 -0.0057908777428416023 0 0.01007203030362263 -0.0047998870230928619 0 0.010026997648560122 -0.0045251568535815368 0 0.016381773787475538 -0.0057858919547481343 0 0.017035277271700587 -0.004898347155183537 0 0.017110435048452156 -0.0056690147666959134 0 0.0038041342459534853 -0.0044602085511073527 0 0.0036640701008521953 -0.0040872052046083728 0 0.0031188186294025034 -0.0048206672053147243 0 0.019162144511899785 -0.00449618553033469 0 0.019552451958117473 -0.0044488912118923023 0 0.018086506194892559 -0.0066920144092244274 0 0.018862666879577078 -0.0059245033262774497 0 0.018101838685111508 -0.0060430317676813628 0 0.018862666879577078 -0.0059245033262774497 0 0.018101838685111508 -0.0060430317676813628 0 0.018244504902959292 -0.0054749977181548035 0 0.017674712618931998 -0.0063204602929848213 0 0.018101838685111508 -0.0060430317676813628 0 0.017625740041839862 -0.0057908777428416023 0 0.018101838685111508 -0.0060430317676813628 0 0.017625740041839862 -0.0057908777428416023 0 0.018244504902959292 -0.0054749977181548035 0 0.018044153004996209 -0.0048020383464937892 0 0.017501058893923303 -0.0052437199529209166 0 0.018244504902959292 -0.0054749977181548035 0 0.017501058893923303 -0.0052437199529209166 0 0.017625740041839862 -0.0057908777428416023 0 0.018244504902959292 -0.0054749977181548035 0 0.018862666879577078 -0.0059245033262774497 0 0.018244504902959292 -0.0054749977181548035 0 0.018927509765076744 -0.0053356305098007052 0 0.018572382149275379 -0.0050423720342804229 0 0.018044153004996209 -0.0048020383464937892 0 0.018244504902959292 -0.0054749977181548035 0 0.018572382149275379 -0.0050423720342804229 0 0.018244504902959292 -0.0054749977181548035 0 0.018927509765076744 -0.0053356305098007052 0 0.018572382149275379 -0.0050423720342804229 0 0.019208375589377612 -0.0050275691281203077 0 0.018927509765076744 -0.0053356305098007052 0 0.019569237066525434 -0.0046902161354456387 0 0.019552451958117473 -0.0044488912118923023 0 0.019670622210657258 -0.0049801268101949975 0 0.019208375589377612 -0.0050275691281203077 0 0.018927509765076744 -0.0053356305098007052 0 0.019670622210657258 -0.0049801268101949975 0 0.018862666879577078 -0.0059245033262774497 0 0.018927509765076744 -0.0053356305098007052 0 0.020408009007598323 -0.0037897343732345191 0 0.020729432356745171 -0.0028249827793165581 0 0.020179807080865655 -0.0032670142798868203 0 0.020729432356745171 -0.0028249827793165581 0 0.020188527236259107 -0.0027995435815277398 0 0.020179807080865655 -0.0032670142798868203 0 0.020562323824287545 -0.0026071995453872021 0 0.020243782326863198 -0.0028476711608770118 0 0.020666288474895437 -0.0025004866171619176 0 0.020729432356745171 -0.0028249827793165581 0 0.020188527236259107 -0.0027995435815277398 0 0.020705706407848856 -0.002762976566256617 0 0.019439918920531506 -0.0031466860830347289 0 0.020097804958031207 -0.0028109861554255974 0 0.020705706407848856 -0.002762976566256617 0 0.020097804958031207 -0.0028109861554255974 0 0.020481824013038583 -0.0026397230826071291 0 0.020705706407848856 -0.002762976566256617 0 0.019439918920531506 -0.0031466860830347289 0 0.019010392385244979 -0.0034816220462655619 0 0.020243782326863198 -0.0028476711608770118 0 0.019857232173011104 -0.0031389670215621946 0 0.020188527236259107 -0.0027995435815277398 0 0.020179807080865655 -0.0032670142798868203 0 0.019706161722925324 -0.0035523686528623143 0 0.020188527236259107 -0.0027995435815277398 0 0.019706161722925324 -0.0035523686528623143 0 0.019010392385244979 -0.0034816220462655619 0 0.020179807080865655 -0.0032670142798868203 0 0.020028594551823837 -0.0036718860393616924 0 0.019706161722925324 -0.0035523686528623143 0 0.020408009007598323 -0.0037897343732345191 0 0.020179807080865655 -0.0032670142798868203 0 0.020028594551823837 -0.0036718860393616924 0 0.019686570293100215 -0.0041940814381744391 0 0.020028594551823837 -0.0036718860393616924 0 0.019706161722925324 -0.0035523686528623143 0 0.019217784354411668 -0.003986379558209528 0 0.019483648821960093 -0.0040448625907484109 0 0.019706161722925324 -0.0035523686528623143 0 0.019439918920531506 -0.0031466860830347289 0 0.019010392385244979 -0.0034816220462655619 0 0.017311520142773696 -0.0037767308013162727 0 0.019217784354411668 -0.003986379558209528 0 0.019706161722925324 -0.0035523686528623143 0 0.019010392385244979 -0.0034816220462655619 0 0.018639694553642509 -0.0041643534801927172 0 0.019010392385244979 -0.0034816220462655619 0 0.017311520142773696 -0.0037767308013162727 0 0.018374055484202664 -0.0024227248726298328 0 0.017280885186373704 -0.0022993477674113664 0 0.019439918920531506 -0.0031466860830347289 0 0.020182116684267712 -0.0025585518469086431 0 0.019971885635317981 -0.0028959081429335018 0 0.019439918920531506 -0.0031466860830347289 0 0.015897773602736458 -0.0029270533601574401 0 0.017311520142773696 -0.0037767308013162727 0 0.016132813182584443 -0.0043855542285146359 0 0.015897773602736458 -0.0029270533601574401 0 0.017311520142773696 -0.0037767308013162727 0 0.019971885635317981 -0.0028959081429335018 0 0.020204258567121606 -0.0028332434332440965 0 0.020307375886019892 -0.0027644987930780102 0 0.020213601072609996 -0.0027885617201465289 0 0.020182116684267712 -0.0025585518469086431 0 0.019971885635317981 -0.0028959081429335018 0 0.020213601072609996 -0.0027885617201465289 0 0.019971885635317981 -0.0028959081429335018 0 0.020204258567121606 -0.0028332434332440965 0 0.019439918920531506 -0.0031466860830347289 0 0.019971885635317981 -0.0028959081429335018 0 0.020097804958031207 -0.0028109861554255974 0 0.019971885635317981 -0.0028959081429335018 0 0.020097804958031207 -0.0028109861554255974 0 0.020307375886019892 -0.0027644987930780102 0 0.020307375886019892 -0.0027644987930780102 0 0.020385548646467223 -0.0027547179836340343 0 0.02064585432431933 -0.0026110469989673911 0 0.020097804958031207 -0.0028109861554255974 0 0.020307375886019892 -0.0027644987930780102 0 0.020481824013038583 -0.0026397230826071291 0 0.020307375886019892 -0.0027644987930780102 0 0.02064585432431933 -0.0026110469989673911 0 0.020481824013038583 -0.0026397230826071291 0 0.020312590982069927 -0.0028203380568786367 0 0.020204258567121606 -0.0028332434332440965 0 0.02029657514233188 -0.0027920879452691121 0 0.020204258567121606 -0.0028332434332440965 0 0.020307375886019892 -0.0027644987930780102 0 0.02029657514233188 -0.0027920879452691121 0 0.020307375886019892 -0.0027644987930780102 0 0.02029657514233188 -0.0027920879452691121 0 0.020385548646467223 -0.0027547179836340343 0 0.020312590982069927 -0.0028203380568786367 0 0.02029657514233188 -0.0027920879452691121 0 0.020385548646467223 -0.0027547179836340343 0 0.020343909313951348 -0.0026418258101261654 0 0.020905650545104307 -0.0024918240303948677 0 0.020385548646467223 -0.0027547179836340343 0 0.020905650545104307 -0.0024918240303948677 0 0.020385548646467223 -0.0027547179836340343 0 0.02064585432431933 -0.0026110469989673911 0 0.020905650545104307 -0.0024918240303948677 0 0.020930407792093157 -0.0025199521537560025 0 0.02064585432431933 -0.0026110469989673911 0 0.020930407792093157 -0.0025199521537560025 0 0.020722256711579914 -0.0025635929035658263 0 0.020821676402609967 -0.0025237177146367963 0 0.020930407792093157 -0.0025199521537560025 0 0.02064585432431933 -0.0026110469989673911 0 0.020722256711579914 -0.0025635929035658263 0 0.020722256711579914 -0.0025635929035658263 0 0.020821676402609967 -0.0025237177146367963 0 0.020730332029501416 -0.0025870518078681655 0 0.020807988778516768 -0.0025246128672864335 0 0.020834914369333154 -0.0025545569669552571 0 0.020821676402609967 -0.0025237177146367963 0 0.020882154901921236 -0.0025522231653195724 0 0.020807988778516768 -0.0025246128672864335 0 0.020821676402609967 -0.0025237177146367963 0 0.020834914369333154 -0.0025545569669552571 0 0.020705706407848856 -0.002762976566256617 0 0.020730332029501416 -0.0025870518078681655 0 0.020834914369333154 -0.0025545569669552571 0 0.020821676402609967 -0.0025237177146367963 0 0.020730332029501416 -0.0025870518078681655 0 0.020705706407848856 -0.002762976566256617 0 0.020481824013038583 -0.0026397230826071291 0 0.020730332029501416 -0.0025870518078681655 0 0.020722256711579914 -0.0025635929035658263 0 0.020481824013038583 -0.0026397230826071291 0 0.020730332029501416 -0.0025870518078681655 0 0.02064585432431933 -0.0026110469989673911 0 0.020722256711579914 -0.0025635929035658263 0 0.020481824013038583 -0.0026397230826071291 0 
</DataArray>
</PointData>
<CellData Scalars="region_id,cross_section_updated," Vectors="" Tensors="stress,">
<DataArray type="Float64" Name="region_id" format="ascii">
5 5 5 5 5 6 5 5 5 5 5 5 5 6 5 5 5 5 6 5 5 6 5 5 5 5 6 5 5 5 5 6 5 5 5 5 5 5 5 5 5 5 5 5 5 6 5 5 6 5 5 5 5 5 6 5 5 5 5 5 5 5 6 5 5 5 5 6 5 5 5 5 5 5 5 5 5 6 5 5 6 5 5 6 5 5 5 5 6 5 5 5 5 5 5 5 6 6 6 5 5 6 5 5 5 5 5 6 5 5 5 5 5 5 5 5 5 5 5 5 5 6 5 5 5 6 5 5 5 5 5 5 6 5 5 5 5 5 5 5 5 5 5 5 5 5 5 5 5 5 5 5 5 5 5 5 5 5 6 5 5 5 6 5 5 6 5 5 5 5 5 5 5 5 5 5 5 6 5 5 5 5 5 5 5 5 6 5 5 5 5 5 5 5 5 6 5 5 5 5 5 5 5 5 5 6 5 5 5 5 5 5 5 5 5 5 5 5 5 5 5 5 5 5 5 5 5 5 5 6 5 5 5 6 5 6 5 6 5 5 6 5 5 5 6 5 6 5 6 5 6 6 5 6 5 5 6 5 6 5 5 5 6 5 6 6 5 5 6 5 5 5 6 5 6 6 6 5 6 5 5 5 6 5 6 6 6 5 5 6 6 5 5 5 5 6 5 6 5 5 6 5 5 5 6 5 6 6 6 5 5 5 6 5 6 6 6 6 5 5 5 6 6 5 5 6 6 6 5 6 5 5 5 5 6 5 5 5 5 5 5 5 6 5 5 5 5 5 5 6 6 5 5 5 6 5 5 5 6 5 6 5 6 6 5 5 5 5 6 5 5 6 5 5 5 5 6 5 6 5 5 5 5 5 6 6 5 5 5 5 5 5 5 5 6 5 5 5 6 5 5 6 5 6 5 5 5 5 5 5 5 5 5 5 5 6 5 6 5 6 5 5 5 6 5 6 5 6 5 5 5 5 5 5 6 5 6 5 5 5 6 5 5 5 6 5 6 6 5 5 5 5 6 5 5 5 5 6 6 5 5 6 5 6 5 6 6 5 5 5 6 5 5 5 5 6 5 5 5 5 5 5 5 5 5 5 5 6 5 5 5 5 6 5 5 5 6 5 6 6 6 5 5 5 6 6 5 6 5 5 6 5 5 5 5 6 5 5 5 5 5 5 5 5 5 5 5 6 6 5 5 6 5 5 5 6 5 5 5 5 5 5 6 5 5 5 6 5 5 5 6 5 5 5 5 5 5 5 5 5 5 5 6 5 5 5 6 5 5 5 5 5 5 5 6 5 5 5 5 5 6 5 5 5 5 5 5 5 5 5 5 5 5 5 5 5 5 5 5 5 6 5 5 5 5 6 5 5 6 5 5 5 5 5 5 5 6 5 5 5 5 5 5 5 5 6 5 6 5 5 6 5 5 5 6 5 5 6 5 5 5 6 5 6 5 5 6 5 6 5 5 5 5 5 5 5 5 5 5 5 5 5 5 5 5 5 5 5 5 5 5 6 5 6 5 6 5 5 5 5 5 5 5 5 5 5 5 5 5 5 5 6 5 5 5 5 5 5 5 5 5 6 5 5 5 5 5 5 5 5 5 5 5 5 5 5 5 5 5 5 5 5 5 5 5 5 5 5 5 5 5 6 5 5 6 5 5 5 6 6 5 6 5 5 5 5 5 6 5 5 5 5 5 6 5 5 5 5 5 5 5 5 5 5 5 5 5 5 5 5 5 5 5 5 5 5 5 5 5 5 5 5 5 5 5 5 5 5 5 5 5 5 5 5 5 5 5 5 5 5 5 5 5 6 5 5 5 5 5 5 5 5 5 5 5 5 5 5 5 6 5 5 5 5 6 5 5 5 5 5 5 5 5 5 5 5 5 5 5 5 5 5 5 5 5 5 5 5 5 5 5 5 6 5 5 6 5 6 6 6 6 5 5 6 5 5 5 5 5 5 5 5 5 5 5 5 5 5 5 5 5 6 5 5 6 5 6 5 5 5 5 6 5 6 5 5 5 5 6 5 5 5 6 5 5 5 5 5 6 5 6 5 5 6 6 5 6 5 5 5 5 5 5 5 5 5 5 5 6 5 5 5 6 5 5 5 6 5 5 6 6 6 5 5 5 5 5 5 5 5 5 5 5 6 5 5 5 5 5 5 5 5 6 6 6 5 5 5 5 5 5 5 5 6 6 5 5 5 6 5 5 6 5 5 5 5 5 5 5 5 5 5 5 6 5 5 5 5 5 5 5 5 6 5 5 5 5 5 5 5 5 5 5 6 5 6 6 6 5 5 5 5 5 5 5 6 6 5 6 5 5 5 5 5 6 5 6 6 5 5 5 6 5 6 5 5 5 5 6 5 5 5 5 5 5 5 5 5 5 5 5 5 5 5 5 5 6 5 5 5 6 5 5 5 5 5 6 5 5 5 5 5 5 6 5 6 5 5 5 5 5 5 5 5 6 5 5 5 6 5 5 5 5 5 5 5 5 5 5 5 5 5 5 5 5 5 5 5 5 5 5 5 5 5 6 6 6 5 5 5 5 6 5 5 5 5 6 5 5 5 5 5 5 5 6 5 5 5 5 5 5 5 5 6 5 5 5 5 5 5 5 5 5 5 5 5 6 5 5 5 5 5 5 6 5 5 5 5 5 5 5 5 6 5 5 5 6 5 5 5 5 5 5 5 5 5 5 5 5 6 5 5 5 5 5 5 5 5 5 5 5 5 5 5 5 5 5 5 5 5 5 5 5 5 5 5 5 5 5 5 5 5 5 5 5 5 5 5 5 5 5 5 5 5 5 5 5 6 5 5 5 5 5 5 5 5 5 5 5 5 5 5 5 5 5 5 5 5 5 5 5 5 6 5 5 5 5 5 5 5 5 5 5 6 5 5 6 5 5 5 5 5 5 5 5 5 6 5 6 5 5 5 5 6 5 5 6 5 6 5 5 5 5 5 6 5 5 5 5 5 5 5 5 6 5 5 5 5 5 5 5 5 5 5 5 5 5 5 6 5 6 6 5 5 5 5 5 6 5 5 5 5 5 5 5 5 5 5 5 5 5 5 5 6 5 5 5 5 5 5 5 5 5 5 5 5 5 5 5 5 6 5 5 5 5 5 6 6 5 5 6 5 5 5 5 5 5 5 5 5 5 6 5 5 5 5 5 5 5 5 5 6 5 6 5 5 5 5 5 6 5 5 5 5 6 5 5 5 6 5 5 5 6 5 5 6 5 5 5 5 5 5 5 5 5 5 5 5 5 5 5 5 6 5 5 5 5 5 5 5 6 5 5 5 5 5 5 5 5 5 5 5 5 5 5 5 5 5 5 5 5 5 5 5 5 5 5 5 6 5 5 5 5 6 5 5 5 6 5 5 5 5 5 5 5 5 5 6 5 6 5 5 5 5 5 5 5 5 5 5 5 5 5 5 5 5 5 5 6 6 5 5 5 6 5 5 6 5 5 6 5 5 5 6 5 5 6 5 5 5 5 5 5 5 5 5 5 5 5 5 5 5 5 5 5 5 5 6 5 6 5 5 5 5 5 5 5 5 5 5 5 6 5 6 5 5 5 6 5 5 5 5 5 6 5 5 5 5 5 5 6 5 5 5 5 5 5 5 5 5 5 5 6 5 5 5 5 5 5 5 5 6 5 5 5 6 5 5 6 5 5 5 5 5 6 5 5 5 5 5 5 5 5 5 6 5 5 6 5 6 5 6 6 6 5 6 5 5 5 5 5 5 6 5 5 5 5 5 5 6 5 5 5 5 5 5 5 6 5 5 5 5 6 5 5 5 5 5 6 5 6 5 5 5 5 5 5 5 5 5 5 6 5 5 5 5 5 5 5 6 5 5 5 5 5 5 5 6 5 6 5 5 5 5 5 5 5 5 6 5 5 5 6 6 5 5 5 5 5 6 6 5 6 5 5 6 5 5 6 5 5 5 5 5 5 5 5 6 5 5 5 5 5 6 5 5 5 5 6 5 5 6 5 5 5 5 5 5 5 5 5 5 5 5 5 5 5 5 5 5 5 5 5 5 5 5 5 5 5 5 5 5 5 5 5 5 5 5 5 5 5 5 5 6 5 5 6 5 5 5 5 5 6 5 5 5 5 6 5 5 5 5 5 5 5 5 5 5 5 5 5 5 5 5 5 5 5 5 5 5 5 5 6 5 5 5 6 5 5 5 5 5 5 6 5 5 5 5 5 5 5 5 5 5 5 6 5 6 6 5 5 6 5 5 5 5 5 5 5 5 5 5 5 6 5 5 6 5 5 5 5 5 5 5 5 5 5 5 5 5 5 5 6 5 5 5 5 5 5 5 6 5 6 5 5 5 5 6 5 6 5 5 5 5 5 5 5 5 5 6 5 5 5 5 5 5 5 5 5 5 5 5 5 5 5 5 5 6 5 5 5 5 5 5 5 5 5 5 5 5 5 5 5 5 5 5 5 5 5 5 5 5 5 6 6 5 5 5 5 5 5 5 5 5 5 5 6 5 5 5 5 6 5 5 5 5 6 5 5 5 5 5 5 5 5 6 5 5 5 5 5 5 5 5 5 6 5 5 5 5 5 5 5 5 5 5 5 5 5 5 5 5 5 5 5 5 6 5 5 5 5 5 5 5 5 5 5 5 5 5 5 6 5 6 5 5 5 5 5 5 5 5 6 5 5 6 5 5 5 5 5 5 5 5 5 5 5 5 5 5 5 5 5 5 5 5 5 5 5 5 5 5 5 5 5 5 5 5 5 5 5 5 6 5 5 6 5 5 5 5 6 5 6 5 5 6 5 6 5 5 5 5 5 6 5 5 5 5 5 5 5 5 5 5 5 5 6 5 5 5 6 5 5 5 5 5 5 5 5 5 6 5 5 5 5 6 6 5 5 5 5 5 5 5 5 6 5 5 5 5 5 6 5 5 5 6 5 5 5 6 5 5 5 5 6 5 5 5 5 5 5 5 5 5 5 5 5 5 5 6 5 5 5 5 5 5 6 5 6 6 5 6 5 6 5 5 5 5 6 5 5 5 5 6 5 5 5 5 5 5 5 5 5 6 5 5 5 5 5 5 5 5 5 5 5 5 5 5 6 5 5 5 6 5 5 5 6 5 6 5 5 5 5 5 5 5 5 5 5 5 5 5 5 5 5 6 5 5 5 5 5 5 6 5 5 5 5 5 5 5 5 5 5 5 5 5 5 5 5 5 5 6 5 5 5 5 5 5 5 5 5 5 5 5 5 5 5 5 5 5 5 5 5 5 5 5 5 5 5 5 5 5 5 5 5 5 6 5 5 5 5 6 5 5 5 5 5 5 5 6 5 5 5 5 5 5 5 5 5 6 5 5 6 5 5 5 5 5 6 5 5 5 6 5 5 6 5 5 5 5 5 5 5 5 5 5 5 5 5 5 5 5 5 5 5 5 6 5 5 5 5 5 5 5 5 5 5 6 6 5 6 5 5 5 5 5 6 5 5 5 5 6 5 5 5 5 5 6 5 6 5 5 6 5 5 5 5 5 5 5 5 6 5 5 5 5 5 5 6 5 5 5 5 5 5 6 5 5 5 5 6 5 5 6 5 6 5 5 6 5 5 5 5 5 5 6 5 5 5 5 6 5 5 5 5 5 5 5 5 6 6 5 5 5 5 5 5 5 5 6 5 5 5 5 5 5 6 5 5 5 5 5 5 5 6 5 5 5 6 5 5 5 5 5 5 5 5 5 5 5 5 6 5 5 5 5 6 5 5 6 5 5 5 5 6 5 5 5 6 6 5 5 5 6 5 5 5 6 5 5 5 5 5 5 5 5 5 6 5 5 5 6 5 5 5 5 5 5 5 5 5 5 5 5 6 5 6 5 5 6 5 5 6 5 5 5 5 5 5 5 6 5 5 5 5 5 6 5 6 5 5 5 6 6 5 6 6 5 6 5 5 5 5 5 5 6 5 6 5 5 5 5 5 5 5 5 5 5 5 5 5 6 5 5 6 5 6 5 5 6 5 5 5 6 6 5 5 6 5 5 5 5 5 5 5 5 5 5 5 5 5 5 5 5 5 5 5 5 5 5 5 6 6 5 6 5 6 5 5 6 6 5 5 6 5 5 6 5 5 6 5 6 5 5 5 5 6 5 5 5 5 6 5 6 6 5 6 5 5 6 6 5 5 5 6 5 5 5 5 6 6 5 5 5 5 5 6 5 5 5 5 5 5 5 5 5 5 5 6 5 6 5 6 5 5 6 5 6 5 5 5 5 5 5 5 5 6 5 5 6 5 5 5 5 6 5 5 5 5 5 5 5 5 5 5 5 5 6 5 5 5 5 5 5 5 5 5 5 5 6 5 5 5 5 5 5 6 5 6 5 5 6 5 5 5 5 5 5 5 5 5 5 5 5 5 5 5 5 5 6 6 5 5 5 6 5 5 6 5 5 5 5 5 5 5 5 5 5 5 5 5 5 5 5 5 5 5 5 5 5 5 5 5 6 6 5 5 5 5 5 5 5 5 5 5 5 6 5 5 5 5 5 5 5 5 5 5 5 5 5 5 5 5 5 5 5 5 5 5 5 5 5 5 5 5 5 5 5 5 5 6 5 5 5 5 5 6 5 5 6 5 5 6 6 5 5 5 5 5 5 5 5 5 5 5 5 5 6 5 5 6 5 5 5 5 5 5 6 5 5 6 5 5 5 5 5 5 5 5 5 5 5 5 5 6 5 5 5 5 5 5 5 6 5 5 5 5 5 5 5 5 5 5 5 5 6 5 5 6 5 5 5 5 5 5 5 5 5 5 5 5 5 5 5 5 5 5 5 5 6 5 5 6 5 6 5 5 5 6 5 5 6 5 6 5 5 5 6 5 5 5 5 6 5 5 5 5 5 5 5 6 5 5 5 6 5 5 5 5 5 5 5 5 5 5 5 5 6 5 5 5 5 5 5 5 5 6 5 5 5 5 5 5 5 5 5 5 5 6 5 5 5 5 5 5 5 5 5 5 5 5 5 5 5 5 5 5 5 6 6 5 5 5 6 5 5 5 5 5 5 5 5 5 5 5 5 6 5 5 5 5 5 5 5 5 5 6 5 5 5 5 5 5 5 5 5 5 5 5 5 5 5 5 6 5 6 5 5 5 5 5 6 5 5 5 5 6 5 5 5 6 5 5 5 6 5 5 5 5 5 5 5 5 5 6 5 5 5 6 5 5 6 5 5 5 5 5 5 6 5 5 5 5 5 5 5 5 6 5 5 5 6 5 5 5 5 5 5 5 5 5 5 5 5 5 5 5 5 5 5 5 5 5 5 5 5 5 5 5 6 5 5 5 5 5 5 5 6 5 5 5 5 5 5 5 5 5 5 5 5 5 5 5 5 5 5 5 5 5 5 5 5 5 6 5 6 5 5 5 5 5 5 6 5 5 5 6 5 5 6 5 5 5 5 5 5 5 5 5 5 5 5 6 5 5 5 5 5 6 5 5 5 5 5 5 5 5 5 5 5 5 5 6 5 5 5 6 5 5 5 5 5 5 5 5 5 5 5 5 6 6 5 5 5 5 6 5 5 5 5 5 5 5 5 5 6 6 5 5 5 5 5 6 5 5 5 5 5 6 5 5 5 5 5 6 5 6 5 5 5 5 6 5 6 5 6 6 5 5 5 5 5 5 5 6 6 5 5 5 5 5 5 6 6 6 5 6 6 5 5 5 6 5 5 5 5 5 6 6 6 5 6 5 5 5 6 5 6 6 5 5 5 5 5 5 5 6 6 5 5 6 6 6 5 5 5 5 5 5 5 5 5 5 5 5 5 5 5 5 5 5 5 5 5 5 5 5 5 5 5 5 5 5 5 5 5 5 5 5 5 5 5 5 6 5 5 5 5 5 5 5 5 5 5 6 5 5 5 5 5 5 6 5 5 6 5 5 5 5 5 5 5 5 5 5 5 5 5 6 5 6 5 5 5 5 6 5 5 5 6 5 5 6 5 5 5 6 5 5 6 5 5 5 5 5 6 5 5 5 5 5 5 5 6 5 5 5 5 5 5 5 6 5 5 6 5 5 5 5 6 5 6 5 5 5 5 5 6 5 5 5 5 6 5 5 5 5 5 5 6 6 5 5 5 5 5 6 5 5 6 5 5 5 5 5 5 5 5 5 5 6 5 5 5 5 5 5 5 5 5 5 5 5 5 5 5 5 5 5 6 5 5 5 5 5 5 6 5 5 5 5 5 5 5 6 6 5 5 5 5 6 5 5 5 5 5 5 5 6 5 5 6 5 6 6 6 5 5 5 5 5 5 6 5 5 5 5 5 6 5 5 5 5 6 5 5 5 6 5 5 5 6 5 5 5 5 5 5 5 5 5 5 5 5 5 5 5 5 5 5 5 5 5 5 5 5 5 6 5 5 5 5 5 5 5 6 5 6 5 5 5 5 5 5 6 5 5 6 5 5 5 6 5 5 6 5 5 5 5 5 6 5 5 5 6 6 5 5 5 5 5 5 5 5 5 5 5 5 6 5 5 5 5 5 5 5 5 5 6 5 5 5 5 5 6 6 5 5 5 5 5 5 5 5 5 6 5 5 5 5 5 5 5 5 6 5 5 5 5 5 5 5 5 5 5 5 5 5 5 5 5 5 5 6 5 5 5 5 6 5 6 5 6 5 5 5 5 5 5 5 5 5 5 5 5 5 5 5 5 5 6 5 5 5 5 5 6 5 5 5 6 6 5 5 5 5 5 6 5 5 5 5 6 5 5 5 5 5 5 5 5 6 5 5 5 5 5 5 5 6 5 5 5 5 5 5 5 5 5 6 5 5 5 5 5 5 5 5 5 5 5 5 5 5 5 5 5 5 6 5 5 5 5 5 5 5 5 5 5 5 5 5 6 5 5 5 5 5 5 6 5 5 6 5 5 6 5 5 5 5 5 5 5 5 5 5 5 5 5 5 5 5 5 5 5 5 5 5 5 5 5 5 6 5 6 5 6 6 5 5 5 6 5 5 5 5 5 5 5 5 5 6 6 5 6 5 5 5 5 5 5 5 5 5 5 5 5 5 5 6 5 6 6 5 6 5 5 5 5 5 5 5 5 5 6 6 5 5 5 5 5 5 5 5 5 5 5 5 5 5 5 5 5 5 5 5 5 5 6 5 5 5 5 5 6 5 5 5 5 5 6 5 5 5 6 5 5 5 5 5 5 5 5 5 6 5 5 5 5 6 5 5 5 5 5 5 6 5 5 5 5 5 5 5 6 5 5 5 5 6 5 5 5 5 5 5 5 5 5 5 6 5 5 5 5 6 5 5 5 6 5 5 5 5 5 6 5 5 5 5 5 5 5 5 5 5 5 5 5 5 6 6 5 5 6 5 5 5 5 5 5 5 6 5 5 5 5 5 5 6 5 5 5 5 5 5 5 5 5 5 5 5 5 5 5 5 5 5 5 5 5 5 5 6 5 5 5 5 5 5 5 5 6 5 5 5 5 6 5 5 5 5 5 6 5 6 5 6 5 5 5 5 5 5 5 6 5 5 5 6 5 5 5 5 5 6 5 5 5 5 5 6 5 6 5 5 6 5 6 5 5 5 5 5 6 5 5 5 6 5 5 5 5 5 5 5 5 5 5 6 5 5 5 5 5 5 5 5 5 5 5 5 5 5 5 5 5 5 5 5 5 5 6 5 5 5 5 5 5 5 5 5 5 5 5 5 5 5 5 5 5 6 5 5 5 6 5 5 5 5 5 5 6 5 5 5 6 6 5 6 5 6 6 5 6 5 5 6 5 5 6 6 5 5 5 5 5 5 5 5 6 5 6 5 5 5 5 5 5 5 5 5 5 5 5 5 5 5 5 5 5 5 5 5 5 6 5 5 5 5 5 5 5 5 6 5 5 6 5 5 6 6 5 5 6 5 5 5 5 5 5 5 5 5 5 5 5 5 5 5 5 5 5 5 5 5 5 5 5 5 5 5 5 5 5 5 5 5 5 5 5 5 5 5 6 5 6 5 5 5 5 5 5 5 5 5 5 5 5 5 5 5 5 5 5 5 5 5 5 5 5 5 5 5 5 5 5 5 5 5 5 5 5 5 5 5 5 6 5 5 6 5 5 5 5 5 6 5 6 5 5 6 5 5 5 5 5 5 6 5 5 5 5 5 5 5 5 5 5 5 6 5 5 6 6 5 6 5 5 6 5 5 5 5 6 5 5 5 5 5 5 5 5 5 6 5 6 5 5 5 5 5 5 5 6 5 6 5 5 5 5 5 5 5 5 5 6 5 6 5 5 5 5 5 5 5 5 5 5 6 5 5 5 6 5 5 6 5 5 6 5 5 5 5 6 5 5 5 6 5 5 5 5 5 5 5 5 5 5 5 5 5 5 6 5 5 5 5 5 5 6 5 6 5 6 5 5 5 6 5 5 5 5 5 5 5 5 6 5 5 5 5 5 6 5 5 6 5 5 5 5 5 5 5 5 5 6 5 5 5 6 5 5 5 5 5 5 6 5 5 5 5 5 5 5 5 5 5 5 5 5 5 5 5 5 5 5 5 5 5 5 5 5 5 5 5 5 5 5 6 5 5 5 5 5 6 5 5 6 6 5 5 5 5 6 5 5 5 5 5 6 5 5 5 5 5 5 5 5 5 5 5 5 5 5 5 5 6 5 5 5 5 5 5 5 5 6 6 5 5 5 5 5 5 6 5 5 5 5 6 5 5 5 5 5 5 5 5 5 5 5 5 5 5 5 5 5 5 5 5 5 5 5 5 6 5 5 6 5 5 5 5 5 5 5 5 5 5 5 5 5 5 5 5 5 5 5 5 5 5 5 5 5 5 5 6 5 6 5 5 5 5 5 6 5 5 5 5 5 5 5 5 5 5 5 5 5 5 5 5 5 5 5 5 6 6 5 6 5 5 5 5 5 5 5 5 5 5 5 5 5 5 5 5 6 5 5 5 6 5 5 5 5 5 5 5 5 5 5 5 5 5 6 5 5 5 5 5 5 5 5 5 5 5 5 5 5 5 5 5 5 5 5 5 5 6 5 5 5 5 5 5 5 5 5 5 5 5 5 6 5 6 5 5 6 6 5 5 5 5 5 5 5 5 5 5 5 5 5 5 5 5 5 5 5 5 6 5 5 6 5 5 5 6 5 5 5 5 5 5 6 5 5 5 6 5 5 5 5 5 5 5 5 6 5 5 6 5 5 6 5 6 5 5 5 5 6 6 5 5 6 6 5 5 6 5 5 5 5 6 5 5 6 6 5 6 5 5 5 5 5 5 5 5 5 5 5 5 5 5 5 5 5 5 5 5 6 5 5 5 5 6 5 5 5 5 6 6 5 5 5 5 5 5 5 5 5 5 5 5 6 5 5 5 6 5 5 5 5 5 5 5 6 5 5 5 6 5 5 6 6 5 5 5 6 5 5 5 6 5 5 5 5 5 5 5 5 5 5 5 5 5 5 5 5 5 5 6 5 5 5 5 5 5 5 5 5 5 5 5 5 5 5 5 5 5 6 6 5 5 5 5 5 6 6 5 6 5 5 5 5 5 5 5 5 5 6 5 5 5 6 5 5 5 5 5 5 5 5 5 5 5 5 5 5 6 5 5 5 5 5 5 5 6 5 5 6 5 5 5 5 5 5 6 5 5 5 5 6 5 5 5 5 5 5 6 5 5 5 5 5 5 5 5 6 6 5 5 5 6 6 5 5 5 5 5 6 5 5 5 5 5 5 6 5 5 5 5 6 5 5 5 5 5 6 5 5 5 5 6 5 5 5 5 5 5 5 5 5 5 5 5 5 5 5 5 5 5 5 5 5 5 5 5 5 6 5 5 5 5 6 5 6 5 6 5 5 6 5 5 6 5 5 6 5 5 5 5 5 5 6 5 5 6 5 6 6 6 5 5 6 5 6 6 5 5 5 6 5 6 5 5 5 5 5 5 6 5 5 5 6 5 5 5 5 5 5 5 6 5 5 5 6 5 6 6 5 5 5 5 5 5 5 6 5 5 5 5 5 5 5 5 6 6 5 5 5 5 6 5 5 6 5 5 5 6 5 5 5 6 6 5 5 5 5 6 5 5 5 5 5 6 6 5 5 5 5 5 5 5 5 5 5 5 5 5 5 5 5 5 5 5 5 5 5 5 5 5 5 5 5 5 5 5 6 5 5 5 6 5 5 5 5 5 5 5 5 5 5 5 5 5 5 5 6 5 6 6 5 5 6 5 5 5 5 5 5 5 5 5 5 5 5 5 5 5 5 5 5 5 5 5 5 5 6 5 5 6 6 5 5 5 5 5 5 5 6 5 5 5 6 5 5 5 5 6 6 5 5 5 5 5 5 5 6 5 5 5 5 6 5 5 5 5 6 5 5 5 5 5 5 5 5 5 5 5 5 5 5 5 5 5 5 5 6 5 5 5 5 5 5 5 5 5 5 5 5 5 5 5 5 6 5 5 5 6 5 5 5 5 5 5 5 5 5 6 5 5 5 5 5 5 5 5 5 5 5 5 5 5 5 5 5 5 5 5 5 6 5 5 5 5 5 5 5 5 5 5 5 5 5 5 5 5 5 6 5 5 5 5 5 6 5 5 5 5 5 5 5 5 5 5 5 5 5 5 5 5 5 5 5 5 5 5 5 5 5 5 5 6 5 5 6 5 5 5 6 5 5 5 5 5 5 5 5 5 5 5 5 5 5 5 6 5 6 5 5 5 5 5 5 5 5 5 6 5 5 5 5 5 5 5 5 5 6 6 5 5 5 5 5 5 5 5 5 5 5 5 5 5 5 5 5 5 5 5 5 5 5 5 5 5 5 5 5 5 5 5 5 5 5 5 5 5 5 5 5 5 5 5 5 5 5 5 5 5 5 5 5 5 5 5 5 5 5 5 5 5 5 5 5 5 5 5 5 5 5 6 5 5 5 5 5 5 6 5 5 5 5 5 5 5 5 5 6 5 6 5 5 5 5 5 5 5 5 5 5 5 5 5 5 5 5 5 5 5 5 5 5 5 5 5 5 5 5 5 5 5 5 5 5 6 5 5 5 6 6 5 5 5 5 5 5 5 5 5 5 5 5 5 5 5 5 5 5 5 5 5 5 6 6 5 5 5 5 5 5 5 5 6 5 5 5 5 5 5 6 5 5 5 5 5 6 5 5 5 5 6 5 5 5 6 5 5 5 6 5 5 6 5 5 5 5 5 5 5 5 5 5 5 5 5 6 5 5 5 5 5 5 5 5 6 5 5 5 5 5 5 5 5 5 5 5 6 5 5 5 6 5 5 5 5 6 5 5 5 5 5 5 5 5 6 5 6 5 5 6 5 5 5 5 5 6 5 5 5 5 5 5 5 5 5 5 5 5 6 5 5 5 5 5 5 5 5 5 6 5 5 5 5 5 5 6 5 5 5 5 5 5 5 6 5 5 5 5 5 6 5 5 5 5 5 5 5 5 5 5 5 5 5 5 5 5 5 5 5 5 5 5 5 5 5 5 5 5 5 5 5 5 5 5 5 5 5 5 5 5 5 5 5 5 5 5 5 6 5 6 5 5 5 5 5 5 5 5 5 5 5 5 5 5 6 5 5 5 5 5 5 5 5 5 5 5 5 5 5 5 6 5 5 6 5 6 5 5 5 5 5 6 5 5 5 5 5 5 5 5 5 5 5 5 5 5 5 5 5 5 5 5 6 5 5 5 5 5 5 5 5 5 5 5 6 5 6 5 5 6 5 6 5 5 5 5 5 5 5 6 5 6 5 5 5 5 6 5 5 5 5 6 6 5 5 6 5 5 5 5 5 5 5 5 5 5 5 5 5 5 5 5 6 5 5 5 5 5 5 5 5 5 5 5 5 5 5 6 5 6 5 5 5 5 5 5 5 6 5 6 5 5 5 5 5 5 5 5 5 6 6 5 5 5 6 5 5 5 5 6 5 6 5 5 6 5 6 6 6 5 5 6 5 5 5 6 6 6 5 5 5 5 5 5 5 5 5 5 5 6 5 5 5 5 5 5 6 5 5 5 6 5 5 5 5 5 5 5 5 6 5 5 5 6 5 5 5 5 5 5 5 5 5 5 5 5 5 5 5 5 5 5 5 5 5 5 5 5 5 5 5 5 5 5 5 5 5 5 5 5 5 5 5 5 5 5 5 5 5 5 5 5 5 5 5 5 5 5 5 5 5 5 5 5 6 5 5 5 5 5 6 5 5 5 5 6 5 5 5 6 5 5 5 5 5 5 5 5 5 5 5 5 5 5 5 5 5 5 5 5 5 5 5 5 5 5 5 5 5 5 5 5 5 5 5 5 5 5 5 5 6 5 5 6 5 5 5 5 5 5 5 6 5 5 5 5 5 5 5 5 5 5 5 6 5 5 6 5 6 5 5 5 6 5 5 5 5 5 5 5 5 6 5 5 5 5 6 5 5 5 5 6 5 6 5 5 5 5 5 5 5 5 5 5 5 5 6 5 6 5 5 5 5 5 5 5 5 5 5 5 5 5 6 5 5 5 5 5 5 5 5 5 6 5 5 5 6 5 5 5 5 5 5 5 5 5 5 5 5 5 5 5 5 5 5 5 5 5 5 5 5 5 5 5 5 5 5 5 5 5 5 5 6 5 5 6 5 5 5 5 6 5 5 5 5 5 5 5 5 5 5 5 5 5 5 5 6 5 5 5 5 5 5 5 5 5 6 5 6 5 5 5 5 5 5 5 6 5 5 5 5 5 5 5 5 5 5 5 5 5 5 6 5 5 5 5 5 5 5 5 5 5 5 6 5 5 5 5 5 5 5 5 5 5 5 5 5 5 5 5 5 5 5 5 5 5 5 6 5 6 5 5 5 5 5 5 6 5 6 5 5 5 6 5 5 5 6 5 5 5 6 5 5 6 5 5 5 5 5 5 5 6 5 5 5 5 5 5 5 6 5 5 5 5 5 5 5 5 5 5 5 5 5 6 5 5 5 5 5 5 5 5 6 5 5 5 5 5 5 5 5 5 5 5 5 5 5 5 5 5 5 5 5 6 5 5 5 5 5 5 5 5 5 5 5 5 5 5 5 5 5 5 5 5 5 5 5 5 5 5 5 5 5 5 5 5 5 5 5 5 5 5 5 5 5 5 5 5 5 5 5 5 5 5 6 5 6 5 5 5 6 5 5 6 6 5 6 5 5 5 5 5 5 5 5 5 5 5 5 5 5 5 5 5 5 5 5 5 5 5 5 5 5 5 5 5 5 5 5 5 5 5 6 5 5 5 5 6 5 5 6 5 5 5 6 5 5 5 5 6 5 6 6 5 5 5 5 6 5 5 5 6 5 5 5 6 5 5 5 5 5 5 6 5 5 5 5 5 5 5 5 5 5 5 5 5 5 5 5 5 5 5 5 6 5 5 5 5 5 5 5 5 5 5 5 5 5 5 5 5 5 5 6 5 5 6 5 5 6 5 5 5 5 5 5 5 5 5 5 5 6 5 5 5 5 6 5 5 5 5 6 5 5 5 6 5 5 5 5 5 5 5 5 5 5 5 5 5 5 5 5 5 5 5 5 5 5 5 5 5 6 5 5 5 5 5 5 5 5 6 5 5 5 6 5 5 5 5 5 5 5 5 5 5 5 5 5 5 5 5 5 5 5 5 5 5 5 5 6 5 5 5 6 5 5 5 5 5 5 5 5 6 5 5 6 5 5 5 5 6 5 5 5 5 5 5 5 6 5 6 5 5 6 5 5 6 6 5 5 5 5 5 5 5 5 5 5 5 5 5 5 5 5 5 5 5 5 5 6 5 5 5 5 6 5 5 5 5 5 5 5 5 5 5 5 5 5 6 5 5 6 5 5 5 5 5 5 5 5 5 5 5 5 5 5 5 5 5 5 5 5 5 5 5 5 5 5 5 5 5 5 5 5 5 5 5 5 5 5 5 5 5 5 5 5 5 5 5 5 5 5 5 5 5 5 5 5 5 5 5 5 5 5 5 5 5 5 5 5 5 5 5 5 5 5 5 5 5 5 5 5 5 5 5 5 5 5 5 5 5 5 5 5 5 5 5 5 5 5 5 5 5 5 5 5 5 5 5 5 5 5 5 5 5 5 5 5 5 5 5 5 5 5 5 5 5 5 5 5 6 5 5 5 5 5 5 5 6 5 5 5 5 5 5 5 5 5 6 5 6 5 5 5 6 5 5 6 5 5 5 5 5 5 5 5 5 5 5 5 5 5 5 5 5 5 5 5 5 5 5 5 5 5 5 5 5 5 5 5 5 5 5 5 5 6 5 5 6 6 5 5 6 5 5 6 5 5 5 6 5 5 5 5 5 5 5 5 5 6 5 5 5 5 5 5 6 5 5 5 5 5 5 5 5 5 5 5 5 5 5 5 5 5 5 5 5 5 5 5 5 5 5 5 5 5 5 5 6 5 5 5 5 5 5 5 5 5 5 5 5 5 5 5 5 5 5 5 5 5 5 5 5 5 5 5 5 5 5 5 5 5 5 5 5 5 5 5 5 5 5 5 5 5 5 6 5 6 5 5 5 5 6 5 5 5 5 6 5 5 5 5 6 5 5 5 5 5 5 5 5 6 5 5 6 5 6 5 5 5 5 6 5 5 6 6 5 5 5 5 5 5 6 5 5 5 5 5 5 5 5 5 5 6 6 5 5 5 5 5 6 5 5 6 5 5 5 5 6 5 5 6 5 5 5 5 5 5 5 5 5 5 5 5 5 5 5 5 5 5 5 5 5 5 5 5 5 5 5 5 5 6 5 6 5 5 5 5 5 5 5 5 5 5 5 5 5 6 5 5 5 5 6 6 5 5 5 5 5 5 5 5 5 5 5 5 5 5 5 5 5 5 5 5 5 5 5 5 5 5 5 5 5 5 5 5 5 5 5 5 5 5 5 5 5 5 6 5 5 5 6 5 5 5 5 5 5 5 5 5 5 5 5 5 5 5 5 5 5 5 5 6 5 5 6 5 5 5 5 5 5 5 5 5 6 5 5 5 5 5 6 5 5 5 5 5 6 5 6 5 5 5 5 5 5 5 5 5 5 5 5 5 6 5 5 5 6 6 5 5 5 5 5 5 5 5 6 5 5 6 5 5 6 6 5 5 5 5 5 6 5 5 5 5 5 5 5 6 5 5 6 6 5 5 5 5 5 5 6 6 5 5 5 6 5 5 5 5 5 5 5 6 5 5 5 5 5 5 5 5 5 5 5 5 5 5 5 5 5 5 5 5 5 5 5 5 5 5 6 5 5 5 5 5 5 5 6 5 5 5 5 5 5 5 5 5 5 5 6 5 5 5 5 5 5 5 5 6 5 5 5 5 5 5 5 5 5 5 5 5 5 5 5 5 6 5 5 5 6 5 5 5 5 5 6 5 5 5 5 5 5 5 5 5 5 5 5 5 5 6 5 5 5 5 6 5 5 6 5 5 5 5 5 6 5 5 5 5 5 5 5 5 5 5 5 5 5 5 6 5 6 5 5 5 6 5 6 5 6 5 5 5 5 5 5 6 6 5 5 5 5 5 5 6 5 6 5 5 5 5 5 5 5 5 5 5 5 5 5 5 5 5 5 6 5 5 5 6 6 5 5 5 5 5 6 5 5 6 6 5 5 5 5 5 5 5 5 5 5 5 5 5 5 5 5 5 5 5 5 5 5 5 5 5 5 5 5 5 5 5 5 5 5 5 5 5 5 5 5 5 5 5 5 6 5 5 6 6 6 5 5 5 5 5 5 6 5 5 5 5 5 5 5 5 5 6 5 5 5 6 5 5 5 5 5 5 5 5 5 5 5 5 5 5 5 5 5 5 5 5 6 5 5 5 5 6 5 5 5 5 5 5 5 5 5 5 5 5 5 5 5 5 5 5 5 5 5 5 5 5 5 5 5 5 5 5 5 5 5 5 6 5 6 5 5 5 5 5 5 5 5 6 5 5 5 6 5 6 5 5 5 5 5 5 5 5 6 5 5 5 5 6 5 5 5 5 6 5 5 5 5 5 5 5 6 5 5 5 5 6 5 5 5 5 5 5 5 5 5 5 5 5 5 5 5 5 5 5 5 5 5 5 5 5 5 5 5 5 5 5 5 5 5 5 5 5 5 5 5 5 5 5 5 5 5 5 6 5 5 5 5 6 6 5 5 6 6 5 5 5 5 5 5 5 5 5 5 5 5 5 5 5 5 5 5 5 6 5 5 5 6 6 5 5 5 5 5 5 5 5 5 5 5 5 5 5 5 5 5 5 5 5 5 5 5 5 5 5 5 6 5 5 5 5 5 5 5 6 5 5 5 5 5 5 5 5 5 5 5 5 5 5 5 6 5 5 5 5 5 5 5 5 6 5 6 6 5 5 5 5 5 5 5 5 5 5 5 5 6 5 5 5 5 5 5 5 5 5 5 5 5 5 5 5 5 5 5 6 5 5 5 6 5 5 5 5 5 5 5 5 6 5 5 5 5 5 5 5 5 5 5 5 5 5 5 5 6 5 5 5 6 5 5 5 5 5 5 5 5 5 5 5 5 5 5 5 5 5 5 5 5 5 5 5 5 5 5 5 5 5 5 5 5 5 6 5 6 5 5 5 5 5 5 5 5 6 5 5 5 5 5 5 5 5 5 6 5 5 6 5 5 5 5 5 6 5 5 5 5 6 5 5 5 5 6 5 5 5 6 5 6 5 5 6 5 5 5 5 5 5 5 5 5 5 5 5 5 5 6 5 5 6 5 6 5 5 5 6 5 5 6 5 5 5 5 6 5 6 5 5 5 5 5 5 6 5 6 5 5 5 5 5 6 5 5 5 5 6 5 5 5 5 5 5 6 5 5 5 5 5 5 5 5 5 5 5 5 5 5 5 5 5 5 5 5 5 5 5 5 5 5 5 5 5 5 5 5 5 6 6 5 5 5 5 5 5 5 5 5 5 6 5 5 6 6 5 6 5 5 5 5 5 5 5 6 5 5 5 5 5 5 5 5 5 5 5 5 6 5 5 5 5 6 5 5 5 5 5 5 5 5 5 5 5 5 6 5 5 5 5 5 5 5 5 5 5 5 5 5 5 5 5 5 6 5 5 5 5 5 6 5 5 5 6 5 5 5 5 5 5 6 5 6 5 5 5 6 5 5 5 5 5 5 5 5 5 6 5 5 6 5 5 5 5 5 5 5 6 5 5 5 5 5 5 5 5 5 5 5 5 5 6 5 5 6 5 5 5 5 5 5 6 5 5 5 5 5 5 6 5 5 5 5 5 5 5 6 5 5 5 5 5 5 5 5 5 5 5 5 5 5 5 5 5 5 5 5 5 5 6 5 5 5 5 5 5 5 5 5 5 6 5 5 5 5 6 6 5 5 5 5 6 5 5 5 5 5 5 5 5 5 6 5 5 5 5 5 5 5 5 5 5 5 6 5 5 5 6 5 5 5 6 5 5 5 5 5 5 5 5 5 5 5 5 6 5 5 5 5 5 6 5 5 6 5 5 5 5 5 5 5 5 5 5 5 5 5 5 6 5 5 5 5 5 5 5 6 5 5 5 6 5 5 5 5 5 6 5 5 5 5 5 5 5 5 5 6 5 5 5 5 5 5 5 5 6 5 5 5 5 5 6 5 5 5 5 5 5 5 6 5 5 5 5 5 5 5 5 5 5 5 5 5 5 5 5 5 5 5 5 5 5 5 5 5 5 5 5 5 5 5 5 5 5 5 5 5 5 5 5 5 5 5 5 5 5 5 5 6 5 5 5 5 5 5 5 6 5 5 5 5 5 5 5 5 5 5 5 5 5 5 5 5 5 5 5 5 5 5 6 6 5 5 6 6 5 5 5 5 5 5 5 6 5 5 5 5 5 5 5 5 5 5 5 5 5 5 6 5 5 5 5 5 5 5 5 6 5 5 6 5 5 5 6 5 5 5 5 5 5 5 5 5 5 5 5 5 5 5 5 5 5 5 5 5 5 5 5 5 5 5 5 6 5 5 5 5 5 5 5 5 6 5 5 5 5 5 5 6 6 5 5 5 5 6 5 5 6 5 5 6 5 5 5 5 5 5 6 5 5 5 5 5 5 5 5 6 5 5 5 5 5 5 5 5 5 5 5 6 5 5 6 5 5 5 5 5 5 5 6 5 5 5 6 5 6 5 6 5 5 5 5 5 5 5 5 5 5 5 5 5 5 5 5 5 6 5 6 5 5 5 5 5 5 5 5 5 5 6 5 5 5 5 5 5 5 6 5 5 5 6 5 6 6 5 5 6 5 5 5 5 6 5 5 5 6 5 5 5 6 5 6 6 5 5 5 5 5 5 6 5 5 5 5 5 5 5 5 6 6 6 5 6 5 5 6 6 5 5 6 5 5 5 5 5 5 5 5 5 5 5 6 5 5 5 5 5 5 5 5 5 5 5 5 5 6 6 5 5 5 5 6 5 5 5 6 5 5 5 5 5 6 6 5 5 5 6 5 5 5 5 5 5 5 5 5 5 5 5 5 5 5 6 5 5 5 6 5 5 5 6 5 5 5 5 5 5 6 5 5 5 5 5 6 5 5 5 5 5 5 5 5 6 5 5 5 5 5 5 5 5 5 6 5 5 5 5 6 5 6 5 5 6 5 6 5 5 5 5 5 5 6 5 6 6 5 5 5 5 5 5 5 5 6 5 6 5 6 5 6 5 5 5 5 5 5 5 5 5 5 5 6 5 5 5 6 5 5 5 5 5 5 5 5 6 5 5 5 5 5 5 5 5 5 6 5 5 5 5 6 5 5 6 5 5 5 5 5 5 5 5 5 6 5 5 5 6 5 5 5 5 5 5 5 5 5 5 5 5 5 5 5 5 5 5 5 6 5 5 5 5 5 5 5 5 5 5 6 5 5 5 5 5 5 5 5 5 5 5 5 5 5 5 5 5 5 5 5 5 5 5 5 5 5 5 5 5 5 5 5 5 5 5 5 5 5 5 5 5 5 5 5 5 6 6 5 5 5 5 5 5 5 5 5 5 5 5 5 6 6 5 5 5 6 5 5 6 5 5 5 6 5 5 5 6 5 5 5 5 5 5 5 5 6 5 5 6 5 6 6 5 5 5 5 5 5 6 5 6 6 6 5 5 6 5 5 6 6 5 5 5 5 5 5 5 5 5 5 5 5 5 5 5 5 5 5 5 5 5 6 5 5 5 5 5 5 5 5 5 6 5 5 5 5 5 5 5 6 6 5 5 5 5 5 5 5 5 5 5 5 5 5 5 5 5 5 5 5 5 5 5 5 6 5 6 5 5 5 5 5 5 5 6 5 5 5 6 6 5 5 6 5 5 5 5 6 5 5 5 6 5 5 5 6 5 5 5 5 5 5 5 5 5 6 6 5 5 5 5 5 6 5 5 6 6 6 5 5 5 5 5 6 5 5 5 5 5 5 5 5 5 6 5 6 5 5 5 5 5 5 5 5 5 5 5 5 5 5 5 5 5 5 5 5 5 5 5 5 6 5 5 5 5 6 6 5 5 5 6 5 5 5 5 5 5 5 5 5 5 5 5 5 5 5 5 6 5 5 5 6 5 5 6 5 5 5 5 5 5 5 5 5 5 5 5 5 6 5 5 6 5 5 5 6 5 6 5 6 5 6 6 6 5 5 5 5 5 5 5 5 6 5 5 5 5 5 5 5 5 6 5 5 6 5 5 5 5 5 5 5 5 5 5 5 5 5 5 5 5 5 5 5 5 5 6 5 5 5 5 5 5 5 5 5 5 6 5 6 5 5 6 5 6 5 6 5 5 6 5 6 5 5 6 5 5 5 6 5 5 5 5 5 5 5 5 5 5 5 5 5 5 5 5 5 5 5 5 5 5 5 5 5 5 5 5 5 5 5 5 5 5 5 5 5 5 5 5 5 5 5 5 5 5 5 5 5 5 5 5 5 5 5 5 5 5 5 5 5 6 5 5 6 5 5 5 5 5 5 6 6 5 5 5 5 5 5 5 5 5 5 5 5 5 5 5 5 5 5 6 5 5 5 6 5 5 5 5 5 5 5 5 5 5 5 5 5 5 5 5 6 5 5 5 5 5 5 5 6 5 5 5 5 5 5 5 5 6 5 6 5 5 5 5 5 5 5 5 5 5 5 5 5 5 5 5 6 5 5 5 5 5 5 5 6 5 5 5 5 6 5 5 5 5 5 5 5 6 5 5 6 6 5 5 6 5 5 5 5 5 5 6 5 5 5 5 5 5 5 5 5 6 5 5 6 5 5 6 5 5 6 5 5 5 5 5 6 5 5 5 5 5 5 5 5 6 5 5 5 5 5 5 5 6 5 5 5 5 5 5 5 5 5 5 5 5 6 5 5 5 5 5 5 5 6 6 5 6 5 6 5 5 5 5 5 5 5 5 5 5 5 5 5 5 5 6 5 6 5 5 5 5 5 5 5 5 6 5 6 5 6 5 6 5 6 5 5 6 5 5 5 5 5 6 5 5 5 5 5 5 5 5 6 5 5 5 5 5 6 5 5 6 5 6 6 5 5 5 5 5 5 5 5 6 5 5 5 5 5 5 5 5 5 5 5 5 5 6 5 5 5 5 5 5 5 6 5 5 5 6 5 5 5 5 5 5 5 5 5 5 5 5 5 5 5 5 5 6 5 5 5 5 5 5 5 6 5 5 6 5 5 5 5 5 5 5 5 5 5 5 5 5 5 5 6 5 5 5 5 6 5 5 5 5 5 5 5 5 5 5 5 5 5 5 5 5 5 5 5 5 5 5 5 5 5 6 5 5 5 5 5 5 6 5 5 5 5 5 5 5 5 5 6 6 5 5 5 6 5 6 5 5 5 5 5 5 5 5 5 5 5 5 5 5 5 6 5 5 5 5 5 5 5 5 5 5 5 5 6 6 5 5 5 5 5 5 5 5 6 5 5 6 5 5 6 6 5 5 5 5 5 5 5 6 5 5 5 5 5 5 5 5 5 6 5 5 5 6 5 5 5 5 5 6 5 5 5 5 5 5 5 5 5 5 5 5 6 5 5 5 6 5 5 5 6 5 5 5 5 5 5 5 5 5 5 5 5 5 5 5 5 5 5 5 5 5 5 5 5 5 5 5 5 5 5 5 5 6 5 5 5 5 5 5 5 5 5 5 5 5 5 5 5 5 5 5 5 5 5 5 5 5 6 5 6 5 5 6 5 5 5 5 5 5 5 5 5 6 5 5 5 5 5 5 5 5 5 5 5 5 5 5 6 5 5 5 5 6 5 5 5 6 5 5 5 5 5 5 5 5 5 5 5 5 5 5 5 5 5 5 5 5 5 5 5 5 5 5 5 5 5 5 5 5 5 5 5 5 5 5 5 5 5 5 5 5 5 5 5 5 5 5 5 5 5 5 5 5 5 5 5 5 5 5 5 5 5 5 5 5 5 5 5 5 5 5 5 5 5 5 5 5 5 5 5 5 5 5 5 5 5 5 5 5 5 5 5 5 5 5 5 5 5 5 5 5 5 5 5 5 5 5 5 5 5 5 5 5 5 5 5 5 5 5 5 5 5 5 5 5 5 5 5 5 5 5 5 5 5 5 5 5 5 5 5 5 5 5 5 5 5 5 5 5 5 5 5 5 5 5 5 5 5 5 5 5 5 5 5 5 5 5 5 5 5 5 5 5 5 5 5 5 5 5 5 5 5 5 5 5 5 6 5 5 5 5 5 5 5 5 5 5 5 5 5 5 5 5 6 5 5 5 5 5 5 5 5 6 5 5 5 5 6 5 5 5 5 5 5 5 5 5 5 5 5 5 5 5 5 5 5 5 5 5 5 6 5 5 5 5 5 5 5 5 5 5 5 5 5 6 6 5 5 5 5 5 6 5 6 5 5 5 5 5 5 5 5 5 5 5 6 5 5 5 5 5 5 5 6 5 5 5 5 5 5 5 5 5 5 5 5 5 5 5 6 6 5 5 5 5 5 5 5 5 5 5 5 5 6 5 5 5 5 5 5 5 5 5 5 5 5 5 5 5 5 6 5 5 5 5 5 5 5 6 5 5 5 5 5 5 5 5 5 5 6 6 5 5 5 5 5 5 5 5 5 5 5 5 5 5 5 5 5 5 5 5 5 5 5 5 5 5 5 5 5 5 6 5 5 5 5 5 6 5 5 5 5 5 5 5 5 5 5 6 5 5 5 5 6 5 5 5 5 5 5 5 5 5 5 6 5 6 5 5 5 5 5 5 5 5 5 5 5 5 5 5 5 5 5 5 5 5 5 5 5 5 5 5 5 5 5 5 5 6 5 5 5 5 5 6 5 5 5 5 5 5 5 5 5 5 5 5 5 5 5 5 5 5 6 5 5 6 5 5 5 6 5 5 5 5 5 6 5 5 5 5 5 5 5 5 5 5 6 5 5 5 5 5 5 6 5 5 5 5 5 6 6 5 5 6 5 5 6 5 5 5 5 5 5 5 5 5 5 6 5 5 6 5 5 6 5 5 6 5 5 6 5 5 6 5 5 5 5 5 5 6 5 5 5 5 5 5 5 5 5 5 5 6 5 5 5 5 5 5 5 6 5 5 5 5 6 5 5 5 6 5 5 5 5 5 5 5 5 5 5 5 6 5 5 5 5 5 5 5 5 5 5 5 5 5 5 5 5 5 5 5 5 5 5 5 5 6 5 5 5 5 5 6 5 5 5 5 5 5 5 5 5 5 5 5 5 5 6 5 5 6 5 6 5 5 5 5 6 5 6 6 5 6 5 5 5 5 5 5 5 6 5 6 5 5 5 5 5 5 6 5 5 5 5 5 5 6 5 5 5 5 6 5 5 5 5 5 6 5 5 6 5 5 5 5 6 5 5 5 5 6 5 5 5 5 5 5 6 5 5 5 5 5 5 5 5 5 6 5 5 5 5 5 5 6 5 5 5 5 6 5 5 5 5 5 5 5 5 5 5 5 5 5 5 5 5 6 5 5 5 6 5 5 6 5 5 5 5 5 5 5 5 5 5 5 5 5 5 5 5 6 5 6 5 5 5 5 5 5 5 5 5 5 5 5 5 5 5 5 5 5 5 5 5 5 5 5 5 5 6 5 5 6 5 5 5 5 5 5 5 5 5 5 6 5 5 5 5 6 5 5 5 5 6 5 5 5 5 5 5 5 5 5 6 5 5 5 5 5 5 5 5 5 5 5 5 5 5 5 5 5 5 5 5 5 5 5 5 5 5 5 5 
</DataArray>
<DataArray type="Float64" Name="stress" NumberOfComponents="9" format="ascii">
1180523827.5667076 -112280027.16684555 0 -112280027.16684555 -188093.75410995109 0 0 0 0 1985374808.5880127 -223804586.22612238 0 -223804586.22612238 -75185730.711757317 0 0 0 0 2202044444.4112396 -339803999.121898 0 -339803999.121898 -166082690.2865473 0 0 0 0 1877690056.7409134 -406388458.63854074 0 -406388458.63854074 88550977.245277956 0 0 0 0 1509530759.9645538 -622459997.81446517 0 -622459997.81446517 83656021.266459599 0 0 0 0 2525493.0679472908 95697.114915248938 0 95697.114915248938 46536.718631478914 0 0 0 0 25470978.539421082 101668979.24127558 0 101668979.24127558 229831006.01378971 0 0 0 0 511216268.91478729 203694234.88482717 0 203694234.88482717 106888573.12782608 0 0 0 0 1350843523.8270073 -77589835.895206571 0 -77589835.895206571 -14346430.279269546 0 0 0 0 1023523161.19491 -558691729.51567042 0 -558691729.51567042 284846388.18296272 0 0 0 0 105989189.24078369 -49401488.81130594 0 -49401488.81130594 184090440.04747173 0 0 0 0 499964644.05396271 -331462939.29204869 0 -331462939.29204869 108818485.10963118 0 0 0 0 4759526.8221359253 -432349.22313649766 0 -432349.22313649766 -1068.028959692502 0 0 0 0 2523932.5752268285 960140.99046219513 0 960140.99046219513 384262.23701183556 0 0 0 0 5214710.1447982788 -1319778.9549949118 0 -1319778.9549949118 -1777159.7966060971 0 0 0 0 3156598.5839385986 -1871608.3521067202 0 -1871608.3521067202 -2668.5191829265559 0 0 0 0 4907929.0499801636 -627058.6267446744 0 -627058.6267446744 -630049.93812741339 0 0 0 0 6729352.2277526855 135552.98800694756 0 135552.98800694756 -835445.71538707952 0 0 0 0 3866349.7822001502 1160600.9680334814 0 1160600.9680334814 -136517.80122429636 0 0 0 0 5303623.7248916626 -885935.00516856951 0 -885935.00516856951 -441649.74357334257 0 0 0 0 4508047.0753173828 -204828.66545241908 0 -204828.66545241908 -1024756.1069220181 0 0 0 0 4790005.8596744239 -275272.25677072722 0 -275272.25677072722 -298521.38830609154 0 0 0 0 -20645143.081413269 22940564.612362266 0 22940564.612362266 -17346417.329303861 0 0 0 0 -49422862.834602356 20745818.127501428 0 20745818.127501428 12484070.359474659 0 0 0 0 -16206881.270782471 6987348.0964627266 0 6987348.0964627266 -5052845.8098361492 0 0 0 0 10212729.909866333 9117115.0524935424 0 9117115.0524935424 24901734.610617936 0 0 0 0 5260555.3633387163 304655.50046845898 0 304655.50046845898 539246.56486447225 0 0 0 0 -13687614.521957397 22386260.513158262 0 22386260.513158262 20281900.461945191 0 0 0 0 992696.63064575195 -10606047.817001581 0 -10606047.817001581 4066125.9478673935 0 0 0 0 -23169805.886764526 -7814851.1532416046 0 -7814851.1532416046 23167381.031992674 0 0 0 0 5199303.7220611572 -4216575.5077752471 0 -4216575.5077752471 -2032657.0023407638 0 0 0 0 6054042.5752909854 474406.29855167959 0 474406.29855167959 -136446.06368293863 0 0 0 0 124991412.08605957 -81903448.950202331 0 -81903448.950202331 58127357.553366601 0 0 0 0 -63703915.074295044 -22530312.50152868 0 -22530312.50152868 112232323.28455901 0 0 0 0 -22573663.418457031 27052671.17128481 0 27052671.17128481 33007569.697533667 0 0 0 0 66336287.915626526 -59784755.383816808 0 -59784755.383816808 35894922.967298672 0 0 0 0 12497272.707149088 7559797.3578221891 0 7559797.3578221891 109532055.21158937 0 0 0 0 23526340.276828766 145919105.64254007 0 145919105.64254007 118118261.41800159 0 0 0 0 -37342542.095703125 116490841.39706154 0 116490841.39706154 12598544.890581854 0 0 0 0 -48368435.347320557 32057351.655894339 0 32057351.655894339 28172586.048802674 0 0 0 0 12608907.183202684 33971856.013412699 0 33971856.013412699 12314718.394949675 0 0 0 0 -79278091.208312988 39954448.25458616 0 39954448.25458616 93867761.298202261 0 0 0 0 -65410768.054779053 11528071.650284931 0 11528071.650284931 11401877.622268736 0 0 0 0 -85472181.306058884 70517410.909095198 0 70517410.909095198 18628116.272629559 0 0 0 0 13645549.723266602 45578482.893120281 0 45578482.893120281 -53480671.931354783 0 0 0 0 1172257.4553272408 375205.99704700336 0 375205.99704700336 19360.122071248334 0 0 0 0 -83666300.819442749 116693601.39205062 0 116693601.39205062 -91096192.731414214 0 0 0 0 47242461.595981598 4043019.4386700634 0 4043019.4386700634 -20389741.718188465 0 0 0 0 1207852.1601837352 183742.42768999189 0 183742.42768999189 -354337.68806852918 0 0 0 0 -216508009.83454895 77191810.551915675 0 77191810.551915675 2926129.8932546973 0 0 0 0 -47733088.382316589 16577447.074595958 0 16577447.074595958 -85127624.749124229 0 0 0 0 -208212621.39501953 76237020.138515651 0 76237020.138515651 -14419079.572219938 0 0 0 0 -36984701.912597656 113237806.89694932 0 113237806.89694932 -81330621.935812801 0 0 0 0 -14541002.896850586 41416659.702506974 0 41416659.702506974 7676019.9729667008 0 0 0 0 2183210.5861317012 4293740.1213007271 0 4293740.1213007271 1580464.6478929697 0 0 0 0 -11498611.45375061 39168442.032357864 0 39168442.032357864 -2221343.4760459512 0 0 0 0 56516573.493545532 59027616.472241268 0 59027616.472241268 -25905725.261259452 0 0 0 0 59500212.894512177 32443570.245285846 0 32443570.245285846 -140719899.65389022 0 0 0 0 -26496177.105888367 92411662.243780345 0 92411662.243780345 -37418196.065716952 0 0 0 0 15041903.924835205 110230635.25681403 0 110230635.25681403 -31945974.453867435 0 0 0 0 39045304.989227295 23321116.782066487 0 23321116.782066487 -136190.82695486397 0 0 0 0 -5344460.0035705566 -22027862.521769583 0 -22027862.521769583 5126180.79022789 0 0 0 0 4688664.1187640056 -412945.47352685407 0 -412945.47352685407 1930233.813955162 0 0 0 0 34202577.068191528 11796805.873550087 0 11796805.873550087 4262176.1179328114 0 0 0 0 33642718.222808838 13054390.350189768 0 13054390.350189768 -2218251.312519908 0 0 0 0 13509665.279586792 20693282.114188612 0 20693282.114188612 -723071.05513872206 0 0 0 0 14098156.657989502 4496902.8063585758 0 4496902.8063585758 8823919.9832673669 0 0 0 0 6870617.7230743282 -2611963.1330926158 0 -2611963.1330926158 -2078286.5837773012 0 0 0 0 21998992.927062988 7184685.8820815086 0 7184685.8820815086 -4291553.2694616392 0 0 0 0 15240256.957489014 12064289.865731448 0 12064289.865731448 1123461.4563943744 0 0 0 0 26989817.191329956 16460834.762715802 0 16460834.762715802 7867368.4204616547 0 0 0 0 35637474.4164505 17725713.157929659 0 17725713.157929659 7777191.4192656577 0 0 0 0 34249129.404239655 -6432615.3914225101 0 -6432615.3914225101 7749108.1612249613 0 0 0 0 40777607.972915649 13784345.411383927 0 13784345.411383927 3910425.895839572 0 0 0 0 36465546.005905151 -13438605.658669144 0 -13438605.658669144 -1360256.7126812935 0 0 0 0 48992976.387142181 4963181.7161222696 0 4963181.7161222696 -3002859.2713868618 0 0 0 0 15080885.464874268 12457274.850574493 0 12457274.850574493 19788668.39969939 0 0 0 0 10640845.673566531 -1417472.3275581412 0 -1417472.3275581412 -2052261.9085657208 0 0 0 0 6806058.8048095703 585033.94333402812 0 585033.94333402812 851339.44208955765 0 0 0 0 7181736.8668441772 1248566.0461911559 0 1248566.0461911559 730012.15106582642 0 0 0 0 5186934.6963912845 335302.92314202694 0 335302.92314202694 3229261.7552344776 0 0 0 0 22918736.078979492 1708590.5165250301 0 1708590.5165250301 -12000886.414469004 0 0 0 0 20617940.995289803 4030905.4281119108 0 4030905.4281119108 -2224763.4984843731 0 0 0 0 12184876.888239764 -2929627.5595724373 0 -2929627.5595724373 -910999.90761077253 0 0 0 0 18534779.937576294 -12678111.03463757 0 -12678111.03463757 1202782.669084549 0 0 0 0 10342998.880966187 1729530.4063698053 0 1729530.4063698053 743278.04657888412 0 0 0 0 11744141.652069092 29064441.889637869 0 29064441.889637869 -7221341.1038940251 0 0 0 0 26642551.590278625 8721216.9319852144 0 8721216.9319852144 -10633773.947485507 0 0 0 0 6011845.5836784616 4524227.6976339035 0 4524227.6976339035 803709.02223807236 0 0 0 0 19524147.304214478 9170070.8879616372 0 9170070.8879616372 -5887365.5561010912 0 0 0 0 19962942.895988464 7705205.8370984867 0 7705205.8370984867 -19865436.937398739 0 0 0 0 33554858.811149597 -5621177.7531463839 0 -5621177.7531463839 -12887992.618323542 0 0 0 0 57284877.230018616 -17921335.626777142 0 -17921335.626777142 -29275713.639471784 0 0 0 0 47691477.703102112 -42091005.025364071 0 -42091005.025364071 19601751.105664164 0 0 0 0 1033306436.7569885 -659826427.85339236 0 -659826427.85339236 343521113.4741559 0 0 0 0 31176402.183589935 8565567.6618149877 0 8565567.6618149877 -43691697.142802238 0 0 0 0 13331640.116632983 2593012.9943516441 0 2593012.9943516441 -1350908.9249688338 0 0 0 0 347739.13146187365 -137932.63866973296 0 -137932.63866973296 -2383.7244423538214 0 0 0 0 682692.01151749119 -6778978.5405746885 0 -6778978.5405746885 -3539812.3767300672 0 0 0 0 29243210.220062256 -18073529.456575304 0 -18073529.456575304 -9957713.6102644205 0 0 0 0 21754447.174942017 -6680718.4826867208 0 -6680718.4826867208 -3538492.0961985663 0 0 0 0 1359761.6532562561 -6928703.1431764401 0 -6928703.1431764401 -1779968.602429468 0 0 0 0 21183504.331092834 -23271893.668554492 0 -23271893.668554492 -4990241.5987803191 0 0 0 0 19533289.338745117 -41656175.065974385 0 -41656175.065974385 -840098.64406447671 0 0 0 0 13556424.053314209 -7056812.3133086534 0 -7056812.3133086534 97850980.119211853 0 0 0 0 13760843.794036865 -33074468.227984041 0 -33074468.227984041 44442698.451718926 0 0 0 0 32354853.069580078 -39333485.899951935 0 -39333485.899951935 -25204429.12566638 0 0 0 0 5887770.1495745629 -8078.4591649044305 0 -8078.4591649044305 -99328.108147620253 0 0 0 0 665864158.8283844 766222566.22331858 0 766222566.22331858 747760344.32499361 0 0 0 0 2201623956.4638596 -1637624606.2920303 0 -1637624606.2920303 1057281778.8667154 0 0 0 0 1036280943.9956245 -676188606.14368713 0 -676188606.14368713 264073978.57338157 0 0 0 0 1475254206.5040207 -956781168.58961523 0 -956781168.58961523 223854962.4795486 0 0 0 0 2206309201.0023823 -833563075.77465951 0 -833563075.77465951 -94053722.961206317 0 0 0 0 1018622749.2269402 -480920903.71843851 0 -480920903.71843851 93663806.559650421 0 0 0 0 1145524785.2826996 -766828813.09944129 0 -766828813.09944129 174018978.89090574 0 0 0 0 1237468370.0656195 -282385492.39033252 0 -282385492.39033252 -29806423.197989505 0 0 0 0 330152719.39701843 -52987481.624807209 0 -52987481.624807209 -28288460.004980169 0 0 0 0 148466397.78231812 -161956455.1821866 0 -161956455.1821866 -81167749.137961268 0 0 0 0 181260095.44765472 185580853.73470092 0 185580853.73470092 -65963252.277590781 0 0 0 0 -28633273.106872559 118140219.1869173 0 118140219.1869173 -319680743.89954329 0 0 0 0 390828582.82579041 110491022.70320946 0 110491022.70320946 -386274192.38753259 0 0 0 0 2504035.4965812564 -2577951.8828390464 0 -2577951.8828390464 -1521035.3962972558 0 0 0 0 112708251.68028259 -317563016.73523128 0 -317563016.73523128 160424772.32532033 0 0 0 0 235829517.04187012 -75689854.779557228 0 -75689854.779557228 -83292783.258409023 0 0 0 0 987019944.59625244 -552769292.77883255 0 -552769292.77883255 -55598253.257287621 0 0 0 0 7178076.5661914367 2137477.2357143238 0 2137477.2357143238 -2276774.5668806639 0 0 0 0 -202184192.7583065 -125735664.43193793 0 -125735664.43193793 281503449.09573889 0 0 0 0 -268711.15037536621 27979432.387700751 0 27979432.387700751 -15939698.740968257 0 0 0 0 20093349.753488064 18844445.00875416 0 18844445.00875416 -13657746.561922073 0 0 0 0 20153614.346237183 19269338.216579854 0 19269338.216579854 -53208995.690083236 0 0 0 0 19063216.33366394 62739506.928477801 0 62739506.928477801 -5741646.6612813175 0 0 0 0 -7485780.3395195007 29132090.237257674 0 29132090.237257674 -14257538.722047567 0 0 0 0 2141398.6276491908 307104.09045145661 0 307104.09045145661 -530339.47168194479 0 0 0 0 -110906249.30027008 45498107.688448817 0 45498107.688448817 36601528.680099845 0 0 0 0 93374056.024446487 171582287.43153566 0 171582287.43153566 216986175.58726102 0 0 0 0 170233906.43947124 86325407.244271189 0 86325407.244271189 17029328.912913308 0 0 0 0 202602737.53837872 296446576.11759931 0 296446576.11759931 80833944.080663159 0 0 0 0 89829767.990776062 39784858.023736753 0 39784858.023736753 152450.96736077897 0 0 0 0 -8230993.6126861572 100125432.71652377 0 100125432.71652377 25092743.235115342 0 0 0 0 44228377.460121155 29112550.817789368 0 29112550.817789368 3126819.1393583119 0 0 0 0 78897684.331542969 21821757.424343225 0 21821757.424343225 20205630.490089148 0 0 0 0 48593455.532371521 44891139.544876084 0 44891139.544876084 42847629.912824392 0 0 0 0 112984766.41633224 11315679.44236505 0 11315679.44236505 -22404.129895362301 0 0 0 0 101941700.46385956 14875826.62234915 0 14875826.62234915 49470948.466107547 0 0 0 0 156454107.36302185 -38610819.358003661 0 -38610819.358003661 49437153.200098097 0 0 0 0 232447937.18759155 -27657397.648741543 0 -27657397.648741543 10744873.001320392 0 0 0 0 91572381.824172974 51321451.457234114 0 51321451.457234114 88350586.983277038 0 0 0 0 73291846.697143555 -4895028.6541293412 0 -4895028.6541293412 9757364.5018777847 0 0 0 0 70235898.683689117 -29075486.299384579 0 -29075486.299384579 -62248465.586446404 0 0 0 0 54156980.062866211 4724093.7466550767 0 4724093.7466550767 -39048386.03688699 0 0 0 0 113289714.27306366 490216.83248795569 0 490216.83248795569 -41842273.180197656 0 0 0 0 48375537.447483063 30528256.129061729 0 30528256.129061729 -28273449.78074342 0 0 0 0 65601697.655761719 56340060.05704388 0 56340060.05704388 9180014.0612927675 0 0 0 0 37229610.392547607 41664842.978496462 0 41664842.978496462 -35235840.074830085 0 0 0 0 38249271.67290318 -13032196.008042503 0 -13032196.008042503 -57936284.265897751 0 0 0 0 33845949.87612915 494755.1891810894 0 494755.1891810894 -71539771.483294666 0 0 0 0 32806874.594223022 -7597936.8465453386 0 -7597936.8465453386 -36594014.545508921 0 0 0 0 5789206.7696533203 -27595241.650093257 0 -27595241.650093257 -49562627.169830739 0 0 0 0 1312004.5193896256 529744.21489645168 0 529744.21489645168 202424.86374980101 0 0 0 0 24688217.196662903 24593810.255133688 0 24593810.255133688 -2344465.4887751304 0 0 0 0 -34178081.267967224 -80961002.575071752 0 -80961002.575071752 -44010946.921966851 0 0 0 0 12394236.147731781 1643845.4319611304 0 1643845.4319611304 -2759277.9723639786 0 0 0 0 2596203.368491672 537410.28387095407 0 537410.28387095407 264186.40683177137 0 0 0 0 10400283.471565247 3899939.5889620185 0 3899939.5889620185 6833360.1907892227 0 0 0 0 14104868.425613403 103621.43023777008 0 103621.43023777008 -15275255.1472857 0 0 0 0 2360725.3339571394 661556.34841328114 0 661556.34841328114 -1342808.1779004803 0 0 0 0 -52545552.570892334 -45735804.806059003 0 -45735804.806059003 8704477.560413599 0 0 0 0 10767486.139633179 1382042.2027643323 0 1382042.2027643323 1378148.1234459877 0 0 0 0 12926558.300575256 -2912205.641877979 0 -2912205.641877979 -12390435.273046017 0 0 0 0 17665261.894302368 -17954737.433687568 0 -17954737.433687568 -10586348.509577751 0 0 0 0 19577562.03086853 -13679133.793644935 0 -13679133.793644935 -48161966.068251848 0 0 0 0 66617459.308197021 -99339195.492363662 0 -99339195.492363662 -69607964.897027165 0 0 0 0 -34026803.526996613 -89862529.837913662 0 -89862529.837913662 -42291644.071821392 0 0 0 0 26356648.581878662 -47786636.959895492 0 -47786636.959895492 -46771888.194410086 0 0 0 0 49238161.121902466 -73914309.497743845 0 -73914309.497743845 -59351501.024497241 0 0 0 0 120510773.71629333 -13057212.034717187 0 -13057212.034717187 -54470393.518560663 0 0 0 0 15536967.946174622 -75785313.445123106 0 -75785313.445123106 213968971.22527456 0 0 0 0 582000.18973848224 -218320.70789267868 0 -218320.70789267868 -81983.53987585273 0 0 0 0 53028372.223312378 33517879.403871708 0 33517879.403871708 -10406576.925291117 0 0 0 0 -19465014.491653442 133613055.88887651 0 133613055.88887651 55466254.721809685 0 0 0 0 16328907.214019775 -3686462.5819590921 0 -3686462.5819590921 19057.187141844017 0 0 0 0 69337989.455696106 8136396.5088508306 0 8136396.5088508306 -2264775.3241572017 0 0 0 0 115638643.50705338 36895842.580765471 0 36895842.580765471 -20146211.612640873 0 0 0 0 -13257781.029983521 7700271.9996956699 0 7700271.9996956699 5009561.3857090166 0 0 0 0 -13421893.182430327 -14676886.949680807 0 -14676886.949680807 -3490936.9324968429 0 0 0 0 5597239.101272583 937949.1140332194 0 937949.1140332194 1641796.6787244463 0 0 0 0 2065601.0421846807 -410683.93482282851 0 -410683.93482282851 -233991.92226224398 0 0 0 0 3224105.1315612793 -3663839.2135033617 0 -3663839.2135033617 -19128899.205598991 0 0 0 0 -3394965.9653625488 -81406854.556687132 0 -81406854.556687132 44169155.595646515 0 0 0 0 35707655.034637451 -130073311.77906013 0 -130073311.77906013 -195743096.59582955 0 0 0 0 29419383.268112183 -98931565.483049944 0 -98931565.483049944 -25822935.575643994 0 0 0 0 2540039.6436424255 -1821097.0762135256 0 -1821097.0762135256 -3234232.0521870917 0 0 0 0 -2047446.7696418762 -5147106.4712490058 0 -5147106.4712490058 -2653.534978096257 0 0 0 0 2228242.6073303223 -3957146.8941406747 0 -3957146.8941406747 -3752465.0576154636 0 0 0 0 3833493.7213134766 -1732243.8509109747 0 -1732243.8509109747 -3889192.548189031 0 0 0 0 3597787.6208852977 -214769.69615510572 0 -214769.69615510572 -244979.88970177757 0 0 0 0 -25315068.88552475 -59054777.134925447 0 -59054777.134925447 34425700.211948156 0 0 0 0 161562489.83297729 46409197.512379408 0 46409197.512379408 -65216119.781973481 0 0 0 0 113080616.83676147 -32685919.020083666 0 -32685919.020083666 4223756.8305039406 0 0 0 0 -38157542.529983521 -8732116.4455557466 0 -8732116.4455557466 45696545.849363685 0 0 0 0 -23787479.838867188 -44887858.218642592 0 -44887858.218642592 2105520.0628035069 0 0 0 0 13243922.847991943 -17568641.528823853 0 -17568641.528823853 17814997.338205099 0 0 0 0 9008905.7936096191 -6076987.0997772217 0 -6076987.0997772217 3106723.0651926994 0 0 0 0 124506998.04437256 53868040.501055598 0 53868040.501055598 24506211.35358119 0 0 0 0 -2385033.4232940674 20092762.905151844 0 20092762.905151844 40657864.095706105 0 0 0 0 494632.85992056876 109196.31850114837 0 109196.31850114837 410538.36128847627 0 0 0 0 36628990.725738525 19948447.673502326 0 19948447.673502326 29053313.639362574 0 0 0 0 11694328.875778198 -2298523.2225217819 0 -2298523.2225217819 8119941.7761778831 0 0 0 0 36874314.791461945 437040.60265675187 0 437040.60265675187 2911027.6395339966 0 0 0 0 23984178.576751709 27413742.756154776 0 27413742.756154776 -9037289.8511853218 0 0 0 0 22804265.712371826 21904687.691759109 0 21904687.691759109 442570.61735010147 0 0 0 0 35231669.92640686 26136373.695536733 0 26136373.695536733 -1844583.5798897743 0 0 0 0 51712724.542022705 14322316.014800429 0 14322316.014800429 -10609581.316399574 0 0 0 0 33233817.466934204 -8655791.1392555237 0 -8655791.1392555237 -7511740.0863357782 0 0 0 0 17268224.098285675 -38374864.249189526 0 -38374864.249189526 10757087.88254571 0 0 0 0 89044755.843780518 3701288.0214354992 0 3701288.0214354992 -4830639.3519974351 0 0 0 0 14344182.210800171 533817.30575740337 0 533817.30575740337 -4512324.8276596069 0 0 0 0 19450121.907501221 -3080186.2655279636 0 -3080186.2655279636 -10714732.233893871 0 0 0 0 21254397.904342651 6411244.4697064161 0 6411244.4697064161 -2058559.8897752762 0 0 0 0 17730995.431987762 11520040.914108336 0 11520040.914108336 142921.96670913696 0 0 0 0 35540440.423522949 9932987.3875291348 0 9932987.3875291348 -9332207.2088024616 0 0 0 0 26146092.900596619 9479617.5010737181 0 9479617.5010737181 -2890527.192738533 0 0 0 0 27419034.700332642 6926078.9398835897 0 6926078.9398835897 2227634.1668643951 0 0 0 0 24584630.136413574 6537541.792725563 0 6537541.792725563 -8320935.3990638256 0 0 0 0 17392599.794319153 -50154.431287288666 0 -50154.431287288666 -6333447.9375214577 0 0 0 0 16558263.682113647 -119726.39839780331 0 -119726.39839780331 -5883183.1576223373 0 0 0 0 19352699.840744019 7537949.6394312382 0 7537949.6394312382 7750198.1451525688 0 0 0 0 36090403.333099365 8993714.8140382767 0 8993714.8140382767 -3000744.2013810873 0 0 0 0 30568367.079124451 -1968504.0343784094 0 -1968504.0343784094 6228.9218940734863 0 0 0 0 -460123.48808638752 1248768.1642027237 0 1248768.1642027237 415295.86011189979 0 0 0 0 16985158.970840454 -2367311.8866791725 0 -2367311.8866791725 -2675203.0699913502 0 0 0 0 7629015.2079086304 13578225.674098134 0 13578225.674098134 5346020.9878759384 0 0 0 0 5121437.5080337524 -9770568.4410288334 0 -9770568.4410288334 -5185696.6809182167 0 0 0 0 5823836.0315519273 -789178.13896753639 0 -789178.13896753639 3149408.8640468116 0 0 0 0 9382234.1308364868 11479.114558935165 0 11479.114558935165 -1269147.5356104374 0 0 0 0 89135.243520095944 305748.3248393205 0 305748.3248393205 715430.59503851947 0 0 0 0 24268816.17628479 23423850.471373796 0 23423850.471373796 25722785.592685223 0 0 0 0 6273060.3960086592 2027654.1825674437 0 2027654.1825674437 2021096.1217718718 0 0 0 0 12466591.828269958 7778018.0382543206 0 7778018.0382543206 7661555.1165783405 0 0 0 0 14347546.189315796 9381045.2499397993 0 9381045.2499397993 7517013.7988684773 0 0 0 0 9696109.3572441116 -195490.64621404037 0 -195490.64621404037 614677.16679519985 0 0 0 0 14498306.517318726 7256251.9930305481 0 7256251.9930305481 874988.13948655128 0 0 0 0 7214935.4591217041 890854.90322285891 0 890854.90322285891 -511447.49884319305 0 0 0 0 5930181.9566650391 546301.52230197191 0 546301.52230197191 691416.66518592834 0 0 0 0 8589216.9815737437 -676533.01203589514 0 -676533.01203589514 669398.86710411985 0 0 0 0 -299247.67608642578 2293833.1975870132 0 2293833.1975870132 -1429404.7782551646 0 0 0 0 2050777.6969584823 1938149.6676249844 0 1938149.6676249844 4260416.4989601318 0 0 0 0 1373892.6704711914 111598.15773105621 0 111598.15773105621 -462562.72754201293 0 0 0 0 3341445.537541762 680888.35777000687 0 680888.35777000687 3770889.3187129865 0 0 0 0 8146177.1580810547 28275.356378555298 0 28275.356378555298 4539.6950759887695 0 0 0 0 6737816.9815802723 2678746.5228891261 0 2678746.5228891261 3156291.6399057386 0 0 0 0 8256552.2389544398 705468.77281529433 0 705468.77281529433 367300.81070346897 0 0 0 0 6611586.2988433838 522673.82707434893 0 522673.82707434893 -703088.77999949455 0 0 0 0 3712775.258523196 1337648.8664626274 0 1337648.8664626274 2188184.8550959118 0 0 0 0 5166027.7548370361 729297.23529207706 0 729297.23529207706 877815.28816127777 0 0 0 0 5356585.4332504272 1043641.4958622456 0 1043641.4958622456 1391947.3265841603 0 0 0 0 6354779.6735628098 190849.06134267338 0 190849.06134267338 3421106.1163675352 0 0 0 0 5396890.2831115723 1029170.064345181 0 1029170.064345181 710010.76584434509 0 0 0 0 3321849.3985765129 -755737.08306713402 0 -755737.08306713402 2529354.9726867694 0 0 0 0 4615614.9256134033 -52810.856959342957 0 -52810.856959342957 779098.69605350494 0 0 0 0 1434660.2975006104 -35175.709416389465 0 -35175.709416389465 1283009.2078897655 0 0 0 0 2610667.7398834229 157741.72489094734 0 157741.72489094734 1559673.2715201378 0 0 0 0 8529004.6507148556 2973079.1780538559 0 2973079.1780538559 2507754.6379655749 0 0 0 0 3600074.4464015961 -10617.205494701862 0 -10617.205494701862 145266.93472480774 0 0 0 0 8018999.432007283 2344305.4021259435 0 2344305.4021259435 1416133.2006617319 0 0 0 0 3010045.1565396786 321180.89932886604 0 321180.89932886604 1386866.2768128514 0 0 0 0 4073058.0565109253 406014.19604086876 0 406014.19604086876 221236.581387043 0 0 0 0 4367903.8510131836 84558.757727146149 0 84558.757727146149 -455101.74001693726 0 0 0 0 2924188.3692142963 -301218.76684225257 0 -301218.76684225257 404134.24971567176 0 0 0 0 4500894.031703949 456870.86624610424 0 456870.86624610424 -402829.18700313568 0 0 0 0 2912123.2545166016 156180.90779352188 0 156180.90779352188 363415.6861038208 0 0 0 0 3492250.5105667114 734788.18830025196 0 734788.18830025196 42208.138215452433 0 0 0 0 7210930.8454316817 1662861.922635749 0 1662861.922635749 539271.85567134898 0 0 0 0 3579680.2328033447 -72065.996476411819 0 -72065.996476411819 -235441.8114066124 0 0 0 0 7841016.2626061719 1611899.5683118999 0 1611899.5683118999 468406.3493978749 0 0 0 0 4865106.4604144376 1872234.8799925782 0 1872234.8799925782 651008.0608468391 0 0 0 0 5823818.8150839806 1430237.3645390309 0 1430237.3645390309 -150356.14611531049 0 0 0 0 1170251.442565918 489389.83075475693 0 489389.83075475693 -136522.90452241898 0 0 0 0 1400303.0409083068 1020351.6485729199 0 1020351.6485729199 1085224.7897956234 0 0 0 0 18226125.170082092 6626083.8531907797 0 6626083.8531907797 8621555.7788794041 0 0 0 0 2771826.5084552765 474289.87838086486 0 474289.87838086486 -345389.7279548645 0 0 0 0 2680860.0377655029 85215.888136863708 0 85215.888136863708 -296507.45663380623 0 0 0 0 1629472.4597387053 363428.83004543185 0 363428.83004543185 -63281.065578952199 0 0 0 0 8401046.4948730469 4036636.0031647682 0 4036636.0031647682 1923791.1113801003 0 0 0 0 6349288.5190010928 2111611.3307366595 0 2111611.3307366595 246538.07321721385 0 0 0 0 6298002.0311501026 499473.82561713457 0 499473.82561713457 186402.22339748475 0 0 0 0 4536679.6069528274 1534661.0153620578 0 1534661.0153620578 440548.26734154532 0 0 0 0 20326481.489509583 -392113.09320950508 0 -392113.09320950508 -5127034.9906409234 0 0 0 0 16512869.371517181 11679422.683143914 0 11679422.683143914 3506164.7531571388 0 0 0 0 6963505.5467421561 1460142.9327561976 0 1460142.9327561976 -534718.02903773112 0 0 0 0 7893019.9796579406 2451585.6812425898 0 2451585.6812425898 -668896.45570105058 0 0 0 0 14135472.881004333 -6572695.0219372809 0 -6572695.0219372809 -35027987.731312275 0 0 0 0 3787412.867401123 1326276.497961998 0 1326276.497961998 -658092.37285971642 0 0 0 0 11250416.301124573 1556499.1016702056 0 1556499.1016702056 1143822.5932589769 0 0 0 0 7670035.4682922363 26769288.751452088 0 26769288.751452088 -36791724.52821666 0 0 0 0 10361921.411411434 2409348.5234429333 0 2409348.5234429333 -225309.82081814451 0 0 0 0 5766683.0698242188 4422928.3638939857 0 4422928.3638939857 -726060.73587369919 0 0 0 0 2020629.1674147937 966210.01144198328 0 966210.01144198328 -290477.70305299817 0 0 0 0 15758845.680890083 -6638257.2309429906 0 -6638257.2309429906 -22018839.669197857 0 0 0 0 5349879.512512207 3971403.5581526756 0 3971403.5581526756 531855.23564720154 0 0 0 0 7043018.6751641519 1606452.9991262928 0 1606452.9991262928 507261.60272556031 0 0 0 0 4924085.933588028 4286829.8827385008 0 4286829.8827385008 1367609.7176237106 0 0 0 0 5148800.3199462891 2666750.8502399921 0 2666750.8502399921 574967.18625259399 0 0 0 0 4362653.8321456909 1632961.9236991405 0 1632961.9236991405 -573889.83781719208 0 0 0 0 4761119.1552184969 2104539.198693227 0 2104539.198693227 310316.16576479422 0 0 0 0 4175821.6815338135 737467.05049037933 0 737467.05049037933 -224440.26235234737 0 0 0 0 7397324.033532422 2986749.934334591 0 2986749.934334591 952280.92307996098 0 0 0 0 5301406.9420182928 2147082.2907779627 0 2147082.2907779627 674179.51585510699 0 0 0 0 7463640.9033293128 3020256.8649279997 0 3020256.8649279997 219116.74429714261 0 0 0 0 2897007.1171112061 535239.44223356247 0 535239.44223356247 -1225947.6377089024 0 0 0 0 2511311.4652862549 -348891.39819288254 0 -348891.39819288254 337585.73541688919 0 0 0 0 3946984.7430114746 2074375.2541379929 0 2074375.2541379929 526247.04318970442 0 0 0 0 1779027.33488103 1373889.7945927149 0 1373889.7945927149 2128987.7495162538 0 0 0 0 2501139.1373291016 847260.10688591003 0 847260.10688591003 -29032.833793640137 0 0 0 0 6850080.572246626 2352042.8552120999 0 2352042.8552120999 1487611.5607408206 0 0 0 0 7499694.9029266853 1763841.958322525 0 1763841.958322525 2579947.7805254296 0 0 0 0 2045824.1936423331 415806.23339944496 0 415806.23339944496 6061721.3128176145 0 0 0 0 3741469.6701963693 -409388.14791782573 0 -409388.14791782573 1479775.7104923918 0 0 0 0 4171456.1629486084 1770653.7142629623 0 1770653.7142629623 1522073.806221962 0 0 0 0 2051296.7649993896 1096176.1919574738 0 1096176.1919574738 2525865.9922904968 0 0 0 0 5759992.5101165771 3772025.4426689148 0 3772025.4426689148 695684.94109344482 0 0 0 0 10701170.257754974 3367638.0741219111 0 3367638.0741219111 304688.20218803827 0 0 0 0 -60747.432018470019 178196.47532292083 0 178196.47532292083 185431.48058767617 0 0 0 0 1822769.1703491211 1412453.5379066467 0 1412453.5379066467 3150239.7184143066 0 0 0 0 159310.12734985352 977157.24041175842 0 977157.24041175842 532816.20700073242 0 0 0 0 4775527.5270702243 2797158.3710794896 0 2797158.3710794896 1236425.1413910817 0 0 0 0 4911064.7257533325 996953.29799275845 0 996953.29799275845 1608143.1020076685 0 0 0 0 1871978.3464133143 1005599.896774523 0 1005599.896774523 6050923.8848884432 0 0 0 0 3151183.5581359863 5877274.5355491638 0 5877274.5355491638 5587979.2263736725 0 0 0 0 1579456.1847193986 3336897.2158434563 0 3336897.2158434563 5330714.2302920995 0 0 0 0 3227599.3741455078 4638106.8599591255 0 4638106.8599591255 4349370.9859571457 0 0 0 0 2636172.2009048462 2825174.0402565002 0 2825174.0402565002 -396751.84074020386 0 0 0 0 5576248.9067993164 7170957.7566480637 0 7170957.7566480637 5910716.1005020142 0 0 0 0 10485999.746322632 8653673.0860704184 0 8653673.0860704184 3736400.9518737793 0 0 0 0 285659.12531875819 492561.5258416459 0 492561.5258416459 392317.23527490906 0 0 0 0 -2478082.7813796997 4846709.7653236389 0 4846709.7653236389 5622724.1990318298 0 0 0 0 -1017952.0766296387 6720391.455616951 0 6720391.455616951 6123451.6387519836 0 0 0 0 19080.730880737305 4873185.6733369827 0 4873185.6733369827 8638521.8673152924 0 0 0 0 1746994.8032684326 4206941.4096698761 0 4206941.4096698761 9994333.0220518112 0 0 0 0 1931128.6629333496 5064090.7242441177 0 5064090.7242441177 5955144.8460025787 0 0 0 0 6273483.1946868896 11412666.447386742 0 11412666.447386742 -2595481.7433547974 0 0 0 0 154133.3351020813 7907366.0933613777 0 7907366.0933613777 15584983.426801682 0 0 0 0 4487657.0901377723 4473844.5651013898 0 4473844.5651013898 2810609.677430436 0 0 0 0 1849028.1116485596 4308090.6642713547 0 4308090.6642713547 800794.96430015564 0 0 0 0 641198.62670135498 8036223.3582892418 0 8036223.3582892418 6729820.81457901 0 0 0 0 958737.31102752686 6494605.8579034805 0 6494605.8579034805 3812248.8767585754 0 0 0 0 2748103.146270752 4757359.1024837494 0 4757359.1024837494 5200404.639195919 0 0 0 0 1056217.0324707031 5046956.4222221375 0 5046956.4222221375 1477452.3465471268 0 0 0 0 4708124.9117431641 637404.18617725372 0 637404.18617725372 -2374408.0302152634 0 0 0 0 11656093.642014883 2835990.9901229925 0 2835990.9901229925 -219891.73077040724 0 0 0 0 47528.757898256183 24438.558941420168 0 24438.558941420168 -12601.347646981012 0 0 0 0 5222028.5630493164 5002353.9801335335 0 5002353.9801335335 551730.30520915985 0 0 0 0 5516890.010799408 8824343.9096318483 0 8824343.9096318483 1785609.706246376 0 0 0 0 6897820.9004797935 -2826846.2983740866 0 -2826846.2983740866 -6387655.865190506 0 0 0 0 4679471.8279481083 4877998.9413460111 0 4877998.9413460111 2728138.3447514926 0 0 0 0 6173239.6279907227 5513092.6271319389 0 5513092.6271319389 1956736.389066115 0 0 0 0 9195826.9433441162 20331357.664464951 0 20331357.664464951 8710444.2694015503 0 0 0 0 11557461.083282471 3233657.2645273209 0 3233657.2645273209 -4489702.7352714539 0 0 0 0 431858.37216872163 1309877.3199903928 0 1309877.3199903928 504490.58848523814 0 0 0 0 2039413.053062439 4322825.2129228115 0 4322825.2129228115 7276330.9386119843 0 0 0 0 2009529.3404633626 3188874.4950921396 0 3188874.4950921396 3918030.2478629746 0 0 0 0 -7967674.6334609985 -8315097.9269509315 0 -8315097.9269509315 -4178221.8396263123 0 0 0 0 -1063247.6090604663 2013513.7299946202 0 2013513.7299946202 2636629.9810022768 0 0 0 0 6960024.9116979875 6194179.5067675263 0 6194179.5067675263 510150.75548573397 0 0 0 0 -51433872.872970581 -2776307.4292449951 0 -2776307.4292449951 21149488.460851669 0 0 0 0 -95844537.687156677 9985396.7147130966 0 9985396.7147130966 21996180.072517395 0 0 0 0 -15373905.555397034 34714855.458491325 0 34714855.458491325 -17212839.413742065 0 0 0 0 -26318263.198913574 -67995570.597623825 0 -67995570.597623825 -90581490.161540985 0 0 0 0 790233.66577958316 2359728.730224424 0 2359728.730224424 1564516.4667170537 0 0 0 0 -18093835.953239441 106013169.05149651 0 106013169.05149651 -123002189.3567009 0 0 0 0 26483407.327697754 22352327.731731415 0 22352327.731731415 -43123272.884880543 0 0 0 0 9674930.3896804973 6668808.4196612462 0 6668808.4196612462 42324.033060715534 0 0 0 0 8939963.3029785156 4722524.4761605263 0 4722524.4761605263 203702.45163011551 0 0 0 0 6696946.3339538574 4826724.3277263641 0 4826724.3277263641 210303.48212623596 0 0 0 0 -184925546.77378464 -17593993.222038761 0 -17593993.222038761 -2732354.6156213284 0 0 0 0 -234496309.33781242 -92037215.241896868 0 -92037215.241896868 68172419.661430359 0 0 0 0 1344744.6953652967 859705.16924593225 0 859705.16924593225 169852.06498176232 0 0 0 0 -477015501.76400757 -45315061.969232082 0 -45315061.969232082 42302437.200494766 0 0 0 0 -678565.60196088254 -148192.37545044348 0 -148192.37545044348 238869.21315907221 0 0 0 0 6119185.8170166016 5007437.8792457581 0 5007437.8792457581 236337.58352231979 0 0 0 0 5834524.7582015991 4785810.1446139812 0 4785810.1446139812 481662.8262553215 0 0 0 0 5014141.7833309174 4629841.8945605457 0 4629841.8945605457 512097.10700178146 0 0 0 0 6584072.1937675476 4134112.0886793137 0 4134112.0886793137 -1404296.1068916321 0 0 0 0 7714487.822593689 4825817.8313672543 0 4825817.8313672543 -2863270.385283947 0 0 0 0 11360289.125197202 8237259.0323693827 0 8237259.0323693827 -682331.59168905905 0 0 0 0 9885016.2506931052 5187419.3609683309 0 5187419.3609683309 425010.64336658339 0 0 0 0 7709244.9200820923 5323476.8322966099 0 5323476.8322966099 -1531904.2181596756 0 0 0 0 -218803282.66747284 72325694.406688929 0 72325694.406688929 75660635.715797424 0 0 0 0 -604883335.88912201 -163964832.43602943 0 -163964832.43602943 292739705.90265656 0 0 0 0 -132161608.40102386 -62586175.691343307 0 -62586175.691343307 194201888.42090797 0 0 0 0 -386993379.91106415 -50437948.22710228 0 -50437948.22710228 230673284.81747055 0 0 0 0 -65965971.411193848 -123093413.88114738 0 -123093413.88114738 105484582.90962601 0 0 0 0 -549890626.32514191 104910609.76004696 0 104910609.76004696 228869211.93787003 0 0 0 0 14433644.956970215 6268679.9249591827 0 6268679.9249591827 11006642.074331284 0 0 0 0 362259.39079855382 572111.72026345134 0 572111.72026345134 238542.89812840708 0 0 0 0 -262548736.02026367 51188888.934347153 0 51188888.934347153 406334514.04870605 0 0 0 0 14034755.169461012 52337923.867730908 0 52337923.867730908 23498314.535991669 0 0 0 0 11697443.070350647 670515.9628534317 0 670515.9628534317 -106806300.60365939 0 0 0 0 -201077.89890809357 2090492.4664338492 0 2090492.4664338492 845972.89169798233 0 0 0 0 35332139.273715973 -21588952.351767063 0 -21588952.351767063 -106486037.17411232 0 0 0 0 -52658940.438632965 -20819336.924501896 0 -20819336.924501896 68454403.187620163 0 0 0 0 -67229.572344679385 461578.68354620785 0 461578.68354620785 6029498.2206528476 0 0 0 0 -28155252.020065308 -54164802.558046341 0 -54164802.558046341 -49791946.099267006 0 0 0 0 -82474.148226305842 176357.88311400544 0 176357.88311400544 221926.2999804141 0 0 0 0 -223701376.52062988 -131446442.71121025 0 -131446442.71121025 -207350391.93619919 0 0 0 0 -459388517.13119507 -279286076.2957468 0 -279286076.2957468 59696651.497245789 0 0 0 0 -430867558.00671005 -169337748.54926348 0 -169337748.54926348 239137538.66810608 0 0 0 0 -147589335.12257385 22019038.331295013 0 22019038.331295013 39072437.367349625 0 0 0 0 -81524680.597705841 -92590211.386666298 0 -92590211.386666298 187681239.66967964 0 0 0 0 -242441540.52786255 190456068.75041485 0 190456068.75041485 -23166856.82073307 0 0 0 0 -56587375.070056915 227087983.3327384 0 227087983.3327384 159062423.15915108 0 0 0 0 -168448213.77932739 85380070.870387077 0 85380070.870387077 53852441.550167084 0 0 0 0 -63698843.696960449 134624568.76424408 0 134624568.76424408 -230742033.74049854 0 0 0 0 -42284389.738880157 224378147.7363143 0 224378147.7363143 -133092032.19418907 0 0 0 0 -183280179.9359436 181821409.92815971 0 181821409.92815971 76165822.444961071 0 0 0 0 -336682.39911513031 3040996.0383244045 0 3040996.0383244045 5674869.666179575 0 0 0 0 -343287.29010009766 3514506.5155658722 0 3514506.5155658722 -444341.82385551929 0 0 0 0 1930837.1001134682 4987363.9406553209 0 4987363.9406553209 2092736.761134252 0 0 0 0 -1529921.9859771729 4035419.8742027283 0 4035419.8742027283 -52591295.282184601 0 0 0 0 1852456.0874242075 5440809.2942750342 0 5440809.2942750342 1711811.4654641766 0 0 0 0 -213686523.04869652 87030068.234719276 0 87030068.234719276 -76105582.622032166 0 0 0 0 -321215993.21615219 97525619.266664028 0 97525619.266664028 50391260.676929474 0 0 0 0 15424642.597070694 26835515.04637289 0 26835515.04637289 1616339.1256732941 0 0 0 0 1207812.939464502 3976886.9895317852 0 3976886.9895317852 698784.97555404156 0 0 0 0 4884417.2352600098 756592.11705493927 0 756592.11705493927 3654011.6357374191 0 0 0 0 -188503.18498118222 -334687.91844372079 0 -334687.91844372079 387860.76163336076 0 0 0 0 -763965.92760467529 3495233.2587842941 0 3495233.2587842941 3347689.9966189861 0 0 0 0 2207998.3624326773 2651374.310198959 0 2651374.310198959 2815010.0566365337 0 0 0 0 -1611362.2028808594 2474617.4564228058 0 2474617.4564228058 3918234.6831265688 0 0 0 0 3606753.0412139893 2878774.0138821602 0 2878774.0138821602 1766509.9533615112 0 0 0 0 3300722.1917266846 2090074.4216365814 0 2090074.4216365814 2715712.5190652162 0 0 0 0 2770537.2486724854 1121801.6163129807 0 1121801.6163129807 2639079.6960148513 0 0 0 0 3632523.3790054321 1109372.8260202408 0 1109372.8260202408 2266514.3399677277 0 0 0 0 2139887.7141723633 765879.29111337662 0 765879.29111337662 2773862.3291521072 0 0 0 0 3931583.4701414341 1083731.5427449346 0 1083731.5427449346 2249654.8772121854 0 0 0 0 2856066.5680007935 235263.67497587204 0 235263.67497587204 2067387.5935020447 0 0 0 0 3949469.1619932614 794677.2152390331 0 794677.2152390331 3656969.2975164754 0 0 0 0 -2716915.6304168701 -4692502.2046325207 0 -4692502.2046325207 10242361.88950634 0 0 0 0 -783423.67140102386 4244690.8619513512 0 4244690.8619513512 6309487.6622238159 0 0 0 0 4040040.0077667236 2384257.4857378006 0 2384257.4857378006 2129374.1645797491 0 0 0 0 3918327.6348460373 751841.81263105944 0 751841.81263105944 2342132.7127738539 0 0 0 0 887275.26507568359 920720.12010622025 0 920720.12010622025 3208257.0186457634 0 0 0 0 -308457.63371276855 3460944.5198173523 0 3460944.5198173523 4994031.4494259357 0 0 0 0 4680481.1626052856 2210083.8862043619 0 2210083.8862043619 94476.367948532104 0 0 0 0 5127705.6486984435 655514.97489660233 0 655514.97489660233 2649494.1369361486 0 0 0 0 440919.67135620117 1036078.0779933929 0 1036078.0779933929 1326359.0237255096 0 0 0 0 2097487.5598959737 2006726.7192696221 0 2006726.7192696221 3348920.3990958836 0 0 0 0 626175.81254658103 1470768.6616614992 0 1470768.6616614992 5477546.6721716756 0 0 0 0 6665877.1574554443 433513.62773513794 0 433513.62773513794 188792.35227394104 0 0 0 0 -1332316.0314941406 -2402734.9598793983 0 -2402734.9598793983 6600813.8265724182 0 0 0 0 -2854569.1456604004 -4127599.0201108456 0 -4127599.0201108456 5754032.1344432831 0 0 0 0 -7227109.0345916748 790834.31921768188 0 790834.31921768188 18183040.812555313 0 0 0 0 -948942.23495204002 -52652.897081546485 0 -52652.897081546485 7917523.7301189853 0 0 0 0 467790.65194702148 -1841408.5560016632 0 -1841408.5560016632 18415152.250637054 0 0 0 0 -5819431.5360717773 -5607350.693069458 0 -5607350.693069458 5168277.8285484314 0 0 0 0 -10029481.473104477 12459804.484549761 0 12459804.484549761 20945150.861557007 0 0 0 0 12251950.485412598 -5107368.5429723263 0 -5107368.5429723263 4890595.3991327286 0 0 0 0 959584.74180708826 -4058672.6217733249 0 -4058672.6217733249 4605078.3160652714 0 0 0 0 1679007.4028669 -5248927.098507097 0 -5248927.098507097 6153511.7645707056 0 0 0 0 -1778779.5727386475 -1812660.0770225525 0 -1812660.0770225525 1565272.3351478577 0 0 0 0 -4138867.9635696411 -1657360.8365321159 0 -1657360.8365321159 3631054.112575531 0 0 0 0 856140.03569630533 -3792846.8507660339 0 -3792846.8507660339 7664679.7983898725 0 0 0 0 180615.42697143555 -457003.74157714844 0 -457003.74157714844 148586.97766494751 0 0 0 0 3596503.6792530185 -191277.44596465677 0 -191277.44596465677 1044554.1539796237 0 0 0 0 9696281.1133880615 -7495625.8311545849 0 -7495625.8311545849 3324242.4211435318 0 0 0 0 9514015.3953913376 -4160732.513114912 0 -4160732.513114912 2818978.5885661747 0 0 0 0 9761885.1677157432 -6671893.0051993951 0 -6671893.0051993951 1818367.3948597629 0 0 0 0 17033990.011550903 -7581576.9120419025 0 -7581576.9120419025 143379.657746315 0 0 0 0 15316862.141378403 -9551397.2382708192 0 -9551397.2382708192 10971203.910957813 0 0 0 0 3145958.6401920319 6115554.8810717463 0 6115554.8810717463 8875360.4940404892 0 0 0 0 -374278.41727626324 558359.60532400012 0 558359.60532400012 1365313.4124709778 0 0 0 0 20132591.789024353 2269475.5764319897 0 2269475.5764319897 628906.1227710247 0 0 0 0 151555.85910987854 2100024.8235179186 0 2100024.8235179186 14804665.786976814 0 0 0 0 -2237994.7996006012 -2917210.2973182797 0 -2917210.2973182797 15512138.017586708 0 0 0 0 28951454.340843201 -902420.76559400558 0 -902420.76559400558 2163115.5660181046 0 0 0 0 5738926.943647325 -45706.522929988801 0 -45706.522929988801 3077234.9073038446 0 0 0 0 5595996.8851852417 -3254974.5849305391 0 -3254974.5849305391 1974272.2834391594 0 0 0 0 16296491.34197998 -5248852.3031363487 0 -5248852.3031363487 1484116.9767522812 0 0 0 0 18448290.66267395 -1158519.478937149 0 -1158519.478937149 -2785929.039595291 0 0 0 0 10098015.930734634 -476830.92693793774 0 -476830.92693793774 855788.7811794281 0 0 0 0 22212303.923416138 5702806.0824098587 0 5702806.0824098587 4694275.5315256119 0 0 0 0 20290855.012313843 475730.90151309967 0 475730.90151309967 440349.90667259693 0 0 0 0 17274151.237316132 5087342.1606888771 0 5087342.1606888771 13104913.842746735 0 0 0 0 19821643.703559875 3223039.8931410313 0 3223039.8931410313 7758363.7092266083 0 0 0 0 18101695.18328476 -3518039.0074030161 0 -3518039.0074030161 2451526.4724721909 0 0 0 0 12020000.907104492 -2472651.1671369076 0 -2472651.1671369076 4986786.8458003998 0 0 0 0 17090738.90133667 -1971652.1305036545 0 -1971652.1305036545 1349956.8444828987 0 0 0 0 2089225.5453415327 358513.76082465798 0 358513.76082465798 -459571.83604072174 0 0 0 0 14678799.513061523 -2160316.8148627281 0 -2160316.8148627281 3350546.2887763977 0 0 0 0 6398831.1424560547 -3604493.4948425293 0 -3604493.4948425293 -5014166.8282996267 0 0 0 0 14604979.703964233 -1090580.6612420082 0 -1090580.6612420082 3140221.8966598511 0 0 0 0 14224369.696630478 12722199.246731818 0 12722199.246731818 1012519.108174324 0 0 0 0 6681830.3118936494 1450643.1844277252 0 1450643.1844277252 3039505.3617411959 0 0 0 0 -172103.173828125 2194385.633731842 0 2194385.633731842 -1486160.3100876808 0 0 0 0 4994109.4329833984 -775180.61334466934 0 -775180.61334466934 1058455.2314548492 0 0 0 0 22044917.788032532 12651351.763895422 0 12651351.763895422 -306678.69919967651 0 0 0 0 8483428.7450148985 1405628.8336880021 0 1405628.8336880021 1630322.0755136856 0 0 0 0 16117894.348907471 -478256.07576179504 0 -478256.07576179504 -1934379.1552505493 0 0 0 0 7773129.0753201917 -1589344.8816860355 0 -1589344.8816860355 20991.43787413137 0 0 0 0 16378930.777760129 288909.71354249492 0 288909.71354249492 -1232467.9294322499 0 0 0 0 418113.02785744146 186131.06935619563 0 186131.06935619563 -110022.62091071345 0 0 0 0 6724074.5400848389 -5399640.4304947853 0 -5399640.4304947853 -4343129.401129365 0 0 0 0 13622208.522184372 -2925113.133245945 0 -2925113.133245945 -264862.28438234329 0 0 0 0 13703839.755337715 -3356472.5826091766 0 -3356472.5826091766 -562306.29738283157 0 0 0 0 9645480.1987591386 -5723644.5151859662 0 -5723644.5151859662 885796.71140656737 0 0 0 0 18399485.144024223 -3900276.5512962323 0 -3900276.5512962323 391813.1699315859 0 0 0 0 9492125.3306484222 -6004296.5772333145 0 -6004296.5772333145 2184036.6218380928 0 0 0 0 15671007.800804805 -5737861.2937322408 0 -5737861.2937322408 1448387.0197298261 0 0 0 0 2596831.5616950989 -24824738.35098815 0 -24824738.35098815 6206906.5913095474 0 0 0 0 17115326.163536072 -7160475.9577555656 0 -7160475.9577555656 2098868.6366996765 0 0 0 0 4637456.4042874202 -7811828.921182516 0 -7811828.921182516 -433846.99291432626 0 0 0 0 8970399.0850334167 -24446140.929937363 0 -24446140.929937363 4290177.7192726135 0 0 0 0 13698985.089437485 -36510135.305404782 0 -36510135.305404782 -14335985.18305254 0 0 0 0 16996688.094657898 -24586840.127542973 0 -24586840.127542973 -46459610.121116519 0 0 0 0 3051369.665930748 -33951392.922997713 0 -33951392.922997713 -11182598.398597002 0 0 0 0 11105370.295171559 -7549518.7965736706 0 -7549518.7965736706 1139046.3086884227 0 0 0 0 15569938.214606285 -41872481.665837556 0 -41872481.665837556 -7853882.1542270184 0 0 0 0 26410630.575750351 -19134648.812079787 0 -19134648.812079787 -4518236.4009094238 0 0 0 0 764769.36029529572 -24982610.236024961 0 -24982610.236024961 22916594.188871384 0 0 0 0 13859462.989249229 -75799553.229195654 0 -75799553.229195654 51383880.356253147 0 0 0 0 -54333354.677017212 -76260994.090730906 0 -76260994.090730906 62444042.291663408 0 0 0 0 60932374.923049927 -22875548.274621248 0 -22875548.274621248 46365167.996611312 0 0 0 0 -72307092.95998764 -11554559.024730802 0 -11554559.024730802 54655740.975384116 0 0 0 0 -32983646.377035141 19501611.201746285 0 19501611.201746285 -2674644.5966587067 0 0 0 0 -21440020.746461868 -22183135.893553138 0 -22183135.893553138 27881076.066339731 0 0 0 0 6651611.0827007294 -11123955.656754017 0 -11123955.656754017 99881.515106678009 0 0 0 0 -18655196.371816635 -21645918.405010462 0 -21645918.405010462 6023050.6749902368 0 0 0 0 8095001.0898277722 -8511293.6968073938 0 -8511293.6968073938 2955259.276166196 0 0 0 0 5187076.9699372388 -5665532.7146675233 0 -5665532.7146675233 1461012.6369091684 0 0 0 0 -15505863.946548462 1003489.8341571689 0 1003489.8341571689 10748376.420658156 0 0 0 0 4063531.6483383179 -7445042.3589365482 0 -7445042.3589365482 2351532.1041350365 0 0 0 0 -4768936.3394632228 -4599369.9969753455 0 -4599369.9969753455 4945415.8647829406 0 0 0 0 -2698276.2811813354 -7181964.4298021793 0 -7181964.4298021793 5132986.7101041675 0 0 0 0 4080602.3420557976 -7586631.8273373246 0 -7586631.8273373246 2065442.9920949936 0 0 0 0 -10823865.859775543 -6233825.9962458611 0 -6233825.9962458611 5437510.7786388397 0 0 0 0 1217133.5208688267 -398141.05757347308 0 -398141.05757347308 -46447.87285969127 0 0 0 0 6171955.2801237106 -9537180.2542147338 0 -9537180.2542147338 4790515.6495962143 0 0 0 0 6445749.2986488342 -11344839.180562198 0 -11344839.180562198 660974.08911514282 0 0 0 0 4693938.9204292297 -6737867.038203001 0 -6737867.038203001 4585944.4837713242 0 0 0 0 3012057.9255905151 -10379299.184272766 0 -10379299.184272766 1057679.6800404787 0 0 0 0 8209960.9033203125 -6706381.4636462927 0 -6706381.4636462927 1270233.006934166 0 0 0 0 8736983.7911806107 -4473225.1345015168 0 -4473225.1345015168 5316877.8592777252 0 0 0 0 3336319.4827825036 -5721233.700393863 0 -5721233.700393863 6346514.6333107892 0 0 0 0 13008295.754463196 -7028321.1359894276 0 -7028321.1359894276 2842273.1431417465 0 0 0 0 -21536219.532371521 19161594.847334862 0 19161594.847334862 10038447.168622971 0 0 0 0 -19361864.994594574 18183275.911038637 0 18183275.911038637 3835081.5188446045 0 0 0 0 -3938001.6280158237 2313950.2168860026 0 2313950.2168860026 854293.53710637055 0 0 0 0 -19532922.167327881 16557063.208716393 0 16557063.208716393 12738562.414428711 0 0 0 0 -4284143.7198944092 -401256.11102390289 0 -401256.11102390289 2406804.2023820877 0 0 0 0 -22950625.993560791 -6262648.7269420624 0 -6262648.7269420624 9903709.6081876755 0 0 0 0 415251.19464404881 -961567.3422794342 0 -961567.3422794342 4388207.4009288196 0 0 0 0 -20726096.504039764 -14656.332924365997 0 -14656.332924365997 -125125.24468994141 0 0 0 0 -18350112.047271729 14616886.46515274 0 14616886.46515274 16390571.186561584 0 0 0 0 -13217334.288330078 10436669.187446594 0 10436669.187446594 18100123.078323364 0 0 0 0 -8072664.8553161621 9132981.254196167 0 9132981.254196167 8859948.3211841583 0 0 0 0 -3113301.8389282227 188584.85468292236 0 188584.85468292236 20853881.696997643 0 0 0 0 9581088.5500183105 8736121.7783946991 0 8736121.7783946991 5264327.2601127625 0 0 0 0 -14000749.601791382 4837433.5845737457 0 4837433.5845737457 17571567.864208221 0 0 0 0 22243390.20413208 -3330948.8350296021 0 -3330948.8350296021 6846238.7497682571 0 0 0 0 -21865851.830841064 10239410.00039959 0 10239410.00039959 16054674.37552166 0 0 0 0 -23615040.481506348 -11168140.028229713 0 -11168140.028229713 4229542.7284255028 0 0 0 0 -62587624.411312103 6428409.4354405403 0 6428409.4354405403 21298034.710115433 0 0 0 0 3599167.5290269051 -7297056.0768048912 0 -7297056.0768048912 4368487.915076822 0 0 0 0 -13620251.421221733 4192466.8707567453 0 4192466.8707567453 -4643839.0678272247 0 0 0 0 13247094.553153992 -6409878.0265407562 0 -6409878.0265407562 -1674445.3960447311 0 0 0 0 -23035627.413825989 -134699.9627737999 0 -134699.9627737999 -8061774.139418602 0 0 0 0 6909284.1154491147 -7842707.6288094781 0 -7842707.6288094781 2036816.9303105315 0 0 0 0 -59638117.244197845 -18972260.000467062 0 -18972260.000467062 25101715.511447906 0 0 0 0 -377199.76015090942 11644649.01876688 0 11644649.01876688 29863007.170704842 0 0 0 0 -34474438.573371887 -21181887.581194878 0 -21181887.581194878 63046000.758716583 0 0 0 0 -23306291.709022522 -182558.66677808762 0 -182558.66677808762 30033439.556890488 0 0 0 0 4552642.6488609314 8145576.8240132332 0 8145576.8240132332 2279287.4514293671 0 0 0 0 9902395.3636245728 1037124.490550518 0 1037124.490550518 26132782.511060715 0 0 0 0 1404465.6828422546 14851835.395743489 0 14851835.395743489 35657026.614027023 0 0 0 0 1368198.2801856846 -355640.51700931415 0 -355640.51700931415 -701903.29279700667 0 0 0 0 21469766.331102371 36532731.883729696 0 36532731.883729696 134591209.07280827 0 0 0 0 182447542.04469299 -149976503.56427622 0 -149976503.56427622 -11398151.700422645 0 0 0 0 139053914.95079422 801962.6909737587 0 801962.6909737587 -47611486.51281929 0 0 0 0 -115877163.17417908 -76087005.322558403 0 -76087005.322558403 35849929.162597656 0 0 0 0 25716294.114890099 30190764.047255129 0 30190764.047255129 13225661.207113266 0 0 0 0 1441173.9147507697 -439046.55352850631 0 -439046.55352850631 246241.58500776067 0 0 0 0 -97620822.264879227 -35206271.684926033 0 -35206271.684926033 36901159.186496735 0 0 0 0 -88777289.611312866 -45339301.353610992 0 -45339301.353610992 -9420089.0207443237 0 0 0 0 -128048312.84265137 -289348.76964187622 0 -289348.76964187622 11626082.905254364 0 0 0 0 -83644681.412017822 13981413.975444794 0 13981413.975444794 18586666.467788696 0 0 0 0 -72887947.880981445 15715801.215209961 0 15715801.215209961 15982310.709928513 0 0 0 0 -130638971.94197083 37577210.856941223 0 37577210.856941223 49105505.078723907 0 0 0 0 -29277850.608764648 -5454398.8629150391 0 -5454398.8629150391 -2910138.2322497368 0 0 0 0 -62182237.029312134 -3325033.154955864 0 -3325033.154955864 7773544.263053894 0 0 0 0 -26828494.601387024 158576.81903362274 0 158576.81903362274 14427987.239196777 0 0 0 0 -23611326.613342285 2873894.1798343658 0 2873894.1798343658 8670926.1005530357 0 0 0 0 -36160966.537467957 32212778.551250458 0 32212778.551250458 25258267.218536377 0 0 0 0 -80956860.647888184 45098814.043022156 0 45098814.043022156 49709052.634159088 0 0 0 0 -213081244.19651794 99404747.7380867 0 99404747.7380867 33962888.487466812 0 0 0 0 30238419.601654053 -16189202.467290878 0 -16189202.467290878 -27131352.87223053 0 0 0 0 -244550982.90029335 178751623.38674891 0 178751623.38674891 -22615758.964076996 0 0 0 0 -164366188.19535828 14950222.85515976 0 14950222.85515976 42756132.296329498 0 0 0 0 -132666615.4083004 -206049692.79786849 0 -206049692.79786849 -218691410.76872635 0 0 0 0 -21321935.705928802 -16441704.474580824 0 -16441704.474580824 26963538.263833046 0 0 0 0 12383196.956947327 103851943.64468701 0 103851943.64468701 -90732239.723432466 0 0 0 0 16090727.17150452 5659107.0671166182 0 5659107.0671166182 2945828.2732024179 0 0 0 0 -10143094.805793762 21670376.216292135 0 21670376.216292135 -6234744.0318301618 0 0 0 0 -7277471.5527973175 -191621944.31177163 0 -191621944.31177163 149730474.45754623 0 0 0 0 -176624290.09601212 162883906.25032794 0 162883906.25032794 269073167.55730057 0 0 0 0 -162626994.4989624 82929699.594088316 0 82929699.594088316 178471534.17339015 0 0 0 0 11998718.914309487 5252386.9402877605 0 5252386.9402877605 3515680.570019674 0 0 0 0 -24973661.873401642 281048095.99505997 0 281048095.99505997 17667487.468411446 0 0 0 0 151357270.42007446 -366050366.91696388 0 -366050366.91696388 242516452.19520578 0 0 0 0 4528313.6821785718 2356325.5930312667 0 2356325.5930312667 3256730.0895504202 0 0 0 0 2200748591.7034378 -633485685.42283368 0 -633485685.42283368 -100007032.67665814 0 0 0 0 1431288795.0134926 -967606587.7711072 0 -967606587.7711072 515790438.95871109 0 0 0 0 1431814502.5013981 -295912793.32802153 0 -295912793.32802153 -241780013.70251337 0 0 0 0 83889735.011810303 -68221899.61054343 0 -68221899.61054343 5662440.035268724 0 0 0 0 752048185.93746185 -39943744.163099229 0 -39943744.163099229 41693329.669660687 0 0 0 0 1385069115.3215065 -567802656.71958745 0 -567802656.71958745 130286314.06947401 0 0 0 0 -117757389.34588623 137060039.49502248 0 137060039.49502248 321428143.17033219 0 0 0 0 1457435.7668606658 -106004.16694239527 0 -106004.16694239527 65383.806379875576 0 0 0 0 1320299105.7025757 -67101436.481870055 0 -67101436.481870055 -166102191.67827803 0 0 0 0 1382342908.884758 261482571.93570656 0 261482571.93570656 -395314416.76172876 0 0 0 0 2206117393.0059204 -152816351.78876138 0 -152816351.78876138 -434660982.79861653 0 0 0 0 2200416753.4340281 809272208.58838642 0 809272208.58838642 -389900803.13668245 0 0 0 0 1484695988.6201172 286171291.24503493 0 286171291.24503493 -390019869.3935253 0 0 0 0 280597433.31978607 53124673.908807367 0 53124673.908807367 54247445.051344 0 0 0 0 278108457.71428108 62456827.663300969 0 62456827.663300969 19348914.872899994 0 0 0 0 1024467743.3410034 798529202.28541982 0 798529202.28541982 301250594.56067747 0 0 0 0 -393354.45745193213 -1630448.0988185119 0 -1630448.0988185119 307072.43336439587 0 0 0 0 20692058.571123123 -15958908.996052809 0 -15958908.996052809 14301115.63336581 0 0 0 0 4183177.3634853717 -1283042.1681175232 0 -1283042.1681175232 60391.5500508775 0 0 0 0 20153431.799734116 -2882598.7867240012 0 -2882598.7867240012 15632278.319250762 0 0 0 0 4636655.3662834167 -4789953.6600660682 0 -4789953.6600660682 10622466.007263362 0 0 0 0 16097123.301078632 -2486410.9183791326 0 -2486410.9183791326 -1585570.4531804458 0 0 0 0 12697114.917690277 1086949.1431822479 0 1086949.1431822479 6514009.1418850422 0 0 0 0 8326330.0203170776 2628733.2944714427 0 2628733.2944714427 7348950.5400974434 0 0 0 0 10518690.682117462 2184560.9366258085 0 2184560.9366258085 4429411.1108974218 0 0 0 0 15161084.942798771 2222593.1240908336 0 2222593.1240908336 19001.303738375238 0 0 0 0 9791900.1276702881 6454570.7925897241 0 6454570.7925897241 149069.57153442502 0 0 0 0 16959002.9790802 54805211.291474789 0 54805211.291474789 -167383758.02547312 0 0 0 0 20803603.597169045 3270283.6314116307 0 3270283.6314116307 947395.138445399 0 0 0 0 7275735.0361938477 3743063.2840283215 0 3743063.2840283215 8425305.5909896046 0 0 0 0 7917940.1670684814 597802.70031672716 0 597802.70031672716 -383142.62568604946 0 0 0 0 10351522.654037476 -3487949.5615215302 0 -3487949.5615215302 -7696384.0548355505 0 0 0 0 16519956.266507797 4319081.5645717606 0 4319081.5645717606 340788.43423941103 0 0 0 0 8162657.9289398193 934164.07650905848 0 934164.07650905848 69753.012935385108 0 0 0 0 14220382.158518361 2458332.5163044296 0 2458332.5163044296 2557712.7473175814 0 0 0 0 41628310.753616333 -13318765.134085655 0 -13318765.134085655 -43680876.646223545 0 0 0 0 71236227.139421463 43748310.265253782 0 43748310.265253782 -186215628.87021828 0 0 0 0 914688.87929537427 321266.45743544959 0 321266.45743544959 54123.110969835892 0 0 0 0 31083500.240192413 -6464730.7308654785 0 -6464730.7308654785 -27522671.921684265 0 0 0 0 19225344.344938211 5300554.1025115382 0 5300554.1025115382 1626691.3847058252 0 0 0 0 39523105.361610413 -3199494.6244101524 0 -3199494.6244101524 -49249050.324641705 0 0 0 0 19024557.044185638 -21908190.002215385 0 -21908190.002215385 -14654222.533912182 0 0 0 0 31241395.77148056 -37792042.727575302 0 -37792042.727575302 4075845.6053495407 0 0 0 0 37356411.452060699 -27878073.217841148 0 -27878073.217841148 -54385477.538707733 0 0 0 0 19278143.015530586 -12863353.216854692 0 -12863353.216854692 -31392101.514168739 0 0 0 0 35930960.652256012 -31496592.577404261 0 -31496592.577404261 -24472450.031873703 0 0 0 0 52846362.814102173 -58940715.753575325 0 -58940715.753575325 492343.51360082626 0 0 0 0 32260128.638038635 -43747050.125926018 0 -43747050.125926018 -54918554.52249527 0 0 0 0 57276956.212353468 -17317857.574207336 0 -17317857.574207336 -41745192.646296501 0 0 0 0 20896657.471572876 -45529927.049963474 0 -45529927.049963474 23527265.001252651 0 0 0 0 29662132.656188965 -83842237.164409876 0 -83842237.164409876 183416020.24982548 0 0 0 0 15865423.031555176 -48005944.103816032 0 -48005944.103816032 51152993.180772781 0 0 0 0 8976091.2990169264 -21414135.126143675 0 -21414135.126143675 1311112.2456541061 0 0 0 0 -20500518.388809204 -42049887.383961439 0 -42049887.383961439 -21390208.513391972 0 0 0 0 100228458.9786644 149716691.06992149 0 149716691.06992149 -245089780.93184805 0 0 0 0 104934201.45363235 18733670.635942459 0 18733670.635942459 -195487512.42114639 0 0 0 0 196197474.64470673 75505753.176362753 0 75505753.176362753 40075563.403679609 0 0 0 0 125784308.63514328 -107972383.10640812 0 -107972383.10640812 28000605.342259645 0 0 0 0 119475176.04706573 64692812.879644871 0 64692812.879644871 128421699.22877455 0 0 0 0 209438745.73029995 74159228.893393934 0 74159228.893393934 -30143857.314788342 0 0 0 0 215214818.13062882 35088953.555520177 0 35088953.555520177 79396618.18138361 0 0 0 0 195715272.97899628 98265211.651445866 0 98265211.651445866 31357153.244213223 0 0 0 0 1145475.6705765445 -868295.35025428608 0 -868295.35025428608 377979.01492503867 0 0 0 0 45940224.023023605 182234381.70845574 0 182234381.70845574 286669565.69455755 0 0 0 0 1826742.2294149622 -1616816.534135933 0 -1616816.534135933 607399.5115993151 0 0 0 0 48701348.390708923 -5191175.4166488647 0 -5191175.4166488647 -100996051.9529798 0 0 0 0 500893.70355656371 -49687.578188811545 0 -49687.578188811545 353476.69473385694 0 0 0 0 89452074.732658386 120937655.91035652 0 120937655.91035652 -35498792.299360514 0 0 0 0 -10365421.777954102 -1617489.2823343277 0 -1617489.2823343277 3581066.7763781548 0 0 0 0 92838844.441520691 82839964.799106956 0 82839964.799106956 22681131.565948725 0 0 0 0 134034535.51070404 24191169.901155233 0 24191169.901155233 -8808034.4948992729 0 0 0 0 76631202.663402557 -50447858.453160048 0 -50447858.453160048 9113279.192019701 0 0 0 0 82005441.84258914 27633541.502688229 0 27633541.502688229 31056912.891902447 0 0 0 0 78378017.642864227 -12855196.784638524 0 -12855196.784638524 42896761.616738915 0 0 0 0 226233839.03151321 88085909.412949324 0 88085909.412949324 4092866.982884109 0 0 0 0 157029122.11185455 -2747804.0885355473 0 -2747804.0885355473 27199662.061980963 0 0 0 0 355954601.49722672 -5369838.6863719821 0 -5369838.6863719821 48173481.66767168 0 0 0 0 256669786.31975937 208911766.59690887 0 208911766.59690887 259838824.68560791 0 0 0 0 198930512.19966507 47576375.519798815 0 47576375.519798815 54158368.435168922 0 0 0 0 173826057.1225996 -78056933.187232792 0 -78056933.187232792 19860932.627921581 0 0 0 0 88076208.834945679 -71952073.983308911 0 -71952073.983308911 89091130.60897851 0 0 0 0 197583416.04936028 105450111.85322863 0 105450111.85322863 47055209.274650812 0 0 0 0 629170.53734392859 -373204.72399098426 0 -373204.72399098426 147848.55149902101 0 0 0 0 168815513.9967804 78646604.281127751 0 78646604.281127751 69311217.534687966 0 0 0 0 449802738.70173645 445856570.01050848 0 445856570.01050848 376122418.32821554 0 0 0 0 842853295.84880066 396215169.53197718 0 396215169.53197718 194330406.34029388 0 0 0 0 369359633.4233017 523730416.18465525 0 523730416.18465525 381326042.39515764 0 0 0 0 379526384.9662056 278841458.54448938 0 278841458.54448938 169871213.37975031 0 0 0 0 282633139.10355568 348027795.1032992 0 348027795.1032992 114010083.06038678 0 0 0 0 328546270.84793854 248840850.38709605 0 248840850.38709605 298899550.19232303 0 0 0 0 67397921.261388779 -71398073.214329839 0 -71398073.214329839 206032450.2753067 0 0 0 0 224406382.66478348 185897274.57031333 0 185897274.57031333 50818344.253011763 0 0 0 0 779527.90926968306 -666368.46403999068 0 -666368.46403999068 20942.200996883214 0 0 0 0 195050736.22998047 234995342.98221076 0 234995342.98221076 153074935.37211618 0 0 0 0 -210124001.5950737 -71090477.299929142 0 -71090477.299929142 285444026.71443844 0 0 0 0 -114978934.07959747 -92707865.829907417 0 -92707865.829907417 254226166.16406488 0 0 0 0 517647689.65132904 1205753553.0214272 0 1205753553.0214272 1907257932.3442538 0 0 0 0 89195101.773153305 161645966.23589078 0 161645966.23589078 452136102.13689971 0 0 0 0 546685459.63508606 864501591.52406037 0 864501591.52406037 805710645.69939911 0 0 0 0 1363071247.458519 913895564.93716538 0 913895564.93716538 65442071.864405587 0 0 0 0 2200188772.1747208 1351872629.5979145 0 1351872629.5979145 281309027.73994029 0 0 0 0 2205696802.7564392 752990509.27992904 0 752990509.27992904 -202363282.87656948 0 0 0 0 1314531965.3481598 697319308.53858697 0 697319308.53858697 144992506.57700944 0 0 0 0 1005842775.0576553 683848101.48830545 0 683848101.48830545 167105199.25689706 0 0 0 0 1571318951.884901 429890741.18656278 0 429890741.18656278 -197568005.48562786 0 0 0 0 2204076849.0738373 -18038553.507727545 0 -18038553.507727545 -382182994.95817626 0 0 0 0 1403812698.1827545 344152408.44768715 0 344152408.44768715 -194187894.13315976 0 0 0 0 1229249676.7737951 60997437.418351576 0 60997437.418351576 -93333529.159587622 0 0 0 0 1117912134.5053215 52425109.454838842 0 52425109.454838842 -92927399.269852042 0 0 0 0 1230885848.8326492 -164865357.96560717 0 -164865357.96560717 -397970350.89568102 0 0 0 0 439693561.12707329 161111460.63575631 0 161111460.63575631 273113873.65764308 0 0 0 0 691463669.45061874 347300082.56421697 0 347300082.56421697 185679834.36974421 0 0 0 0 808025525.03030777 -224237917.33577558 0 -224237917.33577558 -60348531.694663286 0 0 0 0 282147567.5404129 160415927.52063164 0 160415927.52063164 275926951.4587121 0 0 0 0 100544450.58674765 379207443.32054806 0 379207443.32054806 -281604012.11945689 0 0 0 0 175314269.93964148 -176256881.26025802 0 -176256881.26025802 31586683.508953154 0 0 0 0 503810717.66296005 -4392437.0452288389 0 -4392437.0452288389 -229815875.74019742 0 0 0 0 2204814899.7695656 -482586622.65281057 0 -482586622.65281057 -446722234.15521789 0 0 0 0 759679121.15121651 -807939196.62849736 0 -807939196.62849736 253965796.36289003 0 0 0 0 1194062508.8080635 -498642352.04218352 0 -498642352.04218352 -333192897.33236188 0 0 0 0 2201787092.4696083 -1280292964.8409944 0 -1280292964.8409944 59574753.742907919 0 0 0 0 60645845.663497925 -1112908644.5440063 0 -1112908644.5440063 1794655498.4565196 0 0 0 0 1963912.6320139803 -342941.45736107137 0 -342941.45736107137 944256.51249138999 0 0 0 0 2195348007.8888359 -72662.903261188709 0 -72662.903261188709 -2150289.1085858559 0 0 0 0 54895516.05424881 1104825194.2642066 0 1104825194.2642066 1388816820.6971214 0 0 0 0 5449290.6652888469 -2377852.8331698752 0 -2377852.8331698752 844492.28293400747 0 0 0 0 -32705043.545951843 -2104884.1343519688 0 -2104884.1343519688 1251935.6359255761 0 0 0 0 -35092229.241569519 -19782167.10849756 0 -19782167.10849756 622487.91418083012 0 0 0 0 204190228.26060104 -171451533.85055679 0 -171451533.85055679 206034638.55733716 0 0 0 0 9253418.3449915908 -2434453.4462301042 0 -2434453.4462301042 954588.22234247997 0 0 0 0 3625510.8581019081 -2885339.8140825117 0 -2885339.8140825117 116413.89360652014 0 0 0 0 644112978.91689205 -280820979.94620144 0 -280820979.94620144 101718391.6162715 0 0 0 0 3679663.3774647675 829663.60067563225 0 829663.60067563225 1690186.5514836488 0 0 0 0 -131335342.94939804 74794642.777323365 0 74794642.777323365 -19820266.467555285 0 0 0 0 -164687897.18521976 29191206.245996833 0 29191206.245996833 115905335.04269099 0 0 0 0 -123405200.71615219 -31299114.430388689 0 -31299114.430388689 47791054.864545465 0 0 0 0 -35460376.424850464 -16689606.928776622 0 -16689606.928776622 23752194.175428301 0 0 0 0 -31536050.386803627 3460551.439797014 0 3460551.439797014 24842707.138680935 0 0 0 0 10073493.663208747 -2470539.6343078883 0 -2470539.6343078883 565577.22664603125 0 0 0 0 92794901.899864197 -215130116.22752202 0 -215130116.22752202 53753575.20822344 0 0 0 0 -105088581.8670187 -77717966.670423061 0 -77717966.670423061 -29490705.161422372 0 0 0 0 -87990362.867183685 -106290527.51127142 0 -106290527.51127142 -112460869.89518389 0 0 0 0 -112779691.87034798 -60238795.443952411 0 -60238795.443952411 70599968.579592705 0 0 0 0 -109602428.73752213 -226207180.98697034 0 -226207180.98697034 -131838675.32195708 0 0 0 0 10444917.745382881 -1119150.8267139364 0 -1119150.8267139364 -171973.01179023739 0 0 0 0 -99728173.739715576 52914612.861196369 0 52914612.861196369 113649325.31278531 0 0 0 0 1876177470.9864101 162764384.67529231 0 162764384.67529231 -195530449.11992291 0 0 0 0 341078375.09706688 -167853822.75487101 0 -167853822.75487101 -98981880.564332351 0 0 0 0 1720699232.8268261 844220917.51408863 0 844220917.51408863 237798893.38141924 0 0 0 0 2202074840.3206363 1016046278.3324447 0 1016046278.3324447 -177968546.75859138 0 0 0 0 925332532.17229462 1520028621.4080012 0 1520028621.4080012 794237096.7075665 0 0 0 0 1284023553.0683613 377774106.99590081 0 377774106.99590081 -40385893.043557748 0 0 0 0 160769757.73553658 384869463.15809363 0 384869463.15809363 108561008.46300057 0 0 0 0 149988773.36804199 -130749931.21573827 0 -130749931.21573827 289606879.16553265 0 0 0 0 397789409.80243778 -109810355.77174857 0 -109810355.77174857 -39613008.686540365 0 0 0 0 159807061.31906319 -79837456.03037411 0 -79837456.03037411 7211222.388723135 0 0 0 0 313253388.34084368 191136253.94183594 0 191136253.94183594 69225725.013482571 0 0 0 0 693524926.94245338 -20998916.989511982 0 -20998916.989511982 181121815.56460193 0 0 0 0 48152910.788482666 48168228.222915992 0 48168228.222915992 26345393.820641875 0 0 0 0 249155392.73146057 -48077315.766224444 0 -48077315.766224444 -253863837.33273542 0 0 0 0 128071662.41394424 -39953799.167871326 0 -39953799.167871326 -57704033.169148147 0 0 0 0 80703727.940219879 -168915726.1459859 0 -168915726.1459859 6838888.8295125961 0 0 0 0 183013937.23474884 -122619645.05473933 0 -122619645.05473933 -195928125.28821743 0 0 0 0 82260108.441246033 -79037033.588961124 0 -79037033.588961124 -211727897.65850568 0 0 0 0 28434779.662887573 -157770164.46835101 0 -157770164.46835101 -165962705.92954513 0 0 0 0 50884603.223804474 -151417354.8867203 0 -151417354.8867203 -249360910.06790042 0 0 0 0 -17395758.663017273 -109275375.93907779 0 -109275375.93907779 -183628658.11312604 0 0 0 0 11289899.97265625 -175581199.88508403 0 -175581199.88508403 -192225182.51717934 0 0 0 0 27004007.476715088 -188776828.46675473 0 -188776828.46675473 -55997170.835160077 0 0 0 0 86066343.807678223 -122648486.3737126 0 -122648486.3737126 -166222217.02055171 0 0 0 0 -148125162.24080276 -104078340.44658661 0 -104078340.44658661 -148837619.6606729 0 0 0 0 -65779052.51739502 -188165408.36498719 0 -188165408.36498719 -64213435.062373936 0 0 0 0 -101145009.75099564 -87768489.483779848 0 -87768489.483779848 121993254.69424784 0 0 0 0 -6346947.9864959717 -154843196.70434403 0 -154843196.70434403 -70312947.305035576 0 0 0 0 61510218.265550613 -182731793.65899882 0 -182731793.65899882 126553444.66185927 0 0 0 0 -2735586.0645065308 -88160292.723682761 0 -88160292.723682761 1538044.1451222301 0 0 0 0 38115150.160621643 5264097.8791304827 0 5264097.8791304827 237090477.73841935 0 0 0 0 899614.97191810608 -105548932.51006055 0 -105548932.51006055 112093971.72839308 0 0 0 0 -125055630.3940506 -37721955.208610177 0 -37721955.208610177 248071383.31839991 0 0 0 0 -91611088.598810196 8979223.0948358774 0 8979223.0948358774 13229818.151798725 0 0 0 0 -24832023.971401215 109440455.26973569 0 109440455.26973569 154105453.12850308 0 0 0 0 50854597.694839478 -27230537.817069411 0 -27230537.817069411 247166238.69321537 0 0 0 0 490531804.15270233 91773705.395446062 0 91773705.395446062 461279204.79403543 0 0 0 0 421132302.04696083 201498771.95596623 0 201498771.95596623 312313052.34669304 0 0 0 0 819234918.44399261 431987690.31988764 0 431987690.31988764 263291021.1135962 0 0 0 0 125863947.48664093 -100051155.5774352 0 -100051155.5774352 353216971.46908832 0 0 0 0 414750571.00835419 45809825.49412179 0 45809825.49412179 236320565.42572898 0 0 0 0 648016442.33139801 579643369.46891069 0 579643369.46891069 1424191670.9827099 0 0 0 0 787345656.47031021 319095680.33722973 0 319095680.33722973 404906080.99343872 0 0 0 0 319982525.88283348 211574298.82264453 0 211574298.82264453 700710591.26008701 0 0 0 0 1315788801.4193115 894440045.46313143 0 894440045.46313143 395944118.17208433 0 0 0 0 676611929.89949036 427283973.76345301 0 427283973.76345301 587028546.90800762 0 0 0 0 1375104924.2187576 301117445.03642702 0 301117445.03642702 345451609.7874217 0 0 0 0 1517391651.014492 770627807.97388923 0 770627807.97388923 -185452694.50809383 0 0 0 0 192441.64365989901 795390.98626191169 0 795390.98626191169 1903990.9562759129 0 0 0 0 86777668.948944092 262185631.49144149 0 262185631.49144149 550704332.41145706 0 0 0 0 1442364430.825964 100768200.38224292 0 100768200.38224292 -90239820.796209335 0 0 0 0 857900208.1231184 -35975933.17383334 0 -35975933.17383334 -122166155.6043539 0 0 0 0 899599587.89258575 426686694.18072438 0 426686694.18072438 57931208.377360582 0 0 0 0 1208844465.8068647 651317990.50296795 0 651317990.50296795 214756689.79202557 0 0 0 0 843389785.96086884 324302046.06493831 0 324302046.06493831 583224721.57804513 0 0 0 0 502299689.66913986 261418550.22300839 0 261418550.22300839 189573135.00216913 0 0 0 0 897276209.50653243 459240877.7620067 0 459240877.7620067 -134864048.92733836 0 0 0 0 841022636.67229462 596247167.5705142 0 596247167.5705142 132532605.59368443 0 0 0 0 938787329.81518173 589153834.62750506 0 589153834.62750506 -67983663.79557927 0 0 0 0 736953096.5477066 290553738.5784936 0 290553738.5784936 -32194963.944389343 0 0 0 0 328039197.020401 110329035.99498618 0 110329035.99498618 19272766.64291048 0 0 0 0 192302294.73662567 34959722.646651387 0 34959722.646651387 99242.525218486786 0 0 0 0 655404668.2469902 375525943.12787962 0 375525943.12787962 -100680245.87092829 0 0 0 0 974277899.83364868 494330527.88954329 0 494330527.88954329 -85377260.454972744 0 0 0 0 3698912.9017669447 2401869.1130737346 0 2401869.1130737346 2005130.9656053258 0 0 0 0 -196223166.29972839 331841826.56821692 0 331841826.56821692 -107609598.444475 0 0 0 0 -68774755.613471985 -51845243.44299221 0 -51845243.44299221 -27790013.235925436 0 0 0 0 502292486.64491653 273521109.49537373 0 273521109.49537373 116885656.85528338 0 0 0 0 835876050.99620438 250426096.69853762 0 250426096.69853762 -391734880.10270011 0 0 0 0 1751390.9082119502 1329219.8305487717 0 1329219.8305487717 987802.10034213541 0 0 0 0 198830434.82705688 -33636929.053913429 0 -33636929.053913429 -50069033.635296412 0 0 0 0 -226774817.24034786 394452510.45548218 0 394452510.45548218 519529205.26233721 0 0 0 0 535081623.03131485 508154744.7400803 0 508154744.7400803 409834489.68784803 0 0 0 0 183406586.87039185 387665920.25397801 0 387665920.25397801 440030430.39610487 0 0 0 0 392908805.37921906 119627505.61612183 0 119627505.61612183 65997586.723249912 0 0 0 0 230157239.39885712 167536482.10227787 0 167536482.10227787 57122825.964401066 0 0 0 0 37846361.134513855 52875159.82604897 0 52875159.82604897 109039316.00472474 0 0 0 0 585229932.08705521 59229461.820769131 0 59229461.820769131 155630626.16283727 0 0 0 0 553052742.66567993 446524549.30031061 0 446524549.30031061 370542284.79982704 0 0 0 0 337281455.60894775 123452899.87623572 0 123452899.87623572 361409671.36379796 0 0 0 0 731188495.88842773 372510239.02741903 0 372510239.02741903 183900037.01619697 0 0 0 0 304635376.01148987 136005600.61300212 0 136005600.61300212 197004757.19638431 0 0 0 0 267486226.65271091 -34623849.195400387 0 -34623849.195400387 41775088.484215736 0 0 0 0 125377371.97312164 43112582.497404158 0 43112582.497404158 172795841.65572357 0 0 0 0 171460165.09588242 25644978.987251401 0 25644978.987251401 53461833.857453108 0 0 0 0 33898582.395904541 15607448.541204333 0 15607448.541204333 -22038797.199044108 0 0 0 0 71595222.824726105 -54243439.712637186 0 -54243439.712637186 65671369.230627775 0 0 0 0 -45247169.728149414 -6818178.4319009334 0 -6818178.4319009334 -22418548.619194508 0 0 0 0 -248939141.47766113 56136673.038150549 0 56136673.038150549 284127.05148434639 0 0 0 0 -67396492.008041382 14376373.935817957 0 14376373.935817957 -61656128.084071159 0 0 0 0 -257466611.78464508 -73230263.089600563 0 -73230263.089600563 -42739009.154742241 0 0 0 0 -57507877.394368172 -51265182.635075614 0 -51265182.635075614 -20065259.618418217 0 0 0 0 -90664893.654144287 66030913.883995771 0 66030913.883995771 11881344.265163004 0 0 0 0 -80621268.536612511 6808025.9749139845 0 6808025.9749139845 -130855313.21853113 0 0 0 0 111373904.90493774 96439697.008040071 0 96439697.008040071 -612062.63043367863 0 0 0 0 -184163191.27605438 -4429489.6281098127 0 -4429489.6281098127 124218495.25312328 0 0 0 0 -13650881.748092651 137265801.39437675 0 137265801.39437675 99911472.115793109 0 0 0 0 1499366.7259855708 2185473.7558450941 0 2185473.7558450941 3408119.5863516005 0 0 0 0 50691831.52141571 15303586.478038311 0 15303586.478038311 -18648586.311971664 0 0 0 0 -207316011.85633087 122849978.23369986 0 122849978.23369986 67217022.487518191 0 0 0 0 5073117.0267346501 2378880.6973674856 0 2378880.6973674856 1079005.7445201129 0 0 0 0 -1021208.804977417 596076.7844889164 0 596076.7844889164 960622.14363527298 0 0 0 0 4835911.1281462014 -2219220.333730245 0 -2219220.333730245 1369826.3810120327 0 0 0 0 2918023.8962115683 -1230273.462193829 0 -1230273.462193829 1628031.7620609086 0 0 0 0 -1259943.6858035699 2140420.7191114146 0 2140420.7191114146 754711.43821783084 0 0 0 0 5263064.2249654792 -3549907.3305098563 0 -3549907.3305098563 1619547.2008563429 0 0 0 0 5029668.972366333 2167401.7402219772 0 2167401.7402219772 -4474519.3714969158 0 0 0 0 539029.45022010803 10177075.853655517 0 10177075.853655517 -5510851.2106029987 0 0 0 0 598501.75631206483 984606.79434373602 0 984606.79434373602 -418494.21876651328 0 0 0 0 -383927546.80218506 17090535.931733727 0 17090535.931733727 40542254.757205963 0 0 0 0 11105000.966125488 -8745404.8323652744 0 -8745404.8323652744 -2030715.8494815826 0 0 0 0 9419578.5001907349 -5498459.5314059258 0 -5498459.5314059258 538927.91822481155 0 0 0 0 -443435.65180587769 -9367845.8271701336 0 -9367845.8271701336 742709.94986438751 0 0 0 0 5797812.249879837 -8667689.1442606449 0 -8667689.1442606449 -1905949.895942688 0 0 0 0 5855695.6067276001 -8486636.3076894283 0 -8486636.3076894283 -1763438.3688764572 0 0 0 0 2389161.3125572205 -7122276.1654238701 0 -7122276.1654238701 2097314.0119686127 0 0 0 0 3125788.1738243103 -10573334.25370574 0 -10573334.25370574 -2232543.2993164062 0 0 0 0 3823287.6804351807 -11153824.73344183 0 -11153824.73344183 -3715740.098490715 0 0 0 0 5940609.1315116882 -8375751.7352910042 0 -8375751.7352910042 -1710637.7971591949 0 0 0 0 6055032.9922637939 -8506406.2941122055 0 -8506406.2941122055 -1856759.4372663498 0 0 0 0 6443555.3459968567 -9111940.7745082378 0 -9111940.7745082378 -3883445.5044898987 0 0 0 0 6348882.9014205933 -8975848.057349205 0 -8975848.057349205 -3899237.7867833376 0 0 0 0 8662991.4974060059 -7482617.1881122589 0 -7482617.1881122589 -1443237.8820791245 0 0 0 0 -1187967.3799667358 -4700769.3653259277 0 -4700769.3653259277 -4248981.4613809586 0 0 0 0 9870467.1567153931 -7014764.69942379 0 -7014764.69942379 -3241313.7241473198 0 0 0 0 9713711.245223999 -6680147.9312002659 0 -6680147.9312002659 -3942923.5637693405 0 0 0 0 8404674.9073578194 -1933113.5259516519 0 -1933113.5259516519 583530.40315790614 0 0 0 0 11559729.475402832 -5869635.7574572563 0 -5869635.7574572563 -3695826.909473896 0 0 0 0 -440696.15829086304 -5407592.2585113049 0 -5407592.2585113049 -5926915.7297821045 0 0 0 0 9648185.2280839123 -4328759.6305331066 0 -4328759.6305331066 -905407.41024414846 0 0 0 0 5896189.7497520447 -19195902.100264549 0 -19195902.100264549 -10786121.407153428 0 0 0 0 5185737.1449761875 -9553777.1348081827 0 -9553777.1348081827 -1009868.4389687021 0 0 0 0 23871951.227045059 21268211.520127296 0 21268211.520127296 12286240.662131011 0 0 0 0 7147816.2356491089 -11417664.46173954 0 -11417664.46173954 -3802814.9305362701 0 0 0 0 12222579.58934021 -8805595.4903764725 0 -8805595.4903764725 -4591278.4585127831 0 0 0 0 47497377.878997803 17683128.450366974 0 17683128.450366974 17370232.135765076 0 0 0 0 17419261.240504246 -1327713.1734380368 0 -1327713.1734380368 -3710825.7617166732 0 0 0 0 42612947.904335022 203457.46610975266 0 203457.46610975266 8642499.3542118073 0 0 0 0 4232651.306715332 3373152.5931657599 0 3373152.5931657599 2974653.7193860086 0 0 0 0 13783418.264400482 -1502561.7817893028 0 -1502561.7817893028 -2647068.7937040329 0 0 0 0 -4497866.0201644897 32642230.362677574 0 32642230.362677574 18225196.564840317 0 0 0 0 5924211.2019433975 1242545.9510119557 0 1242545.9510119557 816120.21839618683 0 0 0 0 7329257.8218841553 5940875.5701127052 0 5940875.5701127052 4862472.631608963 0 0 0 0 3219328.0655180737 356870.81915264204 0 356870.81915264204 -1501993.6087555829 0 0 0 0 3645876.3141479492 -1702830.8558683395 0 -1702830.8558683395 5173864.387211293 0 0 0 0 6067167.0567569733 2906330.6102962494 0 2906330.6102962494 -6107019.5370435715 0 0 0 0 2279226.204826355 1908090.2382564545 0 1908090.2382564545 736331.70912009478 0 0 0 0 4391541.5439200504 474885.79453569464 0 474885.79453569464 1174728.7500172919 0 0 0 0 3844330.9525470734 2426547.2230587006 0 2426547.2230587006 230361.77219772339 0 0 0 0 13046793.221492767 -4602796.6756960154 0 -4602796.6756960154 4717544.5330610275 0 0 0 0 10054007.478340149 2380565.4810903072 0 2380565.4810903072 -1649655.0898475647 0 0 0 0 -432579.13671875 1253215.235704422 0 1253215.235704422 3843827.6597938538 0 0 0 0 -38407.005393981934 1689383.6105279922 0 1689383.6105279922 -919020.85465662181 0 0 0 0 890750.13885731995 2711131.7549227062 0 2711131.7549227062 2490859.0752248517 0 0 0 0 121245428.32055283 169372974.9559232 0 169372974.9559232 -121780371.5823071 0 0 0 0 107294.39369673096 1806837.4184200317 0 1806837.4184200317 4732713.1035989057 0 0 0 0 -132251207.61537933 175600678.08248448 0 175600678.08248448 -24349273.432035446 0 0 0 0 72366933.401382446 -22221562.838418782 0 -22221562.838418782 -53469146.719575882 0 0 0 0 4212725.1229366064 770941.35885462724 0 770941.35885462724 -33726.286424127407 0 0 0 0 3075704.1392479837 2357405.8476528544 0 2357405.8476528544 2429188.7780750906 0 0 0 0 2900553.5361709595 1318756.8851730824 0 1318756.8851730824 3477353.5525898933 0 0 0 0 2943237.5355174951 1708985.4866681697 0 1708985.4866681697 2259356.5558677875 0 0 0 0 1619744.6387481689 1230379.8166313171 0 1230379.8166313171 905077.71355962753 0 0 0 0 2733019.8254394531 1430218.5751943588 0 1430218.5751943588 805021.55045747757 0 0 0 0 73401897.970360756 -22881164.118273973 0 -22881164.118273973 -12681897.595428467 0 0 0 0 95940617.447078705 -64729710.280618191 0 -64729710.280618191 -181584754.33707571 0 0 0 0 67856481.635753632 -112409630.4938519 0 -112409630.4938519 119668561.69416332 0 0 0 0 15356391.721984863 -35199073.364638329 0 -35199073.364638329 6756870.1486196518 0 0 0 0 -436211.99323272705 -65284810.847013235 0 -65284810.847013235 -24491.816039860249 0 0 0 0 5529860.6423072815 -54985203.948344469 0 -54985203.948344469 -72582181.713229656 0 0 0 0 -21431883.188087463 -37064976.239228487 0 -37064976.239228487 -15412991.566845894 0 0 0 0 -6420937.2436599731 -51354560.341481447 0 -51354560.341481447 -19335833.768878341 0 0 0 0 -5536945.6638374329 -61055951.923976898 0 -61055951.923976898 18065180.093025208 0 0 0 0 10660359.764844902 -10191460.154394604 0 -10191460.154394604 605141.97510346491 0 0 0 0 -36622873.382843018 -47427502.792576313 0 -47427502.792576313 1401127.8070588708 0 0 0 0 -34323478.323863029 -23076219.914773405 0 -23076219.914773405 -1444944.1908636093 0 0 0 0 -1466522.1481933594 -14624490.72431016 0 -14624490.72431016 -3772459.8287200928 0 0 0 0 13117632.32395076 -8816481.2981050536 0 -8816481.2981050536 -2145441.9574913485 0 0 0 0 2914388.6349754333 -9885449.5421700478 0 -9885449.5421700478 -3299196.6726097763 0 0 0 0 -1187867.8204517365 -14621160.801951647 0 -14621160.801951647 -4503635.81295681 0 0 0 0 1200562.6057500839 -11756583.198800564 0 -11756583.198800564 3012086.9836435318 0 0 0 0 7251882.9818759523 -10603335.804018945 0 -10603335.804018945 -1741751.2426458714 0 0 0 0 18436314.363765717 -1775934.1898550987 0 -1775934.1898550987 -9636417.3451402187 0 0 0 0 -15371993.413059235 -36305736.26280725 0 -36305736.26280725 4865300.6056804657 0 0 0 0 19998059.198129091 -8659820.4544347301 0 -8659820.4544347301 -3794475.4115141714 0 0 0 0 756609.5672775507 -10338747.920006854 0 -10338747.920006854 -1627748.047379287 0 0 0 0 79727.671378619969 -1872724.2019542055 0 -1872724.2019542055 -343361.4502015824 0 0 0 0 1390392.6446075439 -17064617.90077287 0 -17064617.90077287 -4837974.3036923409 0 0 0 0 11683956.404800415 -51468497.164253056 0 -51468497.164253056 -12917432.300374657 0 0 0 0 96419316.635818481 -49174057.419443935 0 -49174057.419443935 -20776516.997212321 0 0 0 0 55888409.868095398 -43700999.329698429 0 -43700999.329698429 -14943056.088283718 0 0 0 0 42221689.550502777 -57173785.342232406 0 -57173785.342232406 -15697543.993440151 0 0 0 0 36386063.747406006 -59923027.008865595 0 -59923027.008865595 47560111.378386974 0 0 0 0 54877419.603668213 -33517166.330089569 0 -33517166.330089569 -26430632.040534854 0 0 0 0 18762137.645202637 -47756943.349271774 0 -47756943.349271774 -31065798.573311806 0 0 0 0 60556391.137542725 -44681485.544117928 0 -44681485.544117928 -50797401.65587759 0 0 0 0 64924821.614788055 -25515903.12462455 0 -25515903.12462455 -41716351.077865601 0 0 0 0 118678871.6696167 37073862.026135445 0 37073862.026135445 -9275181.1451282501 0 0 0 0 5527985.8562865313 1140382.3257325813 0 1140382.3257325813 226364.28208801337 0 0 0 0 67752880.975897789 -34305245.557562731 0 -34305245.557562731 -36060957.157993793 0 0 0 0 67727288.650009155 -33907023.304394722 0 -33907023.304394722 -42005291.027046442 0 0 0 0 72068724.54740715 -39705975.337217659 0 -39705975.337217659 -35356258.960343838 0 0 0 0 41503284.630775452 -25059939.05842638 0 -25059939.05842638 -23435516.930205941 0 0 0 0 63333748.820861816 -35499427.503590584 0 -35499427.503590584 -31814059.078919888 0 0 0 0 65605860.523078918 -33204246.985845953 0 -33204246.985845953 -36353605.013602734 0 0 0 0 83784030.980979919 -48029936.616817936 0 -48029936.616817936 -29149367.409664869 0 0 0 0 12385394.536273956 4193863.7373659611 0 4193863.7373659611 -10686538.148217201 0 0 0 0 23515402.912909321 -7417121.8458674625 0 -7417121.8458674625 -5136791.5467917174 0 0 0 0 13671782.350155674 -8671950.1854089089 0 -8671950.1854089089 -1580758.7828647587 0 0 0 0 31549286.415606126 -5465957.2184364498 0 -5465957.2184364498 -7222026.2974101901 0 0 0 0 9192046.2815628052 -17298167.32419014 0 -17298167.32419014 -13395179.422099113 0 0 0 0 71140788.025718689 -156431664.39178753 0 -156431664.39178753 -56875170.401515841 0 0 0 0 324317158.25671768 152017772.47703719 0 152017772.47703719 43446036.327826023 0 0 0 0 -114749557.49344063 -7907195.2249877453 0 -7907195.2249877453 -80052145.869336009 0 0 0 0 141241960.04798698 170799918.2976222 0 170799918.2976222 -40829544.205181122 0 0 0 0 -98776603.091430664 39320342.197081089 0 39320342.197081089 102903952.65997171 0 0 0 0 9840944.1066589355 -22617443.434283018 0 -22617443.434283018 -12241031.816857368 0 0 0 0 159536312.11074448 -59792928.278723717 0 -59792928.278723717 -90140867.01247406 0 0 0 0 17462895.6041722 -4880209.3019818263 0 -4880209.3019818263 -3999841.1614234755 0 0 0 0 560872.47912377678 1377437.2544778874 0 1377437.2544778874 -1507.2412269396009 0 0 0 0 7254475.5455932617 70569909.824197292 0 70569909.824197292 9938299.2886636704 0 0 0 0 15825366.328104019 19423440.259361744 0 19423440.259361744 63236197.02646637 0 0 0 0 48500875.470596313 5200297.2178497314 0 5200297.2178497314 -6999696.6544418335 0 0 0 0 2285809.7754530273 3666812.3960987516 0 3666812.3960987516 -98334.398747296538 0 0 0 0 -27366944.382233739 -10330557.672550708 0 -10330557.672550708 -69832360.522007942 0 0 0 0 -39736480.967657089 -156791998.19544196 0 -156791998.19544196 -147243984.51841927 0 0 0 0 6006674.6732804626 1045213.0029616943 0 1045213.0029616943 -2238073.719067527 0 0 0 0 190485612.89994574 48085044.906772375 0 48085044.906772375 9605299.9604358673 0 0 0 0 270773230.49995232 52074320.057155728 0 52074320.057155728 35144725.482889354 0 0 0 0 54040080.785033226 74630379.723108649 0 74630379.723108649 75658382.138549805 0 0 0 0 113215782.55586052 -87851948.239224315 0 -87851948.239224315 -78075138.669403553 0 0 0 0 132511548.18661284 91848519.627254099 0 91848519.627254099 235888196.71689814 0 0 0 0 433215076.84374237 268068876.22015059 0 268068876.22015059 172231477.6054365 0 0 0 0 184171302.64904213 101097379.94217229 0 101097379.94217229 134887026.84888858 0 0 0 0 174386981.45892644 -22916541.364060715 0 -22916541.364060715 22314403.440731287 0 0 0 0 134677722.70397854 -133176880.24362898 0 -133176880.24362898 -134865580.90043259 0 0 0 0 -7881400.8390903473 -20924310.892396212 0 -20924310.892396212 59643668.237065792 0 0 0 0 -109479196.29782706 -265355742.68510652 0 -265355742.68510652 -93886978.587451935 0 0 0 0 2282568.568906703 255314.38149659755 0 255314.38149659755 -1076181.9080398143 0 0 0 0 67398489.373291016 -16005100.57886219 0 -16005100.57886219 -94850055.544128299 0 0 0 0 190156421.64175415 -129279199.35858822 0 -129279199.35858822 -23351511.121563911 0 0 0 0 -146152611.04173851 -17445924.131658316 0 -17445924.131658316 20432350.017317772 0 0 0 0 -11233141.553833008 -2847950.4152140617 0 -2847950.4152140617 -14804252.23916626 0 0 0 0 16466123.363863945 -60016132.85977602 0 -60016132.85977602 65441975.459771633 0 0 0 0 75041494.446861267 -19075617.193332911 0 -19075617.193332911 448981.44958275557 0 0 0 0 136868351.25999928 -90444166.799598455 0 -90444166.799598455 56586038.894168377 0 0 0 0 39658514.164758682 -29975730.358013809 0 -29975730.358013809 135573722.27659875 0 0 0 0 1034894.9092879966 -105014.67559451656 0 -105014.67559451656 -489532.37034626922 0 0 0 0 70067490.026941299 78073843.812222153 0 78073843.812222153 62850582.709962577 0 0 0 0 -31531602.046295166 28938014.25499177 0 28938014.25499177 35796232.632431924 0 0 0 0 62324798.033056259 19938040.681390047 0 19938040.681390047 -5454227.3271579742 0 0 0 0 -15869791.430488586 -24478867.217751324 0 -24478867.217751324 18873984.122184753 0 0 0 0 15845471.076730728 21776381.220315099 0 21776381.220315099 26462458.003285885 0 0 0 0 -46450654.778171539 -5298819.0613567829 0 -5298819.0613567829 22761766.508825183 0 0 0 0 -114709580.06714535 -53874442.473295689 0 -53874442.473295689 3904806.884042263 0 0 0 0 -57111243.70283699 30084858.490814388 0 30084858.490814388 18545384.467455149 0 0 0 0 -24272296.794489145 -1909322.1432312429 0 -1909322.1432312429 -44947467.438047647 0 0 0 0 -79964914.404026985 -55077560.420543253 0 -55077560.420543253 -18529912.215485334 0 0 0 0 946535.96644793823 -1171538.2369802338 0 -1171538.2369802338 -565009.28448017337 0 0 0 0 11058145.412557602 1450008.3082762957 0 1450008.3082762957 -988090.32315635681 0 0 0 0 20047770.010306761 -3975838.3064055862 0 -3975838.3064055862 545934.94327690336 0 0 0 0 15916045.594415981 1552165.6296392707 0 1552165.6296392707 -1920183.1477477849 0 0 0 0 15481464.508617973 3632356.2660154458 0 3632356.2660154458 -1408010.7461328495 0 0 0 0 -119552073.4259243 -34457975.93055892 0 -34457975.93055892 23811328.487059593 0 0 0 0 -159164098.45683479 -3375489.9799717665 0 -3375489.9799717665 -482830.07908916473 0 0 0 0 5911067.91832304 -3811393.0879180729 0 -3811393.0879180729 -5283951.3691920042 0 0 0 0 -97813156.690814972 -48563049.851489782 0 -48563049.851489782 40305602.128810406 0 0 0 0 -101636061.18941593 -30369994.035048366 0 -30369994.035048366 -24442753.589919567 0 0 0 0 7882085.2275848389 -525710.07944583893 0 -525710.07944583893 -2191272.1715431213 0 0 0 0 -166927847.73562431 -102189443.57933259 0 -102189443.57933259 -3670333.787607193 0 0 0 0 21184036.61498218 -4602207.1169492323 0 -4602207.1169492323 -1072029.228881313 0 0 0 0 25576652.647229098 -6227200.4804083901 0 -6227200.4804083901 -6691567.5442130836 0 0 0 0 43793730.670196533 -26237302.687161922 0 -26237302.687161922 -18152327.444517136 0 0 0 0 22515100.678512067 1677808.9933581632 0 1677808.9933581632 -1359551.9096188205 0 0 0 0 69294956.464208603 334032972.70447302 0 334032972.70447302 385680027.98447943 0 0 0 0 12545399.977701187 321415175.10483646 0 321415175.10483646 495715329.28003216 0 0 0 0 268503335.55462646 838623347.38765132 0 838623347.38765132 1253088307.8937361 0 0 0 0 1403424038.1713104 274341519.41236329 0 274341519.41236329 408877062.65180278 0 0 0 0 -122975117.95020676 -48385703.70780611 0 -48385703.70780611 565202885.98070574 0 0 0 0 -100633.28904537391 314399.43107884005 0 314399.43107884005 3101097.0727291009 0 0 0 0 1549405126.8650951 285043113.4905138 0 285043113.4905138 55780764.192829132 0 0 0 0 -184109.4029035531 541041.07450080849 0 541041.07450080849 156156.84684184322 0 0 0 0 4022638.8053752743 5098352.6916413009 0 5098352.6916413009 -319965.9048885412 0 0 0 0 3742597.7956199646 441324.70363545418 0 441324.70363545418 -2424706.9525198936 0 0 0 0 160822221.96268463 -19154208.800849915 0 -19154208.800849915 -179199242.69039345 0 0 0 0 121416932.99949837 107260434.51555657 0 107260434.51555657 -104647314.47421038 0 0 0 0 7163803.9045088887 4262404.1755242907 0 4262404.1755242907 -1209227.2480061958 0 0 0 0 7258508.7531738281 -3866699.3165683746 0 -3866699.3165683746 -11286805.780419827 0 0 0 0 9455993.6954858974 3663824.2607290079 0 3663824.2607290079 -1981425.0246886192 0 0 0 0 42984205.026371002 6517420.5395059586 0 6517420.5395059586 -6505670.9642562866 0 0 0 0 94851686.934322357 -52359331.20691061 0 -52359331.20691061 -209836282.08634973 0 0 0 0 12024596.881790161 10645256.85170126 0 10645256.85170126 -6440933.3014297485 0 0 0 0 7317578.0815887451 11470979.748959541 0 11470979.748959541 -6150240.5961065292 0 0 0 0 1170927.8649033643 76253.660306228325 0 76253.660306228325 -658213.74084890727 0 0 0 0 -2682903.7037734985 1573921.2784900665 0 1573921.2784900665 -2997337.5956635475 0 0 0 0 -3113300.8725585938 -50988444.552341938 0 -50988444.552341938 -11066363.828442097 0 0 0 0 129773524.09985924 133254994.6034348 0 133254994.6034348 57292966.487738252 0 0 0 0 115480083.35154152 -38841796.180071831 0 -38841796.180071831 -79634089.105463743 0 0 0 0 -3996310.9058798552 92515304.005374551 0 92515304.005374551 114408306.48703146 0 0 0 0 302655513.08960533 413835747.91449809 0 413835747.91449809 280934756.66440642 0 0 0 0 223552735.68335533 256818440.11289617 0 256818440.11289617 231957070.60075378 0 0 0 0 216897770.35361695 83776810.66299358 0 83776810.66299358 82464007.89134407 0 0 0 0 510113309.43737793 99020056.08259207 0 99020056.08259207 312310924.73653591 0 0 0 0 724875698.48508024 622948475.82891059 0 622948475.82891059 225213471.1130718 0 0 0 0 196331575.3768177 716708956.99542534 0 716708956.99542534 482962438.62938154 0 0 0 0 265849688.89562798 665368767.74293494 0 665368767.74293494 511418499.88967896 0 0 0 0 199733226.86449623 505134427.14656299 0 505134427.14656299 199947148.56734258 0 0 0 0 553876375.5632267 572948710.7347163 0 572948710.7347163 215973709.97343034 0 0 0 0 384614353.0368042 498154769.30421138 0 498154769.30421138 364624049.75877166 0 0 0 0 350504338.69620228 130566914.20014262 0 130566914.20014262 -386703252.50052905 0 0 0 0 -103192418.35001373 257549427.9531554 0 257549427.9531554 191512941.18906975 0 0 0 0 5259603.4768381789 2012027.8926468287 0 2012027.8926468287 730929.26362106868 0 0 0 0 -57654872.906518936 -12756035.546465278 0 -12756035.546465278 17611123.335614681 0 0 0 0 52212607.478767395 324130815.53358102 0 324130815.53358102 -468302753.50884271 0 0 0 0 -18332807.069404602 -63345982.898249865 0 -63345982.898249865 -76249135.792923212 0 0 0 0 11660399.324935965 -14235.185987356876 0 -14235.185987356876 -1096652.6788352081 0 0 0 0 9909819.3686122894 100867385.7123419 0 100867385.7123419 -353998006.91289037 0 0 0 0 311706651.54737663 96728647.558331251 0 96728647.558331251 -89493138.008510113 0 0 0 0 -69096266.992373466 -85842691.073813498 0 -85842691.073813498 82053680.497643709 0 0 0 0 -37188610.782300949 28128154.284353197 0 28128154.284353197 95546683.62001133 0 0 0 0 381503419.31012917 -77748350.302754045 0 -77748350.302754045 23112853.129968762 0 0 0 0 1707110.8894989491 1617322.7074486329 0 1617322.7074486329 785473.14874609094 0 0 0 0 866198774.05662346 448713334.81990272 0 448713334.81990272 111523227.34583974 0 0 0 0 462731238.32652092 565119064.77370858 0 565119064.77370858 567791583.54662502 0 0 0 0 358571131.08801079 363275765.37192273 0 363275765.37192273 176715147.61085355 0 0 0 0 692685850.1178236 528448201.1751762 0 528448201.1751762 238320663.12476718 0 0 0 0 384301586.59298611 543506043.47872353 0 543506043.47872353 443079075.35500598 0 0 0 0 199397830.64591789 115429059.35002398 0 115429059.35002398 59798538.445738524 0 0 0 0 8685448.4006524999 7225.2086898835842 0 7225.2086898835842 -803532.22560869646 0 0 0 0 182710987.10332775 -46161695.166218638 0 -46161695.166218638 -585255466.3483994 0 0 0 0 3473092.8022736106 160315.92006106908 0 160315.92006106908 -295712.82057142782 0 0 0 0 -15020304.89585042 -321862737.21924508 0 -321862737.21924508 -249801381.6255064 0 0 0 0 692068782.1135273 790156516.10632968 0 790156516.10632968 631890382.20015311 0 0 0 0 387193507.11913204 -299294780.26807588 0 -299294780.26807588 -294422198.23285365 0 0 0 0 182819319.61905575 -105879845.34962261 0 -105879845.34962261 -333174452.70154661 0 0 0 0 46941624.368412018 30872098.404140353 0 30872098.404140353 -243959568.43031645 0 0 0 0 -11306257.375274181 -53733153.611246169 0 -53733153.611246169 -337363661.62493539 0 0 0 0 71677367.380476713 32865852.238831282 0 32865852.238831282 -442472463.17264962 0 0 0 0 36030629.797659397 -61115074.794702828 0 -61115074.794702828 -343675173.4599092 0 0 0 0 1711587.2678254517 513619.71224606596 0 513619.71224606596 -347483.45690863742 0 0 0 0 4688460.7694022357 -7079195.8197533796 0 -7079195.8197533796 -21180816.644802809 0 0 0 0 -53583929.234481335 -12170876.483711779 0 -12170876.483711779 32054837.148599386 0 0 0 0 5600150.6615417302 41807179.194429114 0 41807179.194429114 37134968.178816974 0 0 0 0 13557688.539047955 326415.49024713878 0 326415.49024713878 1325277.0002254704 0 0 0 0 -19462080.925411224 -1247073.67969051 0 -1247073.67969051 28458400.873624563 0 0 0 0 -18866779.957450867 -72981956.073953152 0 -72981956.073953152 -31939323.065372944 0 0 0 0 -28858362.440697193 38932279.629807949 0 38932279.629807949 268638001.36145854 0 0 0 0 759175546.47210884 -4431666.160172224 0 -4431666.160172224 207602573.09497106 0 0 0 0 237430464.67506027 35874171.337336659 0 35874171.337336659 273925768.08712554 0 0 0 0 53814029.021294594 -167791317.34042245 0 -167791317.34042245 -9954705.8584491014 0 0 0 0 196222144.62018299 145277487.02296987 0 145277487.02296987 -8295088.7302720547 0 0 0 0 558488701.05448723 252975697.32064056 0 252975697.32064056 82092036.391950369 0 0 0 0 258540370.0323658 75437441.472557664 0 75437441.472557664 51867238.689937949 0 0 0 0 1111557961.2083178 468081680.56103182 0 468081680.56103182 197050879.58682692 0 0 0 0 498418402.33122444 269806293.58956355 0 269806293.58956355 153049517.8093431 0 0 0 0 549381505.57983899 494075988.76474673 0 494075988.76474673 257047510.60882092 0 0 0 0 787829760.73831439 31629702.174868047 0 31629702.174868047 -177262917.93213844 0 0 0 0 298078619.68169498 235677785.06040108 0 235677785.06040108 -4279070.5912313461 0 0 0 0 281520362.3530426 392713136.47566724 0 392713136.47566724 71445126.038690448 0 0 0 0 244293878.10366821 164421842.55975699 0 164421842.55975699 540732534.93834543 0 0 0 0 270690563.40525746 181214312.61081219 0 181214312.61081219 85966424.302704811 0 0 0 0 139048723.12027454 223276631.46474719 0 223276631.46474719 214876243.77892518 0 0 0 0 126821092.95122027 155504063.378223 0 155504063.378223 43452848.426739216 0 0 0 0 337379609.57015038 235683366.72219872 0 235683366.72219872 -25730155.990771174 0 0 0 0 122971072.17043686 168105687.16819882 0 168105687.16819882 63486879.774893045 0 0 0 0 151023886.81252944 70684625.492770225 0 70684625.492770225 838419.56409859657 0 0 0 0 67198917.825810909 53545536.286642671 0 53545536.286642671 21821614.011075974 0 0 0 0 -44662820.950014472 -17062371.846637398 0 -17062371.846637398 44358135.674718142 0 0 0 0 1309077.8761920929 137226860.88477921 0 137226860.88477921 189808794.29159951 0 0 0 0 1324688.8718104432 2332016.9283549534 0 2332016.9283549534 895866.41542858072 0 0 0 0 2449838.3843221162 867281.62000495335 0 867281.62000495335 -1149037.3400516808 0 0 0 0 4110863.2468119292 5515863.0666451473 0 5515863.0666451473 9065392.6280634068 0 0 0 0 18391194.880709171 17624741.048849106 0 17624741.048849106 52732871.215564728 0 0 0 0 19240646.179943085 -1218223.1927137375 0 -1218223.1927137375 -1223691.4706611633 0 0 0 0 379709417.44389349 -9396840.362906307 0 -9396840.362906307 82922014.383133411 0 0 0 0 44660861.511656284 -65361707.135007381 0 -65361707.135007381 -210684443.84322929 0 0 0 0 1016407.1374707004 -1883357.8075010208 0 -1883357.8075010208 -2791992.5315267346 0 0 0 0 1066735290.4321384 -67745571.293896437 0 -67745571.293896437 -165949089.51560259 0 0 0 0 977522499.56493092 65770978.943648458 0 65770978.943648458 -201839836.16211414 0 0 0 0 421772571.16928291 -519932047.03066087 0 -519932047.03066087 737378164.02445364 0 0 0 0 508687136.33804226 -43212829.328828678 0 -43212829.328828678 -95421096.634068489 0 0 0 0 2791744.9596725642 -187891.60105950758 0 -187891.60105950758 -5805043.1489297524 0 0 0 0 315285931.31187105 -11198876.930072159 0 -11198876.930072159 -95972083.622748852 0 0 0 0 295959680.17942071 176933947.01634338 0 176933947.01634338 -107773747.99166155 0 0 0 0 485287618.29896939 158544322.78872281 0 158544322.78872281 -115910451.69326735 0 0 0 0 596520598.14067078 142862229.45905209 0 142862229.45905209 -152652107.42061758 0 0 0 0 463780882.09034538 399662514.66212201 0 399662514.66212201 -162724397.49078035 0 0 0 0 308265828.54825163 306662466.83942521 0 306662466.83942521 -82574767.283890247 0 0 0 0 291801213.20853353 326831986.63185531 0 326831986.63185531 -85455288.970194101 0 0 0 0 2827507.7818272165 59350.86903375946 0 59350.86903375946 -359099.0282268427 0 0 0 0 933752823.66926289 -299482179.73533833 0 -299482179.73533833 -499822322.63763976 0 0 0 0 411385900.04263592 430880347.85005951 0 430880347.85005951 -218979377.22051096 0 0 0 0 779047597.10607147 306201369.79218245 0 306201369.79218245 -200651087.77704239 0 0 0 0 61474217.330361366 414735184.56177783 0 414735184.56177783 -50705321.805103779 0 0 0 0 -25941311.830008507 -11039863.04155305 0 -11039863.04155305 -272504226.95142889 0 0 0 0 271297700.9781574 -161580596.79303914 0 -161580596.79303914 -243534294.53531456 0 0 0 0 416190223.08535671 282140287.31370544 0 282140287.31370544 -107711309.68222785 0 0 0 0 248463936.05450964 -7834654.9875302613 0 -7834654.9875302613 -580053125.59444451 0 0 0 0 4995556.6946887737 441430.45048552536 0 441430.45048552536 -574469.1839300748 0 0 0 0 204401088.18590701 342996758.48834234 0 342996758.48834234 -567297821.98801017 0 0 0 0 58263021.261903763 51684885.693664193 0 51684885.693664193 -176281445.78455448 0 0 0 0 -29783733.347604752 288935809.1812762 0 288935809.1812762 260232805.84582046 0 0 0 0 234148812.71136475 75718500.437233329 0 75718500.437233329 302430341.80059069 0 0 0 0 407750036.43983722 -100412609.21772803 0 -100412609.21772803 93045085.967316449 0 0 0 0 632711648.96385074 -96080005.78877604 0 -96080005.78877604 410507498.01307762 0 0 0 0 743198756.81499028 118951351.385039 0 118951351.385039 231654284.17853928 0 0 0 0 -216087834.16143608 142708691.62231159 0 142708691.62231159 26849694.633524776 0 0 0 0 538286784.02679873 -425663802.39951968 0 -425663802.39951968 -319011972.36078399 0 0 0 0 916945253.97761965 -159489286.98599979 0 -159489286.98599979 66388428.257299334 0 0 0 0 984417886.05129576 -149866624.55565444 0 -149866624.55565444 -148540583.77851415 0 0 0 0 915360079.26224518 -465452946.28213084 0 -465452946.28213084 140423878.42804062 0 0 0 0 956497.5879095213 1018421.5107104888 0 1018421.5107104888 2650773.9323996366 0 0 0 0 1614685462.7710261 -314574234.29396832 0 -314574234.29396832 174664746.4111923 0 0 0 0 938783948.08771896 -349732585.2062726 0 -349732585.2062726 -85000305.349568948 0 0 0 0 859336401.7688427 -489778616.5069046 0 -489778616.5069046 331046756.90491831 0 0 0 0 882537743.46769238 -303969851.48335594 0 -303969851.48335594 312968348.11196226 0 0 0 0 148465860.18144584 -196269732.20863587 0 -196269732.20863587 283998081.05683994 0 0 0 0 141630898.51767552 -349005666.39516783 0 -349005666.39516783 -217869998.11631042 0 0 0 0 327302.97543598467 -650539.09449986252 0 -650539.09449986252 956883.76878536306 0 0 0 0 104399707.72578537 -186839551.02075851 0 -186839551.02075851 444274752.3918972 0 0 0 0 55394947.805328369 -90799283.555704117 0 -90799283.555704117 170811192.76749325 0 0 0 0 77734697.111143589 -167358806.31962156 0 -167358806.31962156 300685551.78412056 0 0 0 0 106830535.68771839 -136604730.33267117 0 -136604730.33267117 229640156.51708984 0 0 0 0 141460199.96706772 -179944659.71085358 0 -179944659.71085358 178311357.72770691 0 0 0 0 143302141.45164394 -125941893.48918915 0 -125941893.48918915 38514433.831094742 0 0 0 0 178748440.29514885 -166657243.32955456 0 -166657243.32955456 16682684.858837128 0 0 0 0 155861834.10844898 -194912322.26490164 0 -194912322.26490164 80269988.555450439 0 0 0 0 2888549.1352922441 -1574606.7829570957 0 -1574606.7829570957 -2330403.3001844781 0 0 0 0 -88924655.623529434 126412973.47335386 0 126412973.47335386 118971934.87744522 0 0 0 0 8194725.9786804914 7341739.0500856638 0 7341739.0500856638 -7128437.2453093529 0 0 0 0 926180245.06723356 -204973387.51905695 0 -204973387.51905695 -299918257.0988782 0 0 0 0 2872955.5385320224 3689398.2607427603 0 3689398.2607427603 6739576.2227702942 0 0 0 0 214576079.68781662 275170177.04305553 0 275170177.04305553 -14057344.849227428 0 0 0 0 565484691.67663622 80120027.158131272 0 80120027.158131272 -136267068.20986235 0 0 0 0 172880911.41398668 143144484.31542018 0 143144484.31542018 281926917.62730658 0 0 0 0 151429042.18095541 52596676.590766042 0 52596676.590766042 -16852192.530476689 0 0 0 0 34409063.275160789 79189159.183310807 0 79189159.183310807 -16837413.705745935 0 0 0 0 241387312.05214882 22700656.001022458 0 22700656.001022458 -244986716.74041092 0 0 0 0 156974346.23466015 -68457502.137182117 0 -68457502.137182117 -173995477.96525931 0 0 0 0 217223164.78180695 -44503249.550799549 0 -44503249.550799549 -273467547.87270248 0 0 0 0 155503712.19985008 -259152064.53320533 0 -259152064.53320533 -161277549.16168356 0 0 0 0 132175548.48801517 -247480014.42246994 0 -247480014.42246994 -137178874.86916876 0 0 0 0 59529023.830803394 -51733922.199317515 0 -51733922.199317515 -299974090.34242576 0 0 0 0 372348280.12338495 -318537422.50582665 0 -318537422.50582665 -186727154.28200808 0 0 0 0 2194912.425306133 251127.91775394126 0 251127.91775394126 -207825.21830701386 0 0 0 0 167079539.94719815 374684091.95760322 0 374684091.95760322 143012808.54608303 0 0 0 0 -63650433.241272211 187440671.38508424 0 187440671.38508424 218409471.45743978 0 0 0 0 22756977.861503839 228168018.75267714 0 228168018.75267714 234494532.62367994 0 0 0 0 479443136.30257797 65995457.321760327 0 65995457.321760327 87197144.648127645 0 0 0 0 255942433.88730001 -129760264.01387066 0 -129760264.01387066 226874233.02499551 0 0 0 0 174647284.11561537 -12027115.818411559 0 -12027115.818411559 66783831.61819315 0 0 0 0 92644430.98605442 96987324.141946971 0 96987324.141946971 -21496649.520410314 0 0 0 0 273183012.97776318 -12645000.662475109 0 -12645000.662475109 -8501494.0501006991 0 0 0 0 75475297.198759079 109464969.03361803 0 109464969.03361803 42296990.808868885 0 0 0 0 173509451.60043383 -5457618.7833643854 0 -5457618.7833643854 91972300.73150444 0 0 0 0 62311922.442945004 98617330.063380778 0 98617330.063380778 -8999317.1073089838 0 0 0 0 56002377.171905041 127976576.42011219 0 127976576.42011219 91099327.641086221 0 0 0 0 34046203.919141293 150326634.30046165 0 150326634.30046165 29813059.011896491 0 0 0 0 33033793.439045906 140290354.88737157 0 140290354.88737157 -161978677.99097204 0 0 0 0 -13483575.587635994 116036228.50144672 0 116036228.50144672 -10973773.036572859 0 0 0 0 60914885.712990999 111360345.96565954 0 111360345.96565954 -168199730.56830156 0 0 0 0 194230338.95662689 229093904.92297775 0 229093904.92297775 -750356.03428447247 0 0 0 0 62498177.884995461 115531820.53279644 0 115531820.53279644 38418738.182089388 0 0 0 0 105269091.2116909 108608675.6283908 0 108608675.6283908 56874509.110936463 0 0 0 0 64813197.812477112 125488498.63319574 0 125488498.63319574 -114870641.57268047 0 0 0 0 15633850.506365776 124243965.23181111 0 124243965.23181111 -8413476.7389830053 0 0 0 0 67068504.706627846 155604253.38519013 0 155604253.38519013 -8639064.2232282683 0 0 0 0 67340828.859992504 151440495.41821867 0 151440495.41821867 21022773.778000295 0 0 0 0 148699092.02365971 159266631.07157177 0 159266631.07157177 -5208142.7839996815 0 0 0 0 181398840.48907518 67960420.089110732 0 67960420.089110732 -66019590.965275288 0 0 0 0 104910940.48157382 159107488.19847703 0 159107488.19847703 12172137.879117966 0 0 0 0 73581695.82202816 122854948.06008661 0 122854948.06008661 -27814077.56837815 0 0 0 0 -21545190.649490356 133250782.4986468 0 133250782.4986468 -19323253.588562369 0 0 0 0 29095037.085696697 -11316188.11145854 0 -11316188.11145854 -108521908.03986669 0 0 0 0 482627541.90075016 -200376858.9728744 0 -200376858.9728744 -124590152.53353828 0 0 0 0 493348788.215451 -187837391.02864617 0 -187837391.02864617 -237970947.14208436 0 0 0 0 369614838.9776268 -136576233.70551121 0 -136576233.70551121 -160039992.09798074 0 0 0 0 596834895.14859343 -136490031.85681736 0 -136490031.85681736 -339311640.99992383 0 0 0 0 556973678.43229866 -27508510.439465418 0 -27508510.439465418 -222632499.99928021 0 0 0 0 192056772.25691128 79503111.07875061 0 79503111.07875061 -67587868.105748773 0 0 0 0 199089821.23390007 69567912.140690565 0 69567912.140690565 -70333132.286734581 0 0 0 0 209213273.56880522 80617171.075235873 0 80617171.075235873 -72410793.038685322 0 0 0 0 2086234439.9152377 278297749.07524949 0 278297749.07524949 55811787.874523044 0 0 0 0 686586327.94459629 18477168.662044466 0 18477168.662044466 -90404456.825545788 0 0 0 0 227158959.00677395 -155387590.68538988 0 -155387590.68538988 -142729261.27242309 0 0 0 0 572144598.62653542 -249508174.09359258 0 -249508174.09359258 -195010079.42582375 0 0 0 0 603241450.13747501 -199033747.73139173 0 -199033747.73139173 -249867981.14991602 0 0 0 0 578430620.80402946 -198383851.54830891 0 -198383851.54830891 -348108171.98434412 0 0 0 0 598660154.52739215 -277204731.49531776 0 -277204731.49531776 -410863220.6885314 0 0 0 0 2794007702.6527324 320716714.66448355 0 320716714.66448355 33581704.223626405 0 0 0 0 -157059301.48825407 -589674190.51905954 0 -589674190.51905954 -159294578.25861555 0 0 0 0 2205962324.9326077 -720162593.51139617 0 -720162593.51139617 -160911126.4604646 0 0 0 0 1664676.8398667914 -916562.21367036784 0 -916562.21367036784 -309166.05543908628 0 0 0 0 578122216.96546364 -780743935.33100891 0 -780743935.33100891 -567546412.43303585 0 0 0 0 1665457506.0957432 -487506483.73602092 0 -487506483.73602092 -495154326.21089411 0 0 0 0 1894753201.4417334 -388067675.1714133 0 -388067675.1714133 -501709233.54769599 0 0 0 0 1535804912.3892307 -685366057.17517853 0 -685366057.17517853 -574185064.5027678 0 0 0 0 1642475474.8727264 -240930582.61112073 0 -240930582.61112073 -387166801.04109377 0 0 0 0 886542971.11369133 -219298601.07410365 0 -219298601.07410365 -386895157.16889852 0 0 0 0 827792510.82672167 -264627310.66141671 0 -264627310.66141671 -414772751.70823216 0 0 0 0 793738792.58001804 -35051592.337995291 0 -35051592.337995291 -287390238.09351277 0 0 0 0 1055407818.4285588 -1591096.344406575 0 -1591096.344406575 -237081617.57617772 0 0 0 0 1090889239.9893708 37539554.313139997 0 37539554.313139997 -275753500.82890886 0 0 0 0 1527470166.3763008 -64180452.072089434 0 -64180452.072089434 -278953744.90367305 0 0 0 0 2204338957.1080723 -142033616.57239756 0 -142033616.57239756 -582375047.48797297 0 0 0 0 433450737.46611691 125239953.45521027 0 125239953.45521027 -70337408.927830338 0 0 0 0 320650316.62333775 115044315.45060402 0 115044315.45060402 -46725653.812697947 0 0 0 0 440403989.46842337 130868323.17647275 0 130868323.17647275 -103988208.0184474 0 0 0 0 655409091.52294064 -2300496.4371418953 0 -2300496.4371418953 -234233311.77394331 0 0 0 0 653680370.28949451 -5419785.7498945594 0 -5419785.7498945594 -234051031.23474109 0 0 0 0 609229854.95256042 113642121.500305 0 113642121.500305 -105435340.42612746 0 0 0 0 618006525.94195366 186812485.73793632 0 186812485.73793632 -89225773.559727699 0 0 0 0 702266723.04439926 231827924.43812501 0 231827924.43812501 -99529683.91153276 0 0 0 0 617811470.79514503 211170441.08022186 0 211170441.08022186 -78167086.468827233 0 0 0 0 433177595.81916046 239408774.56658015 0 239408774.56658015 -70971935.109123945 0 0 0 0 267320041.78733206 331302746.05187416 0 331302746.05187416 125047297.60606387 0 0 0 0 401954040.06137419 724712649.2954247 0 724712649.2954247 287402443.18439507 0 0 0 0 2122923.4915945996 789249.59140482266 0 789249.59140482266 231576.57762383137 0 0 0 0 65247478.758694887 -13556043.177425649 0 -13556043.177425649 -44071666.892041147 0 0 0 0 108482082.42419338 123105320.05006848 0 123105320.05006848 -349816293.59869492 0 0 0 0 1742356051.7835579 65654143.725172564 0 65654143.725172564 -260200161.04416174 0 0 0 0 988370727.58084679 355372017.58684242 0 355372017.58684242 -193332385.1053651 0 0 0 0 1756860991.3537817 370097794.86258376 0 370097794.86258376 -209851386.11924434 0 0 0 0 1591158720.3363791 -14063991.56877709 0 -14063991.56877709 -242847140.2573376 0 0 0 0 2204170332.2911634 390303701.9114787 0 390303701.9114787 23890355.243077289 0 0 0 0 1798804005.7155819 556663413.48984396 0 556663413.48984396 -42347099.624712676 0 0 0 0 1829494779.1371994 475395676.03056657 0 475395676.03056657 -117543375.46195245 0 0 0 0 1512599433.7725725 886146559.1776365 0 886146559.1776365 323666933.65824771 0 0 0 0 2994594.0963720381 37003.901389788371 0 37003.901389788371 -189234.1584009731 0 0 0 0 2124904257.3234892 421964313.68283272 0 421964313.68283272 -175662452.39403951 0 0 0 0 2205487952.8290043 626193809.88216257 0 626193809.88216257 320142796.34531599 0 0 0 0 5095714.1865014425 883140.84831793071 0 883140.84831793071 -47793.883512684683 0 0 0 0 -34789627.094192505 8820831.4137734547 0 8820831.4137734547 16305494.533473141 0 0 0 0 -118169537.59241152 68445294.397525653 0 68445294.397525653 -13294700.492477957 0 0 0 0 830185992.9082737 -216327978.83952978 0 -216327978.83952978 -218159.50313721597 0 0 0 0 -172793381.43409967 7210995.852526512 0 7210995.852526512 246189530.92957669 0 0 0 0 267908297.52765465 316411955.18455195 0 316411955.18455195 173810261.11223328 0 0 0 0 110795799.63240433 -271126557.22545069 0 -271126557.22545069 109697917.56310551 0 0 0 0 -35992638.953129768 45050236.390439808 0 45050236.390439808 -58473527.735160857 0 0 0 0 -5474466.75365448 -97976073.281722814 0 -97976073.281722814 -127494197.83440125 0 0 0 0 -11766305.18188858 1712408.9356340468 0 1712408.9356340468 16963628.476278186 0 0 0 0 6189992.6805052701 -509328.32091739075 0 -509328.32091739075 -449211.98249501188 0 0 0 0 20001964.038028717 10725697.442334518 0 10725697.442334518 -29393726.149116665 0 0 0 0 6929758.5841821358 -677893.1229617591 0 -677893.1229617591 -933519.65785001777 0 0 0 0 1800198.2463531494 -126587345.61736405 0 -126587345.61736405 -295840202.19714355 0 0 0 0 -3277291.0475821495 -20129760.579735167 0 -20129760.579735167 -19844750.419259027 0 0 0 0 44827281.058501244 -7926305.9271887839 0 -7926305.9271887839 -280554426.11705589 0 0 0 0 -1387695.7778167725 -3778348.2946635485 0 -3778348.2946635485 -6721963.4520532191 0 0 0 0 7600132.0395396585 -2108144.317114111 0 -2108144.317114111 -1847881.6247205266 0 0 0 0 -1961608.9996185303 -32536991.990496699 0 -32536991.990496699 -250389131.52418339 0 0 0 0 -110067835.48330688 -19469718.889816761 0 -19469718.889816761 -178599572.01687622 0 0 0 0 13818072.011179809 1210039.904122252 0 1210039.904122252 -4050793.7263088003 0 0 0 0 2772905.8874664307 -1979463.4233255386 0 -1979463.4233255386 -18075667.649090767 0 0 0 0 12518114.604747728 6448343.9621936986 0 6448343.9621936986 -4520390.1342840828 0 0 0 0 24594956.935638428 -185857657.53848314 0 -185857657.53848314 -301194800.22042346 0 0 0 0 -107114852.06889534 -106600088.37902498 0 -106600088.37902498 -267930772.46311569 0 0 0 0 -25151584.286407471 -88159148.996541977 0 -88159148.996541977 -289915874.60608196 0 0 0 0 -17956371.600662231 -192325923.35514307 0 -192325923.35514307 -290196433.18547297 0 0 0 0 -94764733.633850098 -71857272.207054853 0 -71857272.207054853 -262478979.9894886 0 0 0 0 13932232.52523144 2369180.3316821139 0 2369180.3316821139 -3171812.1753950636 0 0 0 0 -72641214.607025146 -106472709.47530651 0 -106472709.47530651 -291743351.3710947 0 0 0 0 3793095.6860427856 -118178926.1051333 0 -118178926.1051333 -266083422.28524953 0 0 0 0 29173452.302127838 -137389327.39178443 0 -137389327.39178443 -283467563.4407692 0 0 0 0 -16182540.309944153 -166502045.50444567 0 -166502045.50444567 -246615579.57792068 0 0 0 0 86665737.82963562 -120889684.95196295 0 -120889684.95196295 -268982634.64759302 0 0 0 0 97140651.512588501 73183439.121554375 0 73183439.121554375 -524639647.02296489 0 0 0 0 93219431.018547058 -150753747.82078338 0 -150753747.82078338 -260272154.8454051 0 0 0 0 160881600.07340622 -12502815.024708033 0 -12502815.024708033 -532860317.32376432 0 0 0 0 9476190.3374663219 -2436935.9676425317 0 -2436935.9676425317 -1756104.9922230258 0 0 0 0 44261769.781387329 -44529739.014927864 0 -44529739.014927864 -347603290.19143391 0 0 0 0 150542695.03455734 -71674757.716684461 0 -71674757.716684461 -392306951.89531517 0 0 0 0 55500194.566490173 20603795.722618103 0 20603795.722618103 -412610772.92859232 0 0 0 0 -122637279.70896912 20837612.266692162 0 20837612.266692162 -277890827.4793725 0 0 0 0 620285.86975097656 -36039340.0238204 0 -36039340.0238204 -328068078.59000349 0 0 0 0 -45402289.682662964 22117909.395159721 0 22117909.395159721 -379878846.82771254 0 0 0 0 -101978324.44429016 70894179.020503044 0 70894179.020503044 -343914539.7863183 0 0 0 0 65386081.571453094 -42380279.947857082 0 -42380279.947857082 -354290542.85705948 0 0 0 0 36411812.039859772 -123838645.00143313 0 -123838645.00143313 -413689173.23694754 0 0 0 0 80047030.67275238 -6182276.9558436871 0 -6182276.9558436871 -259324911.01224798 0 0 0 0 11529335.473012686 -24719824.345097825 0 -24719824.345097825 -21082778.715159178 0 0 0 0 -12386666.865479946 98689189.689695954 0 98689189.689695954 49507009.771186173 0 0 0 0 -4111545.9380874634 20394763.765679598 0 20394763.765679598 -7200547.7396389246 0 0 0 0 61258963.233501434 10843054.385073423 0 10843054.385073423 -57077193.535441518 0 0 0 0 14394999.305683687 1423824.4426632593 0 1423824.4426632593 -1953841.4092106679 0 0 0 0 -8765572.0011711121 10480896.857440829 0 10480896.857440829 -4235593.894374311 0 0 0 0 12859269.303126451 -5233178.0716519896 0 -5233178.0716519896 -2243811.1596118379 0 0 0 0 6520070.7841390893 5107302.0581714436 0 5107302.0581714436 -4147237.4763540453 0 0 0 0 6498061.40928936 -54744622.486158833 0 -54744622.486158833 -262642932.95745027 0 0 0 0 24719341.795279503 -39995786.432504311 0 -39995786.432504311 -269855060.82548106 0 0 0 0 27736652.897864342 -45679358.517490149 0 -45679358.517490149 -260049948.78227621 0 0 0 0 -25532401.535920858 -187774222.12979177 0 -187774222.12979177 -607016036.06999791 0 0 0 0 31507559.259874344 145820953.55001962 0 145820953.55001962 -486242880.63447952 0 0 0 0 1534625.7625624118 1441126.3972677304 0 1441126.3972677304 -956917.07282688911 0 0 0 0 31282621.347883701 56273704.398801297 0 56273704.398801297 -378352384.90807414 0 0 0 0 -66730732.631038427 144240724.53564769 0 144240724.53564769 -305931423.32691932 0 0 0 0 -65282276.318763733 61854344.1362921 0 61854344.1362921 -171060332.40082031 0 0 0 0 50587030.78155899 74078714.264691889 0 74078714.264691889 -281272598.40927458 0 0 0 0 1326805.1071166992 67210770.190236405 0 67210770.190236405 -162906097.54272091 0 0 0 0 62833603.061299324 54919909.992734529 0 54919909.992734529 -205795224.92534235 0 0 0 0 40176757.321308136 58113369.151560187 0 58113369.151560187 -110972856.69538973 0 0 0 0 47143108.883695602 97451687.678427279 0 97451687.678427279 -48338193.580819815 0 0 0 0 115959374.29324818 109247215.04412937 0 109247215.04412937 -113900194.98492503 0 0 0 0 28725306.891484737 -15956328.364513375 0 -15956328.364513375 -180312465.55015534 0 0 0 0 54891164.211550713 -31337705.062873885 0 -31337705.062873885 -261527387.97944337 0 0 0 0 33112452.639487267 -8659254.060008496 0 -8659254.060008496 -176002072.59172392 0 0 0 0 47195786.846567154 -16231385.202869505 0 -16231385.202869505 -251966341.61927783 0 0 0 0 84242140.264233112 -66754063.912837215 0 -66754063.912837215 -709192378.55551863 0 0 0 0 -22764738.893474579 14293034.825818896 0 14293034.825818896 -332754177.23429704 0 0 0 0 4074556.2297213674 -2400647.1209418061 0 -2400647.1209418061 1093086.0016000858 0 0 0 0 -522153856.06927586 -306471008.33236629 0 -306471008.33236629 -314589760.09793353 0 0 0 0 -287613117.15882587 -792297667.86504102 0 -792297667.86504102 -662499830.07538652 0 0 0 0 149782452.62761307 -175468379.4709487 0 -175468379.4709487 -409191793.35269642 0 0 0 0 40221209.913841248 -137956250.56650639 0 -137956250.56650639 -294570365.07606316 0 0 0 0 10441307.103923798 -416052979.05101824 0 -416052979.05101824 -348973255.87310028 0 0 0 0 268235214.04795456 -368830447.40631914 0 -368830447.40631914 -568276798.64596939 0 0 0 0 269454279.5587883 -234054700.15536404 0 -234054700.15536404 -260328484.31394911 0 0 0 0 81569541.714624405 -236807393.59668112 0 -236807393.59668112 -144206170.32895184 0 0 0 0 183789359.9045887 -71197077.097748756 0 -71197077.097748756 -39646293.398010254 0 0 0 0 26676237.784712791 -58714063.681456685 0 -58714063.681456685 104546913.00288677 0 0 0 0 137760730.04911327 -210715680.02241659 0 -210715680.02241659 -329864440.04237652 0 0 0 0 25239454.574234009 56593673.491390765 0 56593673.491390765 -16173798.858575225 0 0 0 0 409472956.74468708 97523040.922039509 0 97523040.922039509 -59574588.354428053 0 0 0 0 41391229.888541698 155764993.71713638 0 155764993.71713638 112922326.70408869 0 0 0 0 151465110.83679852 102738652.54828176 0 102738652.54828176 -333280622.17841005 0 0 0 0 162041381.30153155 244745961.60358828 0 244745961.60358828 -90816536.603549004 0 0 0 0 -437910.12792580854 2000950.9695754847 0 2000950.9695754847 692664.74876439618 0 0 0 0 474488406.34642029 -85130309.767751396 0 -85130309.767751396 -430014696.66890717 0 0 0 0 24982057.883254528 -47602078.430491075 0 -47602078.430491075 -270389062.09510303 0 0 0 0 -152357994.70258045 -294696014.45663774 0 -294696014.45663774 -388456503.95090759 0 0 0 0 103989272.03419161 -14223609.330415606 0 -14223609.330415606 -347909609.63583696 0 0 0 0 10563868.41217494 -112234120.71621716 0 -112234120.71621716 -297115534.67255831 0 0 0 0 13489769.526558466 -7726726.9421142992 0 -7726726.9421142992 3494952.803827865 0 0 0 0 2087445.1248950195 -514829.78546083346 0 -514829.78546083346 296621.3048245227 0 0 0 0 7664503.043012619 195833796.12589407 0 195833796.12589407 12704866.117782518 0 0 0 0 598417017.62252426 -292835287.86122942 0 -292835287.86122942 15740233.622076273 0 0 0 0 10601100.440721979 -5962889.9291596115 0 -5962889.9291596115 2249657.6788743576 0 0 0 0 -34716503.442714691 -373553302.44202906 0 -373553302.44202906 -678373840.80010891 0 0 0 0 400836228.19518089 582331569.67965555 0 582331569.67965555 336450095.80656242 0 0 0 0 642581551.82564926 816810945.69211769 0 816810945.69211769 557714205.86991 0 0 0 0 509306838.00618362 508552930.81285834 0 508552930.81285834 382193948.20674706 0 0 0 0 1174809275.4486122 586160517.99158216 0 586160517.99158216 386969819.51744318 0 0 0 0 258722319.56976318 200265739.25091267 0 200265739.25091267 167653216.82237506 0 0 0 0 224403753.76388168 171763408.90444517 0 171763408.90444517 170818714.38837361 0 0 0 0 -79507764.030366421 -31051574.372561589 0 -31051574.372561589 -4295180.3607931137 0 0 0 0 242502747.17178726 118859694.08398247 0 118859694.08398247 123285571.30284381 0 0 0 0 -147548372.41463947 -2457761.4017393589 0 -2457761.4017393589 -2198841.2914295197 0 0 0 0 860838.56780129485 233338.4013495883 0 233338.4013495883 -850947.35820932547 0 0 0 0 -86063894.910327911 30089941.653173447 0 30089941.653173447 8074947.6073141098 0 0 0 0 330656754.860672 146969149.76776457 0 146969149.76776457 88068616.095373154 0 0 0 0 -191554700.92061806 106644750.52837825 0 106644750.52837825 95595647.993164062 0 0 0 0 -216628122.52025604 124780688.00882399 0 124780688.00882399 146460322.7276243 0 0 0 0 286859567.21607119 -52070723.404087424 0 -52070723.404087424 151922362.16496778 0 0 0 0 305141251.73086548 282770375.92390585 0 282770375.92390585 78002654.795338154 0 0 0 0 437019531.86258411 378301249.76269758 0 378301249.76269758 226615555.53887701 0 0 0 0 585718764.8735466 186875646.25269723 0 186875646.25269723 -75653805.735254765 0 0 0 0 749772919.72724533 494631351.00978303 0 494631351.00978303 -200806792.63736153 0 0 0 0 3531020.0055593476 -508307.12414962985 0 -508307.12414962985 -1524832.5148739403 0 0 0 0 944603582.38243866 604375849.33640885 0 604375849.33640885 14649163.544932485 0 0 0 0 18773963.21113117 19945079.617495529 0 19945079.617495529 7575193.4058272298 0 0 0 0 18143721.567941666 13712902.242385387 0 13712902.242385387 16295296.026260376 0 0 0 0 13765288.273130417 24987006.017679095 0 24987006.017679095 -4218006.0224690437 0 0 0 0 37703899.294345856 22802733.585757494 0 22802733.585757494 -14545726.500268936 0 0 0 0 40413517.847946167 85814402.078306675 0 85814402.078306675 25085061.390136719 0 0 0 0 26899577.71830368 29415277.098824263 0 29415277.098824263 6166885.4212627411 0 0 0 0 5129540.5791374203 1101221.8843131382 0 1101221.8843131382 114291.41654898785 0 0 0 0 70560714.639399529 6247455.2258529663 0 6247455.2258529663 3046243.8286876678 0 0 0 0 116612659.7813797 83236296.142228603 0 83236296.142228603 -2607868.335780859 0 0 0 0 113884335.6036644 47808607.353692174 0 47808607.353692174 1359689.3469413519 0 0 0 0 -102867566.4919219 91006498.812539697 0 91006498.812539697 21616152.320322037 0 0 0 0 18330763.55398288 21380007.898558374 0 21380007.898558374 8276526.8604654958 0 0 0 0 -93029599.373012543 59398022.236946821 0 59398022.236946821 31514864.309247971 0 0 0 0 -86615540.897023201 86405730.17765522 0 86405730.17765522 42165351.630134583 0 0 0 0 -96261233.966033936 51403833.377287865 0 51403833.377287865 -19284425.294514656 0 0 0 0 16586142.827237464 4353702.8152935086 0 4353702.8152935086 425028.37031901884 0 0 0 0 558775384.69675446 -206835579.37309384 0 -206835579.37309384 -240123392.24834442 0 0 0 0 50609472.193313599 28737254.403898537 0 28737254.403898537 17565583.78728044 0 0 0 0 58630325.704368591 27716262.826004028 0 27716262.826004028 847860.00661277771 0 0 0 0 17809716.566349879 24049978.63948733 0 24049978.63948733 5263559.6110885479 0 0 0 0 -16927799.590299606 76818302.544561386 0 76818302.544561386 -208748440.5334003 0 0 0 0 102373112.70552635 283595938.73176742 0 283595938.73176742 86023467.233214021 0 0 0 0 17558622.814329218 4268015.4244312728 0 4268015.4244312728 -2509446.3523824252 0 0 0 0 -194263809.06225204 6325423.870262146 0 6325423.870262146 24653119.468831539 0 0 0 0 -138874077.27751732 76607725.656963348 0 76607725.656963348 25701160.783899307 0 0 0 0 -7767045.7391166687 71305948.86048317 0 71305948.86048317 -3709926.5920724869 0 0 0 0 1210158608.1181717 1117187506.3806539 0 1117187506.3806539 320909195.70574498 0 0 0 0 167582415.29061127 -918870000.42561483 0 -918870000.42561483 -1084711578.9418869 0 0 0 0 1950091589.9730682 699717042.48930597 0 699717042.48930597 -201531084.51936817 0 0 0 0 1859379063.2018585 103802674.10299635 0 103802674.10299635 33038859.114474297 0 0 0 0 1012259490.1146889 135383749.27094245 0 135383749.27094245 273528688.35507679 0 0 0 0 1929910472.4496078 -760831839.95063496 0 -760831839.95063496 522082631.04736233 0 0 0 0 2460614616.3219299 -154593118.52649784 0 -154593118.52649784 -93209015.110842705 0 0 0 0 717538443.59530258 231923695.47255516 0 231923695.47255516 43856954.643787384 0 0 0 0 1576572068.610466 755783689.69997549 0 755783689.69997549 3242160.3305506706 0 0 0 0 769743518.00253105 414055726.57472193 0 414055726.57472193 -21904656.521267414 0 0 0 0 -254706344.58851433 -247368883.34964222 0 -247368883.34964222 318532872.29915714 0 0 0 0 297611218.4109726 441286963.97871542 0 441286963.97871542 197141365.78798163 0 0 0 0 -86991521.263694763 -399896860.14476681 0 -399896860.14476681 3451794.9508461952 0 0 0 0 1446912.7189370319 -325734.59045602102 0 -325734.59045602102 -387933.76738368091 0 0 0 0 745844132.73083496 192739782.37897038 0 192739782.37897038 58033321.278512716 0 0 0 0 -99287982.823417664 282238716.77236462 0 282238716.77236462 135646190.72907257 0 0 0 0 74614201.536804199 -99745990.88083744 0 -99745990.88083744 -304134807.32758975 0 0 0 0 165192423.33951187 -35782975.780486584 0 -35782975.780486584 219360270.64054835 0 0 0 0 290152211.68458939 -359164620.22543812 0 -359164620.22543812 165121859.84352589 0 0 0 0 418170673.56195211 -199906695.19242319 0 -199906695.19242319 150575629.08398533 0 0 0 0 418058567.52422333 -192975590.97074842 0 -192975590.97074842 620551660.71231461 0 0 0 0 7807651.2991204197 4566154.6570887947 0 4566154.6570887947 -759227.76741673285 0 0 0 0 692868246.98616791 84890502.923038483 0 84890502.923038483 -248686077.02129745 0 0 0 0 -18103682.177797318 51516049.789982557 0 51516049.789982557 -117536828.50290444 0 0 0 0 728781187.17887068 200311410.04447877 0 200311410.04447877 -115830294.13369179 0 0 0 0 102948867.53380585 -100130855.15204382 0 -100130855.15204382 -220180113.91322851 0 0 0 0 110523921.38894844 -176384039.85798371 0 -176384039.85798371 -142205393.1049118 0 0 0 0 797279463.13919258 1951363.4220786095 0 1951363.4220786095 -399898263.83150101 0 0 0 0 800831405.67150712 -201970686.9716706 0 -201970686.9716706 -555419927.62321472 0 0 0 0 793701380.63109946 -39720581.240888774 0 -39720581.240888774 -607940134.57522202 0 0 0 0 593003210.90058899 -375726581.49881077 0 -375726581.49881077 -696487432.69791412 0 0 0 0 1086995346.7642612 -85594296.853657484 0 -85594296.853657484 -892114923.89620018 0 0 0 0 563851296.04421997 -223548589.33580303 0 -223548589.33580303 1730120627.4684572 0 0 0 0 1494451857.4472237 698368747.5963378 0 698368747.5963378 128259102.70806885 0 0 0 0 769861184.60144043 446327673.12033844 0 446327673.12033844 283086573.88895369 0 0 0 0 286514189.64108276 -501022137.17471075 0 -501022137.17471075 -698816219.22999573 0 0 0 0 813586867.83060455 -432987864.73493385 0 -432987864.73493385 -1230110534.3724241 0 0 0 0 529347411.43238831 -240492905.28278732 0 -240492905.28278732 -454892686.01972389 0 0 0 0 237632123.77200317 -262804926.34287119 0 -262804926.34287119 -185724832.45545769 0 0 0 0 399101386.74448776 -334307974.12640285 0 -334307974.12640285 -438347884.75243163 0 0 0 0 511520923.57676315 -148644593.89145184 0 -148644593.89145184 -181320637.36348343 0 0 0 0 355979193.27369404 -196489106.34671187 0 -196489106.34671187 -148778922.53629494 0 0 0 0 374447676.84828949 -250934182.61331844 0 -250934182.61331844 -223254122.68644333 0 0 0 0 283710177.01068139 -230472482.05217707 0 -230472482.05217707 -25372724.690326691 0 0 0 0 290125901.26886749 -199865099.05845451 0 -199865099.05845451 14822897.938954353 0 0 0 0 371182529.10780334 -164596408.60209084 0 -164596408.60209084 -95665121.860730171 0 0 0 0 470615322.24624825 -102403838.48740292 0 -102403838.48740292 -57270578.233093262 0 0 0 0 441899411.45534849 45553707.147754192 0 45553707.147754192 94456368.67258358 0 0 0 0 181408124.89523125 -44537809.833015442 0 -44537809.833015442 63299716.879285812 0 0 0 0 11677421.576057805 22405997.141172774 0 22405997.141172774 13002689.540028289 0 0 0 0 22412291.973237038 51914227.145777702 0 51914227.145777702 12506499.535572052 0 0 0 0 240316739.05987835 -183971728.0694623 0 -183971728.0694623 84911804.385641098 0 0 0 0 189352127.79904938 -121862350.65263271 0 -121862350.65263271 24181447.184915543 0 0 0 0 -12026012.950889587 -13509840.960968018 0 -13509840.960968018 -12199952.272099912 0 0 0 0 5269967.7895986401 1106578.9726094417 0 1106578.9726094417 -903508.73080746457 0 0 0 0 6582427.7180976868 87713851.53178978 0 87713851.53178978 -16070398.595191956 0 0 0 0 95057857.119903564 25268158.531191826 0 25268158.531191826 -884619.45130765438 0 0 0 0 22780994.182964325 49008941.502279282 0 49008941.502279282 29871929.054840088 0 0 0 0 13284638.545082144 16717987.25631937 0 16717987.25631937 -12890094.380543649 0 0 0 0 93484765.751351357 19679574.564284801 0 19679574.564284801 -19370629.594173431 0 0 0 0 -417637002.72570801 58147902.929680586 0 58147902.929680586 98267406.539461136 0 0 0 0 -276156072.61630249 154486214.2621212 0 154486214.2621212 25535239.714198828 0 0 0 0 -268117014.80464172 -65154082.743330002 0 -65154082.743330002 51752941.666408539 0 0 0 0 -77923649.414161682 -145556690.63409996 0 -145556690.63409996 -66401935.544689178 0 0 0 0 39048123.892921448 -24010215.836623192 0 -24010215.836623192 -123031617.25426912 0 0 0 0 118213997.65649414 85691314.225189209 0 85691314.225189209 31343000.75793457 0 0 0 0 -97004256.609588623 101036234.74685764 0 101036234.74685764 26922988.316001892 0 0 0 0 75592612.308834076 101737980.99875832 0 101737980.99875832 71310330.715385437 0 0 0 0 7355235.6314614695 12250331.691257855 0 12250331.691257855 -14098478.364598799 0 0 0 0 140658502.95108795 181010426.2360611 0 181010426.2360611 213601218.18166351 0 0 0 0 269049.15514606237 79317.608024425805 0 79317.608024425805 -582424.06605016999 0 0 0 0 -31306386.633932114 -44753600.253046513 0 -44753600.253046513 -12658874.532524109 0 0 0 0 -25901093.908473969 -64639349.939434528 0 -64639349.939434528 9235690.883234024 0 0 0 0 -40376553.54252243 -57064051.865659714 0 -57064051.865659714 18710903.432590485 0 0 0 0 -39287255.752151489 -71508284.623688698 0 -71508284.623688698 49863615.611022949 0 0 0 0 39519090.064254761 52718131.22052002 0 52718131.22052002 80858378.225089073 0 0 0 0 57092347.053371429 37468138.797828197 0 37468138.797828197 14730346.707382202 0 0 0 0 11343716.673053741 47974687.025453568 0 47974687.025453568 54928126.567989349 0 0 0 0 11520579.080980301 9304708.2347106934 0 9304708.2347106934 -3965099.8578128815 0 0 0 0 -23325512.596017838 16251183.417432785 0 16251183.417432785 34959839.929721832 0 0 0 0 -314473.0883307457 7953330.9780151844 0 7953330.9780151844 36470121.734516144 0 0 0 0 10547582.448853493 58180688.876386166 0 58180688.876386166 90347954.731571198 0 0 0 0 13307104.041540146 87513268.37183094 0 87513268.37183094 76229825.767974854 0 0 0 0 -41077737.758323669 -15781941.969905853 0 -15781941.969905853 54456036.065765381 0 0 0 0 69789246.235248566 63780249.797578812 0 63780249.797578812 23415999.657150269 0 0 0 0 52594817.050060272 125697246.74546814 0 125697246.74546814 231358699.20570374 0 0 0 0 115556214.62792206 63853654.016937256 0 63853654.016937256 72142605.38633728 0 0 0 0 143380494.79850006 164800547.14826202 0 164800547.14826202 170155320.83648682 0 0 0 0 181845033.04030228 251115762.38124466 0 251115762.38124466 237913063.72109985 0 0 0 0 -1064101.8765618168 666116.11177205807 0 666116.11177205807 1686931.9730389863 0 0 0 0 10488630.096617999 14278024.160514366 0 14278024.160514366 8608773.6007346269 0 0 0 0 67903133.879110336 -26809538.247795105 0 -26809538.247795105 106888178.15578747 0 0 0 0 -9989981.5570983887 11007439.953466415 0 11007439.953466415 19462983.217240334 0 0 0 0 -24652829.536186695 23623321.69981575 0 23623321.69981575 24840809.153810501 0 0 0 0 3831453.97085837 9432720.3396908902 0 9432720.3396908902 -98542.788661742583 0 0 0 0 -16061028.835611343 -2488034.4413776398 0 -2488034.4413776398 7314200.3935813904 0 0 0 0 64429959.663279533 -34673414.398855209 0 -34673414.398855209 -45476389.61913681 0 0 0 0 1798786.9211273796 4912279.8332034145 0 4912279.8332034145 8866734.9724775329 0 0 0 0 365656841.19859266 169168739.89878845 0 169168739.89878845 108026956.44840813 0 0 0 0 536681728.0028162 345504731.30412292 0 345504731.30412292 65613543.829691887 0 0 0 0 10908470.757817216 1264588.3769036736 0 1264588.3769036736 1316932.8541220818 0 0 0 0 506343647.99797153 71280536.133420944 0 71280536.133420944 22889125.271205902 0 0 0 0 1401386479.7689698 155504197.37245464 0 155504197.37245464 320621763.08314323 0 0 0 0 1250384162.7511053 385532025.25545883 0 385532025.25545883 -17621187.18329525 0 0 0 0 -98354.082796418224 1696878.5448537641 0 1696878.5448537641 1244284.3761571422 0 0 0 0 1328834853.6244035 793796952.85949087 0 793796952.85949087 300359838.60529709 0 0 0 0 792539722.49037147 -260811102.07813621 0 -260811102.07813621 1532025483.193819 0 0 0 0 3256138.8630087767 -219297.11617594585 0 -219297.11617594585 1138786.2901275409 0 0 0 0 125801274.62051582 -504194965.14771271 0 -504194965.14771271 1025733340.17383 0 0 0 0 124434970.05459785 -96937572.575719833 0 -96937572.575719833 131276596.61242676 0 0 0 0 103950695.57866836 -113060591.33376098 0 -113060591.33376098 119325992.06032562 0 0 0 0 154551109.93070674 -208764829.19619775 0 -208764829.19619775 280552105.93188477 0 0 0 0 361751868.87596321 -338573054.39375687 0 -338573054.39375687 103630541.07265568 0 0 0 0 446648322.52069473 -186713760.47234583 0 -186713760.47234583 -89312393.787639618 0 0 0 0 1217054367.3311968 -712983291.1387167 0 -712983291.1387167 -16409455.497528076 0 0 0 0 1434041595.5664191 -191191318.14280581 0 -191191318.14280581 -451796238.98085213 0 0 0 0 825855817.83244133 205074207.14547324 0 205074207.14547324 -547166874.67057037 0 0 0 0 667466516.15944862 -337839416.98900032 0 -337839416.98900032 -92234506.680228949 0 0 0 0 334565452.31194115 201052907.37918806 0 201052907.37918806 36797945.244161963 0 0 0 0 450059617.71027946 258582570.92910433 0 258582570.92910433 -172878534.48791027 0 0 0 0 316562544.2728883 -88646543.735353708 0 -88646543.735353708 -86909204.251750946 0 0 0 0 268969358.25979805 -254849054.92895985 0 -254849054.92895985 -48770501.907081604 0 0 0 0 319594937.89711952 -162543999.95500088 0 -162543999.95500088 -78637481.225709438 0 0 0 0 114966371.67233753 -237087273.91750431 0 -237087273.91750431 -105614021.54375648 0 0 0 0 262271881.34861183 -116892193.13111496 0 -116892193.13111496 -81728016.445482254 0 0 0 0 267276087.85873359 420218181.40219676 0 420218181.40219676 352299356.30236435 0 0 0 0 -13755517.006234288 -34074830.937891006 0 -34074830.937891006 594052371.96165633 0 0 0 0 379415089.47422004 272359501.24776697 0 272359501.24776697 342535127.07121849 0 0 0 0 -586161.62094346771 3525755.4966093223 0 3525755.4966093223 1872139.651220575 0 0 0 0 131585017.17478704 505689256.47528362 0 505689256.47528362 124103949.87812519 0 0 0 0 1746795.3386515614 550767.10871846625 0 550767.10871846625 347634.93454816751 0 0 0 0 140723900.02459919 632398389.08355224 0 632398389.08355224 -292240652.31725311 0 0 0 0 -427134898.8833769 137538744.45317554 0 137538744.45317554 215927165.96692324 0 0 0 0 330067852.68114263 208476392.52887234 0 208476392.52887234 -423650672.29523849 0 0 0 0 981651017.59046817 485764678.34538913 0 485764678.34538913 102176737.6037159 0 0 0 0 334485254.12181973 68562662.073340416 0 68562662.073340416 20573589.11933732 0 0 0 0 115771170.23866117 150465852.32748461 0 150465852.32748461 504061002.40424156 0 0 0 0 300911596.24420691 -36936080.561386108 0 -36936080.561386108 591099284.57880688 0 0 0 0 59691694.955042601 -42427250.418023109 0 -42427250.418023109 75253805.891246319 0 0 0 0 -200941480.77391523 85021249.932605267 0 85021249.932605267 233667847.10529137 0 0 0 0 4610421.7487405539 -2887975.2556738853 0 -2887975.2556738853 54808275.953140259 0 0 0 0 -157972430.20157671 126868269.25588608 0 126868269.25588608 -133914335.83558035 0 0 0 0 2936612.8651200784 -55762.291589584202 0 -55762.291589584202 2043792.2450806191 0 0 0 0 -476117568.89981574 477455858.25268888 0 477455858.25268888 -84398177.848280907 0 0 0 0 4831539.1603220794 -3307021.0887873396 0 -3307021.0887873396 2863326.2686182335 0 0 0 0 12144118.079934359 -8948889.8805236816 0 -8948889.8805236816 -2135551.9459642172 0 0 0 0 45309041.335777283 85370765.30770731 0 85370765.30770731 110181882.41369224 0 0 0 0 214045609.94064713 169294282.07337666 0 169294282.07337666 147760429.4772501 0 0 0 0 8222661.0573807489 -4556084.0913755074 0 -4556084.0913755074 1916293.4440114889 0 0 0 0 74660.625164270401 -24165515.947854996 0 -24165515.947854996 9834966.1306552887 0 0 0 0 28786741.135505676 49186.114326000214 0 49186.114326000214 -513486.96273720264 0 0 0 0 4525199.4852080345 18942398.098368645 0 18942398.098368645 33293015.19456768 0 0 0 0 47750584.541702509 35239217.989684582 0 35239217.989684582 7862992.8674762249 0 0 0 0 25502513.017756939 9029021.5114307404 0 9029021.5114307404 -1484158.6382493973 0 0 0 0 989919.56008436857 -437213.56808455987 0 -437213.56808455987 150315.72932230122 0 0 0 0 18211656.052549496 61603912.428725839 0 61603912.428725839 152697028.91030121 0 0 0 0 -20310265.354574054 89487665.414107323 0 89487665.414107323 137406492.10614157 0 0 0 0 -20689730.566260129 104429067.07686758 0 104429067.07686758 281253648.75289583 0 0 0 0 26352148.44846344 24961758.051723242 0 24961758.051723242 53525672.614413738 0 0 0 0 -14138903.500805736 -21390793.852771282 0 -21390793.852771282 179006055.59321737 0 0 0 0 10558105.090006351 -3758513.7491836548 0 -3758513.7491836548 -4255647.6542770863 0 0 0 0 3906400.5900817113 4450847.0428158762 0 4450847.0428158762 2455605.391212834 0 0 0 0 108131520.64640617 -10826215.963324547 0 -10826215.963324547 -40579047.340074539 0 0 0 0 -12767261.254638672 -68845094.76424855 0 -68845094.76424855 172974996.59433937 0 0 0 0 -4176866.4182453156 -21605867.977930069 0 -21605867.977930069 108900845.7956686 0 0 0 0 57357728.250201702 -125558186.27711451 0 -125558186.27711451 192131819.12123489 0 0 0 0 4909053.1168899536 -53681090.833764553 0 -53681090.833764553 266391440.28159142 0 0 0 0 -18161157.862277508 -83811803.075562954 0 -83811803.075562954 295155848.93249035 0 0 0 0 -30889488.86067009 -36387342.424564362 0 -36387342.424564362 188916430.10416532 0 0 0 0 -41324873.220683098 -17967836.60970974 0 -17967836.60970974 184565921.44673729 0 0 0 0 -45507431.758131981 -49126913.761729717 0 -49126913.761729717 237969462.83922338 0 0 0 0 -3463224.6066894531 -53357192.96035552 0 -53357192.96035552 91139289.853956223 0 0 0 0 7949993.9761762619 2265524.1434955597 0 2265524.1434955597 59123541.675180912 0 0 0 0 7620821.3147430737 6534453.8286543814 0 6534453.8286543814 2941409.9591208496 0 0 0 0 5598981.9138221741 -15667365.033049583 0 -15667365.033049583 58830317.856291771 0 0 0 0 9382341.9632453918 32014781.534034252 0 32014781.534034252 114189643.57317066 0 0 0 0 -40813015.824244678 -5823906.9055280089 0 -5823906.9055280089 170835738.56085014 0 0 0 0 -78394097.799337387 15920363.756838679 0 15920363.756838679 220853989.29803085 0 0 0 0 -68428116.185629845 44756180.01540935 0 44756180.01540935 198743173.29006481 0 0 0 0 42914117.256549835 79840708.299302101 0 79840708.299302101 135461218.87934446 0 0 0 0 7872597.4852095842 17278291.462073565 0 17278291.462073565 50585152.623985291 0 0 0 0 -24441191.917464018 -15264241.95685482 0 -15264241.95685482 11818235.984609604 0 0 0 0 8507075.1140229777 -441360.30311876861 0 -441360.30311876861 -627913.43352007493 0 0 0 0 19034396.289772034 16620101.126511574 0 16620101.126511574 50585037.152562506 0 0 0 0 -1485763.7099504471 338592.04328203201 0 338592.04328203201 56246258.296376228 0 0 0 0 5373008.0656161308 22983673.266372204 0 22983673.266372204 126048692.01406908 0 0 0 0 1455745.9163277727 5459023.7562176324 0 5459023.7562176324 3273695.6842982271 0 0 0 0 -6191817.4790811539 9634983.8537654877 0 9634983.8537654877 9613492.9806562662 0 0 0 0 4915062.9371328354 22642441.921973348 0 22642441.921973348 -2951234.2681319714 0 0 0 0 11543952.399154583 8440899.1516355965 0 8440899.1516355965 2292747.5233999323 0 0 0 0 23667500.345257282 17517776.021828413 0 17517776.021828413 16543444.896036148 0 0 0 0 6980603.7562055588 10210802.648152113 0 10210802.648152113 -6226956.1828029156 0 0 0 0 15921461.524325848 16782895.635601282 0 16782895.635601282 -19335830.744647741 0 0 0 0 33474613.936170578 24694155.793315649 0 24694155.793315649 -712032.18070673943 0 0 0 0 8982633.4362163544 -5563536.8256834745 0 -5563536.8256834745 12350741.664903879 0 0 0 0 2474770.2515095067 1228779.8923649276 0 1228779.8923649276 -146789.68153162301 0 0 0 0 14689433.123500824 185514.00397133082 0 185514.00397133082 -72765.344500541687 0 0 0 0 35059872.092115521 -7316766.1408780143 0 -7316766.1408780143 -3061053.9112248421 0 0 0 0 15071566.998887062 -6224294.0295462608 0 -6224294.0295462608 1309474.3264389038 0 0 0 0 14083341.035142422 2813841.7097561359 0 2813841.7097561359 -7704870.1478567123 0 0 0 0 5906546.5760686398 2212163.5724892616 0 2212163.5724892616 -4242727.0000162125 0 0 0 0 18224222.270669222 -2652690.053422451 0 -2652690.053422451 -8267221.2734527588 0 0 0 0 8610981.4281320572 11987426.296125889 0 11987426.296125889 548558.80259466171 0 0 0 0 86941333.508636951 36629451.947689533 0 36629451.947689533 15438910.923946559 0 0 0 0 88704527.171469212 11344837.079696417 0 11344837.079696417 835442.40318775177 0 0 0 0 -415966.54577782843 -438289.07132075517 0 -438289.07132075517 389698.00546185672 0 0 0 0 834588.06747055054 -3244853.6323361397 0 -3244853.6323361397 -1383596.9332885742 0 0 0 0 -18121317.867811203 -17398741.691389561 0 -17398741.691389561 4495879.8272085786 0 0 0 0 5737046.810685128 2130917.7965242504 0 2130917.7965242504 4587397.1110567618 0 0 0 0 2697973.7608776093 1271894.927598834 0 1271894.927598834 -628652.1339969635 0 0 0 0 3895706.5183229707 3075269.6071112845 0 3075269.6071112845 3144830.4573045867 0 0 0 0 2198205.3556613922 2149847.658592701 0 2149847.658592701 187904.79841041565 0 0 0 0 4096200.5167725552 3540421.8748625331 0 3540421.8748625331 3566897.8722191681 0 0 0 0 5083080.1265828777 2637357.909576688 0 2637357.909576688 -318926.43433684483 0 0 0 0 2357086.9744718168 982512.57784551068 0 982512.57784551068 -545795.49695074838 0 0 0 0 4900419.7104568481 2569359.4270200729 0 2569359.4270200729 -17990.584804534912 0 0 0 0 59915.513733293628 291706.92648865748 0 291706.92648865748 511291.5289405419 0 0 0 0 -11520645.544472933 -10551208.206278533 0 -10551208.206278533 22782522.116046429 0 0 0 0 29452654.10050869 -4526154.5426559448 0 -4526154.5426559448 31428368.676766396 0 0 0 0 15496890.376204014 20538724.330474317 0 20538724.330474317 -4244160.7237839699 0 0 0 0 70842489.435697556 37387422.738321424 0 37387422.738321424 -1618278.2231917381 0 0 0 0 21850849.507519245 54350127.531030655 0 54350127.531030655 -299755.54454016685 0 0 0 0 97615024.1628685 -10574545.513385057 0 -10574545.513385057 -16775474.172517359 0 0 0 0 -108083.70174722187 6267835.3946110737 0 6267835.3946110737 2903620.4729980193 0 0 0 0 86808611.109443665 14010457.259597898 0 14010457.259597898 11923525.742908597 0 0 0 0 37567079.331595898 19247558.806205511 0 19247558.806205511 14267068.771711111 0 0 0 0 60375125.405772448 66970913.354655445 0 66970913.354655445 -6765083.1659927368 0 0 0 0 34288028.142220497 71086245.265042067 0 71086245.265042067 10790648.210093617 0 0 0 0 99981087.468599081 97111249.883182764 0 97111249.883182764 -32509681.785574436 0 0 0 0 126249121.67253208 57798029.49810636 0 57798029.49810636 -7866930.0519223213 0 0 0 0 2031799.3265967956 -410238.02000198187 0 -410238.02000198187 -771587.66221141978 0 0 0 0 70145680.970179558 -20102113.102762938 0 -20102113.102762938 15975129.036470294 0 0 0 0 241826991.44972038 -116730228.01982906 0 -116730228.01982906 51936547.379898906 0 0 0 0 75753901.290815353 16193024.757501949 0 16193024.757501949 7250389.069768412 0 0 0 0 50302125.246798515 36457341.102929473 0 36457341.102929473 10398819.770094544 0 0 0 0 50752596.152540207 57144170.603634477 0 57144170.603634477 54768495.850350261 0 0 0 0 168907676.31932664 69634837.575429648 0 69634837.575429648 13184048.399750471 0 0 0 0 -360880.43410778046 -23016915.987272859 0 -23016915.987272859 42915269.283882141 0 0 0 0 2598925.8261170518 7608108.6807964481 0 7608108.6807964481 1200100.3875653399 0 0 0 0 26062579.851673126 15702868.356708631 0 15702868.356708631 36102046.50014925 0 0 0 0 24844274.322228432 38870799.492482245 0 38870799.492482245 10499410.868637562 0 0 0 0 53534767.578927517 53198621.940901436 0 53198621.940901436 17565713.298594475 0 0 0 0 59891590.074219704 6891994.5314543247 0 6891994.5314543247 -19276194.011194706 0 0 0 0 13684697.431042042 8419868.5259456523 0 8419868.5259456523 -4429149.7149270037 0 0 0 0 44401468.185236931 -3666548.6181623936 0 -3666548.6181623936 -15113664.458966732 0 0 0 0 31600340.444052696 42295455.735355824 0 42295455.735355824 -16158819.439130187 0 0 0 0 57534035.235760689 -2726539.2950866222 0 -2726539.2950866222 -29917841.22105217 0 0 0 0 -16865891.584529877 235165.86909657717 0 235165.86909657717 26369986.26541996 0 0 0 0 24782366.18333149 31759829.853075147 0 31759829.853075147 37327174.375476837 0 0 0 0 7924674.8636391275 1333369.3840927659 0 1333369.3840927659 3637198.6323164953 0 0 0 0 49680414.91631794 40295225.781134605 0 40295225.781134605 -16360277.680427611 0 0 0 0 -846637.41695706174 -804105.40566471987 0 -804105.40566471987 437455.50239619985 0 0 0 0 75929240.196691304 132470282.80465811 0 132470282.80465811 -47832543.517366409 0 0 0 0 160796339.98781687 174295464.81553945 0 174295464.81553945 -199452574.34862781 0 0 0 0 58819316.483466238 112262315.53538263 0 112262315.53538263 27352593.630204588 0 0 0 0 88115524.813957721 219350861.56583518 0 219350861.56583518 69985861.077925682 0 0 0 0 43904016.10629487 53133537.180786967 0 53133537.180786967 80273173.874104977 0 0 0 0 37028731.409121513 139335897.96271956 0 139335897.96271956 23187674.118403673 0 0 0 0 35977381.080982685 91293323.33191824 0 91293323.33191824 110234047.53521818 0 0 0 0 29720147.153584152 50373245.132268608 0 50373245.132268608 -81283114.897424579 0 0 0 0 -53256234.566501856 170760865.39566347 0 170760865.39566347 -65443539.481337607 0 0 0 0 39489307.154836595 45932511.979321882 0 45932511.979321882 -126221177.62575275 0 0 0 0 5388835.4550566133 -1445030.0281634203 0 -1445030.0281634203 -1341171.9721475765 0 0 0 0 9742112.9978882074 92973252.718119621 0 92973252.718119621 -146200783.44581017 0 0 0 0 22190265.377058864 38461480.705090225 0 38461480.705090225 -126100625.26718295 0 0 0 0 87384443.418432862 55701581.914428651 0 55701581.914428651 -127218068.63823998 0 0 0 0 89458162.575477302 8141813.2052762508 0 8141813.2052762508 -214228893.91809249 0 0 0 0 89275479.706087187 49937842.498077199 0 49937842.498077199 -163061163.4991622 0 0 0 0 30302585.498437166 -29758312.669452071 0 -29758312.669452071 -127864685.628896 0 0 0 0 23134630.539118618 -9742942.2189554162 0 -9742942.2189554162 -108348594.14658129 0 0 0 0 14201041.970512066 -8898388.7805931829 0 -8898388.7805931829 5681877.0004768232 0 0 0 0 -5614809.5861492157 -35834942.969412923 0 -35834942.969412923 -19626920.696857214 0 0 0 0 -15143507.544031143 -37429673.931143165 0 -37429673.931143165 -8408115.2481452227 0 0 0 0 4298089.0246276855 -5779980.1810159683 0 -5779980.1810159683 7975161.1163601875 0 0 0 0 18565431.459924698 -10595437.019495606 0 -10595437.019495606 -8567338.1047554016 0 0 0 0 -2853388.2970924377 -14983248.928595424 0 -14983248.928595424 2504165.9839382172 0 0 0 0 -929797.58275604248 -21577216.48944664 0 -21577216.48944664 -3961636.510764122 0 0 0 0 22731615.219490051 -24695268.693872452 0 -24695268.693872452 -38151667.380512238 0 0 0 0 928856.54921476915 -411903.61714173667 0 -411903.61714173667 -294756.45556134451 0 0 0 0 22050762.289569132 2878.5279371701181 0 2878.5279371701181 -83015557.553206801 0 0 0 0 11143530.367810376 -3629143.7317425092 0 -3629143.7317425092 -2810118.9812295684 0 0 0 0 41798103.018894196 -20269344.651818931 0 -20269344.651818931 7237845.0106586218 0 0 0 0 98355322.386046648 -60431485.645035803 0 -60431485.645035803 15907301.946802735 0 0 0 0 53659351.460741639 67513.700461983681 0 67513.700461983681 -46686327.908998013 0 0 0 0 63548423.369389296 -26536325.106414437 0 -26536325.106414437 -26429710.374251604 0 0 0 0 35826566.113324881 -7720628.8740332127 0 -7720628.8740332127 -10251691.717096388 0 0 0 0 48358993.578641593 -25427521.361530781 0 -25427521.361530781 -3795978.6566958427 0 0 0 0 39489297.58813858 -16974493.074739695 0 -16974493.074739695 -3943401.0291118175 0 0 0 0 48338396.486657739 -16301581.274973392 0 -16301581.274973392 -11709225.973161697 0 0 0 0 21625179.06540088 -647951.62277858797 0 -647951.62277858797 1744811.1409652899 0 0 0 0 13143171.929706573 -5885901.7064249516 0 -5885901.7064249516 -6484397.6817092896 0 0 0 0 50674518.606361389 49335489.61917758 0 49335489.61917758 -27615871.258309126 0 0 0 0 28226043.566375732 34492034.795137405 0 34492034.795137405 -23301927.686914444 0 0 0 0 40446040.916582085 7232336.6890538326 0 7232336.6890538326 2235746.2932272078 0 0 0 0 8675928.7070390135 4003020.1660465803 0 4003020.1660465803 -4334537.8026844049 0 0 0 0 54464397.815361023 413278.59717178345 0 413278.59717178345 -70833177.55623883 0 0 0 0 40591666.107883453 3601071.9642029405 0 3601071.9642029405 -65385299.298477292 0 0 0 0 41848454.495895386 10419041.505329341 0 10419041.505329341 -31115703.202530861 0 0 0 0 25631481.054294586 48192584.786429718 0 48192584.786429718 -81880224.366468951 0 0 0 0 6691332.4018859863 24848035.432641778 0 24848035.432641778 -4469419.528350519 0 0 0 0 15869508.176437683 2767428.1349265445 0 2767428.1349265445 4106078.7605132223 0 0 0 0 3748475.7194968313 1110292.0533017963 0 1110292.0533017963 -1631905.2732111393 0 0 0 0 95574273.094733238 134503928.91523361 0 134503928.91523361 65958871.052944899 0 0 0 0 10034084.315517496 3012767.9436345822 0 3012767.9436345822 1150113.4488808797 0 0 0 0 -16329138.354942322 1238707.4518928528 0 1238707.4518928528 32291238.091240883 0 0 0 0 15819281.201586246 14257386.645814359 0 14257386.645814359 19353538.387069702 0 0 0 0 4828883.2552553434 1251515.247197438 0 1251515.247197438 2427203.7137137167 0 0 0 0 12317804.821556091 -1520761.9360399246 0 -1520761.9360399246 5572171.3216362 0 0 0 0 10304181.812243462 -8908555.8526366949 0 -8908555.8526366949 3434816.7032766342 0 0 0 0 28400737.214629132 -1764320.4084926266 0 -1764320.4084926266 1923258.6026425217 0 0 0 0 14153972.005775452 -8961796.8895273209 0 -8961796.8895273209 -3999956.0617542267 0 0 0 0 4986832.9483947754 -9141841.5059547424 0 -9141841.5059547424 5759263.4685025215 0 0 0 0 10056792.251548767 -14399400.279795647 0 -14399400.279795647 -108140.97292280197 0 0 0 0 10271070.326072693 -13362854.624566376 0 -13362854.624566376 -366463.36972236633 0 0 0 0 13124333.569976807 -6093710.625433445 0 -6093710.625433445 1034436.9338274598 0 0 0 0 8854727.3642940521 -3915551.3145577908 0 -3915551.3145577908 8094779.07365942 0 0 0 0 9496021.2222595215 -5046164.8598754406 0 -5046164.8598754406 9225050.2902729511 0 0 0 0 55512176.022003174 -6547273.5923290253 0 -6547273.5923290253 -20263467.168346345 0 0 0 0 26251322.834897172 -6503724.9542788872 0 -6503724.9542788872 -5767758.6849357747 0 0 0 0 57001681.163495064 3928387.5711658001 0 3928387.5711658001 -41431541.231723785 0 0 0 0 67162881.142730713 -16957265.521178722 0 -16957265.521178722 -35102563.547623634 0 0 0 0 58151038.263809204 -5050686.3941545486 0 -5050686.3941545486 -33217010.274259925 0 0 0 0 8711688.4068965912 -4059010.3045428395 0 -4059010.3045428395 -5642464.4467335939 0 0 0 0 26175873.233862877 41842572.645522833 0 41842572.645522833 -15337557.128578305 0 0 0 0 35124600.267830186 -7650903.0814831574 0 -7650903.0814831574 -3854427.3927191212 0 0 0 0 35795660.88662529 15147362.112365007 0 15147362.112365007 17790593.443677902 0 0 0 0 15888137.164411545 51829351.328564286 0 51829351.328564286 -23555677.18708849 0 0 0 0 39792319.944817543 60704936.328874111 0 60704936.328874111 -81811678.853023529 0 0 0 0 60866866.491294861 43589791.587638438 0 43589791.587638438 -30278505.027984381 0 0 0 0 50847562.473990276 13362068.714699196 0 13362068.714699196 -3209072.8204959221 0 0 0 0 43493530.001998901 21791610.928094387 0 21791610.928094387 -42133396.81661272 0 0 0 0 57893532.488128662 7479522.1011590958 0 7479522.1011590958 -32281841.121832132 0 0 0 0 46217821.626857564 10761726.190028202 0 10761726.190028202 -413241.1864168602 0 0 0 0 85494165.776670933 41397633.35688138 0 41397633.35688138 -98254138.237034202 0 0 0 0 55428594.670257568 38166680.778612614 0 38166680.778612614 -51480398.271518588 0 0 0 0 46479581.897476196 6162402.0715332031 0 6162402.0715332031 -59541014.272133112 0 0 0 0 110405442.20619985 42336354.249759123 0 42336354.249759123 -39089622.994714975 0 0 0 0 111848786.68644747 -26124953.321072802 0 -26124953.321072802 -24564466.062608004 0 0 0 0 37718313.682404518 24012287.2705791 0 24012287.2705791 -37026315.776642919 0 0 0 0 18607324.863388062 36921201.811688542 0 36921201.811688542 -36950719.923130512 0 0 0 0 27678085.793326855 31197906.366312802 0 31197906.366312802 -39865230.364087343 0 0 0 0 26166388.895973206 32750481.119301915 0 32750481.119301915 -38338670.617918372 0 0 0 0 26399912.809486389 43881952.513093621 0 43881952.513093621 -42929506.197799191 0 0 0 0 71539611.015357971 63871590.322926521 0 63871590.322926521 -46576822.2393924 0 0 0 0 9032845.784576416 68211149.448348343 0 68211149.448348343 -67236086.567631245 0 0 0 0 17683969.259002686 55024972.154450685 0 55024972.154450685 -47805994.674864143 0 0 0 0 144137791.68729591 116095297.81487861 0 116095297.81487861 -106137965.63674915 0 0 0 0 79485817.57068634 25481267.965975761 0 25481267.965975761 -56985212.072062731 0 0 0 0 72141756.175598145 4201477.7709131241 0 4201477.7709131241 -50641649.2971735 0 0 0 0 77094085.687927246 -2211844.4081583023 0 -2211844.4081583023 -42442677.519142151 0 0 0 0 114911649.08522797 5290953.9204382896 0 5290953.9204382896 -62006315.923892021 0 0 0 0 82384490.034742355 23230399.831883013 0 23230399.831883013 -55561791.069143295 0 0 0 0 95065507.523353577 24071451.841451883 0 24071451.841451883 -69258269.741768122 0 0 0 0 190983442.42735291 -224394.32727849483 0 -224394.32727849483 -71486795.706260622 0 0 0 0 138606408.88845062 -27825791.929724514 0 -27825791.929724514 -45678151.129560769 0 0 0 0 98647400.870162964 -18863863.357219934 0 -18863863.357219934 -47624620.769860744 0 0 0 0 93144043.560211182 -31030826.92625621 0 -31030826.92625621 -34714315.299783468 0 0 0 0 92305827.36869812 -36917602.462123632 0 -36917602.462123632 -39330295.527038813 0 0 0 0 75850305.622274399 -27333288.85499686 0 -27333288.85499686 -42358369.35323 0 0 0 0 75688085.158355713 -30295715.512059212 0 -30295715.512059212 -43997474.857505322 0 0 0 0 96289316.201728821 -20683659.573426723 0 -20683659.573426723 -49009219.327649593 0 0 0 0 83739913.626777649 -15541969.786810398 0 -15541969.786810398 -48548907.044278622 0 0 0 0 69784039.157863617 -13266741.589167833 0 -13266741.589167833 -45755150.311285019 0 0 0 0 63985186.364395142 -26334477.03732729 0 -26334477.03732729 -41885379.982056618 0 0 0 0 172642106.20293808 -34466511.586889505 0 -34466511.586889505 -60095143.845010281 0 0 0 0 167929955.02585983 -42807267.712753057 0 -42807267.712753057 -87777586.599066973 0 0 0 0 190596943.01885223 12354573.77875948 0 12354573.77875948 -21850317.710081339 0 0 0 0 108352477.42633438 -22016799.80911532 0 -22016799.80911532 -6060946.233777523 0 0 0 0 109752991.68793106 -45818057.677243292 0 -45818057.677243292 -24598080.732388616 0 0 0 0 134184493.46998024 -13470611.420756914 0 -13470611.420756914 -17870972.087009311 0 0 0 0 278292635.89404297 15877764.819040537 0 15877764.819040537 -32356297.038748085 0 0 0 0 233351365.14454269 2600436.0486178398 0 2600436.0486178398 -34585753.950008869 0 0 0 0 185464420.1750679 870980.42722320557 0 870980.42722320557 490832.40042638779 0 0 0 0 5295538.5568504333 -1466678.4067413807 0 -1466678.4067413807 -27277682.377346039 0 0 0 0 2465383.0696038939 -2499080.8255183548 0 -2499080.8255183548 -2775373.7811706392 0 0 0 0 211137298.61900711 -24599854.090260983 0 -24599854.090260983 -2646034.1859548092 0 0 0 0 282254671.01302171 -81314775.619567931 0 -81314775.619567931 19869754.217025757 0 0 0 0 -248374.09465058893 72545.531794736162 0 72545.531794736162 793375.37453792151 0 0 0 0 -43518737.922470093 157998243.45063138 0 157998243.45063138 -115359697.32767403 0 0 0 0 -65014553.10829258 44940473.352142312 0 44940473.352142312 -74325526.438577175 0 0 0 0 -7713528.7039680481 19329148.005160205 0 19329148.005160205 -60396253.889488161 0 0 0 0 -17588162.593788147 40231563.876399398 0 40231563.876399398 -120911922.11324072 0 0 0 0 -25484830.848934174 43914128.947673112 0 43914128.947673112 -66245276.327205122 0 0 0 0 -589069.29241895676 2908517.3430955578 0 2908517.3430955578 2627191.0475312294 0 0 0 0 -64234346.205188751 57891711.274800658 0 57891711.274800658 -69131795.702543259 0 0 0 0 -36404990.711471558 90573987.934805632 0 90573987.934805632 -118473674.42143224 0 0 0 0 37133622.513860703 -19568954.724608004 0 -19568954.724608004 -17190427.82352066 0 0 0 0 40369659.596782684 -54097819.721492767 0 -54097819.721492767 9787800.184047699 0 0 0 0 2297326.1636784412 -3451744.1678885743 0 -3451744.1678885743 -2319821.0064155287 0 0 0 0 -32799549.395072937 -21718623.75722909 0 -21718623.75722909 2344886.6934504509 0 0 0 0 200482455.64200592 897279.06901669502 0 897279.06901669502 -13423216.085530281 0 0 0 0 279011812.76844406 28096859.539796829 0 28096859.539796829 -18357202.381374121 0 0 0 0 202355144.42316055 15332733.00610745 0 15332733.00610745 45948817.00164938 0 0 0 0 238340985.05951309 -15202249.709526539 0 -15202249.709526539 -24503963.340363979 0 0 0 0 193518335.30716443 227460955.71703845 0 227460955.71703845 149568372.03201914 0 0 0 0 160981312.85223389 127069201.32036614 0 127069201.32036614 21209618.205267191 0 0 0 0 135038292.95611191 275298974.41594672 0 275298974.41594672 243381043.98393345 0 0 0 0 52830463.832003593 -5476696.2229280155 0 -5476696.2229280155 -124795621.68262261 0 0 0 0 105907275.59038353 -13435463.060702786 0 -13435463.060702786 -100737127.7772646 0 0 0 0 19140472.550186157 127044143.93700156 0 127044143.93700156 52053664.944773093 0 0 0 0 77324918.421417236 -28396808.892299592 0 -28396808.892299592 -56757830.646232367 0 0 0 0 85004891.391845703 14283245.912510633 0 14283245.912510633 -117175692.13124031 0 0 0 0 56902769.641803741 -557477.99243289232 0 -557477.99243289232 -77985318.439526081 0 0 0 0 52560154.069725037 5460443.4521803036 0 5460443.4521803036 -74693209.963945568 0 0 0 0 14106446.469299316 4459285.0248463154 0 4459285.0248463154 -63984039.85205698 0 0 0 0 23028200.977996826 24645285.097830772 0 24645285.097830772 -80918416.656184673 0 0 0 0 -4413389.4477272034 8640355.5443416834 0 8640355.5443416834 -48288300.57004261 0 0 0 0 45129298.149131775 11553017.307657003 0 11553017.307657003 -75411816.396400928 0 0 0 0 209526568.10460281 29144398.2571702 0 29144398.2571702 -48622626.966368198 0 0 0 0 45094297.533302307 10824834.740954399 0 10824834.740954399 -15921212.09892869 0 0 0 0 473669047.44519806 101072952.57750273 0 101072952.57750273 -48608800.874293327 0 0 0 0 30956864.113799095 -7420611.7045010328 0 -7420611.7045010328 -7627815.2851376534 0 0 0 0 -979648.31270599365 72882103.151050568 0 72882103.151050568 -60930864.787735045 0 0 0 0 -1218205.4715388939 2300923.9306167308 0 2300923.9306167308 3291100.3282170151 0 0 0 0 -1641158.4524478912 49030205.392605543 0 49030205.392605543 -39429339.535254002 0 0 0 0 124271764.49658203 31877489.926062584 0 31877489.926062584 -38739437.357536077 0 0 0 0 28821634.987258911 66926058.082816839 0 66926058.082816839 108323790.08324242 0 0 0 0 -837155.55824612826 1004077.8382603042 0 1004077.8382603042 1805927.7526938515 0 0 0 0 127507428.58792496 382637474.48527908 0 382637474.48527908 364092479.72808838 0 0 0 0 307709615.72297955 403559019.72429681 0 403559019.72429681 321157475.14683342 0 0 0 0 205684070.26242828 254366545.46141052 0 254366545.46141052 127111553.17446947 0 0 0 0 203169769.06114197 290679421.65847826 0 290679421.65847826 187776169.53007889 0 0 0 0 311778235.65451813 234526831.66282797 0 234526831.66282797 206521054.17465091 0 0 0 0 317782384.66737747 218725293.09617436 0 218725293.09617436 115345211.3289299 0 0 0 0 -1128173.0486604832 -186378.42711476423 0 -186378.42711476423 1647923.9160638051 0 0 0 0 494076762.68442345 -15589939.108475924 0 -15589939.108475924 36288566.820702553 0 0 0 0 489061224.88416481 244982296.38720536 0 244982296.38720536 -75396596.741301537 0 0 0 0 596898089.2039032 83632148.062732697 0 83632148.062732697 -87672601.518731117 0 0 0 0 471904545.97958755 245855307.76658416 0 245855307.76658416 115948251.17838523 0 0 0 0 372901834.83154488 337801470.02031362 0 337801470.02031362 160427226.65182376 0 0 0 0 138565297.17592621 -48501373.023193359 0 -48501373.023193359 40080919.43027544 0 0 0 0 131108906.84572411 -78304712.0843153 0 -78304712.0843153 -62537061.16711235 0 0 0 0 1937036.1815109253 101802242.26196861 0 101802242.26196861 23290514.106471896 0 0 0 0 337613175.27264786 109182915.84659243 0 109182915.84659243 20524859.570463181 0 0 0 0 125648530.34250641 -31195348.796240807 0 -31195348.796240807 55011907.165392876 0 0 0 0 112353279.27142525 -65407098.009981394 0 -65407098.009981394 29416762.93850565 0 0 0 0 2909379.016800602 1387171.2799218614 0 1387171.2799218614 3617900.9551382214 0 0 0 0 150265804.68117237 -117331110.11945093 0 -117331110.11945093 99937137.971623421 0 0 0 0 -3126328.7697523423 782004.96369766351 0 782004.96369766351 1220645.0278018911 0 0 0 0 3351909.0281495489 4043745.5427863477 0 4043745.5427863477 1302816.3431130834 0 0 0 0 653651.32505130768 1809059.1644130945 0 1809059.1644130945 -530652.89415645599 0 0 0 0 193098507.57260132 -131712850.62988973 0 -131712850.62988973 104725309.31671977 0 0 0 0 2696744.7218312905 1150577.3480538633 0 1150577.3480538633 1820833.3791051712 0 0 0 0 10704267.559518814 -15118030.031568766 0 -15118030.031568766 -16316733.656719208 0 0 0 0 389060229.42699432 -346866439.3037467 0 -346866439.3037467 -158372898.47508156 0 0 0 0 371228588.85879517 -72427041.072724342 0 -72427041.072724342 58132155.831979692 0 0 0 0 371679785.90545082 -46124189.076277852 0 -46124189.076277852 -162180527.3100338 0 0 0 0 286128723.75833797 28374434.528459847 0 28374434.528459847 38875225.13190937 0 0 0 0 948446330.34295654 -7066948.7682905197 0 -7066948.7682905197 -270345978.33406425 0 0 0 0 455977307.26017475 -5337569.5728678405 0 -5337569.5728678405 -119426311.50567341 0 0 0 0 602674899.19701004 536964230.59424222 0 536964230.59424222 1181256542.2727644 0 0 0 0 1158179474.7581711 -369486420.18452168 0 -369486420.18452168 178842197.81883335 0 0 0 0 -195872442.83813858 189616499.20271194 0 189616499.20271194 280491583.43899477 0 0 0 0 1585438.259522438 5208987.3577764034 0 5208987.3577764034 4195614.0939464569 0 0 0 0 -300948.37531400844 2839285.4427600298 0 2839285.4427600298 6803417.6279592253 0 0 0 0 739836754.6359787 347027343.7384963 0 347027343.7384963 -34080519.09007287 0 0 0 0 1308341990.4717407 409191635.1159389 0 409191635.1159389 -140205147.96241856 0 0 0 0 3522802.0468249358 1413341.6258285684 0 1413341.6258285684 709825.18349531747 0 0 0 0 375241185.10844231 682246838.64151549 0 682246838.64151549 811311316.88186347 0 0 0 0 125510499.91842651 115818697.05335289 0 115818697.05335289 76607925.181090742 0 0 0 0 -50233061.227054596 37636615.839249134 0 37636615.839249134 151230647.81899619 0 0 0 0 -49517334.725894928 8129875.3987681866 0 8129875.3987681866 3621019.2363022566 0 0 0 0 573584119.84154081 368283548.49715704 0 368283548.49715704 -21684138.661058426 0 0 0 0 928727387.96569061 449265277.02578831 0 449265277.02578831 52992127.27025032 0 0 0 0 584004603.81265163 294608976.45989031 0 294608976.45989031 12170583.431099892 0 0 0 0 1007097839.8522606 346672344.05310535 0 346672344.05310535 -238011688.32832432 0 0 0 0 1027591288.2635956 -192453586.41629744 0 -192453586.41629744 -124250133.70770621 0 0 0 0 1394170609.4309368 496753317.5446282 0 496753317.5446282 -185925498.17999029 0 0 0 0 669247763.64614868 510263890.48269701 0 510263890.48269701 65729866.305092692 0 0 0 0 984549340.62404251 304608473.62624407 0 304608473.62624407 -182856901.68709946 0 0 0 0 -4383565.3377304077 3519373.2299704552 0 3519373.2299704552 3138620.9788913727 0 0 0 0 57160097.671098709 -25077946.552877665 0 -25077946.552877665 20803325.359941483 0 0 0 0 -2637087.1362190247 4775778.8554782867 0 4775778.8554782867 4234157.608379364 0 0 0 0 923101.29223631322 3417735.3795454036 0 3417735.3795454036 4060359.4364643157 0 0 0 0 -5916876.0039901733 5261363.4234921932 0 5261363.4234921932 5695010.168794632 0 0 0 0 -10669016.956466675 -2141808.2325105667 0 -2141808.2325105667 2600719.1584949493 0 0 0 0 -8374030.5548877716 2991340.6469025612 0 2991340.6469025612 4996083.4252567291 0 0 0 0 -5994773.2550888062 1395857.0780272484 0 1395857.0780272484 972211.25302314758 0 0 0 0 2234833055.7636261 146712278.97775364 0 146712278.97775364 -105225184.21659374 0 0 0 0 1486545973.4814987 359173141.61285782 0 359173141.61285782 -178735227.19049168 0 0 0 0 1414362425.0671158 306432927.49165821 0 306432927.49165821 136383260.54529762 0 0 0 0 736945.9561756365 105738.39252656139 0 105738.39252656139 -98088.03104538098 0 0 0 0 935631359.09487152 412218194.8220706 0 412218194.8220706 146315615.03561497 0 0 0 0 -224305.01492601726 754687.86329984479 0 754687.86329984479 1815343.2260347325 0 0 0 0 1206582443.6486149 88311568.366830051 0 88311568.366830051 510765126.6784029 0 0 0 0 1024247403.7500839 840218504.4782176 0 840218504.4782176 452902016.98957539 0 0 0 0 1946592520.5789223 644633491.81559062 0 644633491.81559062 24503801.933240414 0 0 0 0 4356489.7253198624 47153287.087272286 0 47153287.087272286 336185279.44318676 0 0 0 0 1439589.2663588189 2138820.9864391573 0 2138820.9864391573 -1314623.1470477246 0 0 0 0 1035776582.7038989 630285352.54796839 0 630285352.54796839 192537250.80356598 0 0 0 0 2229903.805464942 -154570.21309814416 0 -154570.21309814416 -1214503.5074963085 0 0 0 0 215108097.91825104 108807181.63221836 0 108807181.63221836 23346631.725631714 0 0 0 0 274207045.20985413 208482224.17673826 0 208482224.17673826 -26340025.354852915 0 0 0 0 1235824254.0106175 257428557.14525691 0 257428557.14525691 46673793.860331059 0 0 0 0 442624280.48382187 670350283.37360859 0 670350283.37360859 74642884.751112401 0 0 0 0 -40347676.396563053 -125954475.22323556 0 -125954475.22323556 -6665273.6899719238 0 0 0 0 3429077.9336395264 48783237.120292068 0 48783237.120292068 44986831.49297297 0 0 0 0 -26568971.943642616 -26775150.645899892 0 -26775150.645899892 24134545.254464149 0 0 0 0 136070335.21233368 -331184602.9503181 0 -331184602.9503181 245812597.98967648 0 0 0 0 608108714.73336411 159255692.87385654 0 159255692.87385654 -148531962.85537267 0 0 0 0 3457418.4521150962 -670609.02003838494 0 -670609.02003838494 2015870.0331147993 0 0 0 0 467188145.42914581 161173992.35512209 0 161173992.35512209 295153829.9504652 0 0 0 0 30389529.826389313 2081868.9147610664 0 2081868.9147610664 1319476.3559861183 0 0 0 0 71095.14154624939 13066060.992265224 0 13066060.992265224 -661587.93716239929 0 0 0 0 26339939.349317551 12915518.271564484 0 12915518.271564484 484667.73625850677 0 0 0 0 36315344.02364254 37180745.248736143 0 37180745.248736143 -14758768.421255112 0 0 0 0 31489409.586324692 29891759.185161829 0 29891759.185161829 -3639763.2837600708 0 0 0 0 45681209.661279678 17590079.733212709 0 17590079.733212709 -13132825.928320885 0 0 0 0 20989664.216913223 21706806.168221593 0 21706806.168221593 -5885788.6579246521 0 0 0 0 -281819.46515464783 33819805.162823439 0 33819805.162823439 -5605509.8322200775 0 0 0 0 23253630.968653679 23812779.081307888 0 23812779.081307888 -14460436.442217827 0 0 0 0 18801650.77337265 26936984.293960094 0 26936984.293960094 -13209203.844117284 0 0 0 0 22312523.253612518 23455614.57535696 0 23455614.57535696 -14563174.727298737 0 0 0 0 22831360.537834167 19471691.351606011 0 19471691.351606011 -11539799.03446579 0 0 0 0 -3146947.0717773438 36193922.457212925 0 36193922.457212925 -6594151.0880160332 0 0 0 0 12010564.550380707 19832084.125449657 0 19832084.125449657 -11551778.554009438 0 0 0 0 -41522115.737689972 -15855407.799147129 0 -15855407.799147129 -12613255.753446579 0 0 0 0 -8331674.4023838043 1152163.0630373955 0 1152163.0630373955 -4336510.3942456245 0 0 0 0 1572820.6490736753 921773.84152056277 0 921773.84152056277 -1459535.5267312089 0 0 0 0 -15495087.985862732 -11187147.562231779 0 -11187147.562231779 -1333969.6336193085 0 0 0 0 272765474.20444489 251992966.25780487 0 251992966.25780487 91572786.987345457 0 0 0 0 203369384.73683405 146311972.83121616 0 146311972.83121616 141029217.24594975 0 0 0 0 -6100990.5519676208 211189.58624887466 0 211189.58624887466 -940394.00724309683 0 0 0 0 -11101227.80363369 921498.9362719059 0 921498.9362719059 6879419.5153770447 0 0 0 0 -5572859.8905620575 4089452.0898256302 0 4089452.0898256302 12711273.648747921 0 0 0 0 169815.26696173847 -6289934.7787227277 0 -6289934.7787227277 1986935.1575689316 0 0 0 0 -6862084.3906993866 -2802932.7716537118 0 -2802932.7716537118 6523155.7266225815 0 0 0 0 4303098.9787063599 -7012544.1295318604 0 -7012544.1295318604 24856904.829683304 0 0 0 0 2468526.5804824829 9515362.342479229 0 9515362.342479229 19533332.359043121 0 0 0 0 -9903189.643819809 4204332.2601037025 0 4204332.2601037025 16228389.711751938 0 0 0 0 -7831965.9057502747 3405991.7601442337 0 3405991.7601442337 4549825.0971798897 0 0 0 0 -6725458.3958206177 12130555.918484688 0 12130555.918484688 8166949.8305721283 0 0 0 0 -2560767.4782485962 9983679.6165785789 0 9983679.6165785789 3518038.2149372101 0 0 0 0 -6752474.9112815857 35193757.434031487 0 35193757.434031487 -3032183.8594875336 0 0 0 0 -6107957.8337345123 8745767.8304153681 0 8745767.8304153681 25690933.010286331 0 0 0 0 -33174699.526077271 6596383.7283506393 0 6596383.7283506393 52175687.052132249 0 0 0 0 119583881.36706543 13366778.293756485 0 13366778.293756485 6734173.1377489567 0 0 0 0 39426156.562692642 -35060274.285132647 0 -35060274.285132647 44035762.386892319 0 0 0 0 57992550.993465424 -1227110.9852190018 0 -1227110.9852190018 3400354.220375061 0 0 0 0 39331301.806491256 50697763.166934967 0 50697763.166934967 15793166.059202194 0 0 0 0 38072376.033172607 35226779.407521248 0 35226779.407521248 25560149.080210686 0 0 0 0 68556824.268726349 44327808.857153893 0 44327808.857153893 1917976.4089269638 0 0 0 0 97681830.225669861 70799156.792579651 0 70799156.792579651 44092113.170902729 0 0 0 0 112350259.77435303 -26523621.155478001 0 -26523621.155478001 -117586227.82145214 0 0 0 0 761620.76165882684 616132.63644415885 0 616132.63644415885 -174633.85212144954 0 0 0 0 251815.73485931754 3163465.2539924514 0 3163465.2539924514 559449.16055844375 0 0 0 0 164190640.23473358 9298407.7419452667 0 9298407.7419452667 -94080548.859270096 0 0 0 0 16603050.945878983 56203750.543813705 0 56203750.543813705 106065830.64592648 0 0 0 0 140194790.0294565 81967407.596486121 0 81967407.596486121 -32616942.948926926 0 0 0 0 149647062.48796892 -1793740.2601524591 0 -1793740.2601524591 -3475176.695980072 0 0 0 0 73567385.959418297 92831688.840073586 0 92831688.840073586 -30716265.222287178 0 0 0 0 106926010.62472057 45590433.608084917 0 45590433.608084917 19016810.81634903 0 0 0 0 44459669.55178833 76685201.91178894 0 76685201.91178894 48193268.566581726 0 0 0 0 69472608.510690689 147116513.70328188 0 147116513.70328188 75097542.614416122 0 0 0 0 78709315.498508453 143226118.06344891 0 143226118.06344891 25016773.575000763 0 0 0 0 45439092.202697754 129606792.49228096 0 129606792.49228096 135779266.22196198 0 0 0 0 191586111.08399963 -80765363.837215424 0 -80765363.837215424 -106442612.55009842 0 0 0 0 752036.97436242551 961352.54416959872 0 961352.54416959872 354594.79831455089 0 0 0 0 279039399.97298241 -58450675.361457825 0 -58450675.361457825 -134655082.36742306 0 0 0 0 8023774.5142936707 51172399.00799942 0 51172399.00799942 169233481.57796669 0 0 0 0 53733284.950855255 62540354.52907753 0 62540354.52907753 67797005.830537796 0 0 0 0 -13250526.333726883 -2078431.1933736801 0 -2078431.1933736801 64264229.853750229 0 0 0 0 1612200.7302957792 3086487.0746309888 0 3086487.0746309888 477758.16728168912 0 0 0 0 454619.18444824219 6387461.2531228065 0 6387461.2531228065 3323091.8787813187 0 0 0 0 -46660270.400245667 -15258648.63215065 0 -15258648.63215065 -12899815.316742897 0 0 0 0 5389685.981098175 8408099.6590280533 0 8408099.6590280533 3336040.23234272 0 0 0 0 4998918.6316280365 12179320.388932705 0 12179320.388932705 -24642144.445796013 0 0 0 0 1368707.6263568234 1511148.0870478526 0 1511148.0870478526 37856.536202612799 0 0 0 0 152392088.13413119 -114910656.21507734 0 -114910656.21507734 -76469704.933673859 0 0 0 0 -117292001.13722992 124036485.84092045 0 124036485.84092045 137492193.42884529 0 0 0 0 -82002052.338191986 -39562891.871175766 0 -39562891.871175766 157115499.1333704 0 0 0 0 -41475385.545951843 78540893.963394165 0 78540893.963394165 -41283465.909740448 0 0 0 0 -37159747.108268738 2601909.7820739746 0 2601909.7820739746 -1639392.4599266052 0 0 0 0 -87613711.893692017 -3484447.3056128025 0 -3484447.3056128025 3593686.5311107635 0 0 0 0 -10521976.461751938 93261.042592525482 0 93261.042592525482 2547806.661491394 0 0 0 0 -3059957.2219047546 20893.802019119263 0 20893.802019119263 -5543204.939997673 0 0 0 0 689313.19478075579 2929214.7889442407 0 2929214.7889442407 1866157.2974451943 0 0 0 0 2226918.3997573853 -4990025.0816955566 0 -4990025.0816955566 -2696607.7750444412 0 0 0 0 -4087898.4092521667 -148114.18751263618 0 -148114.18751263618 18497277.907324791 0 0 0 0 18296783.312301636 29939674.78801775 0 29939674.78801775 27381521.806117535 0 0 0 0 9348757.6310043335 7634458.882581234 0 7634458.882581234 278122.96222543716 0 0 0 0 -8665532.7088909149 -3949663.5434575081 0 -3949663.5434575081 10635749.614046097 0 0 0 0 40104006.114738464 -77278706.749279976 0 -77278706.749279976 100699169.03836703 0 0 0 0 -42629948.511884689 143036428.86853695 0 143036428.86853695 73323611.920970917 0 0 0 0 138615962.7090168 -81266500.177028179 0 -81266500.177028179 -104905725.99398804 0 0 0 0 210798772.47756195 -53992863.290053368 0 -53992863.290053368 -134025109.39945984 0 0 0 0 619712.7289095968 742136.29934290098 0 742136.29934290098 438632.48494593729 0 0 0 0 39206404.258651733 49798417.997801781 0 49798417.997801781 58477214.34017396 0 0 0 0 157998180.98635483 53907886.642190933 0 53907886.642190933 -1654831.3124523163 0 0 0 0 66064267.178232193 31988145.611711502 0 31988145.611711502 -6063448.4307949543 0 0 0 0 204062727.13502693 -46490719.514769793 0 -46490719.514769793 -33723564.715568542 0 0 0 0 55054766.983175278 -43078489.409524441 0 -43078489.409524441 -23439442.984140396 0 0 0 0 51347784.82522583 -6895407.8083848953 0 -6895407.8083848953 -13378414.141598701 0 0 0 0 107767453.48198891 -13469641.659414768 0 -13469641.659414768 -19333737.461941719 0 0 0 0 42642798.966684341 17931743.098545551 0 17931743.098545551 -4778775.7422676086 0 0 0 0 54121266.977555275 18386920.510931253 0 18386920.510931253 -4812965.634059906 0 0 0 0 55091776.753923416 9877466.4644846916 0 9877466.4644846916 -10929691.324884415 0 0 0 0 44251888.173252106 9965471.8004522324 0 9965471.8004522324 -8158394.0760250092 0 0 0 0 36189939.512544632 2924824.1697106361 0 2924824.1697106361 -4659395.9468688965 0 0 0 0 51853903.6510849 -490160.83561205864 0 -490160.83561205864 -6534496.2589092255 0 0 0 0 43205014.11828804 7927408.5527238846 0 7927408.5527238846 -1491375.4277915955 0 0 0 0 43236350.509119987 8698009.3492562771 0 8698009.3492562771 -7052078.2447834015 0 0 0 0 41675753.54227066 10680154.165622711 0 10680154.165622711 -2577282.6246595383 0 0 0 0 42582971.210282564 8983383.2234401703 0 8983383.2234401703 -959658.06123542786 0 0 0 0 41622999.539913177 11298907.895931244 0 11298907.895931244 5285527.9167175889 0 0 0 0 25207125.719955444 -8548491.094712615 0 -8548491.094712615 -34214970.497968912 0 0 0 0 42504129.229732513 9988554.3462457657 0 9988554.3462457657 -1743788.3753032684 0 0 0 0 21809257.34094156 -5194760.9999533594 0 -5194760.9999533594 -11296002.382974435 0 0 0 0 293974891.67448425 -84876804.647815704 0 -84876804.647815704 -69418320.507932663 0 0 0 0 89467751.824806213 37261434.887016296 0 37261434.887016296 -34245161.821083069 0 0 0 0 111816634.00262451 50763366.203269958 0 50763366.203269958 -49218841.360836029 0 0 0 0 252039549.36909962 87198623.521086216 0 87198623.521086216 -44725659.412094116 0 0 0 0 111190452.04210663 38640841.142160416 0 38640841.142160416 -34662500.455669403 0 0 0 0 124523658.41784668 -74178626.992164612 0 -74178626.992164612 -68884006.72323513 0 0 0 0 107902772.78953552 -2095543.3341808319 0 -2095543.3341808319 -59752554.456838608 0 0 0 0 201053078.88808441 22009100.671230316 0 22009100.671230316 -59626578.09979248 0 0 0 0 45285118.437107086 5271751.2830762863 0 5271751.2830762863 -992170.45470619202 0 0 0 0 35314683.112213135 5563306.9462909698 0 5563306.9462909698 -717055.37763786316 0 0 0 0 42000964.826934814 7973633.3747501373 0 7973633.3747501373 -4208010.3901500702 0 0 0 0 32147219.023517609 7390408.9356489182 0 7390408.9356489182 -66349.986642837524 0 0 0 0 36736502.1522789 10848782.961060524 0 10848782.961060524 -4489861.3389930725 0 0 0 0 31235667.104753494 9705289.2145152092 0 9705289.2145152092 -3020267.8669681549 0 0 0 0 6663846.828920885 -17396.830379413441 0 -17396.830379413441 -916106.24259850755 0 0 0 0 315645613.84044647 -117479460.84288675 0 -117479460.84288675 40387421.35704422 0 0 0 0 -1137393.6965626422 -208768.64965678845 0 -208768.64965678845 1590448.6246092785 0 0 0 0 326299722.16873741 3926717.878528595 0 3926717.878528595 67206406.681178093 0 0 0 0 29157642.268024445 115539325.45564318 0 115539325.45564318 -47600619.96214509 0 0 0 0 29817002.038661957 9962041.5394906998 0 9962041.5394906998 -4512493.7267756462 0 0 0 0 29967645.131919861 3960911.1923675537 0 3960911.1923675537 -8009962.5430332124 0 0 0 0 33975531.072689056 9221547.5250654221 0 9221547.5250654221 -4456573.0043142438 0 0 0 0 41040947.804052353 13486220.903646469 0 13486220.903646469 -5229864.3509750366 0 0 0 0 34653794.10742569 8919757.291554451 0 8919757.291554451 -7877191.2254619598 0 0 0 0 220085982.39475632 -70066840.796282053 0 -70066840.796282053 -37737860.837396622 0 0 0 0 3366081.7275951095 135885.26396281831 0 135885.26396281831 1623549.4225844517 0 0 0 0 179397.66661167145 12338359.567961454 0 12338359.567961454 9736328.32908535 0 0 0 0 114831308.76981354 9029443.136929512 0 9029443.136929512 -5821555.2537021637 0 0 0 0 -1760542.5697376654 -242297.50902281888 0 -242297.50902281888 2705609.8489445765 0 0 0 0 107347888.84433985 -18078268.80916065 0 -18078268.80916065 600533.99506378174 0 0 0 0 147665730.83617401 -57086458.887956619 0 -57086458.887956619 -25444663.145666122 0 0 0 0 107547630.6581974 -16748384.641032636 0 -16748384.641032636 -33109500.489686966 0 0 0 0 106602780.10789108 -81974425.488466263 0 -81974425.488466263 35100995.144598007 0 0 0 0 89525177.984466553 -43891990.877710342 0 -43891990.877710342 -38691261.650624514 0 0 0 0 138208710.96364212 114783512.10304308 0 114783512.10304308 154155628.48905849 0 0 0 0 312118731.87800598 78275327.582141876 0 78275327.582141876 27631999.281385422 0 0 0 0 172448431.6591835 -66371242.839207649 0 -66371242.839207649 28509512.745685816 0 0 0 0 188695262.1859169 -43747909.997611046 0 -43747909.997611046 -85563604.890192032 0 0 0 0 160750667.01173401 -2010326.1758446693 0 -2010326.1758446693 -71632413.805114746 0 0 0 0 127536700.64375305 -13540198.752985954 0 -13540198.752985954 381115.08049368858 0 0 0 0 -40044471.602531433 22106960.830511093 0 22106960.830511093 -57597327.901673555 0 0 0 0 170406107.10932541 -26778599.98434639 0 -26778599.98434639 -90038793.915532112 0 0 0 0 189145849.3419075 -59719731.115690231 0 -59719731.115690231 -92866565.224931717 0 0 0 0 524542376.95569611 6943994.7306613922 0 6943994.7306613922 -87967031.263560295 0 0 0 0 112580948.25083351 -28700445.904789448 0 -28700445.904789448 -72708375.507198334 0 0 0 0 109275892.08759499 -41222689.229703426 0 -41222689.229703426 -116065747.27934265 0 0 0 0 -9568051.5810489655 61548268.562420368 0 61548268.562420368 -5831252.4305381775 0 0 0 0 7041075.0302276611 -11031493.684813023 0 -11031493.684813023 -19771103.093231201 0 0 0 0 112897734.09984589 52838658.965703011 0 52838658.965703011 -31865796.62730217 0 0 0 0 121275460.55179977 -19759259.76158762 0 -19759259.76158762 -68096606.5046978 0 0 0 0 164819929.98973656 -16404785.263089657 0 -16404785.263089657 -97829262.396305084 0 0 0 0 144313287.27352524 -21963256.8685112 0 -21963256.8685112 -68428869.876588941 0 0 0 0 165935863.80332565 115785095.76452637 0 115785095.76452637 -14337020.536979675 0 0 0 0 293951214.17394257 10273200.495471954 0 10273200.495471954 -94903980.839308977 0 0 0 0 10153334.594276428 101346890.08961105 0 101346890.08961105 -7839562.1293778419 0 0 0 0 43428413.543762207 29357934.485403061 0 29357934.485403061 -30537651.81817627 0 0 0 0 58395406.565155029 50575746.319730759 0 50575746.319730759 -26610784.938148499 0 0 0 0 57689454.708665848 49777701.158763409 0 49777701.158763409 -10871574.154895782 0 0 0 0 69906447.526634216 58038052.74290657 0 58038052.74290657 -18942780.600774765 0 0 0 0 51434304.230331421 41618751.970294952 0 41618751.970294952 -11846273.721758127 0 0 0 0 76203918.900558472 30517069.372990608 0 30517069.372990608 -35768146.223770142 0 0 0 0 41002137.856033325 27791898.061042786 0 27791898.061042786 -33518915.417011261 0 0 0 0 63459648.336307526 11703367.0344944 0 11703367.0344944 -39274502.281387329 0 0 0 0 1753854.9542236328 35064742.779428482 0 35064742.779428482 -27010782.34463501 0 0 0 0 47302530.668245316 45795970.964489937 0 45795970.964489937 -40971780.782943726 0 0 0 0 2255788.6128409384 -55544.640049293637 0 -55544.640049293637 87165.369003256783 0 0 0 0 391076308.20272064 140889761.63983059 0 140889761.63983059 53583771.738212585 0 0 0 0 -92826847.063724518 69664643.127930641 0 69664643.127930641 5888408.4287128448 0 0 0 0 2114276.8570144214 -370198.65588876931 0 -370198.65588876931 -1059013.7538793571 0 0 0 0 -145326.89429187775 28499091.931456566 0 28499091.931456566 -40112123.283634186 0 0 0 0 418145122.08372116 -229909702.8661356 0 -229909702.8661356 -153329099.04979897 0 0 0 0 242297440.84971619 172211474.5484848 0 172211474.5484848 426739378.35726929 0 0 0 0 19843482.891361237 2452214.9749441147 0 2452214.9749441147 -11158940.30373764 0 0 0 0 7075363.1790950214 -4251328.6846173238 0 -4251328.6846173238 -4856390.2610475719 0 0 0 0 37113419.023826599 20293651.494194031 0 20293651.494194031 -28102941.069671631 0 0 0 0 19481458.031510517 7385023.0135726575 0 7385023.0135726575 -5598080.8583593387 0 0 0 0 27260416.097654343 16885328.860021114 0 16885328.860021114 -27463757.825428009 0 0 0 0 9159036.6525878906 41776596.631420135 0 41776596.631420135 -40454966.095617115 0 0 0 0 11411407.815920696 6452608.7605287153 0 6452608.7605287153 -1788244.4383800048 0 0 0 0 11738464.511638641 46794507.453191757 0 46794507.453191757 -34447104.136996269 0 0 0 0 -519524.46965364367 2551709.1407507821 0 2551709.1407507821 3544411.909028098 0 0 0 0 -44605572.825265884 124766988.42079329 0 124766988.42079329 -131087596.73126793 0 0 0 0 -41886135.089267731 119613723.57053137 0 119613723.57053137 -195902816.85706806 0 0 0 0 71025813.192790985 -143499142.19954395 0 -143499142.19954395 36810476.864650726 0 0 0 0 -63060659.007099152 187470884.52810097 0 187470884.52810097 75429327.447244644 0 0 0 0 512946926.55080605 -6264767.6252250671 0 -6264767.6252250671 -81509232.915716171 0 0 0 0 -488439.05596865714 1185533.4077248466 0 1185533.4077248466 1849467.235703541 0 0 0 0 -112180472.3574667 47061632.68188715 0 47061632.68188715 44837267.0170784 0 0 0 0 -40992221.363425255 -1651408.6096167564 0 -1651408.6096167564 22651156.64358902 0 0 0 0 18702621.010379791 72484249.423229218 0 72484249.423229218 20772713.661312103 0 0 0 0 -69169275.447540283 72604817.288122177 0 72604817.288122177 59793375.624583244 0 0 0 0 20248260.438063502 141741105.92203528 0 141741105.92203528 -20911987.647697449 0 0 0 0 209925929.3729248 259217292.59790611 0 259217292.59790611 50283583.237548828 0 0 0 0 191029490.54868317 82125898.520517349 0 82125898.520517349 -30211724.738677979 0 0 0 0 58162539.000043869 46430585.220117569 0 46430585.220117569 3809282.4360427856 0 0 0 0 65518214.971269608 58245518.71518755 0 58245518.71518755 -34554290.875358582 0 0 0 0 1025831.1419277191 29592339.129023075 0 29592339.129023075 14228051.337135315 0 0 0 0 14231445.704193115 61881549.080789566 0 61881549.080789566 14625193.092479706 0 0 0 0 18958754.483798981 -2469682.7653121948 0 -2469682.7653121948 -5684112.9023981094 0 0 0 0 14937761.185201876 -541494.96807931736 0 -541494.96807931736 -6559952.6730552055 0 0 0 0 16427308.770816803 1716343.6612091064 0 1716343.6612091064 -7098832.2224445343 0 0 0 0 9320933.9542102814 8614275.4041964412 0 8614275.4041964412 -8709493.7148551941 0 0 0 0 10126575.649029732 2354578.0597733259 0 2354578.0597733259 -1033132.2894020081 0 0 0 0 12024824.655996738 -2224318.9977927897 0 -2224318.9977927897 -10345842.824155411 0 0 0 0 67343264.284809113 -21409179.056012154 0 -21409179.056012154 -48670386.299461365 0 0 0 0 563949985.61552048 79877046.484544754 0 79877046.484544754 -273852345.63684845 0 0 0 0 152209820.17463684 -27383937.759447098 0 -27383937.759447098 -186906911.09739113 0 0 0 0 95715049.604820251 27006703.250694275 0 27006703.250694275 -3422601.3503608704 0 0 0 0 31292598.59198761 -11346898.826201439 0 -11346898.826201439 -20112921.623406984 0 0 0 0 18027125.464187622 -5699182.7726969719 0 -5699182.7726969719 -20223185.69169905 0 0 0 0 33442301.863585949 11159752.533385903 0 11159752.533385903 -37542109.663323402 0 0 0 0 110195961.25404358 27730473.95176506 0 27730473.95176506 -21874931.53922224 0 0 0 0 20337353.658508301 5677207.0069541931 0 5677207.0069541931 -25028968.102178097 0 0 0 0 18725494.069762945 3716062.7225343287 0 3716062.7225343287 -7546200.1899296232 0 0 0 0 11762300.740531921 4663761.3802704811 0 4663761.3802704811 -11390989.99116683 0 0 0 0 36546746.300544739 -4506293.4537613392 0 -4506293.4537613392 -7071147.5556803942 0 0 0 0 20813204.968399048 -4084243.4517655373 0 -4084243.4517655373 -8406002.5267524719 0 0 0 0 10825651.691322327 -2082450.0052056313 0 -2082450.0052056313 896924.75215244293 0 0 0 0 13327109.697471201 4160849.361922361 0 4160849.361922361 -4727120.2389436997 0 0 0 0 8313054.2367427349 -4146552.0230415687 0 -4146552.0230415687 -3853214.0160935167 0 0 0 0 21669065.949676514 667253.67883110046 0 667253.67883110046 -11374143.529085159 0 0 0 0 19251459.134512305 60123731.123098545 0 60123731.123098545 -24037821.144428253 0 0 0 0 -15831241.635131836 -8524468.0938854218 0 -8524468.0938854218 13503714.029445648 0 0 0 0 -11248358.964424133 -14168046.171968937 0 -14168046.171968937 17333572.327892303 0 0 0 0 -31860408.631721497 -14086407.933011532 0 -14086407.933011532 23923167.908283472 0 0 0 0 17984476.215354919 -35711678.441362381 0 -35711678.441362381 -17830093.590082169 0 0 0 0 -25617479.198432922 838540.34868609905 0 838540.34868609905 9081678.6892647743 0 0 0 0 -18379903.7266922 -25810459.472812176 0 -25810459.472812176 34033250.008551121 0 0 0 0 -237687.13969967328 -67414.590387698263 0 -67414.590387698263 373447.97596029704 0 0 0 0 195030080.60775185 74198004.801051199 0 74198004.801051199 -39833953.090026379 0 0 0 0 14435636.280632019 28911257.632805109 0 28911257.632805109 3327187.8681974411 0 0 0 0 150469579.73799896 -44072584.402728319 0 -44072584.402728319 -44627595.040292263 0 0 0 0 72336939.991073608 37329768.670870066 0 37329768.670870066 -61328129.941159725 0 0 0 0 37768378.083755493 81211172.454327583 0 81211172.454327583 95190320.630536079 0 0 0 0 8481077.1410086825 -4730736.1211557351 0 -4730736.1211557351 -6052416.9387164805 0 0 0 0 21706848.588230133 -31488857.280512571 0 -31488857.280512571 -52093623.13444376 0 0 0 0 -32171444.471252441 -52997977.897203207 0 -52997977.897203207 21554923.547596931 0 0 0 0 11292566.378185272 -17390708.738461256 0 -17390708.738461256 -27140871.16669178 0 0 0 0 14119676.345514819 -8453516.5714745466 0 -8453516.5714745466 -13104522.275630377 0 0 0 0 7656183.2086906433 -14298887.191054583 0 -14298887.191054583 -5501099.3398528099 0 0 0 0 13294842.955501556 -15434790.868205786 0 -15434790.868205786 -26064967.770558357 0 0 0 0 13533172.238300323 -22536733.712792516 0 -22536733.712792516 -34563595.22830081 0 0 0 0 24299045.673099022 -4015534.0625973865 0 -4015534.0625973865 -15677140.259972233 0 0 0 0 10733898.174137115 -19425686.32393527 0 -19425686.32393527 -25175615.108122349 0 0 0 0 10924895.888066292 -19729230.454813659 0 -19729230.454813659 -29163798.433429241 0 0 0 0 50630376.461475372 9142199.0387701988 0 9142199.0387701988 1807632.53099823 0 0 0 0 83006751.629092216 -25959206.946735859 0 -25959206.946735859 -36929445.571655273 0 0 0 0 16769013.556984834 4164445.7641632855 0 4164445.7641632855 -5870909.4116355311 0 0 0 0 47938194.921918869 13599835.950466156 0 13599835.950466156 5394156.3015993834 0 0 0 0 94974267.609109879 -12698865.518538475 0 -12698865.518538475 -38107511.917644501 0 0 0 0 94695119.790181637 -6383102.8473098874 0 -6383102.8473098874 -50837006.609352112 0 0 0 0 83483585.932601929 -3477590.0708503723 0 -3477590.0708503723 -44250941.12537384 0 0 0 0 64306661.031997681 12352522.675689697 0 12352522.675689697 -39566770.577428818 0 0 0 0 70978889.50053215 17894017.370243549 0 17894017.370243549 -41165787.326278687 0 0 0 0 97707163.170036316 14703885.505821228 0 14703885.505821228 -42443101.893667221 0 0 0 0 88441957.55202055 -12278397.437265992 0 -12278397.437265992 -23561226.007511139 0 0 0 0 82885244.574806213 -4190695.7771987915 0 -4190695.7771987915 -35458961.204063416 0 0 0 0 87573341.223480225 -4643791.4461746216 0 -4643791.4461746216 -43947276.164363861 0 0 0 0 67410795.215591431 1783360.7713546753 0 1783360.7713546753 -35960673.299137115 0 0 0 0 82368298.629486084 -9570585.9622898102 0 -9570585.9622898102 -31139163.518867493 0 0 0 0 15446639.699745178 -2542724.9169416428 0 -2542724.9169416428 -7219398.0139193535 0 0 0 0 63979381.435455322 -5202039.4000244141 0 -5202039.4000244141 -22081554.370063782 0 0 0 0 18472246.338702641 -1057683.8454722855 0 -1057683.8454722855 -11445310.143559499 0 0 0 0 56831044.099357605 -2971151.7635574341 0 -2971151.7635574341 -22015135.3496418 0 0 0 0 36655652.452088416 5859809.5820776224 0 5859809.5820776224 -25743767.650201797 0 0 0 0 44741430.735984802 25658490.788862228 0 25658490.788862228 -36456693.958818913 0 0 0 0 46619851.036109924 5822830.7690734863 0 5822830.7690734863 -23744285.082391739 0 0 0 0 11510915.226928711 2580438.0593643188 0 2580438.0593643188 481583.89318084717 0 0 0 0 -2904310.3869628906 -8540526.7301387787 0 -8540526.7301387787 -30225290.272469759 0 0 0 0 11952506.402701091 -3917568.9679589123 0 -3917568.9679589123 -5248798.9762054477 0 0 0 0 86772326.206829071 1596430.5615692139 0 1596430.5615692139 -3956045.2154312134 0 0 0 0 17886648.329509567 1615873.4034514651 0 1615873.4034514651 -8250016.0626179297 0 0 0 0 3314536.0208651125 -2293754.5420991327 0 -2293754.5420991327 -3705098.3787379526 0 0 0 0 29547845.42956543 15517497.816986084 0 15517497.816986084 3842142.0511512756 0 0 0 0 27779086.397688963 -3361451.8252207991 0 -3361451.8252207991 -17323770.120272238 0 0 0 0 11772823.929580688 864328.12935066223 0 864328.12935066223 -8400053.9567108154 0 0 0 0 17012583.660718456 -4097633.3013875703 0 -4097633.3013875703 -14958853.712556483 0 0 0 0 90005082.075054169 -229977396.1299758 0 -229977396.1299758 10578886.642936707 0 0 0 0 519183412.57962799 -79877912.239777565 0 -79877912.239777565 -48125910.752802849 0 0 0 0 211854631.52222443 -106537402.99188852 0 -106537402.99188852 32394458.416259766 0 0 0 0 70272325.749420166 -4987556.9488792419 0 -4987556.9488792419 -31412051.030953169 0 0 0 0 873051.47181133926 -1525166.6713131331 0 -1525166.6713131331 -640918.90460697189 0 0 0 0 641011314.40793991 52105403.882977009 0 52105403.882977009 -32945132.799358368 0 0 0 0 -53692216.528282166 -63432335.419083595 0 -63432335.419083595 8788151.0213317871 0 0 0 0 375509010.49316406 -202058970.06202269 0 -202058970.06202269 -68005770.94934082 0 0 0 0 247352508.51576614 -44756417.551610112 0 -44756417.551610112 58152918.725297928 0 0 0 0 1844722.4662747793 -3107094.8529468216 0 -3107094.8529468216 -1526414.2594935317 0 0 0 0 404112296.70462418 -51378903.89339304 0 -51378903.89339304 -56607885.456165552 0 0 0 0 -16305187.25111866 -26115098.968196273 0 -26115098.968196273 20402641.487829208 0 0 0 0 167014346.28141403 105655134.42714071 0 105655134.42714071 42843281.553614736 0 0 0 0 255759957.25699615 195796455.42013979 0 195796455.42013979 -37766765.008090973 0 0 0 0 654975620.66398239 372158353.2746501 0 372158353.2746501 39214834.356108189 0 0 0 0 737792366.65929794 -48708954.259979725 0 -48708954.259979725 -78972087.983231068 0 0 0 0 255262670.18312836 171612792.42633533 0 171612792.42633533 41274393.261733532 0 0 0 0 263477618.19815063 165531031.46081543 0 165531031.46081543 -38432610.300488472 0 0 0 0 2442037.2136917114 12974000.566865921 0 12974000.566865921 46011773.766266823 0 0 0 0 -556469.65878894925 1313877.0637898296 0 1313877.0637898296 2024134.4095208868 0 0 0 0 421951948.09094334 4886179.3614930511 0 4886179.3614930511 -185440302.89422798 0 0 0 0 324706761.32641792 349435871.30486131 0 349435871.30486131 193550972.83995438 0 0 0 0 485237511.05864334 315333552.80900145 0 315333552.80900145 15628192.221528053 0 0 0 0 163859901.66657257 77806273.04642415 0 77806273.04642415 190224479.24998379 0 0 0 0 436299232.77145004 252726698.80683661 0 252726698.80683661 147630188.49745548 0 0 0 0 373415534.05029678 378260292.23905611 0 378260292.23905611 112682969.90672207 0 0 0 0 -41101369.327693939 371673061.08904362 0 371673061.08904362 250060088.84782887 0 0 0 0 395846141.8226819 402429913.32320625 0 402429913.32320625 131584195.38948822 0 0 0 0 201717643.38802719 144085107.17785931 0 144085107.17785931 328467816.17234087 0 0 0 0 211707669.5859375 187388079.59380078 0 187388079.59380078 152052054.17728615 0 0 0 0 13607186.116607666 105153966.47536659 0 105153966.47536659 166084628.67274761 0 0 0 0 10139639.626953125 185617580.05140018 0 185617580.05140018 -228810811.90394497 0 0 0 0 9115163.1091003418 4569542.7825994492 0 4569542.7825994492 -49384782.86742878 0 0 0 0 -2845918.013874054 127413315.33891773 0 127413315.33891773 -169604587.90762711 0 0 0 0 -517542.48843026534 2656816.5853015603 0 2656816.5853015603 3655589.6592782419 0 0 0 0 -63886074.980718613 132224160.8265028 0 132224160.8265028 1934230.4889526367 0 0 0 0 -18863691.899269104 -15295184.177836418 0 -15295184.177836418 -8882901.0918893814 0 0 0 0 40798895.925285339 34484812.003772736 0 34484812.003772736 32161519.707994461 0 0 0 0 4481908.4886814635 198434.60847750306 0 198434.60847750306 107638.36882710457 0 0 0 0 -22210741.92829895 10978990.408871651 0 10978990.408871651 19665362.13482666 0 0 0 0 8175414.2570648193 24894467.55562973 0 24894467.55562973 8077155.8832550049 0 0 0 0 2445269.3618659973 23138481.887598991 0 23138481.887598991 14357917.88609314 0 0 0 0 13673937.167048145 3530887.8505334891 0 3530887.8505334891 1601338.9537822641 0 0 0 0 53364692.20218277 22832417.779483795 0 22832417.779483795 7536539.5201187134 0 0 0 0 9042138.5007648766 339172.93608642183 0 339172.93608642183 -6315466.4189296588 0 0 0 0 97187345.8312397 -9896988.7146010399 0 -9896988.7146010399 -19252545.125480652 0 0 0 0 96927349.013096809 36745981.438929319 0 36745981.438929319 23834685.577535629 0 0 0 0 87020086.621803284 21950707.163723946 0 21950707.163723946 4206563.6010818481 0 0 0 0 90502047.070407867 8997510.9345645905 0 8997510.9345645905 -2276119.9694004059 0 0 0 0 80744511.588684082 24038847.750984192 0 24038847.750984192 -15581265.101451874 0 0 0 0 77668488.488300323 4158356.0798110962 0 4158356.0798110962 4432354.5016822815 0 0 0 0 50044722.786373138 19363727.941373825 0 19363727.941373825 -29896656.193729401 0 0 0 0 59104036.713153839 34230526.470526218 0 34230526.470526218 -6457219.7557430267 0 0 0 0 103701714.53392029 9318244.8462333679 0 9318244.8462333679 -8903115.9529020786 0 0 0 0 42341857.539196014 34772755.208843231 0 34772755.208843231 43809388.986204147 0 0 0 0 169272522.98916626 66002346.981734276 0 66002346.981734276 33902790.989351273 0 0 0 0 51127526.582890511 -6333630.2934801579 0 -6333630.2934801579 38668652.577497482 0 0 0 0 92619361.91230011 -9245898.748167038 0 -9245898.748167038 22395712.870615959 0 0 0 0 167538596.22106171 22215266.73325634 0 22215266.73325634 -45452388.174176216 0 0 0 0 143049340.10935402 107825465.55844533 0 107825465.55844533 121593994.78293037 0 0 0 0 357331767.1889267 451259377.99267364 0 451259377.99267364 259873744.7932148 0 0 0 0 753786.09229724295 683339.75293560326 0 683339.75293560326 2259591.5322086699 0 0 0 0 -281723365.09444809 23220884.206451416 0 23220884.206451416 210401051.3099041 0 0 0 0 2256714009.5171027 185709927.98382294 0 185709927.98382294 -4613919.3973693848 0 0 0 0 -18061861.54434967 244464749.53622055 0 244464749.53622055 370770700.58126974 0 0 0 0 -19495327.87323761 93117130.682924747 0 93117130.682924747 -29698027.38914299 0 0 0 0 67844129.107006073 35915074.769272327 0 35915074.769272327 -40189562.978963852 0 0 0 0 -140726152.10585022 45688513.853352547 0 45688513.853352547 9011884.3443975449 0 0 0 0 1756125.7316770488 3208866.5288105458 0 3208866.5288105458 7142709.2649190351 0 0 0 0 1940286003.8427639 -190947928.53685367 0 -190947928.53685367 -244291432.08787155 0 0 0 0 1225790993.8465729 -91686679.591017723 0 -91686679.591017723 225121180.64926338 0 0 0 0 916940800.58299255 -87973194.361894608 0 -87973194.361894608 238920969.93511772 0 0 0 0 1430750730.9963531 179989856.32752419 0 179989856.32752419 -16139754.751563072 0 0 0 0 663771748.16397095 -44807111.082065582 0 -44807111.082065582 11153871.299659729 0 0 0 0 1229806653.1940918 230112161.33383656 0 230112161.33383656 -295301637.60200214 0 0 0 0 578458754.05557251 -253687436.26170874 0 -253687436.26170874 -290438959.19620323 0 0 0 0 -123631731.74777985 125425529.23831844 0 125425529.23831844 96559270.575198293 0 0 0 0 813558691.74626923 242322229.07815647 0 242322229.07815647 124097615.20922279 0 0 0 0 250639064.50652313 -87796265.82925415 0 -87796265.82925415 112899025.97522652 0 0 0 0 191834016.13873291 44083712.139019012 0 44083712.139019012 155295696.48111153 0 0 0 0 -65203738.048149109 -171421463.86977577 0 -171421463.86977577 238316346.980299 0 0 0 0 204145844.27745819 -14384583.013767958 0 -14384583.013767958 432860581.74035454 0 0 0 0 768975357.92261505 302616171.67545891 0 302616171.67545891 503634440.22659874 0 0 0 0 519741500.29797363 -168539394.64956665 0 -168539394.64956665 196854180.10404301 0 0 0 0 523263107.32340622 -137970751.91714621 0 -137970751.91714621 273050502.98053169 0 0 0 0 214565320.64198303 -207957024.97886944 0 -207957024.97886944 168363038.83551216 0 0 0 0 244881461.55801392 27636768.851478577 0 27636768.851478577 181465723.84654999 0 0 0 0 17141942.497349948 3817046.8098320775 0 3817046.8098320775 -2669772.9738942105 0 0 0 0 -57269707.320861816 217842158.69284588 0 217842158.69284588 -234704387.70980239 0 0 0 0 107973879.99455261 -131307545.99597454 0 -131307545.99597454 223409772.53270882 0 0 0 0 -202933941.13674927 59216002.247199535 0 59216002.247199535 68256281.825858116 0 0 0 0 -185690025.19086456 240707891.79650402 0 240707891.79650402 185115449.89746326 0 0 0 0 -1874227.9141159058 -354392405.42203522 0 -354392405.42203522 433152296.37342262 0 0 0 0 1350913535.9470901 -730158879.01581919 0 -730158879.01581919 96809618.733080864 0 0 0 0 2640255157.8175507 -222153641.45636749 0 -222153641.45636749 -148371383.00779244 0 0 0 0 2280044951.0332947 128071830.7618928 0 128071830.7618928 -228145531.53796291 0 0 0 0 1358079484.8583374 -524321625.69711733 0 -524321625.69711733 -177167541.36064899 0 0 0 0 1096906420.110321 -105741988.01774466 0 -105741988.01774466 42196443.586510658 0 0 0 0 587420931.90861511 -220543025.33168316 0 -220543025.33168316 130598076.33370876 0 0 0 0 1163119048.8760529 -70331673.135661125 0 -70331673.135661125 -94867954.712711334 0 0 0 0 521392374.27519608 -93809721.14070189 0 -93809721.14070189 51291110.915180206 0 0 0 0 1162082351.9532506 66361178.698694654 0 66361178.698694654 -69018577.038816452 0 0 0 0 1731521843.0904236 -93240293.613487244 0 -93240293.613487244 -225331865.60872746 0 0 0 0 1166794866.1989441 135022544.87546206 0 135022544.87546206 -158767128.69769859 0 0 0 0 1387879556.1118622 36724365.885861397 0 36724365.885861397 -199958228.01567078 0 0 0 0 1219334144.1284332 6278669.9746229649 0 6278669.9746229649 -134530632.79514885 0 0 0 0 597521678.70826721 114997079.9683876 0 114997079.9683876 -26997047.933624268 0 0 0 0 192045414.64120483 136336133.59435272 0 136336133.59435272 91794459.047617674 0 0 0 0 427995176.33152008 68807680.851722717 0 68807680.851722717 65392337.193870544 0 0 0 0 12679679.316864014 -127824285.59480023 0 -127824285.59480023 94590349.649250031 0 0 0 0 -135216546.22123718 50172847.409370422 0 50172847.409370422 49019331.191022873 0 0 0 0 -100177722.48593903 114324487.68170118 0 114324487.68170118 140310380.27864456 0 0 0 0 -173949684.73028564 111640765.21223974 0 111640765.21223974 8926762.194108963 0 0 0 0 -189955230.67610168 -71557862.659696579 0 -71557862.659696579 -13922179.990898132 0 0 0 0 -173257198.27825928 -15091984.520888329 0 -15091984.520888329 99232854.580854416 0 0 0 0 -155506425.06658173 -93876012.328549862 0 -93876012.328549862 -72031482.866727829 0 0 0 0 -118790661.93093872 -164145440.50290966 0 -164145440.50290966 44485579.621276855 0 0 0 0 -131497513.68101501 12986728.235564232 0 12986728.235564232 157858899.76410103 0 0 0 0 -91047896.037391663 152657804.94201663 0 152657804.94201663 180367721.75561523 0 0 0 0 -89358908.553695679 176543438.76199245 0 176543438.76199245 3724410.2852630615 0 0 0 0 -111575591.9155426 17556944.368392944 0 17556944.368392944 125500548.42451191 0 0 0 0 -127329389.97008896 12302356.508570671 0 12302356.508570671 260445113.25823784 0 0 0 0 235784.20976927131 -599179.65403594449 0 -599179.65403594449 646869.63132923807 0 0 0 0 461569131.84165955 220697618.52560234 0 220697618.52560234 239476923.05182865 0 0 0 0 903279470.0160141 -56539994.699613571 0 -56539994.699613571 -546157938.72111702 0 0 0 0 1373491659.9296722 83485345.044559479 0 83485345.044559479 -116651957.27459145 0 0 0 0 548986186.04521179 267653113.17259121 0 267653113.17259121 15376889.592899323 0 0 0 0 622881.64927769452 -381616.93672409467 0 -381616.93672409467 513164.39733812091 0 0 0 0 1132118465.8989105 219729828.01224279 0 219729828.01224279 -113394475.41504288 0 0 0 0 610008434.03573608 -161643068.77554083 0 -161643068.77554083 -235363312.30126381 0 0 0 0 1172426853.2737122 5719864.5008544922 0 5719864.5008544922 -50915998.327979565 0 0 0 0 1340604060.9786072 -22868365.289881706 0 -22868365.289881706 -46111198.219927073 0 0 0 0 1046424944.495285 70831816.862014771 0 70831816.862014771 -46190085.511459351 0 0 0 0 -63107528.666311264 37715371.916950226 0 37715371.916950226 19465703.477706909 0 0 0 0 1578558313.315855 28764436.164115906 0 28764436.164115906 -131233100.82516098 0 0 0 0 2033575.781684991 6422175.5848804414 0 6422175.5848804414 13407600.647176262 0 0 0 0 1386128961.0170288 128938536.85511494 0 128938536.85511494 41180817.360230446 0 0 0 0 -5898296.4333992004 29799826.602972031 0 29799826.602972031 -1572158.3642044067 0 0 0 0 -16129040.858810425 46871556.191709518 0 46871556.191709518 -3941968.881685257 0 0 0 0 6038593.2991981506 40910024.852278709 0 40910024.852278709 -2833815.108215332 0 0 0 0 -24602909.385406494 9679301.8027534485 0 9679301.8027534485 13241435.923015594 0 0 0 0 7044292.7145233154 23425552.16796875 0 23425552.16796875 9153617.3581781387 0 0 0 0 7959667.1488342285 16630949.455280304 0 16630949.455280304 35090077.078868866 0 0 0 0 -110977.49270248413 32545774.722145081 0 32545774.722145081 30111333.702772141 0 0 0 0 611276728.10466003 -492159263.64161444 0 -492159263.64161444 74132986.625743181 0 0 0 0 13325917.889304504 3940588.3721230701 0 3940588.3721230701 -8666025.100058293 0 0 0 0 -1354681.4250259399 31466104.627346039 0 31466104.627346039 40068470.463436127 0 0 0 0 873476172.06167603 302016856.723405 0 302016856.723405 163417205.06969357 0 0 0 0 1838639.8425026443 10802921.483233087 0 10802921.483233087 20323985.144776125 0 0 0 0 1314945585.2809448 227786843.81757307 0 227786843.81757307 588326.02314186096 0 0 0 0 1444630103.9493866 280712601.50717831 0 280712601.50717831 -105605940.62070274 0 0 0 0 1524841668.7750854 412606184.43779325 0 412606184.43779325 86953084.291827202 0 0 0 0 1237995941.1662712 580363005.24874711 0 580363005.24874711 343407388.65039539 0 0 0 0 -768806800.44516754 716721685.11136544 0 716721685.11136544 468426046.59612751 0 0 0 0 1213863.0430765096 1710406.5440746322 0 1710406.5440746322 -298156.47701956891 0 0 0 0 -40353433.481414795 -148062566.13174152 0 -148062566.13174152 -415381417.83937931 0 0 0 0 602681075.33276367 72624712.336745054 0 72624712.336745054 -686028707.99222565 0 0 0 0 2226320669.5774841 543021097.63868523 0 543021097.63868523 -80194171.875574112 0 0 0 0 2689256.5915503353 1756871.0304264985 0 1756871.0304264985 2785704.4249479896 0 0 0 0 1726999535.1240845 849624858.06640506 0 849624858.06640506 303175531.21373367 0 0 0 0 3075968901.2099304 410385519.03252244 0 410385519.03252244 -667644900.93984342 0 0 0 0 612065.50208173692 -312794.38788492605 0 -312794.38788492605 2430637.3015104253 0 0 0 0 302574991.83817291 -234091898.64658916 0 -234091898.64658916 121242136.75915527 0 0 0 0 -804624112.83060455 348530605.02875555 0 348530605.02875555 142489602.31967163 0 0 0 0 333406524.78052235 -64793592.992242783 0 -64793592.992242783 29529341.439647198 0 0 0 0 -840406875.19216919 511277527.19261503 0 511277527.19261503 2143289.7066709399 0 0 0 0 -44163090.555252075 -16860554.767057896 0 -16860554.767057896 120558329.19760942 0 0 0 0 10310461.35005188 -252414857.65156722 0 -252414857.65156722 446312448.01627016 0 0 0 0 138004093.03373718 -142693302.86447823 0 -142693302.86447823 113930716.50607193 0 0 0 0 43765379.392181396 -95053301.634573936 0 -95053301.634573936 180468345.08102751 0 0 0 0 25817244.78119278 -29547810.219081044 0 -29547810.219081044 59747170.881002426 0 0 0 0 77456970.02796936 -109176554.07092619 0 -109176554.07092619 118615209.6638 0 0 0 0 68215868.637496948 -49079043.124598265 0 -49079043.124598265 8657559.1139676422 0 0 0 0 -12811826.440002441 54160295.278236747 0 54160295.278236747 10606095.215411663 0 0 0 0 27795850.252914429 -9185964.6527719498 0 -9185964.6527719498 96523984.269535542 0 0 0 0 -21400884.143844604 61275558.314146519 0 61275558.314146519 51695672.20156908 0 0 0 0 -8461952.3692398071 58707195.029228806 0 58707195.029228806 -16288402.11329937 0 0 0 0 -104737447.64378357 230535674.88308048 0 230535674.88308048 -38514439.154578209 0 0 0 0 -1620277.030708313 17543191.247265458 0 17543191.247265458 148237064.52150059 0 0 0 0 -212554076.08152771 35160901.386955261 0 35160901.386955261 351291021.81167102 0 0 0 0 45426208.713962555 35158157.450141907 0 35158157.450141907 5799264.7976341248 0 0 0 0 36799650.70946312 47735106.629322529 0 47735106.629322529 9284453.8544845581 0 0 0 0 19988461.15149039 2269309.7568372712 0 2269309.7568372712 -10327931.45984415 0 0 0 0 10788659.255142212 50775096.217803955 0 50775096.217803955 -11018865.277557373 0 0 0 0 41302676.594764709 41899408.789120674 0 41899408.789120674 -13488069.106231689 0 0 0 0 46105477.173841476 30598006.195110798 0 30598006.195110798 6451264.9871711731 0 0 0 0 10344531.525665283 33037225.136991501 0 33037225.136991501 8391674.5210399628 0 0 0 0 44263363.882904053 24453324.154773712 0 24453324.154773712 -11324123.134361267 0 0 0 0 62074697.469236374 -5399096.5477471352 0 -5399096.5477471352 -17384596.033073425 0 0 0 0 37307969.931755066 18103573.51155448 0 18103573.51155448 1236175.1664075851 0 0 0 0 34063075.414741516 38844203.74471283 0 38844203.74471283 -131222488.88162577 0 0 0 0 40987172.401817322 25278483.971799135 0 25278483.971799135 10835143.153870344 0 0 0 0 56623880.590393066 32294196.26583004 0 32294196.26583004 -6578342.880865097 0 0 0 0 12825894.582656119 9093760.4309384674 0 9093760.4309384674 4075111.7994903591 0 0 0 0 23434146.947807193 207544.76478577405 0 207544.76478577405 -8903635.523666285 0 0 0 0 20479355.297058105 27607481.955785751 0 27607481.955785751 14554612.306622505 0 0 0 0 19312910.135503598 20442162.987281341 0 20442162.987281341 11050165.383512966 0 0 0 0 17430131.37286377 36212686.925077438 0 36212686.925077438 15801851.21920681 0 0 0 0 13820111.9036026 20282594.979829788 0 20282594.979829788 12495044.621456146 0 0 0 0 20200690.15184021 28075806.164666653 0 28075806.164666653 17818078.52728653 0 0 0 0 11600058.936270237 23517652.69526878 0 23517652.69526878 18763015.587983131 0 0 0 0 14697943.111460686 44529630.144557476 0 44529630.144557476 10271929.052336693 0 0 0 0 25058137.763648421 24160871.935653564 0 24160871.935653564 9167390.3791307416 0 0 0 0 -2446738.6686439514 16403696.507856607 0 16403696.507856607 -3505309.7148733139 0 0 0 0 68247101.075775146 41281639.258214951 0 41281639.258214951 29048360.49885869 0 0 0 0 67041200.355987549 12447044.0435853 0 12447044.0435853 16441169.166422367 0 0 0 0 3281765.0713272095 31362257.893922687 0 31362257.893922687 30008722.970621109 0 0 0 0 5478568.386036912 3609416.8109340817 0 3609416.8109340817 2207942.6334684724 0 0 0 0 -26479135.214332581 50079984.575252056 0 50079984.575252056 28221789.508698463 0 0 0 0 90527686.8491745 17302312.233282804 0 17302312.233282804 7604449.8011631966 0 0 0 0 116962543.1631813 66574999.229581952 0 66574999.229581952 -5566055.7628526688 0 0 0 0 206165388.8563385 69640965.612299204 0 69640965.612299204 -3270969.9957118034 0 0 0 0 78456236.471923828 61468643.335818768 0 61468643.335818768 4149334.2157926559 0 0 0 0 3447135.7870639861 2097398.5029779226 0 2097398.5029779226 267537.01489214506 0 0 0 0 78121752.146957397 58292576.197778702 0 58292576.197778702 12132568.229480267 0 0 0 0 3091839.8477778882 3036064.1987883225 0 3036064.1987883225 -403984.17229665187 0 0 0 0 87587803.858505249 -22786130.39289999 0 -22786130.39289999 78294816.357154846 0 0 0 0 34594554.506988525 51250848.899279356 0 51250848.899279356 21088338.212274551 0 0 0 0 7923565.1678889096 5409151.4883265533 0 5409151.4883265533 92364.681423085742 0 0 0 0 37086856.183990479 40457407.111777544 0 40457407.111777544 -62895283.865026951 0 0 0 0 10967043.384917736 -141932521.69104514 0 -141932521.69104514 -75207041.493066549 0 0 0 0 -2196609.975189209 41812747.053258538 0 41812747.053258538 22876516.068296432 0 0 0 0 10956674.606826782 53240969.145431519 0 53240969.145431519 24893276.077750802 0 0 0 0 40083079.881530762 70410959.838701308 0 70410959.838701308 -24253028.070645809 0 0 0 0 133931091.28669739 185822904.06502569 0 185822904.06502569 17541656.082191616 0 0 0 0 261268957.68760681 46984612.694645643 0 46984612.694645643 -11433812.666963577 0 0 0 0 499551900.27267456 -75566290.264852047 0 -75566290.264852047 -130045721.29268265 0 0 0 0 1506620.9721337259 1628081.7173694968 0 1628081.7173694968 666432.27314999141 0 0 0 0 234933194.80909157 -35284232.688255399 0 -35284232.688255399 14496574.057100534 0 0 0 0 97873735.996780396 70272946.6806494 0 70272946.6806494 13933508.469507873 0 0 0 0 51710802.04857254 -157384780.62834406 0 -157384780.62834406 142339048.0285182 0 0 0 0 231296736.29745483 -16004531.625313759 0 -16004531.625313759 26889785.618411064 0 0 0 0 288179075.60951614 148590091.82666734 0 148590091.82666734 -69487058.279471397 0 0 0 0 -2243780.5093612671 -19052486.466112494 0 -19052486.466112494 90385767.700645477 0 0 0 0 621249.74320524931 488562.80253276974 0 488562.80253276974 133296.68918615486 0 0 0 0 -27417701.224739075 58883743.203842402 0 58883743.203842402 117565665.16580129 0 0 0 0 444493637.9619503 80034058.111298412 0 80034058.111298412 -130755187.47378045 0 0 0 0 466973925.90016937 -74113066.975455955 0 -74113066.975455955 -229670.27375426132 0 0 0 0 51903612.253799438 -160889290.13215774 0 -160889290.13215774 185533077.37752181 0 0 0 0 199859833.06875992 127918038.13173257 0 127918038.13173257 -38437127.349585593 0 0 0 0 496845150.30805969 -71677357.56856823 0 -71677357.56856823 -59227420.831302546 0 0 0 0 1208659.0943957269 -27543.879411414266 0 -27543.879411414266 -152831.57695313412 0 0 0 0 248754071.53119659 -268549976.34702426 0 -268549976.34702426 245358802.77470326 0 0 0 0 91285982.960571289 -55963353.680529118 0 -55963353.680529118 64503320.571421146 0 0 0 0 88588198.238952637 -101310876.92326403 0 -101310876.92326403 87648150.982696295 0 0 0 0 94089152.487319946 -61065131.120814204 0 -61065131.120814204 42669724.778984249 0 0 0 0 3058316.5638444871 221207.90673613735 0 221207.90673613735 -300985.72624709451 0 0 0 0 19984753.509311676 -50995972.159296967 0 -50995972.159296967 165570.59495729022 0 0 0 0 -19472819.030937195 -18923505.805317979 0 -18923505.805317979 -15769505.415990889 0 0 0 0 3112039.899132764 -17858.01914472878 0 -17858.01914472878 -175845.87593308423 0 0 0 0 -9494721.4744968414 8827514.5718141571 0 8827514.5718141571 -598831.44405950233 0 0 0 0 4996593.8494946286 -453060.16796609201 0 -453060.16796609201 -66426.830797839444 0 0 0 0 3556524.927947998 -4999989.7609142698 0 -4999989.7609142698 -6792368.8158382177 0 0 0 0 119760383.88418579 -64888925.981104136 0 -64888925.981104136 13234750.563284159 0 0 0 0 1840087.5352432691 798889.13596121967 0 798889.13596121967 -77975.10364659375 0 0 0 0 29924421.025482178 -39466675.204732016 0 -39466675.204732016 67420068.064159393 0 0 0 0 155808148.90382385 -85526133.637805462 0 -85526133.637805462 48991648.085367322 0 0 0 0 147868246.16694641 -137037929.49939835 0 -137037929.49939835 88699788.566720694 0 0 0 0 109780608.21095276 -87742797.892606735 0 -87742797.892606735 99773466.41204071 0 0 0 0 83160122.647628784 -97650641.590613604 0 -97650641.590613604 96107593.782480001 0 0 0 0 88370760.267059326 -97251686.272818565 0 -97251686.272818565 75021509.796089172 0 0 0 0 1423045.3632666767 1301349.6502213702 0 1301349.6502213702 878079.67986350926 0 0 0 0 180019923.59528732 3884008.0769711435 0 3884008.0769711435 25324381.601125002 0 0 0 0 89526696.717399597 -110013215.56696784 0 -110013215.56696784 104150689.67678809 0 0 0 0 138719742.49046826 -116662057.73954357 0 -116662057.73954357 44127215.315702438 0 0 0 0 -18540804.77255249 -9308776.8182775974 0 -9308776.8182775974 3984244.0508835316 0 0 0 0 635101.95735118538 395541.86078599095 0 395541.86078599095 -42146.603919740766 0 0 0 0 211486951.82430267 -132902270.19021451 0 -132902270.19021451 63662921.772439718 0 0 0 0 110807645.66383743 -137778249.11724466 0 -137778249.11724466 112261890.64049244 0 0 0 0 122125553.68500519 -106905487.33076608 0 -106905487.33076608 68777264.001396775 0 0 0 0 64142231.918823242 46929654.478610277 0 46929654.478610277 -13801336.600319445 0 0 0 0 -6602060.7438926697 2323177.8136667609 0 2323177.8136667609 8149446.9486646652 0 0 0 0 -793274693.31668854 -308590778.63354909 0 -308590778.63354909 517324661.66137826 0 0 0 0 461394541.42931366 1427776709.63129 0 1427776709.63129 374997357.21231651 0 0 0 0 2178609619.3293457 -1189896174.9880574 0 -1189896174.9880574 306195768.51071167 0 0 0 0 3416819.4961341321 -791677.87338457257 0 -791677.87338457257 1867968.229413101 0 0 0 0 6030720.0689235032 -186755.90111782216 0 -186755.90111782216 -55765.714273540019 0 0 0 0 11903167.239990234 11622339.080934852 0 11622339.080934852 -6621374.548330158 0 0 0 0 15105017.612442017 -11380694.661195993 0 -11380694.661195993 -3363174.5323089361 0 0 0 0 7780784.1961212158 7071705.2663730606 0 7071705.2663730606 -10036738.203597656 0 0 0 0 5688141.2725334167 2601795.9428987894 0 2601795.9428987894 -10809236.227908455 0 0 0 0 27010984.138938904 6426508.7295949031 0 6426508.7295949031 -11613980.029414356 0 0 0 0 6822491.7360839844 16172694.201753816 0 16172694.201753816 17994.612034961763 0 0 0 0 -3876043.5598220825 -17780201.788565863 0 -17780201.788565863 2131822.2588913231 0 0 0 0 23177513.361862183 -9842850.9005422033 0 -9842850.9005422033 -9870517.9774622694 0 0 0 0 2859178.6241328679 -319279.14728856459 0 -319279.14728856459 119128.56473729821 0 0 0 0 4195002.8876609802 -8180187.0320526119 0 -8180187.0320526119 -10015991.766792424 0 0 0 0 11392956.22102356 -965839.06747748703 0 -965839.06747748703 -10595350.276425682 0 0 0 0 463349417.54058075 -282761550.00545484 0 -282761550.00545484 151941175.78633428 0 0 0 0 969453385.28806305 311072330.248209 0 311072330.248209 -118667402.41212395 0 0 0 0 883554468.0473938 232744349.86379021 0 232744349.86379021 -178728653.76819515 0 0 0 0 1128591191.6012268 300549622.31309903 0 300549622.31309903 -165249692.5887889 0 0 0 0 1021246.943189308 -163460.24214196205 0 -163460.24214196205 111413.74936027073 0 0 0 0 1074947935.8357964 213676620.48514974 0 213676620.48514974 -117472031.40556519 0 0 0 0 697408904.7477417 130785105.47520396 0 130785105.47520396 -7372918.4282935103 0 0 0 0 853623389.0430069 164236398.29714474 0 164236398.29714474 -120809857.99111192 0 0 0 0 734280563.90886688 364624604.6617974 0 364624604.6617974 -6981390.85590031 0 0 0 0 432735681.65483093 114564635.75997388 0 114564635.75997388 -90170605.684996605 0 0 0 0 674695828.20310974 732792610.81678796 0 732792610.81678796 1017509737.393129 0 0 0 0 1025869355.6191864 -383744333.44079143 0 -383744333.44079143 139510308.64942265 0 0 0 0 3042308.0702178627 643102.52593215927 0 643102.52593215927 258908.60886602124 0 0 0 0 1639750342.1160736 146745481.37197036 0 146745481.37197036 -176908472.67570478 0 0 0 0 1204237295.1407852 986276237.46905696 0 986276237.46905696 54786492.884296462 0 0 0 0 980061765.68862152 1012300375.291043 0 1012300375.291043 63700844.802835226 0 0 0 0 6884330.7109700888 1077429.1862373222 0 1077429.1862373222 -857793.05302904011 0 0 0 0 893703617.91468811 1257466266.4786289 0 1257466266.4786289 599491679.95639873 0 0 0 0 349110426.69047546 -229010740.10717177 0 -229010740.10717177 65085052.167809725 0 0 0 0 250572570.88754272 -27903994.360779047 0 -27903994.360779047 -321355159.28187895 0 0 0 0 16486886.095809937 -6543427.0531711578 0 -6543427.0531711578 -9185781.3298532963 0 0 0 0 38652140.130722046 -5051290.483130455 0 -5051290.483130455 -9407083.5682233572 0 0 0 0 5167097.6022949219 -4149936.2771143913 0 -4149936.2771143913 -6254855.8182110786 0 0 0 0 -122741.8433380127 21573952.960129976 0 21573952.960129976 -11145478.750084877 0 0 0 0 19380618.258403778 -14338124.289471149 0 -14338124.289471149 -34822542.87891674 0 0 0 0 13829240.056465149 20703012.170567036 0 20703012.170567036 -36302528.104075134 0 0 0 0 6211344.6362609863 22592471.836300373 0 22592471.836300373 -23599230.221273422 0 0 0 0 20228102.098648071 -7404872.1237086058 0 -7404872.1237086058 -18097936.914785385 0 0 0 0 14267008.044799805 13632730.642086744 0 13632730.642086744 -933093.26688122749 0 0 0 0 3711900.643324025 -1959665.4978255816 0 -1959665.4978255816 -2042095.2131721387 0 0 0 0 -5550473.1666164398 -8749866.560345605 0 -8749866.560345605 -151408.85522389412 0 0 0 0 103533573.83338928 18539663.122504234 0 18539663.122504234 -21924161.380072594 0 0 0 0 111128274.81317902 -17535986.91716361 0 -17535986.91716361 -2821669.9028266668 0 0 0 0 -3926114.5987129211 -7241010.2415815592 0 -7241010.2415815592 -3981057.0684347153 0 0 0 0 10914549.968107253 -2371265.1534097902 0 -2371265.1534097902 -4340822.4241382442 0 0 0 0 -27129516.868156433 -25617171.533348918 0 -25617171.533348918 -20562751.763498306 0 0 0 0 -5311372.0584869385 -5583740.1990895271 0 -5583740.1990895271 4115855.4760296345 0 0 0 0 -5562440.5075114742 -3875703.3085675463 0 -3875703.3085675463 2179503.3555349093 0 0 0 0 -7542810.8359832764 -9370053.7357803583 0 -9370053.7357803583 4586765.9005217552 0 0 0 0 -5392056.8682098389 -8452490.0570076704 0 -8452490.0570076704 -2644527.1342539787 0 0 0 0 -10755191.668457031 -15040562.866639495 0 -15040562.866639495 -8185011.4045449495 0 0 0 0 -11776408.007857323 -1052412.0553291067 0 -1052412.0553291067 -6695783.9427075386 0 0 0 0 1988274.0062251277 -131790.8206592612 0 -131790.8206592612 -1639633.8735808199 0 0 0 0 18870737.1667099 -6145452.881554842 0 -6145452.881554842 -6911056.9144101143 0 0 0 0 65865749.888496399 35280222.160247326 0 35280222.160247326 20529608.079424858 0 0 0 0 236683515.05271912 21999089.951829433 0 21999089.951829433 -49654343.606551409 0 0 0 0 353823.51644227654 95755.445883028209 0 95755.445883028209 8464.9872781331651 0 0 0 0 5504333.4925471339 177859.91395278275 0 177859.91395278275 -2863048.2227374939 0 0 0 0 -8847582.4145240784 -12042010.34765321 0 -12042010.34765321 1013847.1508455276 0 0 0 0 -20999069.093849182 -927833.17433750629 0 -927833.17433750629 11199455.815812111 0 0 0 0 164252196.96286774 24207917.986346722 0 24207917.986346722 -27948885.26185751 0 0 0 0 -547614.54729786888 -940309.17350789532 0 -940309.17350789532 955182.75739457551 0 0 0 0 23940546.805458069 64458663.814449787 0 64458663.814449787 35232212.715841293 0 0 0 0 -39769122.496459961 -6906373.2620949149 0 -6906373.2620949149 -7360658.5848727822 0 0 0 0 19122027.933803797 -50190032.715206049 0 -50190032.715206049 7561356.8404150009 0 0 0 0 4023313.8998859599 -2070793.324893374 0 -2070793.324893374 -2079082.9991962472 0 0 0 0 -46772987.897583008 13380888.838378072 0 13380888.838378072 -11134511.24757576 0 0 0 0 100029795.07782745 -22591838.897342563 0 -22591838.897342563 -69389710.558004379 0 0 0 0 105311904.74167252 -45645760.58029151 0 -45645760.58029151 13659467.542395115 0 0 0 0 52015894.412378311 68352724.365494788 0 68352724.365494788 68212284.683175087 0 0 0 0 90674598.047010422 88235990.932035863 0 88235990.932035863 50083598.565167427 0 0 0 0 -14826996.667541504 85511546.588310242 0 85511546.588310242 -18575174.716119289 0 0 0 0 40949058.464202881 21162288.544893742 0 21162288.544893742 41554630.754556656 0 0 0 0 110529971.65557861 26363865.810747623 0 26363865.810747623 -9763440.3110072613 0 0 0 0 17407910.047332764 -6917684.7176784277 0 -6917684.7176784277 -11780866.555850983 0 0 0 0 8178487.7471616101 689489.55552052334 0 689489.55552052334 -2663972.0401431639 0 0 0 0 13719965.673446655 -31854.955144882202 0 -31854.955144882202 -24420533.263130665 0 0 0 0 -5286059.0621032715 6785584.6592555046 0 6785584.6592555046 -12058567.917798996 0 0 0 0 -11330075.401855469 -12859808.041324139 0 -12859808.041324139 11596644.445232153 0 0 0 0 2039702.7725128904 -484378.74079212546 0 -484378.74079212546 -1511463.9712587777 0 0 0 0 51002355.222946167 -39358709.140009403 0 -39358709.140009403 28821321.908573151 0 0 0 0 -3110438.1177062988 2871444.8985090256 0 2871444.8985090256 -13687670.560809433 0 0 0 0 -44363166.947803497 22924554.292473793 0 22924554.292473793 29685195.025490761 0 0 0 0 14157689.509025574 40879760.158919334 0 40879760.158919334 68213217.547081947 0 0 0 0 13393850.645942688 3994291.5363490582 0 3994291.5363490582 9054257.8062429428 0 0 0 0 4175855.8117294312 -14301229.291999817 0 -14301229.291999817 -16143162.302553654 0 0 0 0 15674522.470458984 -21887839.004685879 0 -21887839.004685879 2882654.5973949432 0 0 0 0 100366371.75562286 30166492.964043379 0 30166492.964043379 14241132.688563704 0 0 0 0 52412310.531135559 26133246.027480602 0 26133246.027480602 5826420.4351997375 0 0 0 0 28509633.028335571 -4180656.5459368229 0 -4180656.5459368229 3805714.0611424446 0 0 0 0 57716042.439525604 -35652498.089259148 0 -35652498.089259148 -2508481.0248394012 0 0 0 0 7121384.0359573364 -17800846.872089863 0 -17800846.872089863 3468843.9393496513 0 0 0 0 12719080.688631598 2440457.954007335 0 2440457.954007335 -3846271.8558088681 0 0 0 0 54266856.547111511 57828392.642131805 0 57828392.642131805 56636600.093680382 0 0 0 0 -890691.62744467705 -1335249.5306296218 0 -1335249.5306296218 72155.748005889822 0 0 0 0 -7235108.6541824341 -5315555.5812821388 0 -5315555.5812821388 5263471.825106144 0 0 0 0 15627646.912895203 14263418.979439437 0 14263418.979439437 6756990.8451108932 0 0 0 0 18190934.842818651 413618.89930031076 0 413618.89930031076 -13261792.867255375 0 0 0 0 69023485.103134155 40474582.152017593 0 40474582.152017593 -7853508.5821399689 0 0 0 0 23994403.221740723 -6592034.7386207581 0 -6592034.7386207581 2277422.1937890053 0 0 0 0 6286972.1690255553 3853304.4674707726 0 3853304.4674707726 -2847026.9694618401 0 0 0 0 12989038.8334198 11446342.172590256 0 11446342.172590256 -1301829.8035857677 0 0 0 0 10258180.437431335 25222609.852277279 0 25222609.852277279 -6942535.1957359314 0 0 0 0 40221388.039596558 45944926.738548279 0 45944926.738548279 -29516.385685920715 0 0 0 0 46359398.833709717 16323759.207540989 0 16323759.207540989 11662597.309669495 0 0 0 0 30564296.238815308 29591861.794068813 0 29591861.794068813 49298664.514224291 0 0 0 0 46357519.00050354 36908937.795256615 0 36908937.795256615 45959201.056562901 0 0 0 0 3190917.8086547852 7341321.6803541183 0 7341321.6803541183 48982216.838061333 0 0 0 0 499264.5034302352 437851.66181184724 0 437851.66181184724 -106455.76747315377 0 0 0 0 36783193.040653229 29054909.869235992 0 29054909.869235992 12136811.219177246 0 0 0 0 37791245.11920929 47072406.12940979 0 47072406.12940979 4107084.2336661816 0 0 0 0 64432953.662834167 27173821.366735458 0 27173821.366735458 16652747.866355896 0 0 0 0 15733737.762760162 19106827.12010169 0 19106827.12010169 17658986.397393227 0 0 0 0 24555991.229574025 22729586.555564053 0 22729586.555564053 -13167117.069458961 0 0 0 0 2075954.8033318818 1021742.1757666618 0 1021742.1757666618 36325.60649242159 0 0 0 0 51477989.660346985 30344616.966657639 0 30344616.966657639 10360735.276483536 0 0 0 0 24104286.248743877 5737687.0514436252 0 5737687.0514436252 -9889478.1118611116 0 0 0 0 47678225.88098526 46419571.403717041 0 46419571.403717041 15806892.208219945 0 0 0 0 18382988.795593262 11320307.333608627 0 11320307.333608627 7968586.5581817627 0 0 0 0 9373477.2425079346 2638958.7945480347 0 2638958.7945480347 -9006507.9345779419 0 0 0 0 6086181.8432145193 12699037.113526873 0 12699037.113526873 3514519.4719575867 0 0 0 0 15921990.699238151 1876354.6519955806 0 1876354.6519955806 -7704758.6245956095 0 0 0 0 24889519.886962891 -63832.94807434082 0 -63832.94807434082 -581849.27939605713 0 0 0 0 24031317.350162283 877827.28628652543 0 877827.28628652543 -10794365.505462784 0 0 0 0 12291300.740587607 7494611.3978890032 0 7494611.3978890032 -6222533.6594166458 0 0 0 0 -183547184.14989471 21191407.002253056 0 21191407.002253056 -12293265.217528343 0 0 0 0 5061855.2833282724 6087763.183714984 0 6087763.183714984 -3757099.4485804019 0 0 0 0 47675481.591339111 136139920.82743955 0 136139920.82743955 -18762231.090461165 0 0 0 0 153866893.36465454 -68204994.902018547 0 -68204994.902018547 -48509717.442473412 0 0 0 0 -9753213.0696029663 11411582.021443605 0 11411582.021443605 25169560.337729156 0 0 0 0 -43477328.322250366 27029550.281404972 0 27029550.281404972 22836183.807209969 0 0 0 0 11664144.498092651 28884613.934877396 0 28884613.934877396 -7179146.6529142857 0 0 0 0 49576843.446646035 -85627767.453963563 0 -85627767.453963563 -2600705.9167757034 0 0 0 0 1365000.5202172101 -85789.268439162523 0 -85789.268439162523 -237731.12276949082 0 0 0 0 25078559.565155029 6112296.8253438473 0 6112296.8253438473 -18074144.636851788 0 0 0 0 14591080.036232084 7999387.4812574573 0 7999387.4812574573 -3403237.7525577145 0 0 0 0 25876808.482330322 4258789.0360078812 0 4258789.0360078812 -51909028.252996445 0 0 0 0 16799912.62008667 28861871.667696476 0 28861871.667696476 -21193666.707860947 0 0 0 0 25037609.903266907 38005216.40210247 0 38005216.40210247 -12568524.873204708 0 0 0 0 18639225.981369019 27318001.749653339 0 27318001.749653339 -13707445.460385323 0 0 0 0 29126309.02898407 23332357.425124645 0 23332357.425124645 -45864222.250725746 0 0 0 0 36576272.993301392 8535240.8255610466 0 8535240.8255610466 -6539666.8278832436 0 0 0 0 26096261.589385986 37946611.870512009 0 37946611.870512009 2929822.1956882477 0 0 0 0 32016720.123085022 33409083.442749023 0 33409083.442749023 -15026766.953445435 0 0 0 0 -1856776.6387557983 27888539.905330896 0 27888539.905330896 -442829.55086445808 0 0 0 0 5833733.9458694458 38814859.127784014 0 38814859.127784014 3202616.3720254898 0 0 0 0 9015081.5239868164 44670059.670576572 0 44670059.670576572 3540128.3130464554 0 0 0 0 -18107217.136947632 56534837.544980049 0 56534837.544980049 -2072937.2354609966 0 0 0 0 12798096.450874329 19032988.139193773 0 19032988.139193773 -25253874.850408554 0 0 0 0 2260206.6882632896 529715.48365143687 0 529715.48365143687 -283582.69862078363 0 0 0 0 13106535.02922821 1570650.8321416378 0 1570650.8321416378 -14410152.736877203 0 0 0 0 11320942.756828308 -6273869.6879425049 0 -6273869.6879425049 -40462565.74943018 0 0 0 0 7726914.742557928 2465657.8849400096 0 2465657.8849400096 958200.0700447252 0 0 0 0 16028693.898254395 1495213.2490911484 0 1495213.2490911484 -4314493.0395406336 0 0 0 0 5222238.1099920794 -393920.46299500763 0 -393920.46299500763 -1514707.9984500483 0 0 0 0 34438219.694641113 -13704917.797508955 0 -13704917.797508955 -3842663.2897059917 0 0 0 0 -7185949.3524234295 14528284.696358124 0 14528284.696358124 -1989155.409049511 0 0 0 0 9851331.5807754174 6550057.813881319 0 6550057.813881319 -401736.69655181072 0 0 0 0 -4106881.0257568359 6881606.2817800045 0 6881606.2817800045 3038920.1615841389 0 0 0 0 5460032.5137710571 1698265.7880316377 0 1698265.7880316377 -1958370.8028092384 0 0 0 0 4495118.7096939087 684262.18562567234 0 684262.18562567234 -1673371.0295892954 0 0 0 0 5271978.6840697303 190649.96830863506 0 190649.96830863506 -909205.19703183277 0 0 0 0 10070133.881511275 1054859.3057945259 0 1054859.3057945259 875341.24156714277 0 0 0 0 9586037.8636245728 42723110.594388127 0 42723110.594388127 -13211292.992677689 0 0 0 0 7710143.3147659302 37524577.711817503 0 37524577.711817503 8758548.5909190178 0 0 0 0 11326059.141718619 7099038.714123074 0 7099038.714123074 -826844.69973867387 0 0 0 0 4273264.9177780151 27787250.85108602 0 27787250.85108602 -9435978.346865654 0 0 0 0 4238451.3965377808 28530958.122874856 0 28530958.122874856 -6608244.001914978 0 0 0 0 -3954573.6297149658 14872883.411269546 0 14872883.411269546 -3064270.0866385102 0 0 0 0 -7225783.5369977951 13055916.704672663 0 13055916.704672663 9616535.9270014763 0 0 0 0 -4954395.2086334229 6415473.7860109806 0 6415473.7860109806 3101374.9925992489 0 0 0 0 -2743011.5721740723 2545819.7974815369 0 2545819.7974815369 19893838.303653046 0 0 0 0 -3106076.1108055115 19134390.242698312 0 19134390.242698312 17957710.920070887 0 0 0 0 5655885.7304458618 -8550339.5787116289 0 -8550339.5787116289 30987962.07600987 0 0 0 0 -3292760.7144927979 21874080.767965674 0 21874080.767965674 10376868.002554208 0 0 0 0 -3411422.4798355103 31909807.831029534 0 31909807.831029534 53361334.575862408 0 0 0 0 1712866.8692016602 2872531.8103582859 0 2872531.8103582859 2581336.4185257554 0 0 0 0 2508991.9683914185 1694998.5478651524 0 1694998.5478651524 3039680.3854835033 0 0 0 0 540847.28085327148 1236947.113915205 0 1236947.113915205 1407141.5081262589 0 0 0 0 -4198186.9064559937 7493809.130002737 0 7493809.130002737 3358173.8682365417 0 0 0 0 -8729945.3797912598 7245528.4710142612 0 7245528.4710142612 3709421.8980429173 0 0 0 0 -3534734.3425598145 4630831.2423872948 0 4630831.2423872948 5623140.6002585888 0 0 0 0 -4717617.97315979 8174377.1481587887 0 8174377.1481587887 -412278.03867197037 0 0 0 0 -24576.614303588867 3436205.9111436605 0 3436205.9111436605 -796392.94538831711 0 0 0 0 -3074200.8322143555 5322526.2579424381 0 5322526.2579424381 -1082463.5435614586 0 0 0 0 596000.82176208496 1623378.0775698423 0 1623378.0775698423 1682610.9893167019 0 0 0 0 1491772.0898151398 2922111.7931264937 0 2922111.7931264937 40326.525322437286 0 0 0 0 734176.32202911377 962272.20938968658 0 962272.20938968658 -991827.07985115051 0 0 0 0 108646405.25793457 -201783993.38405198 0 -201783993.38405198 377510875.36213082 0 0 0 0 686777.26382246614 -63845.289492325159 0 -63845.289492325159 -742390.87559818116 0 0 0 0 9420547.6821898669 5016225.8028464913 0 5016225.8028464913 2600973.0362312724 0 0 0 0 -59676237.492139816 112885621.66752408 0 112885621.66752408 -5281709.490623299 0 0 0 0 880232.9508267343 969137.45364392921 0 969137.45364392921 355593.96919801173 0 0 0 0 5564629.9281005859 2879695.4994473457 0 2879695.4994473457 -402422.14007273316 0 0 0 0 4365378.7250589803 2798123.8866376933 0 2798123.8866376933 -1096397.7781332759 0 0 0 0 7745750.1354217529 2150767.8997802734 0 2150767.8997802734 -1444645.6361119747 0 0 0 0 5555495.9324264526 3596289.0754762888 0 3596289.0754762888 -2307938.7611882687 0 0 0 0 695199.02300913632 17169.065861918032 0 17169.065861918032 -480251.63855353097 0 0 0 0 6559449.7918909788 6017611.6325019635 0 6017611.6325019635 -82597.026296741678 0 0 0 0 4577198.0725250244 1952565.0044235587 0 1952565.0044235587 -2458902.1815247536 0 0 0 0 -7257340.2939224243 2672616.4064261317 0 2672616.4064261317 1680097.4284677505 0 0 0 0 207494.99288527668 922837.57893980481 0 922837.57893980481 -137825.33304180086 0 0 0 0 5152180.4699707031 2509059.901306808 0 2509059.901306808 322772.08815482259 0 0 0 0 1422831.3757553101 1162354.078694938 0 1162354.078694938 506.08202558324206 0 0 0 0 3312673.2346016765 1497349.0103760397 0 1497349.0103760397 -255890.2185482457 0 0 0 0 2091442.4228515625 557426.19249035406 0 557426.19249035406 -95991.129204325232 0 0 0 0 5714028.8193435669 2937424.7740744352 0 2937424.7740744352 -394185.16292011738 0 0 0 0 6992352.1042809486 4582008.2910311185 0 4582008.2910311185 871233.40177209745 0 0 0 0 2133019.7462310791 495094.45676658832 0 495094.45676658832 -5004.385103578461 0 0 0 0 4017710.3304389566 221560.88608767907 0 221560.88608767907 -598875.64188130072 0 0 0 0 6556763.8978652954 719313.21144807339 0 719313.21144807339 -1418953.2126588821 0 0 0 0 5117391.3270423412 1429443.1945506148 0 1429443.1945506148 -1642409.8254400492 0 0 0 0 2497377.9432373047 -1167629.0259942717 0 -1167629.0259942717 -511709.23240126565 0 0 0 0 6482660.2576446533 563401.9894540906 0 563401.9894540906 -3228726.1355161667 0 0 0 0 7351347.4127631634 2913411.3075869083 0 2913411.3075869083 -846970.6782968042 0 0 0 0 162729693.03659058 -402964933.52226931 0 -402964933.52226931 -603483.8090239719 0 0 0 0 6635578.505355835 -151620.06530040503 0 -151620.06530040503 -2676911.4604225755 0 0 0 0 12286565.298930168 40361381.929819696 0 40361381.929819696 -21297562.716500223 0 0 0 0 10021030.841583252 4271189.7992726564 0 4271189.7992726564 6848285.3419169188 0 0 0 0 2652950.5261760652 1318429.8450689502 0 1318429.8450689502 -428199.83575547312 0 0 0 0 3970393.723449707 -732558.0791347808 0 -732558.0791347808 -6734.7854221924144 0 0 0 0 8070725.9465300441 1515418.6436083727 0 1515418.6436083727 -717235.06591275672 0 0 0 0 7156034.7133509442 -1345112.5084141307 0 -1345112.5084141307 -1358275.9986986215 0 0 0 0 4524433.5763702393 500734.04981449246 0 500734.04981449246 -2986319.0433923006 0 0 0 0 9587879.4735908285 -3652787.3758689724 0 -3652787.3758689724 -3658067.4616602734 0 0 0 0 3119059.7420349121 -2276692.4294592887 0 -2276692.4294592887 -5525841.4838105142 0 0 0 0 209036996.02826691 -52954020.556921005 0 -52954020.556921005 -169695015.16043472 0 0 0 0 10884785.119918898 -1919256.3886348344 0 -1919256.3886348344 -3733116.7344493791 0 0 0 0 5446031.5843627304 1614602.1409662105 0 1614602.1409662105 -441596.84884259477 0 0 0 0 4187033.8378295898 -1422999.3476983011 0 -1422999.3476983011 -3364693.3048117161 0 0 0 0 7429471.9492301941 103595.16629014164 0 103595.16629014164 -4594514.4777362645 0 0 0 0 6749810.3683776855 -230550.9840722084 0 -230550.9840722084 -4281036.2837625742 0 0 0 0 4504360.4299837574 336994.36030220566 0 336994.36030220566 -445891.6185083536 0 0 0 0 7583836.0966653824 961598.6458757706 0 961598.6458757706 -3850396.5240883827 0 0 0 0 4986167.1767730713 1093499.3045985699 0 1093499.3045985699 -3604888.1083970964 0 0 0 0 5253668.8246688843 -9491227.0231761932 0 -9491227.0231761932 9142619.9353870153 0 0 0 0 5628908.6721954346 32598739.615294456 0 32598739.615294456 -2553339.6216087341 0 0 0 0 11953000.563987978 1797966.2570586465 0 1797966.2570586465 -1634591.4670130746 0 0 0 0 -601201.93271658942 -821771.99422153085 0 -821771.99422153085 112930.7294095573 0 0 0 0 155608084.71416664 214369122.68193609 0 214369122.68193609 -129431579.64557743 0 0 0 0 -27655940.538619995 2096194.1362466812 0 2096194.1362466812 -12305630.553268433 0 0 0 0 -34037284.782058716 -38863470.897796869 0 -38863470.897796869 161278995.37611246 0 0 0 0 -83762954.647171021 -30090798.355689049 0 -30090798.355689049 32028948.293889046 0 0 0 0 172591002.01226807 -41323846.102401257 0 -41323846.102401257 -22316455.611623764 0 0 0 0 565905.5170074366 13488.654650598764 0 13488.654650598764 -502766.87575512566 0 0 0 0 33721256.026985168 30978866.963257313 0 30978866.963257313 -59359078.762362242 0 0 0 0 4744478.1692771912 25237486.893743277 0 25237486.893743277 -12166849.134501457 0 0 0 0 35559027.360942364 104406.17754329741 0 104406.17754329741 -8034953.5168657303 0 0 0 0 2873728.0431175232 12102690.375709057 0 12102690.375709057 599038.65065097809 0 0 0 0 4806059.7578964233 3314395.1255850792 0 3314395.1255850792 1192884.8122625351 0 0 0 0 -9254646.9513549805 -8865010.1549731866 0 -8865010.1549731866 -5933697.3765120506 0 0 0 0 -26010755.900177002 -29392144.847633153 0 -29392144.847633153 -6912172.0978499651 0 0 0 0 -24565096.248342514 -13293044.276302885 0 -13293044.276302885 3495923.0058515072 0 0 0 0 -19520530.872108459 -16534077.119199991 0 -16534077.119199991 -19557695.699325562 0 0 0 0 90990310.273376465 29377725.677948356 0 29377725.677948356 46621145.900585175 0 0 0 0 -34502955.848861694 -30909235.074381828 0 -30909235.074381828 -11614946.74035275 0 0 0 0 -5296370.959938243 -2185950.3149247803 0 -2185950.3149247803 1900171.823795418 0 0 0 0 -7728835.1951293945 -4126704.7806043625 0 -4126704.7806043625 -4839230.0303328633 0 0 0 0 3797607.1017190665 -1643142.8158446923 0 -1643142.8158446923 -2145196.6535806255 0 0 0 0 189766499.55474854 -45734984.134579659 0 -45734984.134579659 93492737.461841583 0 0 0 0 10687019.347402833 -2121839.3584969193 0 -2121839.3584969193 -2599100.6910099615 0 0 0 0 -9994051.6053466797 -8369939.2612066865 0 -8369939.2612066865 5754833.6141474843 0 0 0 0 -22355891.562561035 -28681451.75257206 0 -28681451.75257206 -18208146.083087921 0 0 0 0 -961812.88473206758 -238048.19743744656 0 -238048.19743744656 345501.44994678185 0 0 0 0 -25288177.800736427 -23641795.171978116 0 -23641795.171978116 -25207982.287103653 0 0 0 0 11455738.308189698 -1903519.678967867 0 -1903519.678967867 -1890390.6041996628 0 0 0 0 -80002931.370376587 -71030880.891214848 0 -71030880.891214848 -34314478.759252548 0 0 0 0 -9926242.9764556885 -17947402.380466819 0 -17947402.380466819 -2528533.233424902 0 0 0 0 -2598626.6981658936 -15329931.292085111 0 -15329931.292085111 -9275888.7821794748 0 0 0 0 -4179929.7051200867 709433.22184693627 0 709433.22184693627 2165293.9686219692 0 0 0 0 -939872.89436912537 -4175267.1741629494 0 -4175267.1741629494 -1572529.6866479889 0 0 0 0 532749.58460998535 -510773.09261923656 0 -510773.09261923656 -3337466.2225447893 0 0 0 0 -352483.31645393372 -268629.57275956764 0 -268629.57275956764 488530.63632819243 0 0 0 0 1896025.4870605469 -3410433.757478416 0 -3410433.757478416 -3416212.8407784142 0 0 0 0 1602387.1182539985 -1495750.9282505345 0 -1495750.9282505345 939362.67523236328 0 0 0 0 1095191.023651123 -2636156.208414495 0 -2636156.208414495 -672544.74758248776 0 0 0 0 1875533.9883422852 -4788628.8099485394 0 -4788628.8099485394 -2243415.674793011 0 0 0 0 -1997831.4478073716 -3625939.3789823544 0 -3625939.3789823544 -181096.42159281112 0 0 0 0 3179784.5278320312 -3608053.7813999057 0 -3608053.7813999057 -2428833.1013726592 0 0 0 0 1148102.9611206055 -3076936.8250559568 0 -3076936.8250559568 -2562794.3478296697 0 0 0 0 1851474.1542510986 -1068222.2832229137 0 -1068222.2832229137 -3367424.057722385 0 0 0 0 3740373.6564483643 -1829939.3475532942 0 -1829939.3475532942 -4471247.749691722 0 0 0 0 385695.54786353558 -120152.50080312043 0 -120152.50080312043 -191160.72773461408 0 0 0 0 3614379.9157752991 -1583356.4313218514 0 -1583356.4313218514 -1594569.3905701274 0 0 0 0 7281326.0419311523 -1485071.5061018292 0 -1485071.5061018292 -1412197.5397493658 0 0 0 0 2765235.2482147217 -2362763.972898284 0 -2362763.972898284 2734.8557377989832 0 0 0 0 1010923.4734954834 -4805354.9163731392 0 -4805354.9163731392 -1539906.8530116789 0 0 0 0 7984262.1900177002 3531057.5420995294 0 3531057.5420995294 3386202.6274000634 0 0 0 0 35062482.568275452 2679176.2831585035 0 2679176.2831585035 -3889716.18850405 0 0 0 0 18655460.448375702 -1704364.3819641888 0 -1704364.3819641888 4884.6551624388976 0 0 0 0 13718043.176269531 8537794.8917770516 0 8537794.8917770516 4916385.634723898 0 0 0 0 13248736.648590088 1964189.12596073 0 1964189.12596073 3376059.0720116682 0 0 0 0 5111581.7931747437 -5066773.7277710121 0 -5066773.7277710121 -5199197.9438110488 0 0 0 0 -1212179.1615142822 -2010636.9132844917 0 -2010636.9132844917 3815097.5157917775 0 0 0 0 6289101.5172729492 6672436.6257564239 0 6672436.6257564239 847347.04760792106 0 0 0 0 1687382.8959513605 -705482.44965028018 0 -705482.44965028018 374435.73990514036 0 0 0 0 11942803.434267044 -1479063.4738041479 0 -1479063.4738041479 -1303825.2801075391 0 0 0 0 30163287.485862732 -17139742.115521595 0 -17139742.115521595 -2200628.14111422 0 0 0 0 36053712.518341064 4446678.4788944479 0 4446678.4788944479 -5406751.6052516922 0 0 0 0 45806602.392463684 -5788262.292482309 0 -5788262.292482309 -18964.390023164993 0 0 0 0 71135609.47303772 2416329.4283426329 0 2416329.4283426329 -6790536.6985368915 0 0 0 0 60269972.590179443 -15530903.173395492 0 -15530903.173395492 -2278255.0479527991 0 0 0 0 17227442.84954071 -37211253.108874835 0 -37211253.108874835 18781809.97744086 0 0 0 0 67490101.649461746 -5651389.6341976151 0 -5651389.6341976151 18110829.500987899 0 0 0 0 56286818.180782318 -9724763.4374343343 0 -9724763.4374343343 -384543.66774178296 0 0 0 0 118996491.98669434 -26477143.724128228 0 -26477143.724128228 4073237.7574131638 0 0 0 0 98459366.445810318 38133051.402015783 0 38133051.402015783 13308594.4607381 0 0 0 0 -17406.270684719086 -312322.94828868285 0 -312322.94828868285 121632.19580307964 0 0 0 0 69245868.17666626 9694469.4779044669 0 9694469.4779044669 120161610.835554 0 0 0 0 77561415.788234711 -60128546.417349637 0 -60128546.417349637 52216921.220784828 0 0 0 0 130360779.4078598 18924958.232315693 0 18924958.232315693 10523725.705765799 0 0 0 0 76833607.48789978 -8936393.7881777883 0 -8936393.7881777883 322307.16098083556 0 0 0 0 9241326.7312164307 6725876.3537351973 0 6725876.3537351973 31973739.352309633 0 0 0 0 33736838.263626099 33144213.2720263 0 33144213.2720263 31840421.612231411 0 0 0 0 91446.782865867019 21478.911607146263 0 21478.911607146263 -7383.3443217651111 0 0 0 0 -11566184.114891052 -2194656.646999985 0 -2194656.646999985 19475673.073797345 0 0 0 0 -1498353.3031203002 -1967045.227694958 0 -1967045.227694958 -65732.388706892321 0 0 0 0 3833693.9444274902 2802294.1636046767 0 2802294.1636046767 13513407.282885136 0 0 0 0 16362331.609375 4625934.5536429882 0 4625934.5536429882 -3400009.9079546407 0 0 0 0 -168005.39142268896 -984576.71521921828 0 -984576.71521921828 366323.45325810782 0 0 0 0 20049324.462921143 1052299.0888866484 0 1052299.0888866484 -2096991.7879611328 0 0 0 0 21928780.270904541 17524745.862285312 0 17524745.862285312 11848663.824883316 0 0 0 0 -3072535.8280410767 8268841.5557322502 0 8268841.5557322502 30929891.240229368 0 0 0 0 255235.02653503418 -3847336.8900784217 0 -3847336.8900784217 25372927.162163779 0 0 0 0 824173.40843200684 2724154.7122228816 0 2724154.7122228816 101110593.95678063 0 0 0 0 1814982.5618133545 -16657980.024768263 0 -16657980.024768263 28555795.227974921 0 0 0 0 11530692.145080566 -33527930.745306239 0 -33527930.745306239 -7513004.2144380659 0 0 0 0 -10632334.024902344 -31969886.956134081 0 -31969886.956134081 -14212249.65078415 0 0 0 0 -16443107.760879517 -22434801.570107058 0 -22434801.570107058 25003521.643053882 0 0 0 0 -423220.61878967285 -1406332.603057757 0 -1406332.603057757 20833314.675189182 0 0 0 0 -14545486.17539978 -13983389.654795766 0 -13983389.654795766 13009983.184715992 0 0 0 0 -13511477.992477417 -31773634.761313438 0 -31773634.761313438 -13893470.059191704 0 0 0 0 19069137.990829468 -21528726.333246335 0 -21528726.333246335 -33141479.244685829 0 0 0 0 -216686.01254272461 -29499217.553287253 0 -29499217.553287253 -35413283.706335425 0 0 0 0 1344252.3007049561 -8106925.4306445122 0 -8106925.4306445122 -4521211.0774092674 0 0 0 0 15614689.919830322 7622874.8594272137 0 7622874.8594272137 -12968589.157786846 0 0 0 0 913876.89729309082 6460826.1813871861 0 6460826.1813871861 -8560341.320412159 0 0 0 0 3105266.6161479577 -313120.86466965824 0 -313120.86466965824 -1037622.0114297455 0 0 0 0 5036107.6813994274 -5780420.3169030584 0 -5780420.3169030584 -2014770.4814000637 0 0 0 0 -5348340.1844482422 2132859.56214118 0 2132859.56214118 -6489813.2474966645 0 0 0 0 -17263691.101272583 -4008275.1459467411 0 -4008275.1459467411 -8270080.4356726408 0 0 0 0 32950560.378036499 12439059.082115188 0 12439059.082115188 -9200486.5302473903 0 0 0 0 2420948.1734226793 249444.55170775205 0 249444.55170775205 -494365.73171057703 0 0 0 0 -37452712.702835083 -69105397.639641315 0 -69105397.639641315 -31619750.838840961 0 0 0 0 6868729.6033935547 -31422874.013666868 0 -31422874.013666868 -1121424.3857892752 0 0 0 0 6592043.3133516535 -5732159.4891005345 0 -5732159.4891005345 -1884397.8593517893 0 0 0 0 17608011.340150833 -68252410.987774894 0 -68252410.987774894 -65430638.950981736 0 0 0 0 -35871617.58052063 -32338980.536862627 0 -32338980.536862627 -7541011.6847426742 0 0 0 0 28993242.851043701 -26468152.897437006 0 -26468152.897437006 -67550830.632888764 0 0 0 0 20272571.661087036 -30278809.701788083 0 -30278809.701788083 -17456704.85636574 0 0 0 0 78771313.985519409 2407753.701541122 0 2407753.701541122 -21882693.791348487 0 0 0 0 40850763.314727783 -11245340.310227066 0 -11245340.310227066 -20941559.541267689 0 0 0 0 60904296.427764893 -43355854.13392207 0 -43355854.13392207 -13341702.300468087 0 0 0 0 59908994.577804565 -11076829.642050251 0 -11076829.642050251 -38596352.57707715 0 0 0 0 60624022.013626099 -26739879.31340453 0 -26739879.31340453 -45075379.695692122 0 0 0 0 6482950.1595230103 -33000731.541407872 0 -33000731.541407872 -31876759.133870363 0 0 0 0 41503310.64855957 14967823.902291536 0 14967823.902291536 -8180341.4522033613 0 0 0 0 82619901.502984047 32118143.542954206 0 32118143.542954206 -9355467.1911866665 0 0 0 0 52469265.019821167 15626147.300239921 0 15626147.300239921 -18671385.785649538 0 0 0 0 33309427.671339035 17793153.21939199 0 17793153.21939199 1183052.3644645512 0 0 0 0 35647775.050186157 8708774.3340787888 0 8708774.3340787888 -14862534.856472254 0 0 0 0 30708198.868247986 -3191923.1623350978 0 -3191923.1623350978 -22813539.830123216 0 0 0 0 45829740.053100586 8871563.2370091975 0 8871563.2370091975 -25541563.52827698 0 0 0 0 32175831.69354248 -2263357.4265603274 0 -2263357.4265603274 -22452214.35954985 0 0 0 0 25053300.780975342 -33537359.252566993 0 -33537359.252566993 -44792402.780878156 0 0 0 0 23390018.59526062 -11333661.972380787 0 -11333661.972380787 -26875736.639403701 0 0 0 0 16188950.860534668 -21906412.944342852 0 -21906412.944342852 -25362625.357411325 0 0 0 0 35618017.156799316 -10304117.806020528 0 -10304117.806020528 -36664851.44632864 0 0 0 0 10801626.842414856 -19480891.749862373 0 -19480891.749862373 -17090471.758444786 0 0 0 0 14980837.251342773 -16344687.42445755 0 -16344687.42445755 -42624317.70184958 0 0 0 0 -29341834.597690582 -15936931.469211742 0 -15936931.469211742 -21313207.137749314 0 0 0 0 -1096995.9218512774 -539682.60290425643 0 -539682.60290425643 623733.18355705601 0 0 0 0 9085710.3048616275 -5253329.7147379443 0 -5253329.7147379443 -1106817.3869510563 0 0 0 0 6721826.8103256226 -75041727.17994833 0 -75041727.17994833 28823902.119730473 0 0 0 0 7510081.1154327393 -13925407.505287558 0 -13925407.505287558 -1799065.3642696738 0 0 0 0 14320230.669189453 -12925530.677034348 0 -12925530.677034348 -11785692.002764493 0 0 0 0 18755298.656234741 -15961032.849394351 0 -15961032.849394351 -21193227.449546427 0 0 0 0 7801102.1012878418 -13721100.570880771 0 -13721100.570880771 -9330486.047434777 0 0 0 0 23117562.858222961 -7653339.6179491207 0 -7653339.6179491207 -13224651.758721054 0 0 0 0 19959809.021591187 -8183763.862573415 0 -8183763.862573415 -13310215.081904747 0 0 0 0 21869136.898353577 -4584152.310573712 0 -4584152.310573712 -6524750.7587765455 0 0 0 0 17195344.401847839 -5162824.6804956049 0 -5162824.6804956049 1250873.7602001429 0 0 0 0 17889014.62890625 -4685627.4837780595 0 -4685627.4837780595 -6527309.0815156288 0 0 0 0 -44713554.54453373 1556131.9372388311 0 1556131.9372388311 -391004.63929438591 0 0 0 0 10254300.843866553 -5770828.0034958273 0 -5770828.0034958273 -1136299.8868775996 0 0 0 0 18253205.488952637 -5139617.771375984 0 -5139617.771375984 -4296548.9440562278 0 0 0 0 -4004630.673500061 20934363.50816381 0 20934363.50816381 -21052999.480190635 0 0 0 0 -43787286.470947266 9553410.041764617 0 9553410.041764617 14304597.893665671 0 0 0 0 14595665.728721619 -6864323.5248890817 0 -6864323.5248890817 -3150541.8713291883 0 0 0 0 -35613741.965087891 2983324.4157117456 0 2983324.4157117456 -10310052.823299542 0 0 0 0 -28134748.352157593 8935565.1694938242 0 8935565.1694938242 6284125.3097629547 0 0 0 0 -27396382.760253906 8450529.9520767033 0 8450529.9520767033 -7214710.4033396244 0 0 0 0 -71057.323959350586 -14430269.099864781 0 -14430269.099864781 18435812.307334661 0 0 0 0 -29360.260848999023 -37607478.607479364 0 -37607478.607479364 62811711.783119321 0 0 0 0 -37142479.201477051 10648088.470114082 0 10648088.470114082 6249150.5881770253 0 0 0 0 11641292.417449951 -32793088.320736945 0 -32793088.320736945 5344261.023301363 0 0 0 0 39564713.939224243 -46489605.566782534 0 -46489605.566782534 11163486.323555589 0 0 0 0 36550313.359466553 -10523603.944844246 0 -10523603.944844246 -10053529.937317073 0 0 0 0 27497998.58505249 -56843428.448057353 0 -56843428.448057353 3208198.9491397142 0 0 0 0 8527659.5558776855 -53530308.844117641 0 -53530308.844117641 32539415.002373517 0 0 0 0 31577539.046524048 -67827470.516890645 0 -67827470.516890645 22796532.407693028 0 0 0 0 25173640.854217529 -81188111.987539023 0 -81188111.987539023 64845626.599206448 0 0 0 0 82983337.327941895 -70201048.378361404 0 -70201048.378361404 107274177.25585043 0 0 0 0 154147149.0773468 -2321650.9889038801 0 -2321650.9889038801 -161794054.12905669 0 0 0 0 22263350.606567383 71894264.174905062 0 71894264.174905062 -92871044.553257704 0 0 0 0 143221137.8344059 -96664174.690792948 0 -96664174.690792948 -40119347.358772993 0 0 0 0 69531847.922973633 -108836036.8451004 0 -108836036.8451004 41167115.144022226 0 0 0 0 51723752.546905518 -11208381.043555856 0 -11208381.043555856 -80877944.606697023 0 0 0 0 35467568.160102844 -60238830.356113806 0 -60238830.356113806 -12664299.211486816 0 0 0 0 17099115.471832275 -21253960.109578848 0 -21253960.109578848 -34938897.593997955 0 0 0 0 58566791.2449646 -53718976.854551911 0 -53718976.854551911 -11908625.931189299 0 0 0 0 8249779.5358581543 15193156.458927393 0 15193156.458927393 -45696862.875590771 0 0 0 0 20821151.444320679 -10392555.239645064 0 -10392555.239645064 -22663722.664488077 0 0 0 0 -41301037.566200256 44094487.390223503 0 44094487.390223503 -32572109.56017828 0 0 0 0 38661099.382110596 417259.43801403046 0 417259.43801403046 -42195989.985875607 0 0 0 0 -10722692.911323547 9788096.0616660714 0 9788096.0616660714 -17330734.619743586 0 0 0 0 -4251640.4629592896 7102199.3431869149 0 7102199.3431869149 -17605668.966873407 0 0 0 0 1349372.8780059814 -3815292.9735011458 0 -3815292.9735011458 -22357885.805736065 0 0 0 0 930204.09261918068 -94927.060555901378 0 -94927.060555901378 -318389.14856053796 0 0 0 0 30941187.203353882 32290725.102867961 0 32290725.102867961 -18385626.271933511 0 0 0 0 5171791.8240356445 -31062898.941094995 0 -31062898.941094995 -10840093.520554781 0 0 0 0 29784378.487213135 -51531113.900252223 0 -51531113.900252223 3987333.3291663527 0 0 0 0 6399207.2066192627 -7424971.8072113991 0 -7424971.8072113991 -30814.866356253624 0 0 0 0 10585326.756210327 6733648.5970267057 0 6733648.5970267057 -3911834.4804601669 0 0 0 0 1048576.6767582595 -2111402.0024458878 0 -2111402.0024458878 -607668.98291187035 0 0 0 0 -5116229.9795227051 -39348651.012228489 0 -39348651.012228489 17674191.771806598 0 0 0 0 15980740.54278183 -2734516.003765583 0 -2734516.003765583 -4037284.1080784798 0 0 0 0 3160858.3424971178 -1077834.702557005 0 -1077834.702557005 -1033139.4424137417 0 0 0 0 20005016.736305237 -5132434.7287812233 0 -5132434.7287812233 -5958351.0016994476 0 0 0 0 19124311.383804321 -443827.13499650359 0 -443827.13499650359 -7852867.5172041357 0 0 0 0 6521469.707389906 -637454.14228672814 0 -637454.14228672814 -3642273.4659782508 0 0 0 0 7571150.3613133207 -1126767.6296009421 0 -1126767.6296009421 -4182291.5334287449 0 0 0 0 18659097.142105103 -3185661.0173099488 0 -3185661.0173099488 -3611525.7332291603 0 0 0 0 19768609.334274292 -1725858.5429096967 0 -1725858.5429096967 -5887482.3792583048 0 0 0 0 21597418.101364136 512760.66580891609 0 512760.66580891609 -12075714.757983781 0 0 0 0 21102737.135723114 -2929619.571533829 0 -2929619.571533829 -9912501.6561070085 0 0 0 0 21491849.493629456 1062830.5635193735 0 1062830.5635193735 -7093499.3130702972 0 0 0 0 13770133.045677185 2562203.9569072425 0 2562203.9569072425 -5632355.9916079938 0 0 0 0 22604919.231765747 6247502.939811863 0 6247502.939811863 -11241295.997709431 0 0 0 0 28573127.217435837 4552679.2678133287 0 4552679.2678133287 -10782702.731503248 0 0 0 0 12022338.272468567 1556491.5855024084 0 1556491.5855024084 655093.77179146931 0 0 0 0 20758873.265972137 9234262.0703463927 0 9234262.0703463927 -1237284.4572946429 0 0 0 0 19585346.455177307 10938961.74113819 0 10938961.74113819 1774138.0463012457 0 0 0 0 4855004.8852081299 -2430613.6289235502 0 -2430613.6289235502 -2878498.5580790844 0 0 0 0 40763053.432014465 -11894482.183621883 0 -11894482.183621883 -20239532.147568703 0 0 0 0 4051388.6872465201 -476495.75830223411 0 -476495.75830223411 -4071854.7016471443 0 0 0 0 12701584.637241364 4584121.290724922 0 4584121.290724922 -4811375.6279660463 0 0 0 0 -562413.11399650574 21616435.935685337 0 21616435.935685337 -33985572.358732224 0 0 0 0 672384.86803113669 -386222.55545252189 0 -386222.55545252189 -95317.372886074241 0 0 0 0 11805168.327392578 -19643455.801133871 0 -19643455.801133871 -48736140.08012867 0 0 0 0 11599836.312454224 -5114114.3413589001 0 -5114114.3413589001 2153091.6773414612 0 0 0 0 582897.23637390137 -25695695.786124706 0 -25695695.786124706 5222414.7661187053 0 0 0 0 -1740717.4283370972 -11066254.644206196 0 -11066254.644206196 22677616.729981422 0 0 0 0 7954407.9862785339 -6873259.6253103018 0 -6873259.6253103018 6607706.2420215607 0 0 0 0 18388930.136062622 -18612311.76484108 0 -18612311.76484108 6930550.5655183792 0 0 0 0 -66102.299451120198 85125.033285487443 0 85125.033285487443 -72236.091965243511 0 0 0 0 1082899.3685379028 3267369.802708067 0 3267369.802708067 -2096569.4520111382 0 0 0 0 145945.61639404297 1311984.7182411328 0 1311984.7182411328 -4192148.4444707036 0 0 0 0 2806951.5937737264 -306348.87770111114 0 -306348.87770111114 -3817901.3151038666 0 0 0 0 5791818.7695579529 1282735.4149124138 0 1282735.4149124138 -4578442.5278119147 0 0 0 0 6955926.7220077515 -1934247.7213272694 0 -1934247.7213272694 -432376.41138376296 0 0 0 0 6585914.9473876953 969511.19492398202 0 969511.19492398202 -8392365.6044704765 0 0 0 0 -1961990.4269714355 -1008581.9296992272 0 -1008581.9296992272 -7932946.057426583 0 0 0 0 7622940.0936508179 -2736405.2945714649 0 -2736405.2945714649 -12439427.567766115 0 0 0 0 7073819.4587402344 -2786361.5689492691 0 -2786361.5689492691 -5092723.1479468346 0 0 0 0 -287813.06176757812 -3194423.7215139121 0 -3194423.7215139121 -5004547.3046602607 0 0 0 0 13316542.55670929 -7231080.2536334498 0 -7231080.2536334498 -5557469.5898524523 0 0 0 0 9105134.8700408936 -3435200.3369138129 0 -3435200.3369138129 -3177023.5209286064 0 0 0 0 9950386.4047241211 -3616887.750266321 0 -3616887.750266321 -8201747.8742699735 0 0 0 0 12327660.052581787 -3471127.421446396 0 -3471127.421446396 -7103150.4671706315 0 0 0 0 6001845.7804718018 -3740758.6075995266 0 -3740758.6075995266 -1237741.837351881 0 0 0 0 7505775.3282775879 -2880186.8744912054 0 -2880186.8744912054 -5779964.6036797464 0 0 0 0 2651412.704022035 -1299957.1878969464 0 -1299957.1878969464 -1924766.250344607 0 0 0 0 -843116.15546417236 856542.22775501944 0 856542.22775501944 -3734610.3413937353 0 0 0 0 1564488.8104858398 -3444554.17467946 0 -3444554.17467946 -2409430.2380743884 0 0 0 0 4012844.772277832 2501610.7506424971 0 2501610.7506424971 -4048239.1740991771 0 0 0 0 1684377.1406402588 1334810.4267703081 0 1334810.4267703081 -10431481.730713695 0 0 0 0 4071215.3543548584 4455016.5192226283 0 4455016.5192226283 -8540444.2856935728 0 0 0 0 -2946911.2188262939 6310912.7320810212 0 6310912.7320810212 -11724587.144754767 0 0 0 0 -4946387.9836425781 9179147.3612675667 0 9179147.3612675667 -15318764.241489822 0 0 0 0 2252.6067099571228 -156995.640411973 0 -156995.640411973 113660.33781206986 0 0 0 0 1432434.1494979858 -3438223.2733994741 0 -3438223.2733994741 -16116178.570529476 0 0 0 0 6185161.7080535889 -7349390.8070598468 0 -7349390.8070598468 9001215.7042428143 0 0 0 0 13666140.100822449 8216015.0257927217 0 8216015.0257927217 19717030.239442557 0 0 0 0 10859161.778900146 827166.7847469151 0 827166.7847469151 -3449225.3287812322 0 0 0 0 10950559.122657776 1585583.1513168514 0 1585583.1513168514 2650108.0657263845 0 0 0 0 12802107.367401123 -7065310.1427096426 0 -7065310.1427096426 2297667.0000972999 0 0 0 0 11595490.138153076 -4620077.7420029864 0 -4620077.7420029864 -3828256.5971301645 0 0 0 0 11535183.677452087 -4495547.6404229961 0 -4495547.6404229961 -2809820.4192942083 0 0 0 0 11088818.155738831 -7577149.8232788574 0 -7577149.8232788574 385325.48148501664 0 0 0 0 14803566.052658081 -9848086.6570924819 0 -9848086.6570924819 715399.46895413054 0 0 0 0 11299001.142127991 -8712963.827878762 0 -8712963.827878762 649317.18200296536 0 0 0 0 15343005.573809147 -6799618.7458497426 0 -6799618.7458497426 6529507.7101866007 0 0 0 0 130750.18337124586 28987.551041968167 0 28987.551041968167 -8268.2517881657532 0 0 0 0 15033897.613960266 -6279914.9071268085 0 -6279914.9071268085 763192.08785574231 0 0 0 0 7043252.3485641479 -9784223.6297665294 0 -9784223.6297665294 7024505.4978304747 0 0 0 0 52571.535582728684 4378.2970631420612 0 4378.2970631420612 -8826.5722689431459 0 0 0 0 11402988.343494415 -2339854.1713112965 0 -2339854.1713112965 -2979806.2021686165 0 0 0 0 26246050.953239441 -6811762.8348797373 0 -6811762.8348797373 6813.6415848522092 0 0 0 0 7638013.5920829773 1219416.2735735124 0 1219416.2735735124 566093.06366227171 0 0 0 0 12691503.956710815 -3848288.2241561441 0 -3848288.2241561441 15170.576395488111 0 0 0 0 3119989.1232719421 1336592.1147076781 0 1336592.1147076781 1565305.5791507321 0 0 0 0 4963174.5353393555 -2327971.9970748327 0 -2327971.9970748327 2128512.7405246347 0 0 0 0 9633651.065246582 -1298627.0462674573 0 -1298627.0462674573 -2529004.699200579 0 0 0 0 6306776.2478027344 -1443315.4775701705 0 -1443315.4775701705 -3061101.4790847786 0 0 0 0 15482970.522354126 -4729103.9418915352 0 -4729103.9418915352 -1012719.4811536898 0 0 0 0 12173931.451667786 -12587224.572525719 0 -12587224.572525719 12892297.602471836 0 0 0 0 8815062.4931182861 -7332244.6364958994 0 -7332244.6364958994 -965975.42000584421 0 0 0 0 10173049.894958496 -7176670.7508010659 0 -7176670.7508010659 7408598.4301305376 0 0 0 0 28015002.50459671 -6980779.427267639 0 -6980779.427267639 1140545.5926210894 0 0 0 0 24725074.905990601 -22499572.461795382 0 -22499572.461795382 9891151.1742168218 0 0 0 0 24056827.290710449 -11376509.551639078 0 -11376509.551639078 1451.1466661197783 0 0 0 0 12917440.671432495 -1367956.3522940162 0 -1367956.3522940162 3946440.6577139436 0 0 0 0 10147119.844257355 -4732085.6882378692 0 -4732085.6882378692 3100952.9073010385 0 0 0 0 3098871.568069458 740133.95413493307 0 740133.95413493307 8291.2583091036722 0 0 0 0 2614943.9039764404 -1039579.9735998525 0 -1039579.9735998525 -4428222.9804552607 0 0 0 0 500001.47398376465 2868350.88122667 0 2868350.88122667 -2788991.2685219222 0 0 0 0 2820946.2081116363 -1406325.5466162004 0 -1406325.5466162004 -1572536.8072593461 0 0 0 0 797620.22247695923 -661587.73931482481 0 -661587.73931482481 -413127.84402530896 0 0 0 0 -420289.91424560547 447375.41599917569 0 447375.41599917569 -3355.9904807129019 0 0 0 0 1815483.8599123731 -1768621.1316301674 0 -1768621.1316301674 1470798.8604380018 0 0 0 0 4103922.4684753418 -2560430.2966797506 0 -2560430.2966797506 6458699.1383343488 0 0 0 0 810269.94031020999 -1496750.3800797202 0 -1496750.3800797202 1549629.2049565087 0 0 0 0 5110876.6437225342 -6576896.3897854146 0 -6576896.3897854146 1162.589752175284 0 0 0 0 2709270.805229187 -3662070.1122309314 0 -3662070.1122309314 4494683.6054392895 0 0 0 0 5738843.3580627441 -11030905.780731805 0 -11030905.780731805 5803305.7978234235 0 0 0 0 406488.67895487882 -410736.53008560836 0 -410736.53008560836 -201968.27904181817 0 0 0 0 2876987.2902374268 -1944019.6171134636 0 -1944019.6171134636 9519212.0348898228 0 0 0 0 -125911308.54734039 575675.91812989861 0 575675.91812989861 71777543.46691668 0 0 0 0 1648362.535426598 -3389501.1032225415 0 -3389501.1032225415 2722747.5814125133 0 0 0 0 6766388.3760108948 -3656232.797154061 0 -3656232.797154061 1276699.4186519124 0 0 0 0 2836232.9974290654 -1043083.9355548136 0 -1043083.9355548136 -706044.16807583661 0 0 0 0 4606010.9778900146 -3457840.5521752834 0 -3457840.5521752834 2509611.0115890503 0 0 0 0 3103336.9490699768 -4960111.5416038036 0 -4960111.5416038036 2809950.8022766113 0 0 0 0 -725477.02138137817 -3447652.9689028263 0 -3447652.9689028263 5274196.9365706444 0 0 0 0 1926808.9508746639 -2737388.3921014555 0 -2737388.3921014555 1725241.2229192932 0 0 0 0 1689305.2312164307 -1969477.0425302982 0 -1969477.0425302982 2394366.0361965299 0 0 0 0 4344482.4866638184 -4843662.0050237179 0 -4843662.0050237179 4519839.1824374199 0 0 0 0 10402729.460037231 -7763194.9354622364 0 -7763194.9354622364 7077515.0470543504 0 0 0 0 5004724.7641601562 -3565493.1295397282 0 -3565493.1295397282 4161430.552397728 0 0 0 0 324003.07471206784 -384261.75115352124 0 -384261.75115352124 471142.2759842067 0 0 0 0 2509257.3605041504 -5384185.8918757439 0 -5384185.8918757439 16885405.157130718 0 0 0 0 10703794.14687109 -13019855.292571917 0 -13019855.292571917 13672461.916894913 0 0 0 0 1719609.150177002 -2222768.4803636074 0 -2222768.4803636074 7713484.0184509754 0 0 0 0 6033521.3601531982 -5610106.2181334496 0 -5610106.2181334496 6042757.8859877586 0 0 0 0 5786392.2446937561 -6146242.9951024055 0 -6146242.9951024055 4902382.9376859665 0 0 0 0 6201694.8082771301 -5931258.5423759818 0 -5931258.5423759818 3285942.6614894867 0 0 0 0 3945225.8216094971 -6428145.7119526863 0 -6428145.7119526863 7700281.0320415497 0 0 0 0 969114.80236777663 -1444526.2086309716 0 -1444526.2086309716 1773073.9731153634 0 0 0 0 4505668.2425689697 148009474.96845615 0 148009474.96845615 -8038889.6283201724 0 0 0 0 76016615.818054199 23015917.521230221 0 23015917.521230221 48263637.264856815 0 0 0 0 453906041.19543457 66184168.205249161 0 66184168.205249161 -15568835.646392941 0 0 0 0 1013502.1312916577 14605.568040888291 0 14605.568040888291 -48499.795984832017 0 0 0 0 371194168.22019958 -114421432.73790249 0 -114421432.73790249 -9478346.7883702982 0 0 0 0 346266370.10777283 142609784.22061074 0 142609784.22061074 -72304558.911919057 0 0 0 0 706795401.11689758 33660516.657406375 0 33660516.657406375 -317423.90222431876 0 0 0 0 673883585.49603653 -109926969.86256683 0 -109926969.86256683 2556247.2377826422 0 0 0 0 768192614.4498291 -8340724.4950086176 0 -8340724.4950086176 -130799607.0327712 0 0 0 0 438524868.2766552 2377998.3132596314 0 2377998.3132596314 -110812321.70297515 0 0 0 0 731559438.30883789 -87423749.806669831 0 -87423749.806669831 -89250399.040914237 0 0 0 0 707797657.67648315 47249784.008452475 0 47249784.008452475 -99285264.826472163 0 0 0 0 355399044.21726608 -95501317.240884751 0 -95501317.240884751 -56089298.120297641 0 0 0 0 421185123.07919312 32833992.26451765 0 32833992.26451765 -63953822.012667283 0 0 0 0 442265568.14746094 29503835.659635797 0 29503835.659635797 90714727.722746968 0 0 0 0 443631015.47448254 29754267.519759398 0 29754267.519759398 -120069119.31027859 0 0 0 0 584916.52288621664 -870215.58816237003 0 -870215.58816237003 1392707.6990868242 0 0 0 0 2816733.1122436523 -2670821.9289719202 0 -2670821.9289719202 6678.4198359840957 0 0 0 0 3033992.6450653076 -3699093.610042314 0 -3699093.610042314 4497690.5462564146 0 0 0 0 21215220.667266846 58165900.284596294 0 58165900.284596294 -64037959.252021134 0 0 0 0 20817493.753570557 58862665.9348993 0 58862665.9348993 44871068.732136786 0 0 0 0 214923212.09024048 -36092914.946449995 0 -36092914.946449995 34480734.070090443 0 0 0 0 -1710582.1997680664 100868575.23898959 0 100868575.23898959 64484713.31867218 0 0 0 0 -33389630.387947083 -46501983.963153124 0 -46501983.963153124 -50941020.925667524 0 0 0 0 48721755.358680725 -120232052.78968215 0 -120232052.78968215 15248086.778351754 0 0 0 0 966364.82647304237 420681.88938280009 0 420681.88938280009 404767.97110894136 0 0 0 0 464617396.2954483 334869961.09751523 0 334869961.09751523 -201434271.69185257 0 0 0 0 3026468.5054550171 70405803.469482064 0 70405803.469482064 206802128.56093311 0 0 0 0 454557739.96518517 72571006.848159194 0 72571006.848159194 380054183.65841937 0 0 0 0 452790383.72203064 38029685.804710865 0 38029685.804710865 45291278.900268197 0 0 0 0 361970153.63056183 168607185.21411881 0 168607185.21411881 113569102.48698735 0 0 0 0 521573027.84531403 45677510.339701593 0 45677510.339701593 -67121328.271986604 0 0 0 0 312794309.30227661 -87309995.458505869 0 -87309995.458505869 -4900821.4361903071 0 0 0 0 918721612.4137001 -265042787.11029783 0 -265042787.11029783 20115266.853044152 0 0 0 0 822110434.38587952 264629122.79681969 0 264629122.79681969 92130027.567433715 0 0 0 0 1086561097.5818329 -77611419.741738081 0 -77611419.741738081 -15361812.338381767 0 0 0 0 563965516.30847168 362663304.61748409 0 362663304.61748409 117173932.98076117 0 0 0 0 1750123.8124917001 -835996.60927145183 0 -835996.60927145183 48570.627912399243 0 0 0 0 1122465819.730999 67953407.776470184 0 67953407.776470184 155432404.5647037 0 0 0 0 39985229.37600708 47785502.020847797 0 47785502.020847797 -43611512.440561175 0 0 0 0 11000622.507606506 55024645.706121117 0 55024645.706121117 33602771.209563494 0 0 0 0 40977778.68006897 -168964745.60113037 0 -168964745.60113037 91310645.397426367 0 0 0 0 -7651067.0045623779 28422782.126128078 0 28422782.126128078 111102524.82221448 0 0 0 0 44321313.705169678 -65450572.645352721 0 -65450572.645352721 125994575.03459644 0 0 0 0 255287404.03023911 -3679151.7612732649 0 -3679151.7612732649 50278192.171239614 0 0 0 0 356834779.00805807 46913097.321867362 0 46913097.321867362 -124751538.85737991 0 0 0 0 355904440.89778137 56168097.74943161 0 56168097.74943161 -95932581.921025276 0 0 0 0 167610008.31497478 26588072.996207774 0 26588072.996207774 -32806063.828979015 0 0 0 0 206834215.88211823 222224367.88633218 0 222224367.88633218 137874099.22887135 0 0 0 0 586213676.77320862 55798942.534103155 0 55798942.534103155 -111290767.95572996 0 0 0 0 977407627.95290375 186591492.00324512 0 186591492.00324512 -126211701.44065905 0 0 0 0 457104155.57756805 95261600.479119301 0 95261600.479119301 -121916851.35767269 0 0 0 0 518847277.10860443 -17445469.483677387 0 -17445469.483677387 -83234403.144052029 0 0 0 0 325319236.16295624 -123841643.09914064 0 -123841643.09914064 3629835.6734437943 0 0 0 0 788884065.92798424 -422187941.03151774 0 -422187941.03151774 178321488.04884958 0 0 0 0 165617861.25533295 -75448920.290617704 0 -75448920.290617704 20822106.27431488 0 0 0 0 180428271.12586975 -50338712.779334545 0 -50338712.779334545 9755180.0674540997 0 0 0 0 2593754.4809239954 515632.43530951813 0 515632.43530951813 675044.73426874541 0 0 0 0 1190593.9488502815 -1060963.3190685213 0 -1060963.3190685213 612491.46213443205 0 0 0 0 67426081.76625061 -48435728.815828323 0 -48435728.815828323 42407459.347558498 0 0 0 0 198014822.34217072 16710769.716856837 0 16710769.716856837 -20417139.46279335 0 0 0 0 274831545.96273804 -41072582.526055098 0 -41072582.526055098 -6240130.6928859949 0 0 0 0 433962.21313648857 -433240.41233598813 0 -433240.41233598813 217449.65504399501 0 0 0 0 23190358.234376907 25091623.363919497 0 25091623.363919497 28223518.748839378 0 0 0 0 138796207.16976547 177548796.654845 0 177548796.654845 9927318.9511487484 0 0 0 0 66152873.622695923 22400085.080793381 0 22400085.080793381 71414266.598276854 0 0 0 0 296757160.8255806 22730046.45584774 0 22730046.45584774 -88839363.171960354 0 0 0 0 297048167.67595673 -1319546.8271877766 0 -1319546.8271877766 63755827.609009743 0 0 0 0 443000001.24817944 92517105.196432292 0 92517105.196432292 -127126548.19596958 0 0 0 0 432153287.75393677 131767501.09475398 0 131767501.09475398 -16079983.34112215 0 0 0 0 314437287.81079865 11718185.269803524 0 11718185.269803524 94803669.716786861 0 0 0 0 576197147.53395081 83740888.217108727 0 83740888.217108727 -141381820.87208557 0 0 0 0 385682912.84910583 46470627.411179543 0 46470627.411179543 -148513401.78112161 0 0 0 0 333432759.62467957 70387902.412552118 0 70387902.412552118 -107678062.07094574 0 0 0 0 9229962.650056839 -11170058.68609333 0 -11170058.68609333 8907167.880241394 0 0 0 0 22734.334973290563 -63765.32828043215 0 -63765.32828043215 327703.87781107076 0 0 0 0 -8169513.6089172363 -18570370.319453239 0 -18570370.319453239 -2562578.7002506256 0 0 0 0 6238895.2739334106 -35253279.046447277 0 -35253279.046447277 -5982395.5038232803 0 0 0 0 10634193.719596863 -15914642.355584383 0 -15914642.355584383 -41627721.324001312 0 0 0 0 -7281659.0423202515 15620961.569686115 0 15620961.569686115 1220062.6411619186 0 0 0 0 -15204902.424743652 -35682279.48942709 0 -35682279.48942709 -2320524.0790295601 0 0 0 0 3188127.3459320068 -5791980.9095807076 0 -5791980.9095807076 20090491.97402215 0 0 0 0 3211791.7342071533 509783.23574542999 0 509783.23574542999 8241296.0627891421 0 0 0 0 3532895.8429031372 -2227585.2028985023 0 -2227585.2028985023 2992712.0712327957 0 0 0 0 2720152.7638397217 -998583.37279558182 0 -998583.37279558182 5046632.7382782102 0 0 0 0 412371.64127039164 -571804.29876533151 0 -571804.29876533151 840630.09381731367 0 0 0 0 1871209.8088684082 -2554714.7466320992 0 -2554714.7466320992 2339874.7395429611 0 0 0 0 -4688690.3951416016 3358958.0510015488 0 3358958.0510015488 11569094.679049969 0 0 0 0 3551868.1076049805 1945096.9737950563 0 1945096.9737950563 11585594.635624409 0 0 0 0 -32786818.626556396 -20272983.153570175 0 -20272983.153570175 29616031.400432587 0 0 0 0 49497.905891418457 -3220511.9880051613 0 -3220511.9880051613 20168099.155424118 0 0 0 0 -23398205.05909729 -58023864.644628525 0 -58023864.644628525 -24229288.493583441 0 0 0 0 -24574995.937767029 -43189322.904491186 0 -43189322.904491186 72424088.619996071 0 0 0 0 -4862168.6439819336 -31188314.102027893 0 -31188314.102027893 6406604.2323510647 0 0 0 0 -9926617.9066085815 -17607928.554013729 0 -17607928.554013729 -19781608.307499886 0 0 0 0 -21496339.098215103 -40257838.735504746 0 -40257838.735504746 3838901.045674324 0 0 0 0 256056.07493591309 -30725040.0560112 0 -30725040.0560112 7706001.4312539101 0 0 0 0 21375243.155563354 -34260030.04145956 0 -34260030.04145956 -8213682.4218635559 0 0 0 0 3582807.3058166504 -22867711.964188099 0 -22867711.964188099 -166706.88396453857 0 0 0 0 27015045.727996826 -11574358.276110649 0 -11574358.276110649 2597892.7593835592 0 0 0 0 2778650.4247207642 -34778095.932250381 0 -34778095.932250381 -621005.61419487 0 0 0 0 47832907.388633728 -3914864.9717960358 0 -3914864.9717960358 -76280418.263063908 0 0 0 0 12685128.910359949 -2226788.8301756959 0 -2226788.8301756959 -975520.74513796181 0 0 0 0 126691621.30886841 -119960773.21435785 0 -119960773.21435785 -73153407.121291161 0 0 0 0 -520624.59609651566 -445214.51457850635 0 -445214.51457850635 1200507.3439140306 0 0 0 0 -26096928.447799683 -25207231.835754633 0 -25207231.835754633 34509632.829016566 0 0 0 0 171748571.8037796 21320939.855544567 0 21320939.855544567 -16265550.180426598 0 0 0 0 -27109395.058532715 -33993036.289268494 0 -33993036.289268494 38458029.139546633 0 0 0 0 -11349519.730457306 -24389653.90596199 0 -24389653.90596199 19128463.866268635 0 0 0 0 5122221.1615409851 -32608924.702819586 0 -32608924.702819586 -116528950.60613585 0 0 0 0 9670954.7183019519 -2017363.6719905711 0 -2017363.6719905711 -374733.9301027676 0 0 0 0 33246358.70148468 -14978606.428253531 0 -14978606.428253531 3158381.6483631134 0 0 0 0 -13550853.725082397 -36677909.316908598 0 -36677909.316908598 61582093.541835859 0 0 0 0 50714.654566764832 -33548061.423513442 0 -33548061.423513442 -17919173.894495964 0 0 0 0 -4427391.8292236328 -32173318.078696966 0 -32173318.078696966 -166423.07614433765 0 0 0 0 2888711.5592412427 -2223355.7147529107 0 -2223355.7147529107 -1176970.648973797 0 0 0 0 6106930.7709121704 -10283069.213028669 0 -10283069.213028669 -47114786.26448226 0 0 0 0 60735871.038116455 5225527.845664978 0 5225527.845664978 -6415843.9725791216 0 0 0 0 185230279.50996399 63423166.307618141 0 63423166.307618141 -18473550.234568596 0 0 0 0 141485.74733118713 -225363.52634715661 0 -225363.52634715661 -94556.133769472595 0 0 0 0 30788609.99905777 -37949040.360945225 0 -37949040.360945225 -16239973.23205471 0 0 0 0 33120989.019874573 -53227494.860044718 0 -53227494.860044718 -67846849.719763756 0 0 0 0 -30770774.26984787 -22047293.975022316 0 -22047293.975022316 -11520136.288750887 0 0 0 0 -608495.69706366956 -1467230.6497857608 0 -1467230.6497857608 2320192.7895186334 0 0 0 0 90427775.334014893 16220952.918548465 0 16220952.918548465 -36940614.98259449 0 0 0 0 102328758.74662018 15043886.181962013 0 15043886.181962013 -75945253.714523315 0 0 0 0 97858672.160720825 41614093.796292305 0 41614093.796292305 -21774710.278140545 0 0 0 0 -29732403.875915527 -5668544.7565376759 0 -5668544.7565376759 7953045.084653616 0 0 0 0 656360681.18094349 272496888.49367791 0 272496888.49367791 277843727.84239006 0 0 0 0 359116941.36659622 11829587.849616051 0 11829587.849616051 165806549.18770361 0 0 0 0 503618556.78322601 -172168965.13707232 0 -172168965.13707232 269335696.18099403 0 0 0 0 672551787.93443298 5086646.6976823807 0 5086646.6976823807 -79030541.267695427 0 0 0 0 448665310.65668106 316409692.00452507 0 316409692.00452507 -12006822.431010723 0 0 0 0 2394912.7294730023 -377846.45432327152 0 -377846.45432327152 29805.824378207326 0 0 0 0 759191401.92488098 -135396374.26777649 0 -135396374.26777649 -108635561.37116528 0 0 0 0 88851613.889198303 -138524760.50886989 0 -138524760.50886989 351482673.59146595 0 0 0 0 34817081.877483368 19206368.72578764 0 19206368.72578764 95065646.825352192 0 0 0 0 6445651.0599130988 -1313042.6230507931 0 -1313042.6230507931 -92050.849648734322 0 0 0 0 146554716.67209244 -33991998.567496538 0 -33991998.567496538 -203286152.44849682 0 0 0 0 -54254031.553749084 -26892357.085760593 0 -26892357.085760593 148749288.10720551 0 0 0 0 2892552.7844233885 -1883343.8217245527 0 -1883343.8217245527 -1331476.5208345852 0 0 0 0 34576751.76232338 -1386109.126257956 0 -1386109.126257956 -165668327.3083086 0 0 0 0 72921693.202941895 -175932308.46693897 0 -175932308.46693897 150521845.86140847 0 0 0 0 70366899.394561768 -116140560.76376796 0 -116140560.76376796 39962046.174171448 0 0 0 0 111788387.0926857 -135074822.70277762 0 -135074822.70277762 155651191.434448 0 0 0 0 -94113316.984130859 -102215163.44728279 0 -102215163.44728279 58093947.683307648 0 0 0 0 261160020.02986526 197882794.38443112 0 197882794.38443112 -316009744.80319309 0 0 0 0 1377233.8158730939 -854522.47172714956 0 -854522.47172714956 -643815.60843558167 0 0 0 0 216060850.48711395 -318192419.91948676 0 -318192419.91948676 428805225.32940245 0 0 0 0 596131895.92665863 -16314037.373678446 0 -16314037.373678446 77025543.670729518 0 0 0 0 66202562.427398682 -2283780.5933396816 0 -2283780.5933396816 92990795.206469536 0 0 0 0 379352011.66135406 188050225.58660114 0 188050225.58660114 115938230.33167553 0 0 0 0 -20742623.960622787 113986442.52861696 0 113986442.52861696 36499111.603075504 0 0 0 0 372961554.33414459 188010020.16218054 0 188010020.16218054 34108217.424936771 0 0 0 0 109154322.33709431 -164124268.55269906 0 -164124268.55269906 -263553590.65582156 0 0 0 0 198952467.40378571 16534251.658555031 0 16534251.658555031 -110275864.57270861 0 0 0 0 1747648.9462511539 -1478296.8293864881 0 -1478296.8293864881 223754.49513183202 0 0 0 0 -45086243.031608582 -31342412.754008532 0 -31342412.754008532 -61731699.707587957 0 0 0 0 53307297.703308105 42220965.687356949 0 42220965.687356949 -66962851.964501858 0 0 0 0 -77099477.828521729 -158396259.44198442 0 -158396259.44198442 160271909.63653421 0 0 0 0 757192.03653357923 -985903.66825312888 0 -985903.66825312888 188221.46341657068 0 0 0 0 92672163.622764587 -264814218.68914592 0 -264814218.68914592 139098091.4419322 0 0 0 0 376992530.44297791 -224719018.55280972 0 -224719018.55280972 40016265.750745259 0 0 0 0 388045437.68966675 -211668546.15979004 0 -211668546.15979004 -25996421.694899082 0 0 0 0 201549308.76490021 -47663129.550948143 0 -47663129.550948143 -170181393.51180887 0 0 0 0 238582485.31063843 -10207473.051784277 0 -10207473.051784277 -48893092.158174515 0 0 0 0 187268901.51261902 -56992629.470947504 0 -56992629.470947504 -65977742.134008408 0 0 0 0 98206024.207962036 -76474807.31760335 0 -76474807.31760335 -38837293.394777298 0 0 0 0 36376606.507451057 -66837623.187942564 0 -66837623.187942564 -30089798.242899418 0 0 0 0 35683398.593700409 -27029784.066660665 0 -27029784.066660665 -66989209.376447648 0 0 0 0 2105611.895822525 23297050.365976781 0 23297050.365976781 -47119887.992087364 0 0 0 0 -48693134.155899048 -31058085.285691798 0 -31058085.285691798 -34079444.973124743 0 0 0 0 -9349159.8050537109 -6938144.3312138319 0 -6938144.3312138319 -48079088.22635746 0 0 0 0 -64084780.719562531 -28039985.636848032 0 -28039985.636848032 -34006329.5604105 0 0 0 0 -29632687.175216675 -42352732.809257329 0 -42352732.809257329 -156789556.28759384 0 0 0 0 -1387304.9919128418 12316180.245335817 0 12316180.245335817 -99867914.16315949 0 0 0 0 79132409.397361755 -74056528.24194622 0 -74056528.24194622 -27108455.320826054 0 0 0 0 -9324679.5053730011 -5494780.3442183137 0 -5494780.3442183137 -21766858.749477863 0 0 0 0 41150599.184082031 -33482836.824245334 0 -33482836.824245334 -13782510.932518959 0 0 0 0 89126394.761268616 -25065734.608461261 0 -25065734.608461261 -52557775.685408354 0 0 0 0 97776437.606620789 24326192.431646347 0 24326192.431646347 -47761684.87275207 0 0 0 0 95529640.106204987 12373929.531349063 0 12373929.531349063 -19530255.420556784 0 0 0 0 124101380.46997833 4689898.4772376418 0 4689898.4772376418 -60912971.970970631 0 0 0 0 50307494.720657349 18158024.584816456 0 18158024.584816456 -27815854.616013169 0 0 0 0 53775081.443649292 4789762.4069709778 0 4789762.4069709778 -56421838.088099122 0 0 0 0 -52326515.926879883 -42722424.732508183 0 -42722424.732508183 -110747861.60917521 0 0 0 0 30266870.611572266 -2230222.897354126 0 -2230222.897354126 -52378447.420215368 0 0 0 0 -49496873.442558289 -57306049.576742411 0 -57306049.576742411 -71152268.730792999 0 0 0 0 527496.48492045701 -170369.83460295945 0 -170369.83460295945 654497.06234857254 0 0 0 0 -68997814.739151001 -39259389.214882851 0 -39259389.214882851 7824175.4890755415 0 0 0 0 -33315699.311275482 -108420958.97947961 0 -108420958.97947961 -120233453.94841862 0 0 0 0 -12669648.536422729 -56731898.657364845 0 -56731898.657364845 -149329211.76253295 0 0 0 0 -28461313.109298706 -50642287.279303074 0 -50642287.279303074 -43167610.751107216 0 0 0 0 -17657632.401138306 50536788.673377514 0 50536788.673377514 12550596.651691437 0 0 0 0 378472064.58555603 -242656255.46486187 0 -242656255.46486187 108508325.8423388 0 0 0 0 228005244.73048401 115746406.11433315 0 115746406.11433315 -60005493.032950401 0 0 0 0 22922.347384274006 -153991.1449116841 0 -153991.1449116841 569312.53382153763 0 0 0 0 -99373426.035858154 -189931924.02564406 0 -189931924.02564406 77343792.844038963 0 0 0 0 121702695.32627869 -292936171.93616414 0 -292936171.93616414 89099347.683074832 0 0 0 0 31802667.569755554 -142785906.6629374 0 -142785906.6629374 11838567.09194994 0 0 0 0 365585132.55140305 -173754404.4095428 0 -173754404.4095428 -54109467.473620892 0 0 0 0 32638033.444412231 -20797802.212538719 0 -20797802.212538719 -32312611.846305728 0 0 0 0 -97943472.094912171 -31631644.428189468 0 -31631644.428189468 -32125108.038657188 0 0 0 0 -2903310.0328979492 -123751115.08110547 0 -123751115.08110547 55586750.703630447 0 0 0 0 101322277.91213799 -154910838.31928083 0 -154910838.31928083 9758379.8332638741 0 0 0 0 138175724.89311314 -41578112.497823566 0 -41578112.497823566 -19753862.58193779 0 0 0 0 131714085.17893219 -170607824.08529663 0 -170607824.08529663 -27107344.685865879 0 0 0 0 111619355.97792053 -135410265.88601089 0 -135410265.88601089 -50405428.952227116 0 0 0 0 245864791.530159 -127982081.83428919 0 -127982081.83428919 -49648065.633729607 0 0 0 0 287778947.77376556 39825944.888180971 0 39825944.888180971 31413278.269978821 0 0 0 0 141029028.02774048 -44704077.376746774 0 -44704077.376746774 -16728775.898817301 0 0 0 0 129830413.19600964 51423261.436312757 0 51423261.436312757 45104347.610839844 0 0 0 0 78479360.553863525 -4893635.3091660738 0 -4893635.3091660738 -16657688.272694111 0 0 0 0 110553256.82308197 -38950965.074894696 0 -38950965.074894696 51772191.686054558 0 0 0 0 2726723.4326095581 -28718846.462699056 0 -28718846.462699056 41710742.638891459 0 0 0 0 -11117326.309009552 -12671335.474830985 0 -12671335.474830985 27871921.439676881 0 0 0 0 5627915.1556539536 5121548.9033119977 0 5121548.9033119977 -39076555.255865812 0 0 0 0 7547804.4898147583 -4955305.6407915354 0 -4955305.6407915354 -4149164.7922766209 0 0 0 0 57285317.733024597 23140838.717608094 0 23140838.717608094 4575095.5110434294 0 0 0 0 43146733.301231384 -18258924.37217474 0 -18258924.37217474 -21636544.39969635 0 0 0 0 6990480.8004302979 18808434.522911787 0 18808434.522911787 -15217369.143153071 0 0 0 0 2668920.8785133362 12527592.440794349 0 12527592.440794349 -22736464.082413197 0 0 0 0 1156991.363064304 -977327.3661103826 0 -977327.3661103826 -818239.7516407785 0 0 0 0 106770198.25107384 -35312766.523527771 0 -35312766.523527771 -17831123.789303303 0 0 0 0 615502.51214697957 -514670.61633485742 0 -514670.61633485742 -428755.22778978804 0 0 0 0 32520612.476566315 -8431355.6003935337 0 -8431355.6003935337 -36888513.129561424 0 0 0 0 18825597.100028992 -23279821.632421851 0 -23279821.632421851 -50418384.404889107 0 0 0 0 -340928.66423797607 26800102.58741641 0 26800102.58741641 -82133155.254141331 0 0 0 0 -10499329.178718567 -8837762.2762913704 0 -8837762.2762913704 -31530305.175401688 0 0 0 0 -15763379.097259521 13908435.673000574 0 13908435.673000574 -18193861.29260397 0 0 0 0 -46260656.85559082 -16207114.089717865 0 -16207114.089717865 -56325051.246647835 0 0 0 0 1128512.6449385956 -1084443.2430682685 0 -1084443.2430682685 -868987.66867469181 0 0 0 0 36701755.361602783 9873360.0603165627 0 9873360.0603165627 -58801895.34631139 0 0 0 0 -17184341.547378182 -39908886.786153592 0 -39908886.786153592 -85365703.366760731 0 0 0 0 -139464100.7947731 -60926239.644719839 0 -60926239.644719839 -22583934.681327343 0 0 0 0 2018989.9029017705 879686.23117971793 0 879686.23117971793 226440.75013291417 0 0 0 0 -15133259.604621887 -26755045.228878558 0 -26755045.228878558 -16996035.419577003 0 0 0 0 -55082311.664558411 -27241736.994875371 0 -27241736.994875371 759737.85263192654 0 0 0 0 7584260.3018989135 2258026.9099907838 0 2258026.9099907838 527848.32204114983 0 0 0 0 -106384611.54824829 -45046318.315475613 0 -45046318.315475613 9189361.9116164446 0 0 0 0 -55333679.546883106 -31375905.439492743 0 -31375905.439492743 -32812812.291440725 0 0 0 0 62251032.957614899 16643045.9387514 0 16643045.9387514 -11405132.21436882 0 0 0 0 67505025.295455933 -976822.75164788961 0 -976822.75164788961 47405334.423928499 0 0 0 0 27622062.082618713 -15686939.637657925 0 -15686939.637657925 -34400219.760106325 0 0 0 0 23212103.734268188 -30101822.532752752 0 -30101822.532752752 -41565042.958573699 0 0 0 0 83028679.856872559 44429005.176841497 0 44429005.176841497 -107123664.98433793 0 0 0 0 150902835.06063843 42832367.501262546 0 42832367.501262546 -60560209.837934971 0 0 0 0 46928659.294227362 -29264795.456333399 0 -29264795.456333399 -2770073.5507221222 0 0 0 0 11632073.70589447 -12395530.867175579 0 -12395530.867175579 7798670.8519277573 0 0 0 0 29472725.735467911 25388693.771893978 0 25388693.771893978 22743894.925500721 0 0 0 0 25481570.761539936 -3332413.0239194185 0 -3332413.0239194185 -16583571.349387407 0 0 0 0 23310433.349565066 -7544405.6724945754 0 -7544405.6724945754 -8506203.458971791 0 0 0 0 21695564.520720482 -9467461.2214063555 0 -9467461.2214063555 4963317.6552119255 0 0 0 0 6760102.1766204834 -23549318.451482058 0 -23549318.451482058 -8092783.9912708998 0 0 0 0 36143163.002944291 -1898702.2342310995 0 -1898702.2342310995 10368848.161663055 0 0 0 0 20976048.780433655 73054.128072023392 0 73054.128072023392 -7569317.7605538368 0 0 0 0 6729122.0813598633 2716996.4678783417 0 2716996.4678783417 -8059642.4209547043 0 0 0 0 22270126.269126844 -6354845.4901511874 0 -6354845.4901511874 -9678078.6107283086 0 0 0 0 20466949.562095642 -23008609.513467789 0 -23008609.513467789 -39298552.517539501 0 0 0 0 45983578.788246155 1413751.1221692562 0 1413751.1221692562 -15961878.120116472 0 0 0 0 75231550.006702423 -69765708.918607652 0 -69765708.918607652 -46689942.622244835 0 0 0 0 -10056781.61435318 -56156296.790097713 0 -56156296.790097713 -61038839.7622509 0 0 0 0 3196013.1216812134 -26965012.150485039 0 -26965012.150485039 -79981761.049716234 0 0 0 0 -30307401.980171204 -22661387.398787022 0 -22661387.398787022 -35186864.142406464 0 0 0 0 11963164.071113586 -5978247.2182893753 0 -5978247.2182893753 -64225072.014644742 0 0 0 0 16963448.599033356 -20810902.828248382 0 -20810902.828248382 -34775985.570892334 0 0 0 0 43725572.790008545 -46005079.095268726 0 -46005079.095268726 -46662123.309119225 0 0 0 0 62299653.463577271 -18894207.391683578 0 -18894207.391683578 39274898.412564278 0 0 0 0 30462419.606613159 18283144.094264507 0 18283144.094264507 4001381.3271961212 0 0 0 0 33686032.253051758 26967252.638589859 0 26967252.638589859 -26634179.732985497 0 0 0 0 -31492498.624267578 -80580750.216475487 0 -80580750.216475487 54279546.592932224 0 0 0 0 585634.70381105691 -620610.14870423079 0 -620610.14870423079 -472447.85890545766 0 0 0 0 7593541.8335647583 -132205660.59480798 0 -132205660.59480798 -13810869.456948757 0 0 0 0 -92653666.388381958 -127064223.05364847 0 -127064223.05364847 -9053657.7348535061 0 0 0 0 127292287.62070465 9179182.4684429169 0 9179182.4684429169 -17652860.52369976 0 0 0 0 757120.58146258816 113078.25886102766 0 113078.25886102766 -129372.52576809516 0 0 0 0 -43687915.725761414 -54724044.941292763 0 -54724044.941292763 -42435382.602837801 0 0 0 0 41464645.841262817 -3084297.0753173828 0 -3084297.0753173828 -3621423.3421448916 0 0 0 0 38245010.352973938 -21124527.754286289 0 -21124527.754286289 -16663082.436546564 0 0 0 0 84195188.64390564 13836994.05698061 0 13836994.05698061 -4101379.6443403661 0 0 0 0 55708735.242218018 -20281981.286205769 0 -20281981.286205769 -1584606.7916631699 0 0 0 0 47346313.382705688 -2819046.993935585 0 -2819046.993935585 -35517763.808651924 0 0 0 0 32392823.668701172 -17579939.717380047 0 -17579939.717380047 -2009033.8229722977 0 0 0 0 38260645.640014648 -19935395.840368271 0 -19935395.840368271 -14667615.949077606 0 0 0 0 54064251.841453552 -8710257.2731683254 0 -8710257.2731683254 -15889469.992837429 0 0 0 0 38376148.638868332 -25066645.913798451 0 -25066645.913798451 -5001588.4374046326 0 0 0 0 30607620.809928894 -3338637.9829087257 0 -3338637.9829087257 -3046529.931007266 0 0 0 0 42154557.940052032 -2493871.1258387566 0 -2493871.1258387566 -3756443.9610424042 0 0 0 0 3268453.1534063593 -290858.14364297688 0 -290858.14364297688 -1252225.8579873121 0 0 0 0 8845923.7161970288 361958.92719419673 0 361958.92719419673 -1805015.8050681613 0 0 0 0 11125128.951416016 -2683773.1236176491 0 -2683773.1236176491 -2009300.4413551688 0 0 0 0 11131945.700641632 -2118870.5584087968 0 -2118870.5584087968 -2327079.9103527069 0 0 0 0 7713658.7594223022 1325104.8699838817 0 1325104.8699838817 -4189624.8536868095 0 0 0 0 7554634.6203155518 930838.75404965878 0 930838.75404965878 -3465169.0537595749 0 0 0 0 9179663.2344957143 -1356454.8314622939 0 -1356454.8314622939 -2983986.9258446908 0 0 0 0 24576194.641876221 -13453609.034098148 0 -13453609.034098148 7449668.0108541846 0 0 0 0 36064369.766174316 -19963556.500576973 0 -19963556.500576973 8323191.3045272827 0 0 0 0 21797943.224456787 -20246189.613778591 0 -20246189.613778591 22892965.556678772 0 0 0 0 35616439.344009399 -26563997.959542751 0 -26563997.959542751 9021981.2314720154 0 0 0 0 32078941.157028198 -20446647.799808502 0 -20446647.799808502 -1146833.7746558189 0 0 0 0 31204611.295707703 -20848404.354449749 0 -20848404.354449749 6584214.2264852524 0 0 0 0 -2491469.5776138306 -45778366.830368042 0 -45778366.830368042 -57750000.138146222 0 0 0 0 10722706.923408508 -24022555.342449903 0 -24022555.342449903 -21941983.813733578 0 0 0 0 -42716821.494060516 -24913024.259248734 0 -24913024.259248734 5143486.3710827827 0 0 0 0 1556171.8194690347 -490938.18134707958 0 -490938.18134707958 -664359.4825426843 0 0 0 0 3632170.1910211332 -5262420.5227900967 0 -5262420.5227900967 1264779.7355970903 0 0 0 0 560999.27198791504 -12088048.875100136 0 -12088048.875100136 -7775680.6057803631 0 0 0 0 -8366543.982170105 -17719914.195141315 0 -17719914.195141315 55464.998497962952 0 0 0 0 4592066.280418396 -23351598.06020689 0 -23351598.06020689 -22015310.782174587 0 0 0 0 11336647.0679245 -6899576.011534214 0 -6899576.011534214 4549.290275324136 0 0 0 0 5074646.0874862671 -17004131.702007532 0 -17004131.702007532 -3400400.8076121807 0 0 0 0 4614010.4748225771 -7364809.702406887 0 -7364809.702406887 1633589.30796805 0 0 0 0 12879875.810657501 -4214959.3060038388 0 -4214959.3060038388 -4377228.7707359791 0 0 0 0 8521627.303604126 -10844026.349155307 0 -10844026.349155307 -1372841.2394834757 0 0 0 0 24712502.089401245 -4512090.7557855248 0 -4512090.7557855248 -6117852.729162693 0 0 0 0 -45148093.548095703 24064433.688987255 0 24064433.688987255 19855921.84368813 0 0 0 0 -9488681.1045227051 39843341.596836746 0 39843341.596836746 29017927.529414415 0 0 0 0 668468.97685350478 -176556.0095047839 0 -176556.0095047839 -601792.79730940319 0 0 0 0 24910678.286148071 -15591737.096980751 0 -15591737.096980751 -6031555.7053334713 0 0 0 0 17791717.579467773 -10349148.052426457 0 -10349148.052426457 -5237053.2347536087 0 0 0 0 18949474.128324509 -16690187.379985139 0 -16690187.379985139 -4941508.2363992929 0 0 0 0 31738828.526153564 -11017754.244414091 0 -11017754.244414091 -6469594.5105704665 0 0 0 0 6241775.3014984131 -11718610.456760108 0 -11718610.456760108 -793360.91204202175 0 0 0 0 1333057.1432005838 -1094600.976346571 0 -1094600.976346571 -950564.41377446591 0 0 0 0 13231488.106323242 52657602.052896917 0 52657602.052896917 -24609621.317671061 0 0 0 0 6205057.2574222125 -2347745.1178273186 0 -2347745.1178273186 -4115939.1319288956 0 0 0 0 -66910034.486557007 -41861376.11101228 0 -41861376.11101228 33873570.633944988 0 0 0 0 39216924.230039597 -62323605.852048278 0 -62323605.852048278 -23602500.314883709 0 0 0 0 7243595.6205596924 3856360.7868834734 0 3856360.7868834734 -1738561.6384541988 0 0 0 0 4198690.2970733643 -256832.48623180389 0 -256832.48623180389 -1750845.6504600048 0 0 0 0 3832605.0518470332 -64983.446343846619 0 -64983.446343846619 -2862236.8931892635 0 0 0 0 3366333.8917388916 -438006.1624648571 0 -438006.1624648571 -2877709.3372249603 0 0 0 0 6853288.664580185 -566607.51688433066 0 -566607.51688433066 -3363554.4456580179 0 0 0 0 6490676.6782684326 3655909.9787149429 0 3655909.9787149429 -5115139.1404666901 0 0 0 0 8261520.3697273359 -858016.30503037199 0 -858016.30503037199 -1873269.7661854802 0 0 0 0 1908330.8086397201 -780894.64237561449 0 -780894.64237561449 -1146886.4235268468 0 0 0 0 43792346.212173462 -9243878.7043633461 0 -9243878.7043633461 -1662517.2511367798 0 0 0 0 -3417610.0020904541 -2727617.0608558059 0 -2727617.0608558059 -4013378.1174573898 0 0 0 0 11723237.201843262 -734635.535790205 0 -734635.535790205 -3484005.2289305329 0 0 0 0 15366450.854003906 3166477.8445954323 0 3166477.8445954323 -1681966.9188072681 0 0 0 0 18497200.475891113 -5320632.8989599943 0 -5320632.8989599943 -6058754.9678560495 0 0 0 0 16014418.928436279 1721653.4516138434 0 1721653.4516138434 -3663901.0017043352 0 0 0 0 -1642949.5046081543 -5437677.7276856303 0 -5437677.7276856303 -17098779.696726531 0 0 0 0 -268631.39884157479 -1752178.7700101726 0 -1752178.7700101726 -223080.91908640953 0 0 0 0 1633100.9240641296 -1056786.811112605 0 -1056786.811112605 -1607060.9666451891 0 0 0 0 10619564.590148926 -9128367.2901985347 0 -9128367.2901985347 -28308679.56978339 0 0 0 0 -19570461.302131653 8711384.2594775707 0 8711384.2594775707 -17719905.087327331 0 0 0 0 32224939.622337341 -4012139.7320309803 0 -4012139.7320309803 -7705064.2481579781 0 0 0 0 24241033.951782227 868567.44421029091 0 868567.44421029091 -4667910.1278448105 0 0 0 0 70117104.986778259 -42332814.019942164 0 -42332814.019942164 -13333369.889668643 0 0 0 0 -10120957.70135498 -152923.13568806648 0 -152923.13568806648 -6305168.263820529 0 0 0 0 263498.65475927293 -661095.13137758709 0 -661095.13137758709 -352450.77739025903 0 0 0 0 9324967.0343763158 -2491002.6719892109 0 -2491002.6719892109 -3880405.0798229361 0 0 0 0 3212322.9835093319 -2520672.1332483767 0 -2520672.1332483767 -2840032.5457995245 0 0 0 0 897647.23125457764 -1829389.8910633326 0 -1829389.8910633326 -5654823.9659175873 0 0 0 0 9516449.4154978618 -1596467.0190768428 0 -1596467.0190768428 -4205209.6004641354 0 0 0 0 9243008.1290895194 379207.59352760017 0 379207.59352760017 -3868275.9839075017 0 0 0 0 5674803.9626998901 -713342.19320571423 0 -713342.19320571423 -5188553.9536466599 0 0 0 0 990364.45771789551 -8251576.1160264909 0 -8251576.1160264909 -14138282.108272672 0 0 0 0 4690481.4043731689 337974.64194202423 0 337974.64194202423 -5965052.5864548683 0 0 0 0 4826615.6175159141 -2183693.4691810273 0 -2183693.4691810273 -411114.41353597678 0 0 0 0 5001583.6719093323 -416119.01098769903 0 -416119.01098769903 -5220653.3456118107 0 0 0 0 1321977.0399169922 1954555.9678268433 0 1954555.9678268433 -11497636.699966311 0 0 0 0 4516912.4833297729 -2019613.0651555061 0 -2019613.0651555061 -273255.77009391785 0 0 0 0 1895790.7862243652 678709.17422485352 0 678709.17422485352 -11598144.463516712 0 0 0 0 4174733.0219268799 113394.19555341452 0 113394.19555341452 -4637278.723944664 0 0 0 0 9275914.9211260527 -746259.77540583163 0 -746259.77540583163 -3919248.8134592096 0 0 0 0 2370437.6939699575 1730374.2496307765 0 1730374.2496307765 -3096773.4461714905 0 0 0 0 25989.482104040682 -26101.14515003562 0 -26101.14515003562 23048.56791511178 0 0 0 0 44249862.241630554 8880072.5433340073 0 8880072.5433340073 13532724.367211819 0 0 0 0 8785406.5412570238 943863.75869999453 0 943863.75869999453 -3008315.2917963136 0 0 0 0 4515296.7987976074 -2078078.8993710279 0 -2078078.8993710279 -783338.26882314682 0 0 0 0 80999405.919326782 -33097462.290372849 0 -33097462.290372849 -852357.89856147766 0 0 0 0 45312213.785339355 -66565422.060250282 0 -66565422.060250282 -31753071.402079582 0 0 0 0 684992.13860616088 497627.23183612712 0 497627.23183612712 -613744.37564169709 0 0 0 0 25404698.713867188 -16459392.273719788 0 -16459392.273719788 257882.40222358704 0 0 0 0 6989728.3327461481 -4810232.0759693384 0 -4810232.0759693384 -1969829.2212814847 0 0 0 0 4370140.6588299088 -1188488.0958690271 0 -1188488.0958690271 -402145.77021849621 0 0 0 0 -6613911.7220077515 10386981.41489315 0 10386981.41489315 7279854.5269432068 0 0 0 0 17348746.265411377 13972028.30483532 0 13972028.30483532 7356121.9062075615 0 0 0 0 -11600763.200805664 6170670.988825798 0 6170670.988825798 20419195.178707123 0 0 0 0 63167519.414489746 5201159.4724121094 0 5201159.4724121094 6952196.6748123169 0 0 0 0 4675109.447769165 680597.73303222656 0 680597.73303222656 -6480135.8542881012 0 0 0 0 39013614.955291748 -22864624.302085876 0 -22864624.302085876 4814385.2031354904 0 0 0 0 -711585.73876953125 -5218766.1779613495 0 -5218766.1779613495 2365456.8223237991 0 0 0 0 1790227.7317149341 -3576008.8742044647 0 -3576008.8742044647 -1924586.5031740544 0 0 0 0 14743909.368758816 -2060175.7172782719 0 -2060175.7172782719 -3194682.8330134279 0 0 0 0 5573967.5912017822 2341363.1100628376 0 2341363.1100628376 -11508243.686155319 0 0 0 0 2403724.1617355347 270976.21766316891 0 270976.21766316891 -5404767.7649202347 0 0 0 0 10227919.992165126 -1560665.0784106287 0 -1560665.0784106287 -3338594.98458823 0 0 0 0 14890542.317595631 -1756930.6976864375 0 -1756930.6976864375 -2273976.458730849 0 0 0 0 8606644.6535404474 -5725849.630199369 0 -5725849.630199369 -3499076.6986523531 0 0 0 0 -7371848.5659332275 -8053085.0603981018 0 -8053085.0603981018 -19100609.019647121 0 0 0 0 40607430.496986389 50379421.225935459 0 50379421.225935459 -108764701.81648254 0 0 0 0 17780723.431648254 -6417273.3406915665 0 -6417273.3406915665 -21952904.313173771 0 0 0 0 -3544701.6130523682 128962519.53807068 0 128962519.53807068 -15875381.118515968 0 0 0 0 -52222795.715507507 109651466.16000462 0 109651466.16000462 115644814.99271774 0 0 0 0 -40625216.145462036 -4168876.6613311768 0 -4168876.6613311768 195003205.89703178 0 0 0 0 -919252.05575561523 16140634.613667488 0 16140634.613667488 23556681.608112335 0 0 0 0 23358434.207725525 -25621626.406421185 0 -25621626.406421185 29854435.622927189 0 0 0 0 138361388.37619781 -95049269.92365551 0 -95049269.92365551 87296712.452002048 0 0 0 0 -8436064.5227508545 16305318.553792477 0 16305318.553792477 8897172.0568628311 0 0 0 0 -17402699.497291565 10788731.661847591 0 10788731.661847591 69296534.304655075 0 0 0 0 -12184400.705612183 142080.39360523224 0 142080.39360523224 32024860.398386002 0 0 0 0 -4511426.2101898193 -7578541.9391469955 0 -7578541.9391469955 30150964.333981395 0 0 0 0 2293737.2720718384 -7148498.0063445568 0 -7148498.0063445568 15894349.654724121 0 0 0 0 1549939.4787597656 -14875511.405608654 0 -14875511.405608654 15592449.573340163 0 0 0 0 30923312.171257019 -9627179.5757255554 0 -9627179.5757255554 22660532.206222534 0 0 0 0 21251073.536911011 13740431.435242653 0 13740431.435242653 -22201748.510480881 0 0 0 0 106711351.6914196 -25505934.215633571 0 -25505934.215633571 -4201960.588013649 0 0 0 0 37128050.935073853 59016400.252391815 0 59016400.252391815 -101576988.69612408 0 0 0 0 -24198591.446540833 20575484.559829473 0 20575484.559829473 -30790935.845711708 0 0 0 0 31156135.973777771 -4218747.1194446087 0 -4218747.1194446087 -21086272.386727333 0 0 0 0 -13017590.169923782 -15126678.135525703 0 -15126678.135525703 -20011685.696870804 0 0 0 0 10625532.966888428 -9459888.4358627796 0 -9459888.4358627796 -60312529.93892765 0 0 0 0 7240185.431427002 -7042788.6727514267 0 -7042788.6727514267 -20027719.857028008 0 0 0 0 3340320.3717575073 -581425.66548204422 0 -581425.66548204422 -9774649.2794828415 0 0 0 0 13932447.04460907 -22544890.258952737 0 -22544890.258952737 -16016246.772426605 0 0 0 0 21644523.049179077 -9119696.1067566872 0 -9119696.1067566872 -36126869.217923641 0 0 0 0 21999482.30178833 -22438943.10918045 0 -22438943.10918045 -14363010.27247715 0 0 0 0 38988301.773696899 -27032203.05628109 0 -27032203.05628109 -17515577.862866163 0 0 0 0 37906034.523118973 -23365835.618650556 0 -23365835.618650556 -3701778.4815397263 0 0 0 0 22896548.521591187 -11677980.377099514 0 -11677980.377099514 -2958238.131772995 0 0 0 0 39464088.013922453 -12846612.228509329 0 -12846612.228509329 19615056.654729843 0 0 0 0 36196713.042755127 -24387057.187679291 0 -24387057.187679291 -139851.80729746819 0 0 0 0 39939139.98147583 -32364251.567970276 0 -32364251.567970276 11681068.940851212 0 0 0 0 41018852.148399353 -24326322.372936249 0 -24326322.372936249 -3886300.921869278 0 0 0 0 33166146.966392517 -19408806.508607864 0 -19408806.508607864 28091717.11211586 0 0 0 0 16440185.513763428 -15202072.240603447 0 -15202072.240603447 27264778.616242409 0 0 0 0 6051986.1553192139 442882.64787006378 0 442882.64787006378 3888278.7870984077 0 0 0 0 47696109.943939209 -45784373.197741508 0 -45784373.197741508 30813918.294818878 0 0 0 0 60497752.078262329 -38816120.574347496 0 -38816120.574347496 30359760.732193947 0 0 0 0 1114013.8585519642 -223218.40374979377 0 -223218.40374979377 40475.857815038413 0 0 0 0 39660141.974334717 -26067481.227921963 0 -26067481.227921963 230400.86317253113 0 0 0 0 47262884.965835571 -16917524.532344341 0 -16917524.532344341 10740707.203727722 0 0 0 0 13467989.268676758 -2231308.7075414658 0 -2231308.7075414658 10078661.816292763 0 0 0 0 14494658.43572998 3671668.1687116623 0 3671668.1687116623 20563055.599855661 0 0 0 0 -2563576.0502204895 -7115708.061696291 0 -7115708.061696291 15184752.676221848 0 0 0 0 2431942.8733825684 -284383.95330238342 0 -284383.95330238342 13060172.818208694 0 0 0 0 14029140.754959106 -14501125.042739868 0 -14501125.042739868 -2227438.494907856 0 0 0 0 19252916.347225189 -5695397.0665738583 0 -5695397.0665738583 12611709.244235992 0 0 0 0 2205973604.6978645 295107496.86878628 0 295107496.86878628 -123933005.61117604 0 0 0 0 1852928121.6658096 87573473.269241676 0 87573473.269241676 -49852384.174821556 0 0 0 0 1808303.7896998394 -822352.14167473465 0 -822352.14167473465 -161582.13502144942 0 0 0 0 2067993119.8145905 196993553.2002179 0 196993553.2002179 -24811933.63165994 0 0 0 0 -77812322.893692017 -51079873.473796725 0 -51079873.473796725 55848956.389749616 0 0 0 0 62011223.885910034 14728555.172707856 0 14728555.172707856 -36360396.012224138 0 0 0 0 2012955332.5527802 188400316.18079275 0 188400316.18079275 -12450856.542377964 0 0 0 0 1873360334.5115137 70905411.943385601 0 70905411.943385601 -101118975.50441402 0 0 0 0 50913180.350074768 12394312.510638475 0 12394312.510638475 -10973377.227462426 0 0 0 0 4960389.7690409822 -2081504.3183650486 0 -2081504.3183650486 -444839.31678464578 0 0 0 0 -8087535.1955766678 -15619346.93838653 0 -15619346.93838653 -3036257.9140951633 0 0 0 0 1022321284.8967857 -224487324.3363235 0 -224487324.3363235 206300453.13571268 0 0 0 0 8694894.3394677136 -1998518.0926553272 0 -1998518.0926553272 -1206039.5860054032 0 0 0 0 -19845955.663589478 -19906465.860365391 0 -19906465.860365391 13957472.296486139 0 0 0 0 -1328946.0305099487 -26938650.973367214 0 -26938650.973367214 706629.59656882286 0 0 0 0 1999902554.8072701 177612006.95942077 0 177612006.95942077 -181336614.93315464 0 0 0 0 2148931562.5250626 274741883.36063272 0 274741883.36063272 -63265668.090195119 0 0 0 0 2094259552.0720787 90809520.560588017 0 90809520.560588017 -188460893.2746098 0 0 0 0 2023490715.1764679 173646855.48937964 0 173646855.48937964 -96731628.910559118 0 0 0 0 2136696047.0251808 142355293.57900041 0 142355293.57900041 127501321.61993964 0 0 0 0 2203571891.7861271 100560918.42807151 0 100560918.42807151 -48784891.904898278 0 0 0 0 2131437123.75594 83840783.457855046 0 83840783.457855046 509028910.33591533 0 0 0 0 1987317952.2951431 25670332.392517295 0 25670332.392517295 -83099.339703431498 0 0 0 0 1713095084.6525116 47223096.778441131 0 47223096.778441131 -82674941.488768294 0 0 0 0 1493692129.6346893 215098478.81207177 0 215098478.81207177 -44229333.77031038 0 0 0 0 30513203.100509644 4662033.3127102936 0 4662033.3127102936 -4099111.954558935 0 0 0 0 5329699.1561869569 1212263.4272064194 0 1212263.4272064194 168500.39078109869 0 0 0 0 732959117.00788879 349328970.14136744 0 349328970.14136744 450173811.45492023 0 0 0 0 7221265.942733828 1207041.5717890784 0 1207041.5717890784 -550586.73065452627 0 0 0 0 22093803.810470581 1525576.6078077462 0 1525576.6078077462 -3685320.5794305056 0 0 0 0 15669135.581588745 3891493.3032353483 0 3891493.3032353483 301926.70639350987 0 0 0 0 2430968140.9284515 208247395.03615558 0 208247395.03615558 -206714831.63558945 0 0 0 0 1430635670.5480118 1001427162.5053768 0 1001427162.5053768 411224673.0108757 0 0 0 0 2372245.385846138 -23489.911055364908 0 -23489.911055364908 36689.160713890888 0 0 0 0 2213059012.7628069 -715635862.04311013 0 -715635862.04311013 28633455.83990109 0 0 0 0 2338105371.785614 381561826.56197321 0 381561826.56197321 -34505875.108621836 0 0 0 0 31886826.757781982 11096731.419485569 0 11096731.419485569 -16923042.980217457 0 0 0 0 17209687.551550761 2760871.8712633424 0 2760871.8712633424 -1899549.1063326295 0 0 0 0 -28008260.240158081 -45457636.728506684 0 -45457636.728506684 -53776222.352715015 0 0 0 0 335855980.28187561 13202268.2576406 0 13202268.2576406 -95012849.674179316 0 0 0 0 16225025.696739882 -397059.10057939147 0 -397059.10057939147 -1191994.3183959094 0 0 0 0 -20881153.147605896 140458778.3009851 0 140458778.3009851 30716123.26018858 0 0 0 0 -58607121.38697052 11640677.036661208 0 11640677.036661208 42953513.23122406 0 0 0 0 -180838015.48321533 -103507838.95430732 0 -103507838.95430732 -63651100.383964539 0 0 0 0 1538341.693049863 234231.70763492957 0 234231.70763492957 -599926.54943418968 0 0 0 0 -15026528.96799469 -68508673.048595697 0 -68508673.048595697 -7982947.3956725057 0 0 0 0 10465444.500831604 789211.5909710452 0 789211.5909710452 -1698396.5486346036 0 0 0 0 6449407.9369327798 1614611.502418451 0 1614611.502418451 -1128520.5719461991 0 0 0 0 21129218.694747925 10039519.708305795 0 10039519.708305795 -11485319.087276654 0 0 0 0 15392245.615570068 -2283697.2162906006 0 -2283697.2162906006 -1137794.8309627622 0 0 0 0 16007152.409713745 -197470.13601964759 0 -197470.13601964759 3451557.4790841881 0 0 0 0 14148811.777900696 3489102.2840597369 0 3489102.2840597369 -3558663.7953854399 0 0 0 0 37343752.277442932 19567719.600299738 0 19567719.600299738 1208448.2389552593 0 0 0 0 2892781.5816103294 1200388.7358997688 0 1200388.7358997688 273213.98484256561 0 0 0 0 7844055.9498748779 -4475907.6834769687 0 -4475907.6834769687 -374403.99371155351 0 0 0 0 1194781.8346633911 -3131102.6354236268 0 -3131102.6354236268 -1426.6015718024969 0 0 0 0 8829162.6900100708 3453115.2468747036 0 3453115.2468747036 -1297288.2490677843 0 0 0 0 16415116.827358246 -3824980.5318635879 0 -3824980.5318635879 7474.45385765437 0 0 0 0 34643101.130950928 -2731170.8005110039 0 -2731170.8005110039 -11742526.818272082 0 0 0 0 26850113.617103577 4318563.8958074274 0 4318563.8958074274 131905.60825339379 0 0 0 0 58432848.650268555 30156574.411071185 0 30156574.411071185 7993618.4071398266 0 0 0 0 1745952.038674131 966230.06220177561 0 966230.06220177561 491162.65878146671 0 0 0 0 22325936.521736145 181925.73428007215 0 181925.73428007215 -2786365.189984845 0 0 0 0 34776370.007301331 2945906.0634955652 0 2945906.0634955652 -24165001.323168188 0 0 0 0 24482524.762573242 1664816.3963604476 0 1664816.3963604476 -7605868.7685936689 0 0 0 0 19993300.868234634 -11135162.804313522 0 -11135162.804313522 -9857586.014382191 0 0 0 0 24004597.359703064 2892152.4212871417 0 2892152.4212871417 -24831205.094519019 0 0 0 0 11209498.961608887 -5012024.3397246748 0 -5012024.3397246748 -9716536.4402202331 0 0 0 0 6808638.5346374512 31079073.198109031 0 31079073.198109031 -32105847.707586251 0 0 0 0 14769053.821786337 1369892.3000196635 0 1369892.3000196635 -556499.79200888821 0 0 0 0 31794305.581745148 6534536.2995741367 0 6534536.2995741367 -8766848.3478679657 0 0 0 0 29829912.931932449 2452422.758317709 0 2452422.758317709 13345662.699454308 0 0 0 0 13045090.484007098 1614995.3806805417 0 1614995.3806805417 -96815.97843827428 0 0 0 0 -116518612.91992188 20604076.016565323 0 20604076.016565323 15505633.707828045 0 0 0 0 30549424.79119873 13236762.486985952 0 13236762.486985952 1085655.3080153912 0 0 0 0 17422448.724960327 -6449105.9882265143 0 -6449105.9882265143 -15204440.033593014 0 0 0 0 -23103658.3937985 -26453502.056397606 0 -26453502.056397606 -1507417.0737500787 0 0 0 0 1260082.7446247041 171989.04532358795 0 171989.04532358795 -742275.87073915137 0 0 0 0 -2128218.8252639771 7397789.5154240727 0 7397789.5154240727 495864.85490441322 0 0 0 0 1684980.7062145397 -355648.87911618501 0 -355648.87911618501 -152945.92954109423 0 0 0 0 -9175494.790145874 12148073.334202379 0 12148073.334202379 -407159.47083044052 0 0 0 0 43993307.93510437 24276756.944266409 0 24276756.944266409 10526279.544838428 0 0 0 0 -4355421.8517150879 2591.5467170476913 0 2591.5467170476913 3858978.1225476265 0 0 0 0 -6592053.6806945801 2850259.4492722154 0 2850259.4492722154 12471550.097856045 0 0 0 0 -19218607.055323124 -7568751.0461610965 0 -7568751.0461610965 4299136.7854059935 0 0 0 0 2840475.6414031982 1208275.8353389166 0 1208275.8353389166 -784992.80315316131 0 0 0 0 -20364985.829315186 4496004.0475854874 0 4496004.0475854874 5432342.0845491588 0 0 0 0 -10063944.910167694 10192275.547600226 0 10192275.547600226 12978415.652795997 0 0 0 0 29177470.140696526 20538599.973108023 0 20538599.973108023 -15274932.576516867 0 0 0 0 -38149062.773609161 26047097.706865512 0 26047097.706865512 7640137.0765036605 0 0 0 0 132099.57032128796 -81140.448772598058 0 -81140.448772598058 747911.8601522895 0 0 0 0 262095927.15643311 17530934.643853188 0 17530934.643853188 -57410829.803098083 0 0 0 0 92866344.59980011 -27325886.631974697 0 -27325886.631974697 12759374.023413301 0 0 0 0 61963779.128158569 38494442.850294113 0 38494442.850294113 25037284.077762127 0 0 0 0 50258548.071083069 7031466.9508223832 0 7031466.9508223832 17249155.773237139 0 0 0 0 5909979.2713241577 8120993.766264081 0 8120993.766264081 13159746.88541054 0 0 0 0 81548972.286138535 -673444.63304297626 0 -673444.63304297626 -7873306.5617767572 0 0 0 0 1218724.0558555275 693131.20233779773 0 693131.20233779773 1533860.3041290788 0 0 0 0 5024491.0737887584 439547.41525689512 0 439547.41525689512 -2334484.5479157967 0 0 0 0 79115022.142044067 27630266.139880985 0 27630266.139880985 -2936306.7668068781 0 0 0 0 65354026.102947235 3473616.0214232281 0 3473616.0214232281 -2813037.5735960901 0 0 0 0 8538217.6465682983 12983606.591408491 0 12983606.591408491 9046269.8219821453 0 0 0 0 2240369.3139228821 -1372148.2686700821 0 -1372148.2686700821 2879657.4337482452 0 0 0 0 -12604178.003311157 9286242.7216336727 0 9286242.7216336727 10292376.427310944 0 0 0 0 1732738.2317337096 3869338.1907166392 0 3869338.1907166392 5987636.868636433 0 0 0 0 18272463.069068909 6373355.2847734988 0 6373355.2847734988 4041805.5290198326 0 0 0 0 18846119.698829651 8770170.0180668831 0 8770170.0180668831 2450693.1185760498 0 0 0 0 3035933.4641806707 856782.86763010547 0 856782.86763010547 6303882.0171357989 0 0 0 0 203910875.76509857 -108337822.40672445 0 -108337822.40672445 200007548.11404419 0 0 0 0 17464842.866065979 20592450.403942704 0 20592450.403942704 14800095.370877028 0 0 0 0 -4014878.4707336426 7403216.0393915176 0 7403216.0393915176 9002269.803339839 0 0 0 0 36482793.919487 -2812568.8866482377 0 -2812568.8866482377 7704675.4139037132 0 0 0 0 -6820603.5215759277 8225768.0424537659 0 8225768.0424537659 19937127.913721085 0 0 0 0 -3224983.8864593506 6996599.8455998898 0 6996599.8455998898 9628623.8466284275 0 0 0 0 -4164252.3814544678 8333678.7851374149 0 8333678.7851374149 3462918.5237226486 0 0 0 0 -8843422.2203521729 -3149663.7276240587 0 -3149663.7276240587 -104878.84169983864 0 0 0 0 54485468.960021973 45054108.381614685 0 45054108.381614685 35706654.894035339 0 0 0 0 8807609.9413757324 7791155.5300149918 0 7791155.5300149918 -67377966.186828613 0 0 0 0 6998548.4847732782 -2288162.9212991185 0 -2288162.9212991185 -2889683.6874857154 0 0 0 0 243421750.89025116 187627268.42683554 0 187627268.42683554 200713979.29321289 0 0 0 0 156158296.58230591 14569271.022703171 0 14569271.022703171 1641863.0229854584 0 0 0 0 25484608.141921997 21461850.587863922 0 21461850.587863922 -70715461.599121094 0 0 0 0 116576735.79589844 84653287.315190315 0 84653287.315190315 -8057786.6339902878 0 0 0 0 32211523.62612915 -38418706.9940238 0 -38418706.9940238 -34758572.186180115 0 0 0 0 254840657.96682739 108768439.13588715 0 108768439.13588715 -23158564.953487396 0 0 0 0 304299186.48179626 74110001.984662056 0 74110001.984662056 -47896075.846185684 0 0 0 0 474244301.67605591 142950448.6315937 0 142950448.6315937 -86368608.299084783 0 0 0 0 496872138.6330719 183299594.48584557 0 183299594.48584557 -42420808.318096161 0 0 0 0 388315758.57974243 170741071.29472399 0 170741071.29472399 -9312527.5783042908 0 0 0 0 510816228.77737427 169404297.03196907 0 169404297.03196907 -106205720.12551498 0 0 0 0 497818911.85310364 237332141.78595734 0 237332141.78595734 -34794084.971081734 0 0 0 0 470808916.32492065 258298724.0548954 0 258298724.0548954 118680639.44272995 0 0 0 0 459353861.24047852 197991785.79221725 0 197991785.79221725 -5357203.8115432262 0 0 0 0 459140488.32217407 182482209.82249832 0 182482209.82249832 -27210049.623601913 0 0 0 0 532059577.33226776 435919436.57598972 0 435919436.57598972 239773478.7014848 0 0 0 0 541371700.95953369 -156896030.2307663 0 -156896030.2307663 -38630259.197937012 0 0 0 0 39010215.031417847 -137168303.01659298 0 -137168303.01659298 -32454272.59401226 0 0 0 0 2372935.251382716 -750804.1224167943 0 -750804.1224167943 -837392.26467241533 0 0 0 0 720663598.66578674 314484226.86424351 0 314484226.86424351 6329192.3659133911 0 0 0 0 832127299.39767456 -419709888.63273048 0 -419709888.63273048 96936768.895223618 0 0 0 0 6451935.7010269165 42513985.543348312 0 42513985.543348312 -1447638.6137466431 0 0 0 0 37256424.164100289 44249980.636681065 0 44249980.636681065 -36147621.352043152 0 0 0 0 21683431.007736206 -9724268.5792746544 0 -9724268.5792746544 -53261940.849523365 0 0 0 0 3696929.8413925171 28641100.717733383 0 28641100.717733383 -19897058.894994736 0 0 0 0 164466.29330656677 -306066.32753753662 0 -306066.32753753662 -53420.566438234411 0 0 0 0 -3117933.2383918762 62527612.385006905 0 62527612.385006905 4297386.0494155884 0 0 0 0 35812207.262313843 27166929.802407742 0 27166929.802407742 24497774.271969795 0 0 0 0 79521180.571144104 -54519239.20366478 0 -54519239.20366478 111582643.83460999 0 0 0 0 3872653.6432952881 4306999.8715605736 0 4306999.8715605736 1242312.8825726509 0 0 0 0 94880286.7096138 -2546477.937415719 0 -2546477.937415719 -19246956.72760582 0 0 0 0 16793322.549880981 -7025763.8429527283 0 -7025763.8429527283 380525.13701868057 0 0 0 0 53488217.06300354 1259786.9318213463 0 1259786.9318213463 -5599863.4579949379 0 0 0 0 3692025.3737155246 205734.11437261105 0 205734.11437261105 -5722965.9794477047 0 0 0 0 1137039.2391233966 -461411.96439341828 0 -461411.96439341828 -776522.52957503777 0 0 0 0 5735936.9661254883 48903.48233795166 0 48903.48233795166 1064015.3420028687 0 0 0 0 -1696158.7737197876 -11919106.963365793 0 -11919106.963365793 -18077589.843674183 0 0 0 0 -1843093.2099380493 16675386.191461802 0 16675386.191461802 -39872187.814222336 0 0 0 0 8418488.3934631348 -7793507.1303520203 0 -7793507.1303520203 17036708.023574829 0 0 0 0 -102313.87491620332 -91437.052533064038 0 -91437.052533064038 -380089.05631900858 0 0 0 0 42668506.74899292 -43729886.812101364 0 -43729886.812101364 -68939488.844055176 0 0 0 0 36092989.085113525 -17660006.082868576 0 -17660006.082868576 -54102252.396110535 0 0 0 0 -53870693.635925293 -39148983.423410416 0 -39148983.423410416 -40358315.044778824 0 0 0 0 65073891.253219604 -36868195.246858597 0 -36868195.246858597 -55754872.700963974 0 0 0 0 32233231.770507812 -59445276.375991821 0 -59445276.375991821 -99581293.922264099 0 0 0 0 40589993.687965393 4304583.5854092836 0 4304583.5854092836 -3520976.9875411987 0 0 0 0 -72749230.873291016 -93484915.720336914 0 -93484915.720336914 -67950552.474014282 0 0 0 0 5443240.8245393801 -2551187.5532549843 0 -2551187.5532549843 -2904622.3394016419 0 0 0 0 -139323761.71447754 -66377835.669294357 0 -66377835.669294357 -27793161.202602386 0 0 0 0 5847357.6897354126 -1373670.9124881029 0 -1373670.9124881029 -1335575.2262573242 0 0 0 0 7189531.5395338014 -821904.56338045374 0 -821904.56338045374 -7589994.7417715956 0 0 0 0 -57125493.370780945 -57753729.999006033 0 -57753729.999006033 -37176225.191474915 0 0 0 0 9983014.261394456 -3271043.4440958034 0 -3271043.4440958034 -5683602.3482572054 0 0 0 0 2953105.1584685706 735549.58779260516 0 735549.58779260516 -4909895.0735985236 0 0 0 0 5719500.9943462014 -2795896.6211088374 0 -2795896.6211088374 -1834670.2906326205 0 0 0 0 19357251.119186401 -7775485.8728686571 0 -7775485.8728686571 -14250452.29016161 0 0 0 0 8617117.1985626221 4383474.4221917987 0 4383474.4221917987 8670025.448009491 0 0 0 0 75670474.683288574 4988251.6906642914 0 4988251.6906642914 -62395610.047271729 0 0 0 0 103877387.90870667 59204155.558884621 0 59204155.558884621 -22445685.053730011 0 0 0 0 3920813.3453369141 -3513433.6879005432 0 -3513433.6879005432 -9669828.1854343414 0 0 0 0 10473249.308990479 -10088369.024836063 0 -10088369.024836063 -4426194.9402362108 0 0 0 0 3061649.9839759693 -531253.4062510673 0 -531253.4062510673 -3613554.995371866 0 0 0 0 -2195812.4282226562 -6920250.2300844193 0 -6920250.2300844193 -9663572.1859779358 0 0 0 0 35995675.489715576 7315347.430665493 0 7315347.430665493 -835293.06144165993 0 0 0 0 14079087.742679596 5249084.4607931376 0 5249084.4607931376 1611626.9505271912 0 0 0 0 17249802.763366699 -3291124.4722890854 0 -3291124.4722890854 -6282981.46626544 0 0 0 0 -3481755.9393157959 15250673.452040672 0 15250673.452040672 5976993.2133178711 0 0 0 0 192819.39192081243 11968.495603114367 0 11968.495603114367 -99460.649823538028 0 0 0 0 -3857434.0941467285 -8687857.0275228024 0 -8687857.0275228024 -14006228.424097061 0 0 0 0 1413121.8252248764 -18135410.647220403 0 -18135410.647220403 -19488766.000789404 0 0 0 0 788765.56649780273 -12553095.392971098 0 -12553095.392971098 -5041941.6955965757 0 0 0 0 -2886987.7995605469 -5383780.552716732 0 -5383780.552716732 -10232909.643539906 0 0 0 0 2338705.8181274161 -2424952.6240957864 0 -2424952.6240957864 382941.08297403809 0 0 0 0 16152791.897293091 -2327058.3369894028 0 -2327058.3369894028 -13700407.970224708 0 0 0 0 14297446.586654663 -19915299.869837046 0 -19915299.869837046 -9366399.7405179739 0 0 0 0 -11829035.955383301 -15570816.246122956 0 -15570816.246122956 -12952232.025761545 0 0 0 0 3864460.7715981966 -1243754.6826829016 0 -1243754.6826829016 -7466838.5693987552 0 0 0 0 29786729.156532288 -16150637.972085983 0 -16150637.972085983 -16256477.02461338 0 0 0 0 43269432.864974976 48463428.613821983 0 48463428.613821983 71740577.603433609 0 0 0 0 34719602.014343262 -5665386.9172283411 0 -5665386.9172283411 -20020667.717259049 0 0 0 0 1727133.6453584731 1192279.4035604373 0 1192279.4035604373 1291270.6990308696 0 0 0 0 23110850.454820633 12913424.187868357 0 12913424.187868357 -51688280.000253677 0 0 0 0 147670276.82852173 -121350623.77196026 0 -121350623.77196026 79342545.809742928 0 0 0 0 770605711.17166138 -33117896.792929649 0 -33117896.792929649 -17729802.022122622 0 0 0 0 721201947.86039734 65296157.757084846 0 65296157.757084846 -40217670.490577698 0 0 0 0 430755236.41052246 -87465781.679576874 0 -87465781.679576874 -26120125.564262867 0 0 0 0 394685708.735672 26938985.693536282 0 26938985.693536282 57294411.62310791 0 0 0 0 388451129.32318115 34628301.500221252 0 34628301.500221252 59329829.572853088 0 0 0 0 550441762.58978271 70887314.946326256 0 70887314.946326256 22716870.226171494 0 0 0 0 25498457.126403809 1937171.3569233418 0 1937171.3569233418 140865233.20842934 0 0 0 0 202840980.44430542 -10210927.593801498 0 -10210927.593801498 74629054.332159519 0 0 0 0 196451862.50567627 38014401.894433975 0 38014401.894433975 49543654.830413818 0 0 0 0 132777440.28872681 9153249.7799921036 0 9153249.7799921036 50272969.673985869 0 0 0 0 227568564.46342468 64920805.911277771 0 64920805.911277771 -18385171.138591766 0 0 0 0 380012856.80647278 40976399.880265236 0 40976399.880265236 13102070.472763062 0 0 0 0 371805108.43822479 44098253.175004482 0 44098253.175004482 96069718.271284103 0 0 0 0 234918929.10452271 42171190.345669746 0 42171190.345669746 26629187.434740067 0 0 0 0 370834272.69195557 31897219.665080786 0 31897219.665080786 -30267248.361028671 0 0 0 0 220269311.81896973 72843085.069044113 0 72843085.069044113 -25426202.369537354 0 0 0 0 406350841.6530304 107223421.11468148 0 107223421.11468148 -53972043.802165985 0 0 0 0 422771842.01057434 70191341.858922005 0 70191341.858922005 -55969877.630300522 0 0 0 0 332788150.47335815 116780020.80516815 0 116780020.80516815 -43970115.118553519 0 0 0 0 307499315.59980774 47544891.474098921 0 47544891.474098921 -58977863.029937744 0 0 0 0 118666738.53271484 43554164.67725563 0 43554164.67725563 -12814713.635468006 0 0 0 0 185749064.18624878 5137532.810956955 0 5137532.810956955 -27119120.022592545 0 0 0 0 41514900.36715889 7352259.4666133784 0 7352259.4666133784 4013528.248485148 0 0 0 0 2740833.0274337232 476763.82941840217 0 476763.82941840217 4386882.9010210633 0 0 0 0 563044097.89550781 122814439.64979792 0 122814439.64979792 -80845338.099726677 0 0 0 0 515774932.52774048 158965407.37816334 0 158965407.37816334 -96422069.645632744 0 0 0 0 540143054.08914185 97120608.158680916 0 97120608.158680916 -93166310.727657318 0 0 0 0 461380533.5838623 148286113.21400547 0 148286113.21400547 -86542293.257772237 0 0 0 0 515540614.58102417 73133523.959312439 0 73133523.959312439 -47572304.762685776 0 0 0 0 520941694.23001099 36453412.880209208 0 36453412.880209208 78070488.252458572 0 0 0 0 434107024.85479736 83505863.678907394 0 83505863.678907394 -38004775.223339081 0 0 0 0 5398295.2201630976 -155096.75771182775 0 -155096.75771182775 -11683.848964044591 0 0 0 0 21692320.830024719 5559999.4422356486 0 5559999.4422356486 3955494.7079372667 0 0 0 0 3516136.7965596542 513640.54424121603 0 513640.54424121603 2698136.2175614564 0 0 0 0 785431430.69473267 255979063.06126785 0 255979063.06126785 -9504866.221244812 0 0 0 0 658905952.07210922 278591842.40117037 0 278591842.40117037 99647244.037151337 0 0 0 0 470626851.26480103 156734968.76908684 0 156734968.76908684 199436430.00032902 0 0 0 0 20982657.368898392 3436467.2012500763 0 3436467.2012500763 1206173.2049350739 0 0 0 0 -23307446.103771091 97127090.160959303 0 97127090.160959303 -11921954.611039162 0 0 0 0 785926384.79225159 238414315.42290211 0 238414315.42290211 50855898.06221199 0 0 0 0 11782611.392082132 1952433.4519701272 0 1952433.4519701272 341094.33272135549 0 0 0 0 20620929.836029053 3560880.7637910545 0 3560880.7637910545 284034.1655027041 0 0 0 0 -58140078.076309204 130382255.93862784 0 130382255.93862784 60958697.881982803 0 0 0 0 139491.6490623951 -33042.718079868704 0 -33042.718079868704 1148667.3843913274 0 0 0 0 1188197308.6830597 155210224.69046497 0 155210224.69046497 -82357429.416531563 0 0 0 0 967962139.24125671 37385104.280205727 0 37385104.280205727 -4537467.4924755096 0 0 0 0 873246487.39227295 511842306.22562754 0 511842306.22562754 240005497.65823746 0 0 0 0 34950.80914080143 131247.43277515611 0 131247.43277515611 134537.22499894444 0 0 0 0 1120404529.3384705 291879110.26850557 0 291879110.26850557 -334168693.50296289 0 0 0 0 932479324.95315552 225066608.60803652 0 225066608.60803652 209040700.14303374 0 0 0 0 4998987.7882445529 -764304.06607651711 0 -764304.06607651711 2033313.6107057505 0 0 0 0 13632714.580123901 -78266.866071937606 0 -78266.866071937606 1581216.4291355535 0 0 0 0 887116645.83348083 371376789.69132322 0 371376789.69132322 -56324238.785627604 0 0 0 0 336080142.12025452 295630134.29626751 0 295630134.29626751 127372168.58947587 0 0 0 0 19421900.275335312 -2566026.1242256602 0 -2566026.1242256602 -142620.47112885863 0 0 0 0 6863943.219581604 -9102413.6737660207 0 -9102413.6737660207 -9732013.3984716684 0 0 0 0 5000458.0918768644 315320.94874241948 0 315320.94874241948 -232062.43215834687 0 0 0 0 22812836.914398193 3269236.4450273588 0 3269236.4450273588 -2182805.4612162113 0 0 0 0 -2982179.4691696167 -21495034.843927026 0 -21495034.843927026 -13254711.769873679 0 0 0 0 36428424.635461807 10791293.359263558 0 10791293.359263558 -12524121.800950296 0 0 0 0 1523436.7999833971 139013.52512267232 0 139013.52512267232 -62216.529830629574 0 0 0 0 1729671.3160311729 -385370.46385529637 0 -385370.46385529637 323391.1118374989 0 0 0 0 -14973741.706195831 -54713396.859823927 0 -54713396.859823927 -33492500.347658105 0 0 0 0 -3021606.0555267334 -15556721.221460868 0 -15556721.221460868 -28963601.944157187 0 0 0 0 44460482.423583984 -4558618.580227457 0 -4558618.580227457 -37853621.322804615 0 0 0 0 82814706.479476929 14667346.191185495 0 14667346.191185495 -233790.92256066873 0 0 0 0 28244898.686689377 -60460134.941028692 0 -60460134.941028692 -64071098.756300956 0 0 0 0 529544352.03671265 -65486955.658067621 0 -65486955.658067621 -94000740.396485448 0 0 0 0 26335510.704498291 10034175.571856067 0 10034175.571856067 -15622676.812800795 0 0 0 0 15929952.767822266 -7400773.8278713366 0 -7400773.8278713366 -4474889.2858837582 0 0 0 0 110480095.48476982 -30305248.899874814 0 -30305248.899874814 -11339275.658846281 0 0 0 0 122953580.9974556 -75376181.635941729 0 -75376181.635941729 86782772.669975638 0 0 0 0 91604020.540390015 -26420483.423264936 0 -26420483.423264936 294144.17780068511 0 0 0 0 387675137.8403244 255726207.29604134 0 255726207.29604134 218703452.76491389 0 0 0 0 548992.48757904582 -295921.52483766526 0 -295921.52483766526 -1124204.4688885233 0 0 0 0 947138005.68319702 216066862.22328007 0 216066862.22328007 -231391755.50018814 0 0 0 0 238305527.96893311 133578266.39158964 0 133578266.39158964 177367922.30944061 0 0 0 0 -67217269.389968872 54634666.964772411 0 54634666.964772411 21313046.741440624 0 0 0 0 68873739.066421509 99206643.672479391 0 99206643.672479391 -30848600.679532059 0 0 0 0 71134580.262118816 59488015.74690906 0 59488015.74690906 83544567.981322795 0 0 0 0 61464163.797889709 29887749.524110481 0 29887749.524110481 -26282785.29080984 0 0 0 0 29465473.825057983 13683062.144005418 0 13683062.144005418 -22991464.202952713 0 0 0 0 602994576.60918427 71520873.838942111 0 71520873.838942111 -37141063.110764265 0 0 0 0 108184220.27896118 -116225748.28964996 0 -116225748.28964996 22216858.564002395 0 0 0 0 1794340.0786802424 -711999.77026234567 0 -711999.77026234567 -4000706.5647283262 0 0 0 0 -33554952.469198227 -39300639.166114718 0 -39300639.166114718 59755016.777441025 0 0 0 0 34942687.571824074 15909968.604856007 0 15909968.604856007 -15432724.079002738 0 0 0 0 11971410.736831665 -29375700.251634121 0 -29375700.251634121 -27828835.701664925 0 0 0 0 25536660.30619812 2076553.184746623 0 2076553.184746623 -34516079.792545319 0 0 0 0 22215836.874427795 4784482.9467727542 0 4784482.9467727542 -27147954.509917021 0 0 0 0 -89982.146828532219 -70615.681212399155 0 -70615.681212399155 -164312.24372884852 0 0 0 0 2448419.7570333928 -1963320.1680527814 0 -1963320.1680527814 167487.92484930076 0 0 0 0 -19430392.433197021 -40710659.524418235 0 -40710659.524418235 -41198791.269945383 0 0 0 0 -23383532.034072876 -28801365.227324128 0 -28801365.227324128 -19185632.012750506 0 0 0 0 -18854180.982292175 3802869.3926456571 0 3802869.3926456571 -7504204.6099586487 0 0 0 0 13308737.776786804 -14855957.511693209 0 -14855957.511693209 -46289876.656285048 0 0 0 0 15213331.282470703 -31683279.362214267 0 -31683279.362214267 -68744111.173332691 0 0 0 0 -9067250.5163726807 -19462323.951073527 0 -19462323.951073527 -60230158.854199648 0 0 0 0 -48690007.696655273 -16241085.900184512 0 -16241085.900184512 -54325441.42894721 0 0 0 0 -7308019.5322875977 -44606310.128189802 0 -44606310.128189802 -51960158.572124481 0 0 0 0 9598033.5637512207 -14171658.718169808 0 -14171658.718169808 -42714060.746056676 0 0 0 0 737041.86809309572 -115689.78222953528 0 -115689.78222953528 -433189.93964404345 0 0 0 0 2069564.9055175781 -8372632.6796717644 0 -8372632.6796717644 1714045.9948375821 0 0 0 0 94378348.615882874 147677278.86561155 0 147677278.86561155 93821403.158755541 0 0 0 0 28779950.7137146 -3105874.8493134975 0 -3105874.8493134975 18990917.912962198 0 0 0 0 -15807657.553665161 15421020.542167902 0 15421020.542167902 13481037.537448168 0 0 0 0 49178802.054443359 -37263409.062744498 0 -37263409.062744498 10078444.461876869 0 0 0 0 94072426.5753479 -43644753.556652188 0 -43644753.556652188 6118239.1827270985 0 0 0 0 107308142.98352051 -11842346.907446921 0 -11842346.907446921 1365204.1121935248 0 0 0 0 -65578730.095115662 -105930843.4187603 0 -105930843.4187603 -37187098.595435023 0 0 0 0 1157392.9312365726 -1131878.5411875062 0 -1131878.5411875062 591469.94045533601 0 0 0 0 -77496314.575698853 -26867488.0305264 0 -26867488.0305264 -34383075.395134211 0 0 0 0 -11120937.890398026 -95218601.084504873 0 -95218601.084504873 -59444470.546195745 0 0 0 0 37217482.289634705 -4242485.9854896069 0 -4242485.9854896069 -54316419.809568048 0 0 0 0 -51592233.443191528 -42470318.261839211 0 -42470318.261839211 -42288385.205489874 0 0 0 0 40985775.514480591 -52852635.692690134 0 -52852635.692690134 -49956922.77173388 0 0 0 0 -16311223.951524734 -63901847.704872668 0 -63901847.704872668 -33603840.342025697 0 0 0 0 33184144.307258606 4432830.8996120542 0 4432830.8996120542 -34480094.80226624 0 0 0 0 30223055.3462677 4481814.7190051377 0 4481814.7190051377 -34088963.752149999 0 0 0 0 100190845.07775879 -132415006.64489385 0 -132415006.64489385 62842831.9393676 0 0 0 0 88642180.203933716 17416046.441332161 0 17416046.441332161 -32700191.795525417 0 0 0 0 255009457.27729797 -9602681.0809083134 0 -9602681.0809083134 -28543381.374502655 0 0 0 0 106172632.61116028 -85417388.439002678 0 -85417388.439002678 -29953104.828433953 0 0 0 0 -38536321.594024658 -47691007.347217634 0 -47691007.347217634 -28839429.526803624 0 0 0 0 -64211845.87713623 -95439511.025425464 0 -95439511.025425464 150904143.20379591 0 0 0 0 -24154842.890670776 -87026393.293181643 0 -87026393.293181643 53332456.598064713 0 0 0 0 -105845925.36345863 -52757435.234823041 0 -52757435.234823041 76787002.022448465 0 0 0 0 -139375626.24855042 -17856360.92544651 0 -17856360.92544651 70837472.701567501 0 0 0 0 53472875.021030426 15290937.841202285 0 15290937.841202285 -33738763.386737064 0 0 0 0 704691.45566186309 -264115.98263544333 0 -264115.98263544333 15714.010137827287 0 0 0 0 175787695.7989502 -54131351.770313852 0 -54131351.770313852 -124021.53591262945 0 0 0 0 -68585456.402587891 20935820.09489039 0 20935820.09489039 175414.19107481377 0 0 0 0 268892723.0682373 -70061072.054112971 0 -70061072.054112971 -166686982.0317058 0 0 0 0 -46981606.536209106 16198225.102375453 0 16198225.102375453 -36380141.651796326 0 0 0 0 1713926.9863602966 -282959.93204837409 0 -282959.93204837409 -47049.228066998163 0 0 0 0 -15182466.199409485 -20477809.207982779 0 -20477809.207982779 -41006.892955297604 0 0 0 0 332612.45402764529 -362940.45405486599 0 -362940.45405486599 302785.78183164378 0 0 0 0 -112792463.14143944 -16792937.867752649 0 -16792937.867752649 47513848.474966288 0 0 0 0 336691.01205381565 -205013.30507991463 0 -205013.30507991463 34212.846844413842 0 0 0 0 404898054.22723389 1548989.9148463011 0 1548989.9148463011 -137901253.5237363 0 0 0 0 353288598.58509827 -209560677.22605625 0 -209560677.22605625 110513574.18621558 0 0 0 0 208491848.22879028 108078596.64056551 0 108078596.64056551 12360078.289231181 0 0 0 0 71270652.42023468 -78496806.260606885 0 -78496806.260606885 51075719.349399447 0 0 0 0 126330341.4163208 34521727.876902491 0 34521727.876902491 61135453.016415119 0 0 0 0 -140886673.80812573 20572403.529278658 0 20572403.529278658 24587056.262812853 0 0 0 0 -168581215.19604492 -204509238.61494416 0 -204509238.61494416 44630269.337776452 0 0 0 0 8940582.9765090942 -136147425.22871441 0 -136147425.22871441 67560083.663669586 0 0 0 0 -232768827.84645081 31593103.030153066 0 31593103.030153066 106943038.10611176 0 0 0 0 52188481.444274902 31700390.797110021 0 31700390.797110021 105299153.19155674 0 0 0 0 -63928147.67552948 -69510114.922629386 0 -69510114.922629386 117883158.81275725 0 0 0 0 13430090.764434814 -20943806.892750919 0 -20943806.892750919 120253733.91866626 0 0 0 0 20917664.032188416 -33195205.156186879 0 -33195205.156186879 11741688.305160999 0 0 0 0 5616720.4953765869 40056275.676346004 0 40056275.676346004 20428211.763541393 0 0 0 0 99432789.022674561 12446882.082278453 0 12446882.082278453 -69202606.38970089 0 0 0 0 164260680.71875 -46494364.579270363 0 -46494364.579270363 -38698688.555064559 0 0 0 0 161918431.62232971 120774103.66077074 0 120774103.66077074 17742680.920681953 0 0 0 0 1064986.1122304304 -551152.5821525082 0 -551152.5821525082 -350788.79096767574 0 0 0 0 -12872872.346946716 17572125.814004421 0 17572125.814004421 -6892648.8312485218 0 0 0 0 61586581.702102661 -17266718.273930907 0 -17266718.273930907 171671551.01524782 0 0 0 0 170437355.80327225 123853963.65755612 0 123853963.65755612 -66322532.785417795 0 0 0 0 20213877.452636719 6841812.0979886651 0 6841812.0979886651 18138812.9472785 0 0 0 0 8475838.1036834717 -17739179.367464602 0 -17739179.367464602 -72494699.184343904 0 0 0 0 3662184.2015127614 -2159499.0545414612 0 -2159499.0545414612 454316.04708110821 0 0 0 0 7054334.413459301 6242669.9737874623 0 6242669.9737874623 -826211.15529096127 0 0 0 0 54904290.766983032 -90939375.857309103 0 -90939375.857309103 -85698496.624770164 0 0 0 0 91741485.012039185 80124001.939507961 0 80124001.939507961 2088161.1860334873 0 0 0 0 2358243.1771653835 -1377999.9857335165 0 -1377999.9857335165 -1639016.6125288757 0 0 0 0 4297539.8214703053 -2971231.1538068876 0 -2971231.1538068876 685386.80383993522 0 0 0 0 10577092.864173889 -2745087.4908379316 0 -2745087.4908379316 -14141068.916076183 0 0 0 0 20776490.274986267 -2480233.2135466933 0 -2480233.2135466933 8926932.3720393181 0 0 0 0 76688315.749649048 -9182264.4898023605 0 -9182264.4898023605 -32542041.644853055 0 0 0 0 57505610.011398315 25884026.404678583 0 25884026.404678583 63274378.228977144 0 0 0 0 82156042.139328003 41058498.187484026 0 41058498.187484026 14306391.950076103 0 0 0 0 1547356.4797515422 -745623.15697230771 0 -745623.15697230771 -745080.68730683217 0 0 0 0 50033778.334899902 26101929.167970896 0 26101929.167970896 15807775.496522427 0 0 0 0 -3017085.8156661987 -175289.66243124008 0 -175289.66243124008 -7295346.7081274986 0 0 0 0 -1086949.4322509766 -5323047.0654289722 0 -5323047.0654289722 -4862818.7232031822 0 0 0 0 58387013.443138123 18220155.042048812 0 18220155.042048812 15188208.807109356 0 0 0 0 2981432.9819132388 -398721.80845887214 0 -398721.80845887214 -2921991.1253554183 0 0 0 0 54549237.8621521 28395088.653908253 0 28395088.653908253 -2109064.6304323673 0 0 0 0 26771027.167907715 22562570.80083704 0 22562570.80083704 16441226.181766272 0 0 0 0 55240841.046635628 22908686.230505049 0 22908686.230505049 3743291.4071159363 0 0 0 0 32776903.175937653 19446668.225118816 0 19446668.225118816 1666401.2431144714 0 0 0 0 52229684.75995636 21079141.206166387 0 21079141.206166387 3644067.804356575 0 0 0 0 61252773.80847168 14920194.30168891 0 14920194.30168891 2426268.6511597633 0 0 0 0 64841426.959060669 29514074.565274477 0 29514074.565274477 7909650.7066957951 0 0 0 0 8192945.6173553467 -21992690.562699795 0 -21992690.562699795 -147161151.59634495 0 0 0 0 4212852.0239144787 -2028256.8713395372 0 -2028256.8713395372 -450144.47964222776 0 0 0 0 54551453.288581848 23767783.818654299 0 23767783.818654299 3201443.9375755787 0 0 0 0 55629271.907310486 20554408.278805494 0 20554408.278805494 3299574.5353975296 0 0 0 0 55112373.617448807 49137314.432065904 0 49137314.432065904 35203690.68716526 0 0 0 0 50633671.900123596 23685400.849649906 0 23685400.849649906 17293071.639026165 0 0 0 0 53988502.307821035 29244763.417584758 0 29244763.417584758 1960606.3446130753 0 0 0 0 -65357576.462024689 -143908949.39798176 0 -143908949.39798176 -88583214.843956947 0 0 0 0 140915622.27037048 66543548.583153248 0 66543548.583153248 20414212.864986897 0 0 0 0 2373597.5319961309 -1126609.4983795024 0 -1126609.4983795024 -221563.99716194998 0 0 0 0 -95314952.72857666 -109269858.46011269 0 -109269858.46011269 -20993351.894974709 0 0 0 0 -51078633.680801392 -138081729.64104581 0 -138081729.64104581 -123620872.3009429 0 0 0 0 -89003148.602973938 -92185751.92828083 0 -92185751.92828083 26730340.21662426 0 0 0 0 127747233.82326889 20279396.53904748 0 20279396.53904748 -137350116.48841763 0 0 0 0 123961336.36069489 22520497.342474937 0 22520497.342474937 -22833771.317144394 0 0 0 0 326400104.13632202 -46107748.93393898 0 -46107748.93393898 -23045384.95063591 0 0 0 0 71526015.704666138 -6610955.9991440773 0 -6610955.9991440773 -54233007.982914925 0 0 0 0 200766707.43214417 -101392539.33654571 0 -101392539.33654571 -130672078.21847153 0 0 0 0 -143465333.86536407 -183062246.09023404 0 -183062246.09023404 -141356482.91731834 0 0 0 0 1030632.9106751857 -898817.42415641621 0 -898817.42415641621 -641550.59686285723 0 0 0 0 293277478.69577026 131959085.80989385 0 131959085.80989385 103176437.67057276 0 0 0 0 67682431.47220993 -27722445.448000193 0 -27722445.448000193 227922992.64294624 0 0 0 0 51124198.182357788 27344078.811245918 0 27344078.811245918 58667027.467921853 0 0 0 0 -24807528.077346802 -59228828.215539932 0 -59228828.215539932 -23955429.794029355 0 0 0 0 -11972626.0415802 -85899856.562005997 0 -85899856.562005997 16496993.913199425 0 0 0 0 -49926935.063087463 -75997032.209838629 0 -75997032.209838629 -127356194.91525555 0 0 0 0 -100653892.95161438 -22302539.675527573 0 -22302539.675527573 -50930557.937446594 0 0 0 0 -66153435.498474121 -92644722.48107338 0 -92644722.48107338 -24881553.508922577 0 0 0 0 -76155760.134796143 -27514324.884273052 0 -27514324.884273052 -11253578.381301284 0 0 0 0 -46787999.410522461 -48933745.287486553 0 -48933745.287486553 4347003.8126559258 0 0 0 0 -75773003.467284679 -62725786.357420743 0 -62725786.357420743 -10154521.611600876 0 0 0 0 -76569494.272697449 -17544500.281569958 0 -17544500.281569958 53981885.278642654 0 0 0 0 -69633377.128913879 -35004926.419562817 0 -35004926.419562817 10151002.961141586 0 0 0 0 -87561855.413635254 -33320170.294411659 0 -33320170.294411659 11316396.772505283 0 0 0 0 -50317337.991958618 -28122935.757738113 0 -28122935.757738113 111617558.89436769 0 0 0 0 10286915.931167603 58227506.436374664 0 58227506.436374664 80264465.233504295 0 0 0 0 -17816634.235954285 -1177723.1029419899 0 -1177723.1029419899 4866993.0893592834 0 0 0 0 26605657.381725311 71888372.055266261 0 71888372.055266261 61358736.858487129 0 0 0 0 341314.38879796065 312389.75689724833 0 312389.75689724833 -109721.28188441228 0 0 0 0 16433835.330077171 -1426437.1054565124 0 -1426437.1054565124 -17030073.904503822 0 0 0 0 -64861137.531402588 37531327.039852381 0 37531327.039852381 39886424.898599505 0 0 0 0 2859144.4416046143 26851842.695688486 0 26851842.695688486 -15543963.262633324 0 0 0 0 -5675084.2628479004 19229529.905813456 0 19229529.905813456 -13036412.747703314 0 0 0 0 188183226.89172363 19048832.267399788 0 19048832.267399788 -104824357.69116801 0 0 0 0 41505286.380493164 -57011275.141518593 0 -57011275.141518593 -116885706.05392921 0 0 0 0 95773727.006004333 16336876.394195795 0 16336876.394195795 38202918.633016109 0 0 0 0 99815473.926119804 47984869.031707227 0 47984869.031707227 132641899.6317625 0 0 0 0 296800691.58726501 157284286.12432277 0 157284286.12432277 14943538.134457588 0 0 0 0 316289798.84082794 120653187.44726682 0 120653187.44726682 66782172.013673306 0 0 0 0 392679908.11575317 166506716.10851336 0 166506716.10851336 51025138.104526162 0 0 0 0 405321819.35925293 142433283.27615201 0 142433283.27615201 -54379850.30941391 0 0 0 0 281128908.15764618 270896813.64348042 0 270896813.64348042 192558564.7379632 0 0 0 0 277434.66421564668 -11468.383884463459 0 -11468.383884463459 123505.38188720634 0 0 0 0 138796606.53910065 122601967.71653128 0 122601967.71653128 122380449.92733192 0 0 0 0 195509865.75822449 126212367.51583052 0 126212367.51583052 54976062.003955841 0 0 0 0 190579535.82141113 40401439.369345665 0 40401439.369345665 46744926.794013262 0 0 0 0 539756678.03979492 142138500.85919762 0 142138500.85919762 330719941.49697876 0 0 0 0 852058072.16616058 118669880.0213573 0 118669880.0213573 -144966392.99122381 0 0 0 0 178716573.1244812 110826018.45293498 0 110826018.45293498 44594698.13287735 0 0 0 0 194985.14368334413 45121.368565309793 0 45121.368565309793 300817.13606053544 0 0 0 0 516648354.29743195 275341196.28196394 0 275341196.28196394 -96320168.883552074 0 0 0 0 254228066.28248596 -164620793.82526183 0 -164620793.82526183 43957525.248523474 0 0 0 0 941192.36277772486 -656154.31129973428 0 -656154.31129973428 105142.38501358981 0 0 0 0 85729942.106376648 -102951772.54933465 0 -102951772.54933465 32176607.65779686 0 0 0 0 327441133.10105133 12082887.856611013 0 12082887.856611013 -113909307.24063516 0 0 0 0 174330.0666477941 152578.22163977101 0 152578.22163977101 473063.69969041133 0 0 0 0 238319838.717453 77977552.161558792 0 77977552.161558792 -83266623.10574007 0 0 0 0 241078455.40588379 83559698.604335785 0 83559698.604335785 -126120010.42918992 0 0 0 0 177013575.54161072 115981279.24436188 0 115981279.24436188 47117151.690304756 0 0 0 0 216291569.12910461 55800960.088038206 0 55800960.088038206 -56215241.857751369 0 0 0 0 157978154.17271423 -1244394.2149300575 0 -1244394.2149300575 -97129567.371722221 0 0 0 0 178313145.7927742 -17897738.374661505 0 -17897738.374661505 -118549385.62850189 0 0 0 0 160941974.94446564 65502465.546533108 0 65502465.546533108 95728629.709352016 0 0 0 0 148913965.89398193 40342420.619445443 0 40342420.619445443 50298078.239552021 0 0 0 0 62749380.183044434 78505109.309225559 0 78505109.309225559 109809243.9081583 0 0 0 0 78033187.591384888 21149121.359779119 0 21149121.359779119 46097157.297642708 0 0 0 0 173273904.66777039 67712253.835647821 0 67712253.835647821 62339525.805556595 0 0 0 0 173361510.57240295 90048117.721635342 0 90048117.721635342 41605254.227186203 0 0 0 0 204312420.68734741 116057259.7424103 0 116057259.7424103 41251748.106975079 0 0 0 0 168655213.38249207 104044012.6726799 0 104044012.6726799 44569563.988253593 0 0 0 0 202741864.31056213 81175192.121722698 0 81175192.121722698 57920019.319493294 0 0 0 0 183407728.24291229 111078773.40399623 0 111078773.40399623 38859393.797825813 0 0 0 0 165867896.80044556 92588209.438153744 0 92588209.438153744 41717040.120456457 0 0 0 0 165407576.27835083 97141543.765743494 0 97141543.765743494 25061515.271831512 0 0 0 0 100679520.79724121 67883952.320617676 0 67883952.320617676 31738405.25139904 0 0 0 0 112306714.4208374 8418868.3664941788 0 8418868.3664941788 -9219288.678527832 0 0 0 0 141018361.46513367 64053594.475857258 0 64053594.475857258 24668607.693878174 0 0 0 0 166339144.48925781 72214347.050005913 0 72214347.050005913 -614906.95825147629 0 0 0 0 151096856.80105591 93666662.68667388 0 93666662.68667388 42522537.262054443 0 0 0 0 163306921.08120728 101123377.07505178 0 101123377.07505178 99232386.215884686 0 0 0 0 -45818676.757285595 -17644764.102883246 0 -17644764.102883246 61718454.939579964 0 0 0 0 267385700.05903625 57575968.967006207 0 57575968.967006207 9732947.7671508789 0 0 0 0 -61710.899433364219 296200.26446631178 0 296200.26446631178 110209.40366702341 0 0 0 0 241861806.31222534 115931987.23387003 0 115931987.23387003 28016421.167093277 0 0 0 0 -1007562.1220520064 1020498.5584701672 0 1020498.5584701672 289340.99825834762 0 0 0 0 227792596.1529541 59146961.336418152 0 59146961.336418152 -93303019.788276672 0 0 0 0 7502.2238116785884 25873.951593544334 0 25873.951593544334 -41427.910080363043 0 0 0 0 1122411.4657438407 372475.07590864971 0 372475.07590864971 -852285.32216191385 0 0 0 0 885102.35846865177 514546.89676212147 0 514546.89676212147 -410431.55375957489 0 0 0 0 120047773.27458954 67840581.48682785 0 67840581.48682785 42557301.485178649 0 0 0 0 39141289.082748413 43624471.077216387 0 43624471.077216387 49349421.291277885 0 0 0 0 3192458.1808738932 858680.10778456926 0 858680.10778456926 -501834.26284882613 0 0 0 0 89419645.759399414 81946535.788016319 0 81946535.788016319 45300837.556082249 0 0 0 0 133994924.94120789 64641736.320446491 0 64641736.320446491 23905178.231679678 0 0 0 0 151044300.33457947 97899647.667633533 0 97899647.667633533 42077149.011190414 0 0 0 0 130260397.52768326 78761908.757914305 0 78761908.757914305 39765729.811911583 0 0 0 0 153499477.97290039 93975630.415280104 0 93975630.415280104 46468578.847447395 0 0 0 0 117531096.74745178 65586253.195493698 0 65586253.195493698 55350236.982162833 0 0 0 0 115452772.7624054 90247062.780938864 0 90247062.780938864 82102507.189263105 0 0 0 0 173852285.63031769 119817542.29159284 0 119817542.29159284 58836985.420280457 0 0 0 0 11196131.671748996 3020892.9160764851 0 3020892.9160764851 -755876.24315547943 0 0 0 0 1263561.5537526812 707738.96071516722 0 707738.96071516722 -325379.18338100752 0 0 0 0 1233450.1503159776 133764.2238744013 0 133764.2238744013 -193813.24354542186 0 0 0 0 -2098019.98519063 12522706.090948492 0 12522706.090948492 -22121223.936705589 0 0 0 0 2136295.6683008894 3983766.7405453511 0 3983766.7405453511 424272.90026248526 0 0 0 0 5428156.3989868164 1550867.3109631538 0 1550867.3109631538 180558.07266801596 0 0 0 0 8118361.3843688965 3549542.6427545547 0 3549542.6427545547 105197.67778322101 0 0 0 0 16454714.979293823 18615673.363930225 0 18615673.363930225 -3186730.4846140146 0 0 0 0 7996799.7431983948 -4520804.5973089933 0 -4520804.5973089933 9683113.6611280441 0 0 0 0 -7838594.4601669312 13385513.235268116 0 13385513.235268116 20572489.473303795 0 0 0 0 82947999.405197144 37829636.455409646 0 37829636.455409646 -16924045.705499887 0 0 0 0 -7019521.5483703613 -19193574.694933414 0 -19193574.694933414 -15723377.520685196 0 0 0 0 -45504796.187240601 -9418060.8516993523 0 -9418060.8516993523 10667784.905295134 0 0 0 0 -11612725.516393661 71641277.347507477 0 71641277.347507477 3384143.2546062469 0 0 0 0 -10007008.629415512 4856746.2773865461 0 4856746.2773865461 1014336.1178750992 0 0 0 0 4852586.6672973633 2328513.0759754181 0 2328513.0759754181 237915.33381652832 0 0 0 0 5299770.1583251953 2694610.9425449371 0 2694610.9425449371 959482.86009216309 0 0 0 0 7352082.0651092529 349749.22037172318 0 349749.22037172318 -125275.10953140259 0 0 0 0 5082806.4360351562 1626510.8112735748 0 1626510.8112735748 1144436.7201280594 0 0 0 0 327591.27683273703 10061.693298947066 0 10061.693298947066 -86630.870312598068 0 0 0 0 8660850.1929931641 3324214.8887991905 0 3324214.8887991905 1139249.5863122344 0 0 0 0 880759.92891696095 1502982.2471626066 0 1502982.2471626066 -203203.30538249156 0 0 0 0 1259195.9594311491 2456552.5696649142 0 2456552.5696649142 -961481.77270034747 0 0 0 0 1714037.0208816528 649347.44303584099 0 649347.44303584099 -714478.83969593048 0 0 0 0 -823879.46728630364 2198407.7435860261 0 2198407.7435860261 426469.40965927765 0 0 0 0 -6981947.6039733887 26548701.920233965 0 26548701.920233965 -6173736.1654081345 0 0 0 0 2271131.6837615967 -11985021.861125469 0 -11985021.861125469 -31698545.924801826 0 0 0 0 12254267.812164307 34863213.679361343 0 34863213.679361343 -3488956.7426018715 0 0 0 0 22998594.826442719 37168874.139766723 0 37168874.139766723 77384116.530268192 0 0 0 0 10790110.768035889 59104754.747150421 0 59104754.747150421 124958305.81824827 0 0 0 0 6118819.7422637939 8723725.887658596 0 8723725.887658596 59592453.834362984 0 0 0 0 -8240186.1491661072 7607045.8315951228 0 7607045.8315951228 106653586.24504375 0 0 0 0 3141513.6520690918 17632217.937758446 0 17632217.937758446 56473452.689071894 0 0 0 0 23631837.320663452 30228014.939638853 0 30228014.939638853 -11303946.705413818 0 0 0 0 576189.97601083294 2613457.8281984143 0 2613457.8281984143 -1997965.6251211665 0 0 0 0 1040017.2559213489 1082027.3390243649 0 1082027.3390243649 -1168777.1325433962 0 0 0 0 -104004259.81994629 -21710523.811165333 0 -21710523.811165333 -11510445.847212553 0 0 0 0 -129775431.88742065 77681174.824355602 0 77681174.824355602 -40438120.042246819 0 0 0 0 -191890325.56589508 83347531.426234007 0 83347531.426234007 5867571.4227638245 0 0 0 0 -70484661.158920288 -175097572.78907537 0 -175097572.78907537 54639652.865481377 0 0 0 0 82949873.535964966 -128492859.79144478 0 -128492859.79144478 3943401.4427337646 0 0 0 0 -262612186.19553375 729298.09839630127 0 729298.09839630127 151638928.03736496 0 0 0 0 143951244.41712952 -130879815.72145677 0 -130879815.72145677 -18886734.61908412 0 0 0 0 80002641.141204834 16932103.44625783 0 16932103.44625783 53584381.036916256 0 0 0 0 7114408.7169342041 1275104.3341016769 0 1275104.3341016769 76210420.695397377 0 0 0 0 48855796.455150604 27958576.017536163 0 27958576.017536163 93263085.778501511 0 0 0 0 1975724.1686553955 21809396.148989677 0 21809396.148989677 119772602.3209877 0 0 0 0 -2532987.4318084717 -2714600.2664735317 0 -2714600.2664735317 136339648.32014132 0 0 0 0 392486383.70072937 269157106.6150341 0 269157106.6150341 14791435.070757389 0 0 0 0 121417323.0655098 137709028.07568252 0 137709028.07568252 11992673.358476639 0 0 0 0 278315683.69287109 152957505.1082449 0 152957505.1082449 -11425128.788311958 0 0 0 0 262378325.83831787 -14541177.81963253 0 -14541177.81963253 -80090389.396680355 0 0 0 0 172837938.13422775 -257430063.15654397 0 -257430063.15654397 126926999.84001827 0 0 0 0 589652371.75666809 -13010860.057841778 0 -13010860.057841778 -85002137.706707716 0 0 0 0 1419994090.8150406 -217596032.33938611 0 -217596032.33938611 -295615172.14214754 0 0 0 0 334826792.07348633 296432629.1905899 0 296432629.1905899 448295271.83298588 0 0 0 0 174714961.03483582 -19956627.851989508 0 -19956627.851989508 -160620739.13259602 0 0 0 0 -175795418.59431458 156145464.15407324 0 156145464.15407324 262964373.82873297 0 0 0 0 390777.668687433 607507.17441828921 0 607507.17441828921 1780385.6803219696 0 0 0 0 -356869855.39243317 122524044.05789351 0 122524044.05789351 41667281.892547607 0 0 0 0 55261937.488288879 243214546.26800942 0 243214546.26800942 32585190.293775022 0 0 0 0 6691691.3271636963 1814065.5960092545 0 1814065.5960092545 -198629934.28097576 0 0 0 0 467156313.4196167 137974564.59971619 0 137974564.59971619 113742863.65087962 0 0 0 0 103306870.76298523 177675062.50089133 0 177675062.50089133 -247838273.35024667 0 0 0 0 807523.48203685647 521202.39312050492 0 521202.39312050492 -930455.42633640161 0 0 0 0 -145554717.64537048 75122102.962222576 0 75122102.962222576 202544065.73064137 0 0 0 0 603010754.08409119 111697399.39201093 0 111697399.39201093 -455014669.08107519 0 0 0 0 487904752.50846863 -295997511.9459424 0 -295997511.9459424 193009866.80019808 0 0 0 0 203688557.03738403 108991961.8283217 0 108991961.8283217 -31541392.781351089 0 0 0 0 257769895.62199402 -109494170.20353389 0 -109494170.20353389 -63147959.285394192 0 0 0 0 2639712.7907965519 2158398.8685277663 0 2158398.8685277663 -3128066.6823072112 0 0 0 0 -55390773.890197754 13047387.388285637 0 13047387.388285637 73734671.624468803 0 0 0 0 440348154.11040497 -47263988.377295494 0 -47263988.377295494 -47534187.36439991 0 0 0 0 767981613.28110886 -183080530.21770287 0 -183080530.21770287 -64593469.689105034 0 0 0 0 1620541.2522317097 2850863.0794375613 0 2850863.0794375613 4753337.2587130619 0 0 0 0 -157012474.47233582 241736219.29325575 0 241736219.29325575 245701716.90010357 0 0 0 0 380354220.52459717 -110040922.16773701 0 -110040922.16773701 100309659.00891018 0 0 0 0 392627316.65783691 -6797004.568903923 0 -6797004.568903923 29985823.300462723 0 0 0 0 377224473.90666962 -43086661.069033146 0 -43086661.069033146 -41153850.138980865 0 0 0 0 396039513.24833679 -17187013.704086304 0 -17187013.704086304 -45091071.607306719 0 0 0 0 402849833.63813591 -43634503.0921278 0 -43634503.0921278 -64430690.776144981 0 0 0 0 240821789.79672241 -63057429.136532307 0 -63057429.136532307 15407515.209501266 0 0 0 0 443596228.53079605 -55529224.197665215 0 -55529224.197665215 -64501175.906697273 0 0 0 0 378058075.88406754 -137962014.86556554 0 -137962014.86556554 50076528.052877426 0 0 0 0 2511072.1613489985 3745338.5624576285 0 3745338.5624576285 -247367.57520382479 0 0 0 0 798576.60219192505 -4171904.6406025887 0 -4171904.6406025887 -39235111.2920084 0 0 0 0 218750273.65257072 23129337.908961475 0 23129337.908961475 -17226319.599420547 0 0 0 0 198106853.12475204 -44334575.175680637 0 -44334575.175680637 -26068480.35532093 0 0 0 0 292455869.26647949 41648801.010741234 0 41648801.010741234 -18673010.879296541 0 0 0 0 3321410.7099401876 5339381.3602333479 0 5339381.3602333479 11301.710894607939 0 0 0 0 5011351.7161941528 2499401.2774405479 0 2499401.2774405479 -1967462.4104213715 0 0 0 0 5685763.4973220825 -1315438.9964547157 0 -1315438.9964547157 -3343597.2447613478 0 0 0 0 7428957.7757415771 3844795.7753536701 0 3844795.7753536701 2056325.3604164124 0 0 0 0 5279426.8155975342 -537611.43749952316 0 -537611.43749952316 1500501.8795506954 0 0 0 0 -18583915.690185547 46039497.500379562 0 46039497.500379562 -51893692.258398056 0 0 0 0 17795548.972732544 1011429.067234993 0 1011429.067234993 -11108036.312050343 0 0 0 0 2964203.804718622 3242021.9003143832 0 3242021.9003143832 -4700617.4152078694 0 0 0 0 189313696.74220276 -174357387.44983912 0 -174357387.44983912 173417382.68353081 0 0 0 0 142849069.21482849 38195737.082697392 0 38195737.082697392 -136617850.38619709 0 0 0 0 -3683579.9360198975 -34271167.018449068 0 -34271167.018449068 -58935332.522798061 0 0 0 0 -18755830.277359009 -9024196.7654209137 0 -9024196.7654209137 4815430.6886096001 0 0 0 0 -46411878.839385986 -89075847.821920395 0 -89075847.821920395 -22357965.131638288 0 0 0 0 107000178.81252384 -98947000.57608211 0 -98947000.57608211 -26804824.899051666 0 0 0 0 -90943358.319976807 -87102471.095893383 0 -87102471.095893383 -18495897.280876637 0 0 0 0 739445.14756259322 -328193.51807231829 0 -328193.51807231829 -72232.525161390658 0 0 0 0 8981064.7281341553 206301981.32570887 0 206301981.32570887 133528671.50948715 0 0 0 0 76686663.604217529 131038775.98889971 0 131038775.98889971 46104494.80900526 0 0 0 0 21007423.255617142 17383804.897601485 0 17383804.897601485 91281991.12080574 0 0 0 0 151391307.90170288 149594786.1236558 0 149594786.1236558 3215789.831785202 0 0 0 0 2327935.6500767563 1913923.3097256124 0 1913923.3097256124 -4710483.9989276435 0 0 0 0 118984866.46331787 52043656.544821262 0 52043656.544821262 -46349386.353591025 0 0 0 0 -29296888.587132454 -12141687.577096641 0 -12141687.577096641 69374752.672733307 0 0 0 0 47215523.536697388 -11609542.357316971 0 -11609542.357316971 1560375.6315805912 0 0 0 0 52633304.093654633 8751577.2610139847 0 8751577.2610139847 10775019.567977905 0 0 0 0 536784657.89151764 100116322.26806545 0 100116322.26806545 -3754613.0114345551 0 0 0 0 813929317.18588257 -5823835.9756112099 0 -5823835.9756112099 -206896161.74505424 0 0 0 0 609499452.39433289 87145745.187024593 0 87145745.187024593 -240254585.29165268 0 0 0 0 54023347.681121826 125848670.73953247 0 125848670.73953247 43663202.104536057 0 0 0 0 651310623.75197601 -276283597.23452473 0 -276283597.23452473 -19454922.67092371 0 0 0 0 -16651643.109779358 91317148.518727303 0 91317148.518727303 28601005.260562897 0 0 0 0 1105767.7831615061 1231580.9951420762 0 1231580.9951420762 -140561.27305435017 0 0 0 0 5366120.8937072754 -12059975.897195816 0 -12059975.897195816 -31145489.674280167 0 0 0 0 93883429.978416443 23560369.014482498 0 23560369.014482498 -19597501.046998978 0 0 0 0 -2335282.9016799927 2200421.4934101105 0 2200421.4934101105 6696779.1721982956 0 0 0 0 597455372.9473896 154622469.22804534 0 154622469.22804534 -66624553.238760948 0 0 0 0 3751169.1862114407 4045113.0005679578 0 4045113.0005679578 7627760.647664682 0 0 0 0 -222833163.76670074 15768554.091542244 0 15768554.091542244 187823723.41819763 0 0 0 0 191452379.83813477 -190724755.52483082 0 -190724755.52483082 170400019.37842131 0 0 0 0 505311269.22784424 395387970.22257423 0 395387970.22257423 -273699740.75661564 0 0 0 0 369082.65930953994 2864444.8552996442 0 2864444.8552996442 7372444.1045908136 0 0 0 0 1980191.4719924927 9829339.4605746269 0 9829339.4605746269 3960881.5659609735 0 0 0 0 -5605425.8055610657 9615754.9866639376 0 9615754.9866639376 13163185.810636997 0 0 0 0 3149622.5327377319 2630107.9325997829 0 2630107.9325997829 8216737.0323901623 0 0 0 0 22144268.162719727 14550529.567537546 0 14550529.567537546 11860674.383737564 0 0 0 0 23087177.923872471 27183793.240188144 0 27183793.240188144 18308679.377763748 0 0 0 0 4820563.3447660021 -577185.56349704415 0 -577185.56349704415 -2497207.2281012884 0 0 0 0 14940933.476451874 2044146.9723026752 0 2044146.9723026752 10859819.571087837 0 0 0 0 11245604.482170105 19323691.525450706 0 19323691.525450706 24313621.477746964 0 0 0 0 -1786747.7302093506 6066783.9028058052 0 6066783.9028058052 10613862.515043497 0 0 0 0 3064899.9894561768 3052865.129638195 0 3052865.129638195 11566379.652196445 0 0 0 0 -2934561.0424308777 3564965.2070583701 0 3564965.2070583701 2516081.8463401794 0 0 0 0 -2820114.1172561646 1560529.5568144321 0 1560529.5568144321 7983128.6162033677 0 0 0 0 4643959.9679794312 17516009.371547967 0 17516009.371547967 -9568974.6470913887 0 0 0 0 22085763.009307861 13068459.975803614 0 13068459.975803614 -12083626.925353408 0 0 0 0 -24064736.174650192 2319986.0296902061 0 2319986.0296902061 2779340.6019203663 0 0 0 0 -4545943.6956291199 35736850.116154172 0 35736850.116154172 -28100552.304681003 0 0 0 0 40927848.017028809 -29042862.715129316 0 -29042862.715129316 -95426604.137431145 0 0 0 0 15621928.557266235 -36264434.167867184 0 -36264434.167867184 -49791034.560706139 0 0 0 0 21981580.153251648 35840353.522626519 0 35840353.522626519 13431603.922939777 0 0 0 0 -5434165.8604888916 2069496.8157637715 0 2069496.8157637715 7929497.4124553204 0 0 0 0 3495202.0710556805 3139178.7379321977 0 3139178.7379321977 -291069.88012278825 0 0 0 0 2118371.5532797687 6510717.2521200776 0 6510717.2521200776 11655414.158613741 0 0 0 0 72541598.731513977 113405709.18177795 0 113405709.18177795 42239351.600065231 0 0 0 0 418588790.80179596 -25060480.505903721 0 -25060480.505903721 -45254705.090047836 0 0 0 0 2426525.6627634205 5123230.5171321854 0 5123230.5171321854 7963224.9894461492 0 0 0 0 -41368688.164909363 26613886.437504053 0 26613886.437504053 28706137.60216701 0 0 0 0 -42887557.861801147 40775573.031488895 0 40775573.031488895 -71373112.604413986 0 0 0 0 1023661.0174102783 -2975116.8287786841 0 -2975116.8287786841 -157748085.14897633 0 0 0 0 -105495813.7591095 -49670904.024771512 0 -49670904.024771512 -113747854.36903134 0 0 0 0 5019319.5475845337 9269812.9910062551 0 9269812.9910062551 -83238916.980430901 0 0 0 0 766182.35991859436 -5009152.2113548219 0 -5009152.2113548219 -92165781.764296532 0 0 0 0 37852417.757253647 -43410885.591642328 0 -43410885.591642328 -128324541.07171722 0 0 0 0 1429265.7206206713 177323.05988514423 0 177323.05988514423 -797578.93405852059 0 0 0 0 76693693.489021301 9173690.4649474323 0 9173690.4649474323 -137418189.4491052 0 0 0 0 32745422.488761902 -5086155.3888209462 0 -5086155.3888209462 -138533021.36588216 0 0 0 0 112474861.83581543 -25348182.243555047 0 -25348182.243555047 -201484768.82836628 0 0 0 0 51026661.91834259 37938456.67182374 0 37938456.67182374 118745319.93926692 0 0 0 0 73062845.058860779 89526452.669604301 0 89526452.669604301 -41339231.059890747 0 0 0 0 45631429.0209198 11299548.578789413 0 11299548.578789413 18390948.089124203 0 0 0 0 1721067.7830740586 1340149.6972667547 0 1340149.6972667547 -569975.33776942024 0 0 0 0 5591173.4934844971 157423774.89046311 0 157423774.89046311 182350364.75288916 0 0 0 0 102157405.44290161 220868539.17816615 0 220868539.17816615 -111075719.14997292 0 0 0 0 51870182.214942932 183744142.56824553 0 183744142.56824553 122640108.55723143 0 0 0 0 8273066.6779937744 56711056.011157513 0 56711056.011157513 9929490.6782612801 0 0 0 0 65003099.650543213 18015726.847877741 0 18015726.847877741 -68448687.364438534 0 0 0 0 65518987.480733156 32404585.603930049 0 32404585.603930049 4887474.1424150467 0 0 0 0 -69441229.154476166 38725526.459255457 0 38725526.459255457 35832658.315328598 0 0 0 0 76127080.497009754 26089247.824891508 0 26089247.824891508 11847390.332532883 0 0 0 0 76766012.671592712 35135276.303909302 0 35135276.303909302 1668146.7669939995 0 0 0 0 71192891.027603149 19216228.486997366 0 19216228.486997366 36316421.224962234 0 0 0 0 62990440.278060913 31354073.061569214 0 31354073.061569214 18373157.433977127 0 0 0 0 73373021.845016479 59387409.32360363 0 59387409.32360363 28418336.780169487 0 0 0 0 93569089.427894592 23683758.021870613 0 23683758.021870613 7871972.0201869011 0 0 0 0 129634546.99940491 109730469.30580962 0 109730469.30580962 58055871.271538734 0 0 0 0 28702662.460975647 25316662.898435116 0 25316662.898435116 23011024.003742933 0 0 0 0 31635600.35819149 8311847.9389250875 0 8311847.9389250875 11392465.787470818 0 0 0 0 59296304.637641907 17814247.997107983 0 17814247.997107983 20846071.44144392 0 0 0 0 33211378.209365845 29725467.271683931 0 29725467.271683931 19218873.409861565 0 0 0 0 25453290.280380249 28077759.429300785 0 28077759.429300785 8612541.5303865671 0 0 0 0 48905444.084039688 17564149.653350472 0 17564149.653350472 10620316.958877563 0 0 0 0 56124005.623733521 31971175.671211243 0 31971175.671211243 20031223.137963772 0 0 0 0 -6625969.8129882812 8095024.0682373047 0 8095024.0682373047 20065332.034989357 0 0 0 0 9846508.6648235321 20134211.863983512 0 20134211.863983512 -19376511.772801042 0 0 0 0 4675146.2461968809 2244750.6593732797 0 2244750.6593732797 -659920.62809953536 0 0 0 0 46948779.685157776 17016230.805357695 0 17016230.805357695 1364029.2663878202 0 0 0 0 42508030.585456848 -18183536.650350921 0 -18183536.650350921 -111627299.19176684 0 0 0 0 -133109504.96961975 -49785554.635711074 0 -49785554.635711074 -10138241.422533281 0 0 0 0 -55320245.820610046 20252507.527124532 0 20252507.527124532 -6693497.2583775222 0 0 0 0 -21271709.943359375 62114321.159903556 0 62114321.159903556 -90059799.401576295 0 0 0 0 27908687.144172668 2490645.3109968901 0 2490645.3109968901 -18016754.398423016 0 0 0 0 93771622.460384369 52973833.482951462 0 52973833.482951462 -78813454.497822523 0 0 0 0 3078564.6026687622 -89345385.193667263 0 -89345385.193667263 -145653926.96541238 0 0 0 0 958646.49042035639 751180.95710489154 0 751180.95710489154 -412732.64121881389 0 0 0 0 36300853.448249817 57824011.981267333 0 57824011.981267333 94918371.999246269 0 0 0 0 148692533.50543976 -109809715.4168928 0 -109809715.4168928 -99369267.761348516 0 0 0 0 -19426399.838668823 7301466.7313656807 0 7301466.7313656807 -29929280.139982745 0 0 0 0 21897979.903396606 -5119596.9679963589 0 -5119596.9679963589 -16397714.863091469 0 0 0 0 2450770.1263791621 2115453.4036060497 0 2115453.4036060497 -693774.74840535352 0 0 0 0 -2905070.9822635651 60989473.164742872 0 60989473.164742872 34242771.878373623 0 0 0 0 -2123156.788482666 -9850255.4405200481 0 -9850255.4405200481 -8498228.7765889168 0 0 0 0 53085640.921310425 -5276684.0453830957 0 -5276684.0453830957 -48934569.425949037 0 0 0 0 37112900.300945282 7326830.4773225784 0 7326830.4773225784 -38662414.452048182 0 0 0 0 -12851737.914703369 20198344.727843523 0 20198344.727843523 -41704023.365381122 0 0 0 0 8251084.7043175623 3694759.2020918522 0 3694759.2020918522 -460183.56601836858 0 0 0 0 10566589.824409485 -5468174.0705580711 0 -5468174.0705580711 -6174256.5708854198 0 0 0 0 1175681.1653049318 1833.9870122037828 0 1833.9870122037828 -64255.72144614975 0 0 0 0 14982445.03515625 -4086824.6176097393 0 -4086824.6176097393 -8296278.9519269466 0 0 0 0 5794213.9788480103 1933550.6219197065 0 1933550.6219197065 3328878.3896791656 0 0 0 0 17456615.495947838 -9696966.8038277403 0 -9696966.8038277403 13117478.176018953 0 0 0 0 21384746.026481628 10363135.688912034 0 10363135.688912034 56193521.280938223 0 0 0 0 17034485.989364624 7480520.1234154701 0 7480520.1234154701 1887930.7146520615 0 0 0 0 -3632001.0688266754 1653845.2907184064 0 1653845.2907184064 12177488.453913212 0 0 0 0 1731546247.5236588 -710816784.81411982 0 -710816784.81411982 38467739.395506412 0 0 0 0 1233875155.1456184 -789399913.69609046 0 -789399913.69609046 251128763.8242743 0 0 0 0 1571270019.4148026 -591363805.82479823 0 -591363805.82479823 -48497385.468170598 0 0 0 0 2583171.5246313326 -173363.31385915913 0 -173363.31385915913 -1283915.8038306902 0 0 0 0 29877967.922203064 8136712.3293750882 0 8136712.3293750882 -91688.848212838173 0 0 0 0 1162431214.2106705 -606821599.29133177 0 -606821599.29133177 93262001.927689701 0 0 0 0 32592595.354667664 -5932242.7535864711 0 -5932242.7535864711 -5313255.302505374 0 0 0 0 13042320.126527078 -973147.02497475967 0 -973147.02497475967 187477.74229424878 0 0 0 0 19973154.508361816 -1350853.3984572887 0 -1350853.3984572887 -7828150.6982295513 0 0 0 0 -4520917.2007751465 -1508378.4788961411 0 -1508378.4788961411 -1307414.0436617136 0 0 0 0 26549136.068511963 -1201856.063475132 0 -1201856.063475132 -13059794.698666096 0 0 0 0 29293826.274963379 8590950.0893990993 0 8590950.0893990993 -1567295.4687889814 0 0 0 0 7877324.2694015503 181321.18766379356 0 181321.18766379356 -3776204.9662075043 0 0 0 0 5801551.2238866687 2311476.8256606013 0 2311476.8256606013 2453420.9173335088 0 0 0 0 676677804.76089478 -510493837.77923477 0 -510493837.77923477 796537099.50561917 0 0 0 0 811977.45830917358 9973680.5164622068 0 9973680.5164622068 8156299.0107493401 0 0 0 0 2202500839.3990822 -1327150975.2363508 0 -1327150975.2363508 287698363.24053186 0 0 0 0 1060643257.6468048 -1084242936.0267012 0 -1084242936.0267012 490841530.41100973 0 0 0 0 1593896947.7885437 -1032054487.5038866 0 -1032054487.5038866 410952502.58413839 0 0 0 0 5692460.1940278113 -332111.99314179644 0 -332111.99314179644 -2892810.8622231949 0 0 0 0 562325283.6097374 -1221959780.9768791 0 -1221959780.9768791 1736714540.2433529 0 0 0 0 5298384.3168256283 3840831.7871827669 0 3840831.7871827669 142042.75939376192 0 0 0 0 2198354700.0086823 707387.30986951804 0 707387.30986951804 -2408520.9366501221 0 0 0 0 5797111.223865509 28190099.48968032 0 28190099.48968032 812569616.82757711 0 0 0 0 2471484.7850477993 368286.47541700676 0 368286.47541700676 941183.14652249939 0 0 0 0 710000719.57118988 1079622711.5517473 0 1079622711.5517473 754803607.24257588 0 0 0 0 3337760.672881037 4548586.1998234857 0 4548586.1998234857 -1027770.4402106241 0 0 0 0 13426193.387863159 17156018.94967705 0 17156018.94967705 9098358.7896689773 0 0 0 0 35730223.009963989 5427237.6622744799 0 5427237.6622744799 -11510115.955352694 0 0 0 0 33036256.090881348 12480776.548925042 0 12480776.548925042 -4901006.5026162863 0 0 0 0 2202085028.0220966 1019714233.8290292 0 1019714233.8290292 -16729647.421069657 0 0 0 0 1894613817.1096191 648914178.6750139 0 648914178.6750139 43784040.143117629 0 0 0 0 2217524.8161152415 -313067.66470142081 0 -313067.66470142081 -1111770.2035186393 0 0 0 0 64364794.75932312 23355538.734924197 0 23355538.734924197 -52848213.645770013 0 0 0 0 26416517.637962341 13969371.013994053 0 13969371.013994053 -85268451.32042408 0 0 0 0 -18039438.209106445 -11774425.612627566 0 -11774425.612627566 20904822.863421321 0 0 0 0 4395720.9709985219 -741331.0639647916 0 -741331.0639647916 -2124640.5708590033 0 0 0 0 37373496.764678955 41624892.929410815 0 41624892.929410815 16251938.924278006 0 0 0 0 1329585251.0290365 282534630.66557986 0 282534630.66557986 1826729.2532752901 0 0 0 0 238372159.68898344 -162295941.86273405 0 -162295941.86273405 16780267.465104282 0 0 0 0 243179984.78099442 85981958.6648186 0 85981958.6648186 24542418.730500016 0 0 0 0 1022481318.6930695 288197495.43920845 0 288197495.43920845 2167786.4243612755 0 0 0 0 1246675802.8818512 55261861.87820866 0 55261861.87820866 -39169643.438164443 0 0 0 0 1360177533.4459867 345949096.71020454 0 345949096.71020454 -92297620.867598653 0 0 0 0 1939886813.4926677 439517425.76454645 0 439517425.76454645 -123182710.867597 0 0 0 0 1692157950.9064407 394277491.71387291 0 394277491.71387291 -92489848.373404503 0 0 0 0 70161369.635883331 -426110261.34632313 0 -426110261.34632313 628201198.26201248 0 0 0 0 2254544.2590341605 1542534.9410029566 0 1542534.9410029566 -307194.16390708787 0 0 0 0 1471927222.2200623 -743375353.7327292 0 -743375353.7327292 164290384.0817461 0 0 0 0 1360246876.0497665 -1207864570.4615164 0 -1207864570.4615164 724772071.63441432 0 0 0 0 207616743.32177734 -245705424.03267622 0 -245705424.03267622 527885921.70699692 0 0 0 0 947753278.01696014 -285279462.4647156 0 -285279462.4647156 -30541814.284424782 0 0 0 0 324643151.18606377 -436578714.70071173 0 -436578714.70071173 123743509.16841459 0 0 0 0 228873039.67405701 -387859191.0667944 0 -387859191.0667944 740716660.64599788 0 0 0 0 634030969.10113525 -818668888.67169583 0 -818668888.67169583 841449407.71513557 0 0 0 0 577771932.67987633 -787984971.60912931 0 -787984971.60912931 949012392.39310646 0 0 0 0 498632395.44480896 -883418367.72596633 0 -883418367.72596633 1022951758.6670218 0 0 0 0 1451711819.4836006 -1631300474.3401444 0 -1631300474.3401444 1477133162.2195587 0 0 0 0 1887472996.9951859 -1345403928.940814 0 -1345403928.940814 684124667.38734233 0 0 0 0 2235977199.9870338 -1834154798.6879327 0 -1834154798.6879327 821060781.8536576 0 0 0 0 2206170557.7527237 -1182406086.2766123 0 -1182406086.2766123 704333213.41780043 0 0 0 0 2939905407.2239799 -525328631.82975036 0 -525328631.82975036 1285940375.4893556 0 0 0 0 2102715228.9608421 -1137373532.9428096 0 -1137373532.9428096 883245455.67672575 0 0 0 0 1982029005.1687546 -1415348817.442755 0 -1415348817.442755 478022614.47084117 0 0 0 0 1815407395.8836689 -1211027974.4873798 0 -1211027974.4873798 1073585445.5154656 0 0 0 0 2404905260.926239 -1189053039.5826855 0 -1189053039.5826855 589206722.18269825 0 0 0 0 1601513284.8265972 -1364076830.9016085 0 -1364076830.9016085 1073826533.031502 0 0 0 0 2029041539.1079025 -1114696691.011409 0 -1114696691.011409 54420640.531884283 0 0 0 0 1264359684.2181282 -370252807.43205428 0 -370252807.43205428 16647156.076690674 0 0 0 0 227094395.64826488 483233151.4962188 0 483233151.4962188 1090081709.9579964 0 0 0 0 1903325.8997686845 398414.81733825803 0 398414.81733825803 5763976.056049807 0 0 0 0 290668471.0115881 594838906.6869545 0 594838906.6869545 435058706.49291992 0 0 0 0 110801728.25661087 234995054.50048828 0 234995054.50048828 271260266.32826138 0 0 0 0 277933561.48867798 121374408.2834053 0 121374408.2834053 -201491844.87311935 0 0 0 0 335734254.62327814 399256908.57033682 0 399256908.57033682 122161920.46588135 0 0 0 0 -114178960.09052706 542902335.25310135 0 542902335.25310135 1220656549.801795 0 0 0 0 27303397.177211761 365028691.31966209 0 365028691.31966209 508100698.27780914 0 0 0 0 155082756.14513969 291540698.98921108 0 291540698.98921108 250022540.21754456 0 0 0 0 -188641156.62332439 220240760.73888206 0 220240760.73888206 723825476.56061602 0 0 0 0 -188829145.0462904 223450777.44073343 0 223450777.44073343 676896527.26780415 0 0 0 0 -76386310.452300072 74350143.719937325 0 74350143.719937325 259388443.0387764 0 0 0 0 -27437663.742547989 70094544.747745514 0 70094544.747745514 161700797.32099342 0 0 0 0 -20798591.859003067 171617392.83166122 0 171617392.83166122 422216787.63770103 0 0 0 0 41381854.762932777 58845388.308171272 0 58845388.308171272 143003650.00962067 0 0 0 0 -1078008.6686840057 -36248051.997592926 0 -36248051.997592926 50794628.686130524 0 0 0 0 -9082354.3298816681 -58081812.736949921 0 -58081812.736949921 83885885.040950775 0 0 0 0 -14934476.733007431 22879746.330898285 0 22879746.330898285 270822981.8852663 0 0 0 0 -15331025.047059059 -25135502.11408338 0 -25135502.11408338 68548678.348096371 0 0 0 0 143262872.43496704 279791085.59466237 0 279791085.59466237 67667997.045025826 0 0 0 0 6209320.34462744 46273.720125356689 0 46273.720125356689 14095823.845502034 0 0 0 0 -292600601.42451286 -97023539.996620178 0 -97023539.996620178 101512393.44293594 0 0 0 0 -30178197.362663269 -176387664.78026962 0 -176387664.78026962 -57494028.841186523 0 0 0 0 -54294882.963823318 -92458196.351055145 0 -92458196.351055145 -26812230.318080902 0 0 0 0 13332816.207832217 -1908347.6770639066 0 -1908347.6770639066 18654978.022638302 0 0 0 0 73097407.688371658 58500934.937575996 0 58500934.937575996 -23326748.76706481 0 0 0 0 -76284698.729413986 -8923357.0687026978 0 -8923357.0687026978 -21089338.488536835 0 0 0 0 -32087481.606370926 -88656421.883657455 0 -88656421.883657455 -39171738.294229031 0 0 0 0 -12457220.41473794 -59230951.533382893 0 -59230951.533382893 84220546.361316681 0 0 0 0 -69534572.737251759 -34383609.519172668 0 -34383609.519172668 74831403.867019653 0 0 0 0 -25467875.405550003 -108454308.27982521 0 -108454308.27982521 12759370.718519211 0 0 0 0 36867177.224172458 -5257556.5749445055 0 -5257556.5749445055 8184705.9533120058 0 0 0 0 58960401.2786026 39124928.105509758 0 39124928.105509758 -28591311.081523895 0 0 0 0 20172193.312564611 -76421211.626089096 0 -76421211.626089096 -110727741.64735603 0 0 0 0 22547732.079746246 10670651.482089818 0 10670651.482089818 20205380.997428894 0 0 0 0 8771377.8749403805 3662378.6243529692 0 3662378.6243529692 7177285.1492178924 0 0 0 0 10767877.562328964 3715213.4384042155 0 3715213.4384042155 8758537.9233899917 0 0 0 0 20673725.281639099 -43271885.570472717 0 -43271885.570472717 -10223953.253463745 0 0 0 0 20870934.099808812 -3644166.8609314738 0 -3644166.8609314738 12286452.159676112 0 0 0 0 2355544.414024353 86254.106696128845 0 86254.106696128845 -2214725.7586517334 0 0 0 0 18389272.532583721 -313387.75668293424 0 -313387.75668293424 1111626.7749400344 0 0 0 0 14922998.38442865 4024141.3540426847 0 4024141.3540426847 9716459.2022870909 0 0 0 0 -992537.11002349854 -1395497.5615329742 0 -1395497.5615329742 4449220.3988666534 0 0 0 0 13152275.385663282 -113410.96660814621 0 -113410.96660814621 15501367.643809475 0 0 0 0 -869541.08926200867 -2908876.8234293461 0 -2908876.8234293461 3823069.9851837158 0 0 0 0 318526450.4801712 167664578.96601015 0 167664578.96601015 -2983848.7871726993 0 0 0 0 7562149.0028335825 2090042.7803159095 0 2090042.7803159095 12742906.560705744 0 0 0 0 67387445.313240051 19715768.45795992 0 19715768.45795992 -18496892.182138257 0 0 0 0 -35118883.780097008 28557371.140515815 0 28557371.140515815 26481422.502971113 0 0 0 0 7283283.2837169012 4865394.8233037265 0 4865394.8233037265 -1669400.0728091635 0 0 0 0 8351804.5062104389 -908164.76741475239 0 -908164.76741475239 5434344.8769792318 0 0 0 0 -67937978.674568176 166905921.06036472 0 166905921.06036472 -247137997.53550076 0 0 0 0 39977862.852363586 -49457292.157835931 0 -49457292.157835931 21414810.581229039 0 0 0 0 8062559.2839517593 -6262633.1298048198 0 -6262633.1298048198 237213639.40281361 0 0 0 0 -123387392.08537674 106443285.97219729 0 106443285.97219729 652506521.02655888 0 0 0 0 157668413.23564339 372786143.08350778 0 372786143.08350778 -73055743.189376831 0 0 0 0 2202637738.9706593 -622343703.65739834 0 -622343703.65739834 -143821414.94582689 0 0 0 0 2349521149.0348969 -1150620528.3621776 0 -1150620528.3621776 1454697129.7508278 0 0 0 0 2359655538.5798416 26985742.166430004 0 26985742.166430004 -105987360.32458708 0 0 0 0 2824683.7862450816 -791926.26394824218 0 -791926.26394824218 2444496.3018680848 0 0 0 0 300386621.47574615 -709596808.53643799 0 -709596808.53643799 1410086808.3707871 0 0 0 0 3211430.683772333 1628435.0049624224 0 1628435.0049624224 10829067.110682655 0 0 0 0 1646321576.8132992 -1016112949.198415 0 -1016112949.198415 399427061.47486156 0 0 0 0 171666624.07978249 144906262.96973974 0 144906262.96973974 118720127.2236768 0 0 0 0 708309953.44659424 1188208140.6447721 0 1188208140.6447721 1283717971.9246488 0 0 0 0 2201289768.6800499 953936755.79834569 0 953936755.79834569 -91610037.018867582 0 0 0 0 43089153.316963196 58577926.559488773 0 58577926.559488773 200736446.99455631 0 0 0 0 298749408.82857704 125709471.82585263 0 125709471.82585263 176644018.10993803 0 0 0 0 520129004.13205719 445403174.16482949 0 445403174.16482949 355135819.59262967 0 0 0 0 448762712.32018805 -14639202.775230326 0 -14639202.775230326 -74553683.904762983 0 0 0 0 1317491649.4827271 410018633.01840007 0 410018633.01840007 -146405855.47541785 0 0 0 0 664204639.74007225 293274255.75162685 0 293274255.75162685 -65327340.651864588 0 0 0 0 773297706.74098396 151742063.53292057 0 151742063.53292057 -140275641.01354265 0 0 0 0 2205167365.4313469 376446298.62942052 0 376446298.62942052 -469429621.92901546 0 0 0 0 1312915533.0008202 519778565.270244 0 519778565.270244 -279557767.31194699 0 0 0 0 1384958177.5760803 -54751885.961174294 0 -54751885.961174294 -438827835.55322081 0 0 0 0 859476841.15695381 -129409148.83482566 0 -129409148.83482566 -137673014.07644463 0 0 0 0 1295324733.7723007 241892676.7951656 0 241892676.7951656 -195505594.44266933 0 0 0 0 1258036631.5137062 -611823009.68412399 0 -611823009.68412399 90198823.173216939 0 0 0 0 600559658.53316116 31701909.423635557 0 31701909.423635557 7515442.0057396293 0 0 0 0 2204404101.592865 -237308610.47862545 0 -237308610.47862545 -426707461.02211559 0 0 0 0 1307177520.532753 -504578541.50144744 0 -504578541.50144744 -57811408.725519702 0 0 0 0 16617759.699199677 4714087.0115008354 0 4714087.0115008354 16628748.451657295 0 0 0 0 35027386.599777222 26294912.309395552 0 26294912.309395552 17590749.243946075 0 0 0 0 4490034.7565758172 2149512.2606585436 0 2149512.2606585436 7973168.0219070548 0 0 0 0 1649750.6169967651 6519072.7802643776 0 6519072.7802643776 18775594.000151634 0 0 0 0 361538055.74913406 -175819837.85226014 0 -175819837.85226014 63711023.406841241 0 0 0 0 20616059.967967987 6359937.6160840988 0 6359937.6160840988 5152634.0787534714 0 0 0 0 38787075.640007019 27388556.406133652 0 27388556.406133652 15639602.598545074 0 0 0 0 41845303.356836796 28009132.822787285 0 28009132.822787285 12360185.053518295 0 0 0 0 66680601.192604065 47224976.631347656 0 47224976.631347656 25938803.377038956 0 0 0 0 3987091.8208656311 -1490342.0529913902 0 -1490342.0529913902 21755201.74124527 0 0 0 0 295312525.72367859 75929212.808649749 0 75929212.808649749 112472331.01272386 0 0 0 0 5448657.2906919383 1908559.8347638603 0 1908559.8347638603 11630529.303581677 0 0 0 0 88448895.729078293 -17017641.493260622 0 -17017641.493260622 728270.79341125488 0 0 0 0 44741293.382839203 19987221.086522102 0 19987221.086522102 9925195.2882810831 0 0 0 0 5281719.4067391893 1922026.6099377163 0 1922026.6099377163 632961.41358245723 0 0 0 0 24535045.694896698 39713972.339596748 0 39713972.339596748 34026776.314434052 0 0 0 0 65056088.386764526 12851421.12279129 0 12851421.12279129 -1293533.8560392559 0 0 0 0 8959835.5409664065 2062865.1056237705 0 2062865.1056237705 13881321.862226306 0 0 0 0 13587795.519310072 7587463.2709874231 0 7587463.2709874231 -1818954.1629593894 0 0 0 0 45502293.070239544 14363492.32358402 0 14363492.32358402 16120095.410800934 0 0 0 0 35848387.952781677 33332054.885735512 0 33332054.885735512 41105282.540319443 0 0 0 0 4209728.0530635491 2312162.4774891622 0 2312162.4774891622 -695595.40630018339 0 0 0 0 -2653873.4254684448 10875716.889570236 0 10875716.889570236 22060015.175560474 0 0 0 0 91686085.026802063 103892326.14774895 0 103892326.14774895 35774695.111069918 0 0 0 0 61133751.054966927 11309303.77572 0 11309303.77572 3157456.7727241516 0 0 0 0 30220415.809043884 53432929.334512711 0 53432929.334512711 -31453171.714186668 0 0 0 0 44828906.219985962 71736234.606104851 0 71736234.606104851 44588531.320772171 0 0 0 0 31482327.511784554 21030962.611020803 0 21030962.611020803 21725460.492614746 0 0 0 0 41498955.120055199 30287112.136293828 0 30287112.136293828 22301920.914493561 0 0 0 0 63933248.902709961 39765202.78182888 0 39765202.78182888 21591020.029026985 0 0 0 0 37566792.495788574 21798762.072389126 0 21798762.072389126 25551022.083399415 0 0 0 0 66418081.758583546 61418518.041908532 0 61418518.041908532 45733876.70032692 0 0 0 0 50254822.479774475 37163845.187475204 0 37163845.187475204 40851776.363631964 0 0 0 0 44168571.238101959 34771037.857115507 0 34771037.857115507 43772959.063405037 0 0 0 0 56331110.001991272 36466352.368569374 0 36466352.368569374 29528597.448076248 0 0 0 0 38689321.761547089 18683069.010987043 0 18683069.010987043 21427757.767193794 0 0 0 0 53823685.071971893 38144506.153383732 0 38144506.153383732 27749749.223836899 0 0 0 0 128492994.57366943 42963004.204441071 0 42963004.204441071 52797041.403839111 0 0 0 0 98922616.261405945 26061737.159452438 0 26061737.159452438 57500637.576085091 0 0 0 0 200976179.25263977 66908983.601949692 0 66908983.601949692 27626712.665299773 0 0 0 0 97418244.102249146 32861661.16830349 0 32861661.16830349 31988416.481928349 0 0 0 0 56322857.808600143 33935366.678940728 0 33935366.678940728 65675347.733055115 0 0 0 0 70407643.33669281 59169744.075885773 0 59169744.075885773 60276416.144854665 0 0 0 0 87231598.920158386 16130952.163917065 0 16130952.163917065 66928805.555793762 0 0 0 0 222843234.57850647 50843711.702917099 0 50843711.702917099 69345125.3793993 0 0 0 0 157484506.01480484 3202184.7511329651 0 3202184.7511329651 100584471.70576286 0 0 0 0 92246296.17011261 -3353376.496887207 0 -3353376.496887207 72998138.931966782 0 0 0 0 183082146.12563324 12083660.858633041 0 12083660.858633041 19601971.818082809 0 0 0 0 87982076.700813293 52049563.566116333 0 52049563.566116333 28090593.183404922 0 0 0 0 42642828.645317078 34848116.288913727 0 34848116.288913727 39179809.132487297 0 0 0 0 34209512.035926819 -3814370.4327573776 0 -3814370.4327573776 -84106934.91645813 0 0 0 0 60070816.174766541 78174618.214352608 0 78174618.214352608 -3892972.9500188828 0 0 0 0 85772254.631525993 2961664.7944600582 0 2961664.7944600582 -63556727.268390656 0 0 0 0 13916812.893783569 39192039.602917671 0 39192039.602917671 -68468772.765872955 0 0 0 0 -27854735.061852455 92118607.818237305 0 92118607.818237305 -136030012.02520943 0 0 0 0 236612030.63852978 202309094.25487137 0 202309094.25487137 32587246.763259888 0 0 0 0 160187644.25775051 68087094.999713898 0 68087094.999713898 -134086892.91583824 0 0 0 0 349716725.03628159 -59152623.680925369 0 -59152623.680925369 -175229463.89812505 0 0 0 0 -20296476.039721727 44551053.009292603 0 44551053.009292603 -166891314.3161068 0 0 0 0 185433095.09329593 -106461926.08534813 0 -106461926.08534813 30714426.465919495 0 0 0 0 245345053.21137953 1826342.1271471977 0 1826342.1271471977 -555227484.15696716 0 0 0 0 57244602.018502191 -2616609.6009587217 0 -2616609.6009587217 -1026601.8705571882 0 0 0 0 90060778.564777374 40023792.127097607 0 40023792.127097607 -188916193.64729881 0 0 0 0 47716457.683476992 -3635004.6279404154 0 -3635004.6279404154 2594331.2887627538 0 0 0 0 73331552.692438602 -230603586.44978142 0 -230603586.44978142 -149687091.95148468 0 0 0 0 91369254.267944336 19090020.970879555 0 19090020.970879555 -122944788.77207375 0 0 0 0 140046404.64033818 -58701424.226318359 0 -58701424.226318359 -414823003.49578595 0 0 0 0 -11898895.539898872 -106217564.59528542 0 -106217564.59528542 -42404626.881719589 0 0 0 0 47774260.680310249 -118725107.31271744 0 -118725107.31271744 -42214499.817313313 0 0 0 0 -17826512.792758048 -189533291.04695988 0 -189533291.04695988 184077163.35295868 0 0 0 0 116262985.83882082 -124437454.49261856 0 -124437454.49261856 -110317202.62224627 0 0 0 0 61868671.389447689 -208376180.68747425 0 -208376180.68747425 152790286.70335388 0 0 0 0 211243624.21921349 -244461872.42956352 0 -244461872.42956352 151051493.75430489 0 0 0 0 -50255014.792017609 -249551183.19579411 0 -249551183.19579411 543074859.5416832 0 0 0 0 -45022380.81886217 -206501153.2991854 0 -206501153.2991854 458560533.58105469 0 0 0 0 127637500.89961863 -349711733.91325951 0 -349711733.91325951 522062703.29341698 0 0 0 0 -42065897.270101547 -90662475.432444572 0 -90662475.432444572 221946433.89463615 0 0 0 0 -50668599.525987625 -71522398.234395027 0 -71522398.234395027 351061874.40439987 0 0 0 0 -219332120.62471545 -113517866.94670773 0 -113517866.94670773 548259188.24957478 0 0 0 0 -91843583.039812922 91208481.858795166 0 91208481.858795166 474904111.44294357 0 0 0 0 -369644097.05857706 193575174.16790152 0 193575174.16790152 926453758.98839951 0 0 0 0 -245991543.84375572 37622715.242235184 0 37622715.242235184 564958838.31197071 0 0 0 0 -235580282.24911785 -14730417.031276941 0 -14730417.031276941 825813487.93348694 0 0 0 0 -494566719.20270014 47887681.939009666 0 47887681.939009666 818628043.24816036 0 0 0 0 -312153714.99617147 -136795953.58609676 0 -136795953.58609676 876455308.81401491 0 0 0 0 -144688286.56338751 -296988412.75317478 0 -296988412.75317478 950016670.24028206 0 0 0 0 -391344641.29594231 -121338952.86446667 0 -121338952.86446667 986998214.98962879 0 0 0 0 -298000368.66576046 -301482062.78435802 0 -301482062.78435802 1356036593.8585815 0 0 0 0 1399525754.5684204 -63420414.282455444 0 -63420414.282455444 146576327.97656822 0 0 0 0 5777847.6559715271 -599583644.96536732 0 -599583644.96536732 1648409261.2391071 0 0 0 0 744448860.61536598 -1000986706.5505238 0 -1000986706.5505238 1172085671.2012806 0 0 0 0 471702621.45225143 -633467149.33529472 0 -633467149.33529472 698040122.69729996 0 0 0 0 242590339.88118935 318811042.4349966 0 318811042.4349966 362707315.67366123 0 0 0 0 745967474.55599403 -890862757.65148544 0 -890862757.65148544 -143629276.52991915 0 0 0 0 307583315.72145891 97811882.543828011 0 97811882.543828011 210533662.11424255 0 0 0 0 335376157.04876566 63344137.561014175 0 63344137.561014175 61347471.447780609 0 0 0 0 696353839.04296112 -23027705.594133377 0 -23027705.594133377 33338468.333403587 0 0 0 0 353242396.58722687 -434647492.52401257 0 -434647492.52401257 402062910.08642387 0 0 0 0 123793650.88742602 -335916790.71414065 0 -335916790.71414065 524337185.26950836 0 0 0 0 -47053284.291057587 57237992.383999825 0 57237992.383999825 60432808.320482254 0 0 0 0 -14319159.764081955 49032511.568649292 0 49032511.568649292 7606811.4769706726 0 0 0 0 84757169.413585663 248577107.6802659 0 248577107.6802659 264196067.60799789 0 0 0 0 -88811294.073196411 81028728.914639473 0 81028728.914639473 102750831.5746572 0 0 0 0 -75106602.597348213 -89254789.657642841 0 -89254789.657642841 -44157532.899213791 0 0 0 0 4271072.5172302295 -3558536.6367552746 0 -3558536.6367552746 950193.83319936972 0 0 0 0 -221031569.82241058 -29111715.420557022 0 -29111715.420557022 280217842.18288934 0 0 0 0 -25456280.155445099 3537021.9086694717 0 3537021.9086694717 76090786.662698507 0 0 0 0 6277002.5698640943 896654.2654859405 0 896654.2654859405 -939478.07039122144 0 0 0 0 -20424800.485376358 4938084.1338331699 0 4938084.1338331699 6595448.0661430359 0 0 0 0 372993484.38752747 91659052.842261314 0 91659052.842261314 -457914109.95365238 0 0 0 0 202193262.68457794 112946224.48356724 0 112946224.48356724 76384419.387664795 0 0 0 0 489048774.24278641 -27117396.060791016 0 -27117396.060791016 -295136780.52733421 0 0 0 0 -15020040.31785202 -71447320.637424469 0 -71447320.637424469 -80083311.803432465 0 0 0 0 2359115.0810237154 -432259.53863427974 0 -432259.53863427974 -848629.62700490654 0 0 0 0 468810873.32641602 -411093948.29943657 0 -411093948.29943657 -254829164.88078499 0 0 0 0 -1158211.7603725158 -4110160.7616638783 0 -4110160.7616638783 1325679.3325292584 0 0 0 0 314362069.95928288 -523809866.84726918 0 -523809866.84726918 268865026.72789192 0 0 0 0 -79028867.375204086 -60310211.705281734 0 -60310211.705281734 377982633.76629829 0 0 0 0 26127416.002747413 -4757616.094452031 0 -4757616.094452031 -1280280.8933512196 0 0 0 0 799844363.36610603 987303125.62498379 0 987303125.62498379 1098321936.0776215 0 0 0 0 536600410.38835526 506725598.75481606 0 506725598.75481606 -44022619.383707047 0 0 0 0 5058520.2690315247 22304521.380897522 0 22304521.380897522 18136605.323728561 0 0 0 0 12142801.763240814 24893992.064552307 0 24893992.064552307 8814310.4725761414 0 0 0 0 8558035.9120006561 30604583.699599266 0 30604583.699599266 -268935.50631332397 0 0 0 0 -2394059.8173522949 29299069.98525238 0 29299069.98525238 14019404.70409584 0 0 0 0 46180045.072951756 -9025310.5844483562 0 -9025310.5844483562 -8184628.2327951062 0 0 0 0 8593177.9965286255 38094230.584320068 0 38094230.584320068 -3135785.9532346725 0 0 0 0 63282944.83536911 28553827.943247795 0 28553827.943247795 -47577467.511734009 0 0 0 0 -159491844.05381966 -202199363.35615015 0 -202199363.35615015 -115862403.10827351 0 0 0 0 497098525.29178715 223570280.99875474 0 223570280.99875474 -214267382.86381149 0 0 0 0 1114030347.0431824 467750109.67938423 0 467750109.67938423 -460576372.23284912 0 0 0 0 462491464.5450592 87630276.652204514 0 87630276.652204514 -574649859.70120144 0 0 0 0 253693840.14303207 -539729019.86095905 0 -539729019.86095905 -617677763.7429142 0 0 0 0 1437506235.1128922 -275318862.25898361 0 -275318862.25898361 -1077849448.3050823 0 0 0 0 262203727.94505692 116841214.68018627 0 116841214.68018627 -242181394.03798676 0 0 0 0 342495873.84635162 52759453.940168381 0 52759453.940168381 -213734448.92681313 0 0 0 0 369830987.78327942 12179689.444975853 0 12179689.444975853 -318574463.56991577 0 0 0 0 14448986.652258936 -3212315.837125008 0 -3212315.837125008 -7785166.0234667622 0 0 0 0 105686582.29379463 -27024378.180561543 0 -27024378.180561543 -165912837.02350998 0 0 0 0 71194094.575586319 -6241818.5308952332 0 -6241818.5308952332 8308830.4937915802 0 0 0 0 43732144.298530571 -7242318.8152024597 0 -7242318.8152024597 -4797375.5081345756 0 0 0 0 52989915.55706811 977309.57914858521 0 977309.57914858521 -10492669.366643092 0 0 0 0 25977736.062271118 -1157083.8534755707 0 -1157083.8534755707 -11109252.515684888 0 0 0 0 71630587.03622213 -314353.98847910762 0 -314353.98847910762 -10030857.694516398 0 0 0 0 79472745.129226685 -30861153.559204102 0 -30861153.559204102 -112888462.10131365 0 0 0 0 47807598.799359322 58093007.334376335 0 58093007.334376335 -94397875.970487595 0 0 0 0 66170460.738343298 -15180546.861869149 0 -15180546.861869149 -11631530.432006259 0 0 0 0 12721529.512371063 70411197.296457291 0 70411197.296457291 -34637046.769649506 0 0 0 0 11986861.428291321 50724777.687292099 0 50724777.687292099 7628034.1656283736 0 0 0 0 30551116.925920486 207895634.37943268 0 207895634.37943268 80188885.874669552 0 0 0 0 13565438.73381871 76336367.643676519 0 76336367.643676519 -105955292.11130142 0 0 0 0 65046552.129819706 -1758198.7665747721 0 -1758198.7665747721 -4538897.8690567585 0 0 0 0 131373134.67862701 -24112314.517206192 0 -24112314.517206192 -224531945.84684545 0 0 0 0 130228462.5513401 131330714.0329113 0 131330714.0329113 -331059888.9708944 0 0 0 0 89833712.874328613 31521379.907672882 0 31521379.907672882 -107112299.75956917 0 0 0 0 153759754.36975098 -68745343.465273857 0 -68745343.465273857 -53616388.010222435 0 0 0 0 68977505.118461609 -92470856.256744862 0 -92470856.256744862 -38914666.357803345 0 0 0 0 55487628.810752869 -84796117.756990433 0 -84796117.756990433 -17924516.331176758 0 0 0 0 65766806.598625183 -63868105.043343544 0 -63868105.043343544 443726.80422496796 0 0 0 0 13153497.026641846 -50475474.526773453 0 -50475474.526773453 124811132.99352074 0 0 0 0 134595368.94860077 -137892995.36182785 0 -137892995.36182785 54965139.59104538 0 0 0 0 368511.57799283788 -589104.18908337131 0 -589104.18908337131 -525403.48391522467 0 0 0 0 72839303.436355591 12026612.08140564 0 12026612.08140564 -15503393.056353569 0 0 0 0 13219622.013255611 -5613227.5925618522 0 -5613227.5925618522 -4426323.4586502537 0 0 0 0 187143403.75247192 -2585426.431892395 0 -2585426.431892395 22208713.568029404 0 0 0 0 310896870.31663513 -123920745.70219707 0 -123920745.70219707 45340286.985565186 0 0 0 0 255588870.68763733 -133620913.55410004 0 -133620913.55410004 114839148.55543137 0 0 0 0 177325693.60335541 11591920.428665161 0 11591920.428665161 31886395.942083359 0 0 0 0 365852627.21033478 -58200748.783511162 0 -58200748.783511162 55511091.443515778 0 0 0 0 12185816.167930603 65098725.541128159 0 65098725.541128159 6074977.6831798553 0 0 0 0 349367919.60876274 -129464397.71671069 0 -129464397.71671069 44247780.149715424 0 0 0 0 774550.72704817355 275188.53872087598 0 275188.53872087598 -494853.68508900981 0 0 0 0 116605048.87227631 5152542.5349559784 0 5152542.5349559784 -14541480.220309973 0 0 0 0 5368047.5258484818 3408060.7702055052 0 3408060.7702055052 -10362031.410503086 0 0 0 0 -7732477.4730882645 -50774064.895374954 0 -50774064.895374954 -28844721.217813492 0 0 0 0 133457875.3273468 -6541364.7654352188 0 -6541364.7654352188 -109941887.32478428 0 0 0 0 57639260.491529465 71083155.480227232 0 71083155.480227232 -62401297.484538078 0 0 0 0 192248724.6410408 93537555.104976177 0 93537555.104976177 -52348245.82959938 0 0 0 0 329000484.4701004 17553750.067909241 0 17553750.067909241 -27780939.285513878 0 0 0 0 212151138.60604858 129763710.99833202 0 129763710.99833202 -38792340.638433456 0 0 0 0 131748257.35176849 23850429.315432012 0 23850429.315432012 -72461210.362437129 0 0 0 0 -33873.824996948242 112841736.5548985 0 112841736.5548985 -71537218.186910152 0 0 0 0 88420619.673187256 -26069671.227107763 0 -26069671.227107763 -8141482.1516122818 0 0 0 0 5675949.9850704195 -977389.61816973239 0 -977389.61816973239 -747864.3335677532 0 0 0 0 54021200.205604553 74191288.073042214 0 74191288.073042214 -203660110.15348577 0 0 0 0 1824806.7341107316 3183721.4430269226 0 3183721.4430269226 -5685727.7837463673 0 0 0 0 6914463.4133291245 173544816.53720444 0 173544816.53720444 -160677596.30347967 0 0 0 0 -3525114.3934631348 231597667.1673975 0 231597667.1673975 -278372599.95177841 0 0 0 0 -144344115.1713028 142134482.30562282 0 142134482.30562282 -27413652.880639315 0 0 0 0 98957580.173324585 58993.373313784599 0 58993.373313784599 105248932.73760223 0 0 0 0 114948500.43347597 -23710871.057863899 0 -23710871.057863899 -10388810.087512493 0 0 0 0 19221914.539524078 62341809.531377852 0 62341809.531377852 -58273063.492653728 0 0 0 0 -21616332.210014343 31338928.20074904 0 31338928.20074904 -29121156.609021902 0 0 0 0 27026539.532085419 32179340.509521179 0 32179340.509521179 -44449053.570650935 0 0 0 0 31205225.90877533 23436576.261430115 0 23436576.261430115 -31370659.709939621 0 0 0 0 39441603.891296387 24080341.751257304 0 24080341.751257304 -44809451.086847067 0 0 0 0 20549264.493912913 -5261513.4898752794 0 -5261513.4898752794 -1809497.0844959081 0 0 0 0 81139892.559314728 -33974824.031888485 0 -33974824.031888485 -4208045.5218677521 0 0 0 0 67835739.12444973 -21922088.846195221 0 -21922088.846195221 -10255280.705074787 0 0 0 0 67925962.540588379 -68583657.796890259 0 -68583657.796890259 10357087.464874268 0 0 0 0 24864272.530903235 -9437852.2945407871 0 -9437852.2945407871 -11252314.776692837 0 0 0 0 76979595.125610352 -72734442.796786785 0 -72734442.796786785 -31112030.044948578 0 0 0 0 31178214.910144806 -51838596.036390066 0 -51838596.036390066 5649766.5234985352 0 0 0 0 -1496861.5493336469 -2640938.6117843483 0 -2640938.6117843483 496454.11336061452 0 0 0 0 27558527.839435577 50539107.004708886 0 50539107.004708886 -8162461.4364409447 0 0 0 0 35631109.343254089 27620341.653760612 0 27620341.653760612 -47755010.034918278 0 0 0 0 21272439.322172977 9362682.3115911987 0 9362682.3115911987 -9560401.5331623368 0 0 0 0 71907655.941028595 2079632.8843299747 0 2079632.8843299747 -121457474.52745676 0 0 0 0 48189214.985439301 48636149.464523047 0 48636149.464523047 -53388163.387190104 0 0 0 0 18525079.733848572 96441968.017911673 0 96441968.017911673 77371051.713422418 0 0 0 0 92897903.604251862 1576285.6065721512 0 1576285.6065721512 -93464619.748217583 0 0 0 0 10347585.74184081 1774536.1870842064 0 1774536.1870842064 -2903666.6422658982 0 0 0 0 -3950139.0957298279 -26719157.088982403 0 -26719157.088982403 -49914606.24852407 0 0 0 0 103069897.93664551 -100752034.69816637 0 -100752034.69816637 -105960696.39665186 0 0 0 0 63089638.22013855 -112288640.8391946 0 -112288640.8391946 -92836965.863381624 0 0 0 0 -38083.047820948064 158712.31728970259 0 158712.31728970259 237039.7144985511 0 0 0 0 233479359.33847046 141733588.34741116 0 141733588.34741116 47322977.691522583 0 0 0 0 220546069.19169617 84487871.940168202 0 84487871.940168202 -41927075.190478146 0 0 0 0 174851837.0631485 -4014192.8453418911 0 -4014192.8453418911 -160967196.74867904 0 0 0 0 315327130.66970825 -19648210.445511997 0 -19648210.445511997 -160122306.46431899 0 0 0 0 84909987.79347229 -21121738.683126926 0 -21121738.683126926 -111908139.67145741 0 0 0 0 73767678.69287014 -73000968.931185439 0 -73000968.931185439 -95549594.947624445 0 0 0 0 167394813.02449799 -18139565.378160357 0 -18139565.378160357 -78849348.05476898 0 0 0 0 184734923.05683136 -76009383.824436784 0 -76009383.824436784 -133184618.07210839 0 0 0 0 158404652.18299103 -54571698.52231586 0 -54571698.52231586 -98316341.672808975 0 0 0 0 8033006.9291381836 104082401.74648833 0 104082401.74648833 -79348554.385733068 0 0 0 0 512025142.62385559 -134527774.18414754 0 -134527774.18414754 -124201122.46607146 0 0 0 0 457241577.11964226 216409769.31470907 0 216409769.31470907 -57273656.171362758 0 0 0 0 499368475.76317883 -415675494.41526532 0 -415675494.41526532 -342229266.7396723 0 0 0 0 617435689.21891785 111772884.31509125 0 111772884.31509125 -29188278.804958344 0 0 0 0 3350154.0306235999 441142.48477042653 0 441142.48477042653 -747328.22766757524 0 0 0 0 126905065.86600113 -166110214.67931199 0 -166110214.67931199 -12415391.152434826 0 0 0 0 206349890.16664124 371216113.2338593 0 371216113.2338593 425040068.51390016 0 0 0 0 26989064.533798218 96390182.758884907 0 96390182.758884907 264018008.6416204 0 0 0 0 174636023.56072998 177037187.47199559 0 177037187.47199559 -107589105.39444447 0 0 0 0 -15250102.511154175 3119962.4717159271 0 3119962.4717159271 -182252003.39480162 0 0 0 0 -52700060.791410446 -498925636.65333933 0 -498925636.65333933 -131051865.87620234 0 0 0 0 17066616.179592155 4726284.8169735838 0 4726284.8169735838 -4391747.8670977429 0 0 0 0 -214356608.16023254 -53550707.150885105 0 -53550707.150885105 -64764453.291054726 0 0 0 0 15805193.417791687 4352047.2600478418 0 4352047.2600478418 -5639373.7884734487 0 0 0 0 55042120.241668701 -173344176.87808084 0 -173344176.87808084 -144489407.21593165 0 0 0 0 55350622.459371895 -9313286.6181117371 0 -9313286.6181117371 -342496.86076129257 0 0 0 0 40492886.444407284 -63522343.973172307 0 -63522343.973172307 183025158.18083811 0 0 0 0 46675001.857879639 -7737265.0849254131 0 -7737265.0849254131 -92856975.808915138 0 0 0 0 -20672458.223602295 77362983.260052681 0 77362983.260052681 -572386761.04788017 0 0 0 0 49063109.501010746 25498604.17015788 0 25498604.17015788 -24135432.796866767 0 0 0 0 80470945.084758759 24669735.845915318 0 24669735.845915318 374803086.40179443 0 0 0 0 94186134.456786156 51147657.237281799 0 51147657.237281799 -85081941.311420441 0 0 0 0 12402748.167450488 -7570382.8351562023 0 -7570382.8351562023 141150860.14583778 0 0 0 0 -27030450.509681702 96893842.291095734 0 96893842.291095734 -69236230.552294612 0 0 0 0 100269043.94175148 -51172857.71900177 0 -51172857.71900177 91298381.27469635 0 0 0 0 68433070.345602036 90995828.52360487 0 90995828.52360487 42720253.258102417 0 0 0 0 93238155.757459641 51886589.245734215 0 51886589.245734215 -64836052.231212616 0 0 0 0 -37855490.049846649 24028848.369897842 0 24028848.369897842 91070726.109583855 0 0 0 0 65619853.951284945 10767365.13185933 0 10767365.13185933 -2167032.300851739 0 0 0 0 111627728.91455078 -21190272.378536224 0 -21190272.378536224 183524270.60130358 0 0 0 0 74218446.031024933 112298425.62185097 0 112298425.62185097 127493553.46685982 0 0 0 0 141813331.709095 108924003.92853153 0 108924003.92853153 -272040541.05135298 0 0 0 0 211334445.87849045 -90173225.175340652 0 -90173225.175340652 95356656.887313485 0 0 0 0 221633148.35572815 35501468.852529526 0 35501468.852529526 59297529.328725815 0 0 0 0 7335669.9310609987 3931043.5104872505 0 3931043.5104872505 -5201853.689473439 0 0 0 0 -16315126.113265991 41577161.076620102 0 41577161.076620102 203678710.56266642 0 0 0 0 96753070.118804932 49704653.916923523 0 49704653.916923523 43360739.188734055 0 0 0 0 68223203.486584261 850099.91793305473 0 850099.91793305473 -1516769.464385008 0 0 0 0 152570088.6431427 17926878.474900246 0 17926878.474900246 5014312.3753575683 0 0 0 0 71876467.413015366 99138038.820244789 0 99138038.820244789 -46242447.027545929 0 0 0 0 58747263.178806305 50323827.576097608 0 50323827.576097608 -106513332.1375165 0 0 0 0 71778432.390775681 204853888.96359491 0 204853888.96359491 -83229549.128253937 0 0 0 0 258639979.67963028 110369064.03697586 0 110369064.03697586 -99247286.58206749 0 0 0 0 187299403.36258316 167730837.0669384 0 167730837.0669384 -109744034.51166368 0 0 0 0 207651480.02920914 299382398.23962212 0 299382398.23962212 -173791222.58180046 0 0 0 0 6685914.3816757202 137968853.79880524 0 137968853.79880524 -15479291.464129448 0 0 0 0 -121501720.33775139 86986672.924005508 0 86986672.924005508 -30574501.677914619 0 0 0 0 10716483.997315135 5036034.6151396325 0 5036034.6151396325 516022.08192993235 0 0 0 0 60063617.583446503 60685381.497385025 0 60685381.497385025 -264700452.74348068 0 0 0 0 121036689.99299908 124673753.49124908 0 124673753.49124908 -498234984.07363701 0 0 0 0 -319121065.95367622 39711609.905544281 0 39711609.905544281 -106005461.8829689 0 0 0 0 3517844.5374850519 2286879.7176524447 0 2286879.7176524447 624685.32021459052 0 0 0 0 330524106.06471634 -222979518.67012501 0 -222979518.67012501 174896924.23532486 0 0 0 0 260780956.37496948 332533997.75806808 0 332533997.75806808 -831515.19965744019 0 0 0 0 390708602.46965408 -204283354.64959621 0 -204283354.64959621 -61636974.057849884 0 0 0 0 107621186.01593208 -108802708.68681812 0 -108802708.68681812 124914674.92089844 0 0 0 0 132192508.81449938 -41398034.181183457 0 -41398034.181183457 -34434482.137840271 0 0 0 0 56092959.820625305 -39136471.302323341 0 -39136471.302323341 -8003421.1225147247 0 0 0 0 17076656.897091802 6485743.1025676476 0 6485743.1025676476 -719344.09710419085 0 0 0 0 28877590.024543762 19550283.593395233 0 19550283.593395233 -57200190.425533295 0 0 0 0 66099857.556743383 86787545.608463287 0 86787545.608463287 -359624857.33082294 0 0 0 0 113343213.89697075 -22735154.003492355 0 -22735154.003492355 -183012869.24300003 0 0 0 0 -51473610.562539101 -727923.11748123169 0 -727923.11748123169 -184004089.89085007 0 0 0 0 -38939604.342965126 190610775.49807644 0 190610775.49807644 -254647515.65080643 0 0 0 0 105470390.54576492 30667039.254530907 0 30667039.254530907 -25848679.643530846 0 0 0 0 40074427.846103668 27936784.743362427 0 27936784.743362427 -7250439.4435129166 0 0 0 0 13271195.039173126 17485477.538023949 0 17485477.538023949 -2849789.239025116 0 0 0 0 40224528.866809845 11991499.599855423 0 11991499.599855423 -16567832.191699982 0 0 0 0 13213715.605050087 16488988.580093682 0 16488988.580093682 -20068255.657028198 0 0 0 0 26517943.064985275 33364340.208487988 0 33364340.208487988 -15144890.610162735 0 0 0 0 55498801.598134995 4364978.5591769218 0 4364978.5591769218 -20282703.282932281 0 0 0 0 199742293.92620277 -32904997.108513832 0 -32904997.108513832 -81895975.43712616 0 0 0 0 194244338.01035309 -40071668.262440681 0 -40071668.262440681 -38944253.216332436 0 0 0 0 242956943.88560104 -62513006.587387085 0 -62513006.587387085 -143787773.28654099 0 0 0 0 286512475.86344528 -18945570.810935974 0 -18945570.810935974 -100920792.12925529 0 0 0 0 242707934.74488831 -30191480.463862419 0 -30191480.463862419 -68420157.190481186 0 0 0 0 243789810.93956876 -16818022.793317914 0 -16818022.793317914 -76042166.781570435 0 0 0 0 284852075.68660736 11800969.030248642 0 11800969.030248642 -65949955.811330795 0 0 0 0 193397471.09101105 -30925284.781277657 0 -30925284.781277657 -55352424.521918297 0 0 0 0 111334893.11822963 -8246181.678030014 0 -8246181.678030014 -41591681.40038681 0 0 0 0 221332829.74676514 -11016030.018526077 0 -11016030.018526077 -69454083.531959534 0 0 0 0 218920764.0784874 30958211.025837898 0 30958211.025837898 -45265442.77564621 0 0 0 0 133270783.96053314 27819473.64896965 0 27819473.64896965 -22703274.808400154 0 0 0 0 270671572.01588821 86918425.49783802 0 86918425.49783802 -18060790.249382019 0 0 0 0 332963242.8696804 -22512284.938051224 0 -22512284.938051224 -42422821.760887146 0 0 0 0 152984750.42586899 12140621.307731628 0 12140621.307731628 45861786.099651337 0 0 0 0 238068424.34516907 -362370342.78781414 0 -362370342.78781414 27732598.599573135 0 0 0 0 465864720.99656296 -133647350.62223625 0 -133647350.62223625 -53106649.211959362 0 0 0 0 279904344.8090744 -87822018.091748238 0 -87822018.091748238 -28844593.163621902 0 0 0 0 375800077.3177948 -22675158.421193123 0 -22675158.421193123 -115396746.80411911 0 0 0 0 2808512.8380219545 2568363.898641455 0 2568363.898641455 2629008.620234875 0 0 0 0 637203400.27027702 -388490493.91304064 0 -388490493.91304064 -20615052.561822891 0 0 0 0 246364074.978055 277448083.49193692 0 277448083.49193692 563362110.16710281 0 0 0 0 978460731.98207474 -46301831.743123055 0 -46301831.743123055 -129851930.05355787 0 0 0 0 263709366.60198212 -112274026.9298172 0 -112274026.9298172 -7114827.9009802341 0 0 0 0 454399536.49851227 520398814.03795528 0 520398814.03795528 240611987.74247742 0 0 0 0 1072637.4065489992 -864077.09959715046 0 -864077.09959715046 -429344.45001773676 0 0 0 0 175259988.55563354 -604442693.23597145 0 -604442693.23597145 734183095.47733688 0 0 0 0 135840414.7431736 46197542.748554707 0 46197542.748554707 -17502663.674474716 0 0 0 0 1487435.2563577667 -5324690.060373839 0 -5324690.060373839 -1957196.2695934027 0 0 0 0 4122985.9548160359 2474283.3301385418 0 2474283.3301385418 -1927977.1044428435 0 0 0 0 2282237.235748291 -2220057.488948822 0 -2220057.488948822 -15713001.706589937 0 0 0 0 3687020.9934616089 38367704.38646698 0 38367704.38646698 19751616.217864037 0 0 0 0 127550363.02487326 48367288.682277918 0 48367288.682277918 -16024392.929561615 0 0 0 0 2001116.6817893982 -18979255.236160278 0 -18979255.236160278 -49201158.100839615 0 0 0 0 4795286.6687765978 1405928.1424461612 0 1405928.1424461612 -3238671.1698914771 0 0 0 0 303413.40353393555 -8864742.955668211 0 -8864742.955668211 -25641567.660751343 0 0 0 0 5141377.4547080994 11370717.296750069 0 11370717.296750069 -867698.09923648834 0 0 0 0 -4514679.0272772312 -26337635.985423088 0 -26337635.985423088 -34709869.4037323 0 0 0 0 4641208.9620246887 -2341690.176469326 0 -2341690.176469326 -13816729.836462975 0 0 0 0 2128990.9847764969 -2541123.7958234549 0 -2541123.7958234549 -12783154.294260979 0 0 0 0 4028736.8401810303 -4693245.4289869452 0 -4693245.4289869452 -3172345.8066923562 0 0 0 0 58764541.773830891 30535306.94877851 0 30535306.94877851 -20605087.949262619 0 0 0 0 -28955226.409942627 -17191406.433190823 0 -17191406.433190823 161408426.52700329 0 0 0 0 12495792.858446598 -75780335.013893008 0 -75780335.013893008 180397058.10315895 0 0 0 0 394424116.47421646 45261031.654169083 0 45261031.654169083 218598768.79777813 0 0 0 0 126010324.01475477 -184555338.5386833 0 -184555338.5386833 489558285.34824562 0 0 0 0 86321388.290981293 -60487208.947075844 0 -60487208.947075844 168075696.0974369 0 0 0 0 7311937.7245330811 -108489070.22041368 0 -108489070.22041368 163310036.88248634 0 0 0 0 26995790.978157043 -127951391.79886079 0 -127951391.79886079 236905083.95119286 0 0 0 0 307186838.9708252 -207448987.09428978 0 -207448987.09428978 59554939.656082153 0 0 0 0 304881738.90888214 -167913825.58512425 0 -167913825.58512425 18174789.189721107 0 0 0 0 120445488.97465611 -96604739.632583886 0 -96604739.632583886 -3975514.0639004707 0 0 0 0 399734965.11969376 -15862628.066356182 0 -15862628.066356182 -1340196.6190640926 0 0 0 0 423965502.66565013 -225101855.67189771 0 -225101855.67189771 -36952870.541570187 0 0 0 0 549474383.09140396 -364063723.48286724 0 -364063723.48286724 141694184.48684525 0 0 0 0 256609066.57740021 -172923204.04925251 0 -172923204.04925251 119186554.49326468 0 0 0 0 550961841.06148934 101742730.02810757 0 101742730.02810757 375155728.35438633 0 0 0 0 1575999.3675721772 1165360.454092511 0 1165360.454092511 739128.89833428338 0 0 0 0 473843863.41694069 -474038550.97744727 0 -474038550.97744727 336098923.08449268 0 0 0 0 604368802.39107704 -156927603.93089819 0 -156927603.93089819 -75803906.760379791 0 0 0 0 457760959.45488358 -350012551.07573128 0 -350012551.07573128 -115211414.77677155 0 0 0 0 90180771.237018585 -292152509.18417454 0 -292152509.18417454 204932920.42803574 0 0 0 0 714284253.35984802 -528661349.35556698 0 -528661349.35556698 -4066644.2930603027 0 0 0 0 781661859.22871971 -475553821.56742334 0 -475553821.56742334 121291379.30281067 0 0 0 0 330468902.5490036 -291435097.91988993 0 -291435097.91988993 263415989.5995512 0 0 0 0 -118307427.34715652 24383187.582616091 0 24383187.582616091 347920954.34011364 0 0 0 0 337471.00192037155 717481.11866487004 0 717481.11866487004 2687009.6662744507 0 0 0 0 834762.36923016631 622535.77000389807 0 622535.77000389807 6188083.5711281495 0 0 0 0 -42667147.141756058 -68955269.164828062 0 -68955269.164828062 285498194.63537717 0 0 0 0 422285862.20206642 -201046040.67059708 0 -201046040.67059708 -24221391.860964775 0 0 0 0 279006662.29328442 -14108367.141919285 0 -14108367.141919285 -78070302.909849167 0 0 0 0 986261878.26483154 -427640693.19715834 0 -427640693.19715834 -161830222.46732908 0 0 0 0 -137742830.68869057 5476948.9186909469 0 5476948.9186909469 370671984.08703721 0 0 0 0 412507189.22160339 -553670184.93536186 0 -553670184.93536186 548553827.94253743 0 0 0 0 1824840.240428105 -404233.35417875648 0 -404233.35417875648 5342474.1305821072 0 0 0 0 243707532.92726707 35047191.169422187 0 35047191.169422187 12385698.145766199 0 0 0 0 -90447820.973461151 5388274.9833230972 0 5388274.9833230972 69932179.786487579 0 0 0 0 -28445342.209774017 53357718.955388546 0 53357718.955388546 59923901.261850357 0 0 0 0 139873895.21165848 61207857.628455162 0 61207857.628455162 5551731.4677882195 0 0 0 0 3631420.1349009685 -3063261.715045793 0 -3063261.715045793 27733.442042591632 0 0 0 0 1650240842.0225754 -995093565.73824024 0 -995093565.73824024 591259422.83437741 0 0 0 0 829877687.45766068 150961682.46419579 0 150961682.46419579 -310915222.35644668 0 0 0 0 1289826680.0705986 -1175888177.735538 0 -1175888177.735538 682191428.79304588 0 0 0 0 1036372868.855669 -209002683.23488835 0 -209002683.23488835 707771860.17426836 0 0 0 0 1227635069.4260597 -69048018.450239122 0 -69048018.450239122 342360929.29735637 0 0 0 0 1632112480.869956 -994311332.99406385 0 -994311332.99406385 644245290.21497464 0 0 0 0 698521343.55557442 -329020294.90729725 0 -329020294.90729725 255041011.83658051 0 0 0 0 793908145.13169098 -95505457.835524797 0 -95505457.835524797 -127484079.94796944 0 0 0 0 291582687.03830528 155545884.88594294 0 155545884.88594294 13086203.404927015 0 0 0 0 983258940.33350182 -275912102.70694542 0 -275912102.70694542 18871065.273085117 0 0 0 0 533073120.64328098 -276672513.53531086 0 -276672513.53531086 50497955.846745014 0 0 0 0 448140815.6935482 -342844533.70845628 0 -342844533.70845628 90612076.703998566 0 0 0 0 579496504.89373779 -322092522.61002612 0 -322092522.61002612 93832480.976499498 0 0 0 0 462489552.31838608 -315994600.37977386 0 -315994600.37977386 138837130.00866795 0 0 0 0 282920800.35205269 -338507973.0361805 0 -338507973.0361805 136830675.19070733 0 0 0 0 291119628.60913277 -251174045.4665513 0 -251174045.4665513 192165384.54063225 0 0 0 0 295384568.44312668 -288815770.18941498 0 -288815770.18941498 200565922.24020338 0 0 0 0 333380694.63398743 -215932265.07173586 0 -215932265.07173586 130805973.12985611 0 0 0 0 615974557.58610344 -161625255.67648888 0 -161625255.67648888 139908986.74924088 0 0 0 0 278047784.08477402 -299353005.86696482 0 -299353005.86696482 523011647.58029747 0 0 0 0 298787686.90456009 -660349076.5781846 0 -660349076.5781846 453108811.41971588 0 0 0 0 118342235.99211121 -277648413.68770266 0 -277648413.68770266 283335598.32146215 0 0 0 0 246853273.61151314 289542227.1007719 0 289542227.1007719 239093536.69751072 0 0 0 0 107401394.7436552 -190119497.91297555 0 -190119497.91297555 108152584.2819767 0 0 0 0 2745336.4683495853 2505428.383669965 0 2505428.383669965 2274206.6048890166 0 0 0 0 428950118.20114899 -354929154.99137402 0 -354929154.99137402 107189012.87519836 0 0 0 0 400374794.97428894 -218658822.89002132 0 -218658822.89002132 -83497340.193572998 0 0 0 0 1478121.8826992493 1106715.0121618761 0 1106715.0121618761 391717.22948638722 0 0 0 0 312691478.91828346 -319278939.8774786 0 -319278939.8774786 75109342.926801682 0 0 0 0 219595390.90572166 -41908671.011478901 0 -41908671.011478901 15958733.336204529 0 0 0 0 180438209.59706211 -100899747.9547525 0 -100899747.9547525 146625035.16218567 0 0 0 0 151885203.13960266 -19365896.469929695 0 -19365896.469929695 50677074.895933151 0 0 0 0 93193566.890632629 11017561.563482285 0 11017561.563482285 73302237.979923248 0 0 0 0 261316242.57807064 67377553.580347538 0 67377553.580347538 -256448729.67706299 0 0 0 0 -143053062.58036041 219424480.7836113 0 219424480.7836113 -105668670.70782661 0 0 0 0 271365967.76122093 92682775.967278719 0 92682775.967278719 -603882021.23971939 0 0 0 0 255701864.20122528 794606.4033164978 0 794606.4033164978 -149576476.90666389 0 0 0 0 -135814587.5431557 -234718443.519898 0 -234718443.519898 187485509.84446526 0 0 0 0 -114880311.35718679 277613417.35527337 0 277613417.35527337 -192241835.1628437 0 0 0 0 92163580.879421234 -313580073.61729622 0 -313580073.61729622 -212376416.09926462 0 0 0 0 213596859.45127869 -71875298.560833931 0 -71875298.560833931 214031055.28969389 0 0 0 0 -124918754.83633614 -200118883.46675682 0 -200118883.46675682 214640662.3541584 0 0 0 0 11292314.512504578 -69398730.715450287 0 -69398730.715450287 129979578.64750481 0 0 0 0 -64068069.098832607 -262746718.8980763 0 -262746718.8980763 581170756.22800446 0 0 0 0 190960956.22422981 -413549707.0932498 0 -413549707.0932498 157315756.63862038 0 0 0 0 165333004.24682617 -371471266.05221462 0 -371471266.05221462 308288024.19818163 0 0 0 0 419081521.95144176 -439704670.79195356 0 -439704670.79195356 159759876.80506516 0 0 0 0 307807543.94048595 -291354517.19554973 0 -291354517.19554973 168714544.80873871 0 0 0 0 70416718.410427094 -214774104.33202004 0 -214774104.33202004 182879632.06517982 0 0 0 0 -221573676.87047005 108143339.19179535 0 108143339.19179535 -174082899.87083578 0 0 0 0 642988475.87297249 -524856713.09452248 0 -524856713.09452248 -107803688.52293968 0 0 0 0 474785591.90325546 -349521852.5472374 0 -349521852.5472374 -20168890.269314766 0 0 0 0 503313255.1215992 -738336470.30916309 0 -738336470.30916309 482146158.42422295 0 0 0 0 132840544.52347374 -681234340.95610094 0 -681234340.95610094 1329597450.1119709 0 0 0 0 1044217333.1881876 -1046217718.2361126 0 -1046217718.2361126 376406422.05323887 0 0 0 0 1595045.2603513859 -2263619.4367457153 0 -2263619.4367457153 777864.14553008648 0 0 0 0 875806989.60376287 -276310231.20106637 0 -276310231.20106637 -586618158.77306938 0 0 0 0 -792050.48571972223 -2526676.2769038407 0 -2526676.2769038407 5236725.0028938353 0 0 0 0 668490159.24108028 -1144980277.8793592 0 -1144980277.8793592 373090836.4281683 0 0 0 0 -440892228.38565636 313766181.03295183 0 313766181.03295183 859185469.77563667 0 0 0 0 -373542791.91957843 46524149.188973427 0 46524149.188973427 1383654560.5581365 0 0 0 0 -265733225.39640045 66966474.556769848 0 66966474.556769848 -23271760.812060177 0 0 0 0 -428867107.4003706 -60944865.605406523 0 -60944865.605406523 906459339.34698105 0 0 0 0 -596382.80721919471 -5263912.5615960881 0 -5263912.5615960881 9576617.2071085032 0 0 0 0 -637951352.74602556 -827856078.68730175 0 -827856078.68730175 -41457720.330721825 0 0 0 0 -522648022.53283751 -494540077.55381036 0 -494540077.55381036 -44015357.770518303 0 0 0 0 -37274383.959789276 -268483328.09680915 0 -268483328.09680915 -85740600.612171054 0 0 0 0 -297891486.95491385 -42231152.70459491 0 -42231152.70459491 453570568.84238243 0 0 0 0 -198947494.77173567 -579659755.643641 0 -579659755.643641 958167567.59887791 0 0 0 0 235034082.76747227 -385773910.30765009 0 -385773910.30765009 379368514.31231213 0 0 0 0 -115401585.61539793 -90263014.257165313 0 -90263014.257165313 174787335.08058453 0 0 0 0 515219421.24507141 -224989786.92521381 0 -224989786.92521381 -99191944.184303761 0 0 0 0 479388468.12767982 -383962944.18762565 0 -383962944.18762565 47633257.796613693 0 0 0 0 453348819.82707405 -330787959.43697023 0 -330787959.43697023 43686733.298785567 0 0 0 0 239353799.48487043 -387148944.98458308 0 -387148944.98458308 183076512.70155716 0 0 0 0 457046194.04694748 -497776520.87347817 0 -497776520.87347817 237193730.12167692 0 0 0 0 677297858.47951221 -710323981.48278391 0 -710323981.48278391 202414270.33614635 0 0 0 0 383076047.85959435 -546745751.70040035 0 -546745751.70040035 212779667.62361968 0 0 0 0 233086138.90304565 -701841703.14165449 0 -701841703.14165449 523509643.14984655 0 0 0 0 -88294616.88981986 -654159663.04139757 0 -654159663.04139757 567212245.99920213 0 0 0 0 1348470719.1782637 -798075266.52880275 0 -798075266.52880275 174323687.54180241 0 0 0 0 449830157.89574242 -1138824550.0319386 0 -1138824550.0319386 716717198.64296913 0 0 0 0 -291980456.73078728 -249679297.08356285 0 -249679297.08356285 761940584.05577695 0 0 0 0 99732876.430332661 -340397433.94322157 0 -340397433.94322157 -462118809.49534321 0 0 0 0 5847849.7678533159 -10723728.984481262 0 -10723728.984481262 1435509.6636169511 0 0 0 0 1660581.1213363353 -2127419.0828240765 0 -2127419.0828240765 1639208.3734329534 0 0 0 0 179029477.69754696 -429562299.22249877 0 -429562299.22249877 -1035860644.6148828 0 0 0 0 8133304.0988801289 -8465812.5989024229 0 -8465812.5989024229 7900.9327522311833 0 0 0 0 -178204253.92208648 -256618509.83352387 0 -256618509.83352387 111000849.11128259 0 0 0 0 -68948667.906585157 -787394391.04201901 0 -787394391.04201901 582783445.2384963 0 0 0 0 20604163.6665411 -675284932.1940825 0 -675284932.1940825 66667042.47481519 0 0 0 0 -189091402.96818399 -473078312.76664209 0 -473078312.76664209 432643706.9304266 0 0 0 0 -39009471.792017341 -700951548.96832991 0 -700951548.96832991 583425061.59011912 0 0 0 0 190049364.218279 -1178581202.1329503 0 -1178581202.1329503 1285434547.1186247 0 0 0 0 1183331546.7544572 -144758722.95264655 0 -144758722.95264655 252680835.17636427 0 0 0 0 1095158682.5989535 -1003255252.5292816 0 -1003255252.5292816 416998263.27349281 0 0 0 0 1348127336.5365319 -400066007.85190028 0 -400066007.85190028 -85449978.327635348 0 0 0 0 198569862.96921766 -422911750.94580245 0 -422911750.94580245 42443544.855696797 0 0 0 0 -145951221.84360814 -60951984.845540106 0 -60951984.845540106 -646346896.61097455 0 0 0 0 478961302.83694696 -683280861.74121928 0 -683280861.74121928 -336470236.34007442 0 0 0 0 304983671.80490148 138638792.37923127 0 138638792.37923127 -363561177.35716712 0 0 0 0 944945213.50157785 -51152339.422005415 0 -51152339.422005415 -741532310.61307371 0 0 0 0 -466628020.16289282 144999478.99460053 0 144999478.99460053 -728743788.10123181 0 0 0 0 380864814.86676741 -453546989.60761333 0 -453546989.60761333 -1838475271.8744884 0 0 0 0 8265918.2717834525 -5826638.2872904008 0 -5826638.2872904008 -659249.83797930647 0 0 0 0 2150906036.0522146 -190389492.03658196 0 -190389492.03658196 -512086784.47009939 0 0 0 0 2156286052.6903048 88191716.204741299 0 88191716.204741299 -1296200089.5420823 0 0 0 0 1209348352.6650405 687009975.92397928 0 687009975.92397928 -1656178911.1344275 0 0 0 0 3850628.9830811182 -2041832.2854902677 0 -2041832.2854902677 -401691.44026467687 0 0 0 0 280612858.21490288 -392971503.10697162 0 -392971503.10697162 431790999.30513191 0 0 0 0 1024647865.6290537 595454710.54427052 0 595454710.54427052 -951303949.93406641 0 0 0 0 1936156005.957232 68319587.600531727 0 68319587.600531727 -684295599.04531181 0 0 0 0 2205293193.7887335 174764994.22844526 0 174764994.22844526 -988613817.808231 0 0 0 0 1476715475.1401978 231202462.1234867 0 231202462.1234867 -523593922.87388313 0 0 0 0 2204112301.6267576 -309567136.38888288 0 -309567136.38888288 -147010404.47487593 0 0 0 0 1577558908.2239914 -209567806.85586986 0 -209567806.85586986 178408018.85484624 0 0 0 0 2205110599.3505402 -583558485.26315486 0 -583558485.26315486 344127289.69420379 0 0 0 0 1708748558.1602993 -762764055.96867907 0 -762764055.96867907 555022060.92162609 0 0 0 0 1390206910.0639856 -543299373.66274667 0 -543299373.66274667 782731065.16783071 0 0 0 0 1267361074.376507 -1099519737.5456522 0 -1099519737.5456522 687932604.71708369 0 0 0 0 1285208274.1662073 -769081213.54312658 0 -769081213.54312658 -748304135.3849566 0 0 0 0 -412370379.39360595 -330929269.12264264 0 -330929269.12264264 1667599683.1505075 0 0 0 0 -359794.77812941326 -2662440.7386308238 0 -2662440.7386308238 5030491.341815602 0 0 0 0 1723403704.1438684 -813992652.87962425 0 -813992652.87962425 729455620.26195538 0 0 0 0 2145602090.0121946 -802340302.99273396 0 -802340302.99273396 72627916.939530015 0 0 0 0 -655031203.63710177 -251834644.70128679 0 -251834644.70128679 839936259.92888975 0 0 0 0 414207553.33745122 -357614477.6627543 0 -357614477.6627543 1080624391.9871588 0 0 0 0 -14671717.874791145 170539195.88110256 0 170539195.88110256 531604750.10126901 0 0 0 0 132939286.87412262 -760616673.77260303 0 -760616673.77260303 2614266942.3332586 0 0 0 0 1630202954.4638996 -1276864913.4388289 0 -1276864913.4388289 1971765886.2116137 0 0 0 0 2004193288.8660765 -435173397.72875643 0 -435173397.72875643 1513767463.0735703 0 0 0 0 2204030879.0637817 -913964863.41743374 0 -913964863.41743374 1189045499.3768501 0 0 0 0 1821656669.5237961 -1193161056.7542219 0 -1193161056.7542219 994912639.04218316 0 0 0 0 2088813724.1812644 -601725815.7864933 0 -601725815.7864933 581238740.39607453 0 0 0 0 49688608.903312683 -25096614.577539444 0 -25096614.577539444 44946441.59651491 0 0 0 0 48586886.878261566 -32550655.791260719 0 -32550655.791260719 34103072.136932373 0 0 0 0 38023933.546600342 -36303073.979036331 0 -36303073.979036331 34196539.217116848 0 0 0 0 84342872.444351196 -32334993.925937653 0 -32334993.925937653 16314829.888941765 0 0 0 0 91870288.022554398 -16852656.024290323 0 -16852656.024290323 16987493.118877411 0 0 0 0 92657240.13401413 -23444885.696406364 0 -23444885.696406364 14453903.538702011 0 0 0 0 79352079.86920929 -17670499.272643089 0 -17670499.272643089 15986290.491558075 0 0 0 0 68119828.902015686 -23107966.564250946 0 -23107966.564250946 30011315.725121498 0 0 0 0 49769202.223560035 -32048690.188121744 0 -32048690.188121744 26028282.642072678 0 0 0 0 86477297.107620239 -16699422.233192444 0 -16699422.233192444 12830925.383973122 0 0 0 0 20485286.106510162 -4491971.082285881 0 -4491971.082285881 -11548882.413049698 0 0 0 0 40532322.907925963 -1348822.3096801369 0 -1348822.3096801369 -4263129.9546159105 0 0 0 0 70559115.350654602 -13410858.551103592 0 -13410858.551103592 14678911.255193233 0 0 0 0 48358036.725845337 -28437925.826677322 0 -28437925.826677322 -18602750.25110817 0 0 0 0 27598476.112159729 1476422.915309906 0 1476422.915309906 -24259566.140125275 0 0 0 0 -19516220.638725281 32788755.924657822 0 32788755.924657822 -31699630.509667158 0 0 0 0 -12629667.491039276 -32214038.443926811 0 -32214038.443926811 -24599582.766551495 0 0 0 0 -15631432.266702652 -19143650.729644299 0 -19143650.729644299 -77822492.193126678 0 0 0 0 -31689973.426628113 -38482664.511777878 0 -38482664.511777878 -88416538.560337067 0 0 0 0 38377757.006122589 -40040002.549402773 0 -40040002.549402773 -33678301.510626793 0 0 0 0 2306815.5578613281 -71412360.959041595 0 -71412360.959041595 -181353777.12898636 0 0 0 0 10189741.604309082 50989143.509487152 0 50989143.509487152 -67962409.479805946 0 0 0 0 58888050.10118103 25673454.880178452 0 25673454.880178452 -149466740.03480148 0 0 0 0 50998378.056694031 -9490810.8132457733 0 -9490810.8132457733 45342919.296075642 0 0 0 0 50818059.250419617 -13039496.112578392 0 -13039496.112578392 24650029.214119911 0 0 0 0 40465508.616409346 -15053453.921352241 0 -15053453.921352241 -7659993.3336035535 0 0 0 0 28946675.722866058 -19892601.817279577 0 -19892601.817279577 88584917.881649017 0 0 0 0 45076204.910085671 -5101566.2092112843 0 -5101566.2092112843 -10301052.060639897 0 0 0 0 33123210.386369705 -17868058.79380846 0 -17868058.79380846 -41281045.563031912 0 0 0 0 71081682.967594147 -62455729.082364082 0 -62455729.082364082 -125857777.70105195 0 0 0 0 32749289.345333263 -20121944.458735775 0 -20121944.458735775 -5519851.2859775489 0 0 0 0 52868428.723344184 -3829209.678098687 0 -3829209.678098687 -18631038.277614016 0 0 0 0 44996686.256928921 76150263.302373022 0 76150263.302373022 130921339.66640186 0 0 0 0 34911423.846288681 -48343470.290418625 0 -48343470.290418625 48383059.13519001 0 0 0 0 31351925.98614502 -35836521.006671906 0 -35836521.006671906 76477763.849839211 0 0 0 0 50160704.867448807 -33601532.139839172 0 -33601532.139839172 19389216.596411705 0 0 0 0 -11580674.89998436 -52441236.876269817 0 -52441236.876269817 15644934.267329216 0 0 0 0 -158151380.39450359 88574057.185869932 0 88574057.185869932 13680850.594516754 0 0 0 0 87593434.845737457 6594939.7035961151 0 6594939.7035961151 32821184.207765579 0 0 0 0 84839343.670982361 62062295.073132515 0 62062295.073132515 -276336287.79277897 0 0 0 0 46875208.909072876 1533903.19739151 0 1533903.19739151 -188731459.95005131 0 0 0 0 -71923749.489916801 -145152999.62824297 0 -145152999.62824297 -121375914.36310577 0 0 0 0 43771506.417461395 2290413.7874288559 0 2290413.7874288559 -36805397.608587265 0 0 0 0 85073395.151397705 -47819855.76012373 0 -47819855.76012373 -97414621.433648586 0 0 0 0 55983596.743925095 -54321388.088262081 0 -54321388.088262081 264276.47511863708 0 0 0 0 107563845.13887405 -38066669.628348827 0 -38066669.628348827 -25178139.825507164 0 0 0 0 88694027.776078224 -29804375.90361619 0 -29804375.90361619 -16544363.637335777 0 0 0 0 124507718.78023529 -39918264.456832409 0 -39918264.456832409 -33498197.450403214 0 0 0 0 149238211.43613434 10056502.625613213 0 10056502.625613213 -2906429.4839344025 0 0 0 0 122282970.70936584 61147650.547549248 0 61147650.547549248 21346943.834946632 0 0 0 0 44613853.039402008 1821621.786965847 0 1821621.786965847 8866983.7858211994 0 0 0 0 110454957.88942337 -9399422.5961840153 0 -9399422.5961840153 -2220453.0057172775 0 0 0 0 14016527.617639169 345539.68531948514 0 345539.68531948514 -2570159.0903910138 0 0 0 0 106737844.9504776 -14926648.95836544 0 -14926648.95836544 -10419032.744506836 0 0 0 0 115697569.38080788 -21487849.247964144 0 -21487849.247964144 -8885511.0881404877 0 0 0 0 19849051.184250303 18532635.65557998 0 18532635.65557998 5876467.3294360302 0 0 0 0 12540665.805274963 128104583.3327136 0 128104583.3327136 78967374.281698704 0 0 0 0 116748800.13178253 -35016930.44824791 0 -35016930.44824791 -51863148.614395142 0 0 0 0 146413868.60963535 -60249991.266715169 0 -60249991.266715169 -55024944.297995567 0 0 0 0 8319549.7420037389 -63319.641716346145 0 -63319.641716346145 -1924192.2649844792 0 0 0 0 -2006460.1237239838 53706666.870581388 0 53706666.870581388 -7577710.1124362946 0 0 0 0 6289259.2652664185 31947375.357623577 0 31947375.357623577 -20356416.913048267 0 0 0 0 10647996.797939301 45155993.318116188 0 45155993.318116188 16057723.84732151 0 0 0 0 -35324388.584281921 27506885.515807629 0 27506885.515807629 31855918.507405281 0 0 0 0 -10572210.082540512 19330359.554114342 0 19330359.554114342 63365829.671131134 0 0 0 0 -10491885.815093994 19514280.008724689 0 19514280.008724689 12547783.446770668 0 0 0 0 22383301.478061594 16660555.769011395 0 16660555.769011395 3302069.4170064796 0 0 0 0 52762928.275495529 14231634.931473732 0 14231634.931473732 14558024.229291916 0 0 0 0 -36110154.946449041 36178744.659085125 0 36178744.659085125 17750565.443079948 0 0 0 0 -1263207.4947013855 44350365.233773708 0 44350365.233773708 -30021987.129118919 0 0 0 0 389897.64243545383 13607531.365941774 0 13607531.365941774 1999637.1897674075 0 0 0 0 -21723341.697256088 29665682.89364624 0 29665682.89364624 3392799.3830022812 0 0 0 0 15471572.528619766 16433080.062134743 0 16433080.062134743 -2602518.8754882812 0 0 0 0 11039782.707359314 23569168.707339287 0 23569168.707339287 -8227384.261259079 0 0 0 0 -40685842.334629059 39712819.113654137 0 39712819.113654137 11250097.611226082 0 0 0 0 -28251121.440692902 -39465695.242771149 0 -39465695.242771149 11480081.856222153 0 0 0 0 74211293.070555687 -119772.94926786423 0 -119772.94926786423 -4050390.450258255 0 0 0 0 46355503.396263123 -16690254.677779198 0 -16690254.677779198 11130886.825739861 0 0 0 0 97107941.244333267 -16356270.054113626 0 -16356270.054113626 11858624.560850143 0 0 0 0 8837355.8818896301 289292.60343881883 0 289292.60343881883 -3835160.6871910244 0 0 0 0 95610007.213552475 -39824302.70988822 0 -39824302.70988822 16256643.915992737 0 0 0 0 123831916.91705322 -27082844.553477287 0 -27082844.553477287 -10285906.663416147 0 0 0 0 22714221.142433781 -3791386.5709129148 0 -3791386.5709129148 441794.57059725001 0 0 0 0 49154507.079547882 6152146.1566696167 0 6152146.1566696167 8087968.0031547546 0 0 0 0 67790625.292427063 3353989.4078273773 0 3353989.4078273773 -984064.94875335693 0 0 0 0 25660029.865011755 3641418.9191857977 0 3641418.9191857977 -2722820.7705614408 0 0 0 0 11702789.191342354 154697.64228057861 0 154697.64228057861 -2794427.148897171 0 0 0 0 17548474.62270904 4570455.0150150955 0 4570455.0150150955 57662.835172452033 0 0 0 0 10043658.380503774 -1751356.7932701111 0 -1751356.7932701111 -4849676.5712704659 0 0 0 0 11244982.645416692 1125829.1339054108 0 1125829.1339054108 -7423403.3791679442 0 0 0 0 13172954.941455334 4369058.30701828 0 4369058.30701828 -8946180.1213436127 0 0 0 0 13836079.993545532 2179482.7025203705 0 2179482.7025203705 -12432425.123254776 0 0 0 0 8944373.264188081 -2162779.216103198 0 -2162779.216103198 -545483.01209888724 0 0 0 0 24523574.094779372 23980379.80500992 0 23980379.80500992 -4511839.1327568749 0 0 0 0 12854564.559010945 5695929.2864484787 0 5695929.2864484787 -6123566.7088469267 0 0 0 0 41166543.954683304 -15882930.628167629 0 -15882930.628167629 28213760.12597084 0 0 0 0 25651881.851484664 -4308718.3023776263 0 -4308718.3023776263 -5206782.7002853714 0 0 0 0 24990248.644657966 -3791811.3295890954 0 -3791811.3295890954 -7172954.137035463 0 0 0 0 54293928.159568787 -1464942.7303209305 0 -1464942.7303209305 -9502749.6620559692 0 0 0 0 7999523.0518393517 -910291.83899593353 0 -910291.83899593353 -7454920.2457199097 0 0 0 0 25596369.583204199 -955271.10558334063 0 -955271.10558334063 -162682.59356196783 0 0 0 0 63823998.709182739 -19769969.616607666 0 -19769969.616607666 -28374504.329645157 0 0 0 0 88564098.895352364 -29346559.808127642 0 -29346559.808127642 -35036169.481330872 0 0 0 0 46668528.52709198 473976.82375240326 0 473976.82375240326 -3567296.0223350525 0 0 0 0 83966343.837127686 -48614781.993636131 0 -48614781.993636131 -19284610.902959824 0 0 0 0 15710339.597916087 -1747141.7612319607 0 -1747141.7612319607 -3455089.2644957621 0 0 0 0 37826446.868457794 -3791006.0479784012 0 -3791006.0479784012 -3771355.3695913553 0 0 0 0 46590881.719363213 -3652572.9563413933 0 -3652572.9563413933 -1597975.5924682617 0 0 0 0 22455145.219045375 -1950872.3253501318 0 -1950872.3253501318 -1454255.9045021255 0 0 0 0 16220960.993248988 2683200.8676569797 0 2683200.8676569797 -2750274.7305205977 0 0 0 0 75016460.940353394 -15400881.921147346 0 -15400881.921147346 -7102457.1706056595 0 0 0 0 4084690.4105336126 400672.655957398 0 400672.655957398 -1471311.7667617835 0 0 0 0 55648204.149103165 -5421072.0928525925 0 -5421072.0928525925 -18196156.365262985 0 0 0 0 33121967.86755085 338307.62299013138 0 338307.62299013138 -19449855.990328789 0 0 0 0 13549881.207069397 -4390530.7773170471 0 -4390530.7773170471 8292092.9423160553 0 0 0 0 82924278.129619598 -26743394.313729763 0 -26743394.313729763 -15333704.188472748 0 0 0 0 82971404.728464127 -2812175.9117679596 0 -2812175.9117679596 -46112902.322628021 0 0 0 0 52924454.13111496 -2208218.0537834167 0 -2208218.0537834167 -42682130.998538971 0 0 0 0 42936727.957057953 11874433.074703693 0 11874433.074703693 -60807136.616926193 0 0 0 0 20446585.208735704 14260261.832346022 0 14260261.832346022 -17465595.835262299 0 0 0 0 56364240.859888077 7606763.4355106354 0 7606763.4355106354 -25066987.064500809 0 0 0 0 51998284.634765625 -5910771.9091663361 0 -5910771.9091663361 -23058772.061069489 0 0 0 0 6652592.2648048401 19023523.056512833 0 19023523.056512833 27983319.593966007 0 0 0 0 6769998.4902114868 8627581.8274488449 0 8627581.8274488449 5624563.4057030678 0 0 0 0 6240675.9619483948 10995004.536142349 0 10995004.536142349 21531041.289606094 0 0 0 0 4504922.4769420624 5800254.11049366 0 5800254.11049366 11480976.190024853 0 0 0 0 1558958.5802536011 9844109.8549785614 0 9844109.8549785614 5298568.5297546387 0 0 0 0 805528.11734771729 17841418.650575638 0 17841418.650575638 282834.44419908524 0 0 0 0 815526.87435150146 16189338.052555084 0 16189338.052555084 19710072.189516068 0 0 0 0 -10600708.589933395 31624696.059314728 0 31624696.059314728 8391485.5534591675 0 0 0 0 -5344750.3486099243 -1136083.5310707092 0 -1136083.5310707092 5194849.9756960869 0 0 0 0 3537699.2473258972 10485961.767562866 0 10485961.767562866 3929107.2096405029 0 0 0 0 10786190.756417619 2745933.9757316001 0 2745933.9757316001 -1218327.0035883542 0 0 0 0 7703952.525302887 -12384122.340486526 0 -12384122.340486526 6811991.950088501 0 0 0 0 9053764.3001403809 6321253.3149356842 0 6321253.3149356842 -8176488.0569763184 0 0 0 0 7215636.0157461166 19110523.593271971 0 19110523.593271971 27132888.384857178 0 0 0 0 -122373926.51942444 32855588.819717407 0 32855588.819717407 -25230251.260354996 0 0 0 0 1551424.100937238 3008825.0367309269 0 3008825.0367309269 1099056.8718345808 0 0 0 0 -23509623.483978271 103229948.00231266 0 103229948.00231266 -77047937.878511429 0 0 0 0 8807980.0628452301 -14097631.230077267 0 -14097631.230077267 -94884346.597564697 0 0 0 0 9852122.0223350525 -11886624.757141113 0 -11886624.757141113 -1415774.7672481537 0 0 0 0 17139592.220275879 3786797.5679225922 0 3786797.5679225922 -59802874.126333237 0 0 0 0 1086618.4209888019 274275.43963128328 0 274275.43963128328 -477342.22846105229 0 0 0 0 1909199.9256208744 -1514431.0485809743 0 -1514431.0485809743 -1303340.5825454881 0 0 0 0 -16066273.958969116 285111.09226989746 0 285111.09226989746 21342452.644417048 0 0 0 0 -43007155.199090958 43390599.584845066 0 43390599.584845066 -33464185.6822052 0 0 0 0 43066925.672084808 -28596037.474014282 0 -28596037.474014282 -2843200.2413717508 0 0 0 0 -49657189.32695663 -68818100.647536576 0 -68818100.647536576 5572070.2026901245 0 0 0 0 -77960.145885467529 23415326.775547028 0 23415326.775547028 -97602568.962148666 0 0 0 0 -4723551.1496317387 -38504501.719844997 0 -38504501.719844997 -45210763.619737625 0 0 0 0 206851919.44287872 -21403648.182392836 0 -21403648.182392836 -51720427.448074341 0 0 0 0 142367601.30796814 120214432.05539322 0 120214432.05539322 -36977023.904014349 0 0 0 0 4753898.0143904686 48716284.832199812 0 48716284.832199812 17829659.354446411 0 0 0 0 80029889.763065338 -29947121.363344669 0 -29947121.363344669 -20996068.446619034 0 0 0 0 30384693.043460846 -31672057.805574417 0 -31672057.805574417 13896896.580943108 0 0 0 0 99072407.476818085 -93828141.095445633 0 -93828141.095445633 62933851.640668869 0 0 0 0 505992.89803142101 -248974.3854381172 0 -248974.3854381172 -268466.75547034666 0 0 0 0 33238719.653156281 -10139635.062164783 0 -10139635.062164783 -50018886.757048607 0 0 0 0 43428030.679944992 46878963.490615845 0 46878963.490615845 -53820603.731434822 0 0 0 0 131550030.56809616 -28113531.287783623 0 -28113531.287783623 -20648779.935028076 0 0 0 0 24480661.685983159 -8829188.9967877213 0 -8829188.9967877213 -7334162.8395214565 0 0 0 0 36089986.720726013 -26931119.122656226 0 -26931119.122656226 2417551.0379872322 0 0 0 0 49338928.161522865 37743126.354007006 0 37743126.354007006 19253134.963478327 0 0 0 0 115826906.50658417 27052283.713321716 0 27052283.713321716 -16053708.797285259 0 0 0 0 -65155003.142913818 -22643182.915645719 0 -22643182.915645719 -23258251.332393825 0 0 0 0 -54976950.474313736 -49566170.266584456 0 -49566170.266584456 20469271.898118973 0 0 0 0 -44903516.050483704 -41610747.652798019 0 -41610747.652798019 -9409216.9463837147 0 0 0 0 -19318779.798057556 -47149412.609883368 0 -47149412.609883368 -17624880.175979018 0 0 0 0 25101087.769237839 -9959240.9077147506 0 -9959240.9077147506 -6073190.2859588331 0 0 0 0 -55067224.028694153 -50241255.38799645 0 -50241255.38799645 -1503609.4591412097 0 0 0 0 74443823.935329437 4453401.3887416273 0 4453401.3887416273 -8089039.6651336029 0 0 0 0 -15717158.798690796 -35720380.550491333 0 -35720380.550491333 -35596226.625915527 0 0 0 0 17651964.9167483 4419472.2603822723 0 4419472.2603822723 1054747.5487606998 0 0 0 0 20725867.040732145 24932637.527864143 0 24932637.527864143 -37471113.339712143 0 0 0 0 29819069.397666931 -95054050.380484581 0 -95054050.380484581 362816.98092937469 0 0 0 0 4035916.1138830092 -904642.43214107025 0 -904642.43214107025 -424196.11021346599 0 0 0 0 13397426.340203054 2425238.7031264808 0 2425238.7031264808 -210778.6131791193 0 0 0 0 -27401830.435600281 -67607101.504980564 0 -67607101.504980564 15988765.276769638 0 0 0 0 29880823.659996033 -37077471.928476334 0 -37077471.928476334 -45043312.992549896 0 0 0 0 -7092986.4871864319 -66092479.721295387 0 -66092479.721295387 -34797574.182588831 0 0 0 0 33457717.961497806 -7143955.1133135129 0 -7143955.1133135129 -4142193.4526589685 0 0 0 0 63423174.107696056 -2447584.9597817659 0 -2447584.9597817659 -5712534.6190824509 0 0 0 0 106998349.55978251 33900979.379385591 0 33900979.379385591 -19776231.613204002 0 0 0 0 -125511987.5072937 -97204612.478128433 0 -97204612.478128433 -44999280.398851395 0 0 0 0 4183953.6788154682 762149.55383095331 0 762149.55383095331 -64651.662791885436 0 0 0 0 -110960330.54674911 -47458659.168575764 0 -47458659.168575764 10338515.051944733 0 0 0 0 68585737.147392273 -9762151.7983493805 0 -9762151.7983493805 -30544246.071943283 0 0 0 0 -16537477.714443207 -52659251.653053284 0 -52659251.653053284 55745780.001529694 0 0 0 0 -21818415.656475067 -26759503.831067085 0 -26759503.831067085 -38860623.580516815 0 0 0 0 37213272.568466187 -57934723.937619746 0 -57934723.937619746 -77514391.361714065 0 0 0 0 49644756.187942505 -85892140.428508669 0 -85892140.428508669 -71014369.839304298 0 0 0 0 -5982065.1396484375 -61396935.550543487 0 -61396935.550543487 -21100558.039691523 0 0 0 0 26094097.904586792 -72738954.047106534 0 -72738954.047106534 38911507.978162825 0 0 0 0 26473958.448120117 -73543032.161280692 0 -73543032.161280692 -17642043.377239555 0 0 0 0 -18873302.907750607 -52431071.209060729 0 -52431071.209060729 36065449.019033313 0 0 0 0 21599221.019073486 -25544827.357171267 0 -25544827.357171267 4177217.8825429678 0 0 0 0 31934907.330337524 -42502158.435689002 0 -42502158.435689002 21060845.965571135 0 0 0 0 53149949.711273193 -3695939.4582551271 0 -3695939.4582551271 82565676.50441438 0 0 0 0 118712397.58448029 -91106307.250224203 0 -91106307.250224203 4851558.082351787 0 0 0 0 60965821.094657898 -102825318.18034676 0 -102825318.18034676 64868780.356017858 0 0 0 0 100503881.51647949 -20039007.691793181 0 -20039007.691793181 78549154.104184031 0 0 0 0 377767752.6219101 -75353850.507308155 0 -75353850.507308155 63944483.951725647 0 0 0 0 123557853.22569466 7655472.2678808421 0 7655472.2678808421 217576959.84152663 0 0 0 0 683665.89876998216 -383567.54961885326 0 -383567.54961885326 591374.92275746586 0 0 0 0 354981212.95516205 244274762.12527549 0 244274762.12527549 214463693.46910381 0 0 0 0 20725849.568782806 -197023681.48045892 0 -197023681.48045892 -20796124.115537629 0 0 0 0 108907265.37604141 143957336.64526019 0 143957336.64526019 128943784.08435321 0 0 0 0 69280063.65517807 64461140.387962736 0 64461140.387962736 125965026.98166764 0 0 0 0 244826793.16100693 -29817689.684317946 0 -29817689.684317946 -38432852.219990373 0 0 0 0 32657953.948493958 -62426045.605730325 0 -62426045.605730325 -108642887.93219413 0 0 0 0 115889001.9675827 -87598230.837417871 0 -87598230.837417871 -117882359.64967774 0 0 0 0 84466598.799884796 -62414881.673967004 0 -62414881.673967004 -19156088.902418658 0 0 0 0 43243146.967952728 -84273936.208880961 0 -84273936.208880961 -23050047.274261869 0 0 0 0 66013570.33631897 9403676.766940061 0 9403676.766940061 -46971608.62719284 0 0 0 0 -417477402.313797 -249714188.15961882 0 -249714188.15961882 15974714.347878724 0 0 0 0 -13085862.768797398 -37114093.19852525 0 -37114093.19852525 -140258504.61487222 0 0 0 0 88465426.590393066 -41856264.330697775 0 -41856264.330697775 -127523605.0798043 0 0 0 0 -189524767.24946594 -176078736.84948909 0 -176078736.84948909 -145966758.6855396 0 0 0 0 -94873875.532775879 5140160.4338305891 0 5140160.4338305891 -94276075.894208848 0 0 0 0 43462170.602352142 -63038567.728814095 0 -63038567.728814095 -131830939.21973127 0 0 0 0 80020469.925163269 130361017.38988355 0 130361017.38988355 64887249.381934583 0 0 0 0 72316143.468322754 -89507721.287504852 0 -89507721.287504852 -134251371.1023331 0 0 0 0 617432.15404458344 621869.59637012705 0 621869.59637012705 401241.84498881479 0 0 0 0 2489395.7201578766 -764652.74831707403 0 -764652.74831707403 1098462.5026239164 0 0 0 0 84941207.823112488 14171544.218717456 0 14171544.218717456 -2784536.3551958464 0 0 0 0 7999841.3901138306 59513924.491675273 0 59513924.491675273 -21759584.260869619 0 0 0 0 106172399.79236603 12907083.860171482 0 12907083.860171482 -18266311.577187836 0 0 0 0 -7153960.0094299316 60815377.481571794 0 60815377.481571794 -35531752.737301439 0 0 0 0 54518881.741487503 149241319.61472926 0 149241319.61472926 142428930.17262304 0 0 0 0 4782344.6257424355 -537371.31083587371 0 -537371.31083587371 1064391.7051855286 0 0 0 0 4379615.4509726316 1928187.3697330318 0 1928187.3697330318 -137074.32815588859 0 0 0 0 90638514.191842079 137663720.91158277 0 137663720.91158277 -23929171.83549583 0 0 0 0 8654234.7880128846 820414.36100365967 0 820414.36100365967 71393.114255467022 0 0 0 0 53168951.235973358 137048322.95725951 0 137048322.95725951 55761745.107381538 0 0 0 0 -6073367.8642730713 -29919197.497448921 0 -29919197.497448921 17124095.198600098 0 0 0 0 84725989.018081665 -88373134.789767206 0 -88373134.789767206 -22241533.992692351 0 0 0 0 49994626.613296509 73691605.172883689 0 73691605.172883689 -18408589.302684546 0 0 0 0 -229496935.69637299 201662570.47363263 0 201662570.47363263 335664334.24469125 0 0 0 0 91376965.182289362 -13447664.986076832 0 -13447664.986076832 -82395924.418940544 0 0 0 0 69866016.358787537 69082223.542375505 0 69082223.542375505 -71232204.891829789 0 0 0 0 23312454.74789238 -2501729.4604568481 0 -2501729.4604568481 141113762.91690731 0 0 0 0 114870724.75839233 37981975.410472989 0 37981975.410472989 -197695985.46443897 0 0 0 0 51185081.553028636 -2035676.0690785302 0 -2035676.0690785302 -383312.05039640813 0 0 0 0 35294851.137743473 -68686305.914377213 0 -68686305.914377213 33171272.353270531 0 0 0 0 40798704.313771963 -54546214.385019243 0 -54546214.385019243 58953754.315245628 0 0 0 0 104737047.35225868 10042712.924795298 0 10042712.924795298 -251375083.24029863 0 0 0 0 47002396.212742731 -1255991.0463145133 0 -1255991.0463145133 -753000.68170631502 0 0 0 0 49190680.889327049 -4575416.4932255745 0 -4575416.4932255745 -3431660.8128767014 0 0 0 0 61188006.866699219 -12112909.571957588 0 -12112909.571957588 -62142470.028628349 0 0 0 0 32552761.993112564 -48836242.61289978 0 -48836242.61289978 -15928795.729195595 0 0 0 0 49507057.971125841 -9112288.4407355785 0 -9112288.4407355785 -68899805.021619797 0 0 0 0 41870560.981861115 -10251975.307676315 0 -10251975.307676315 -57701631.495539665 0 0 0 0 53856267.065795422 15431517.601365566 0 15431517.601365566 -145462735.20333385 0 0 0 0 38897937.512452602 8383079.2015557289 0 8383079.2015557289 -146482270.66103554 0 0 0 0 93950944.161664724 -30235693.987057209 0 -30235693.987057209 -76648163.766111374 0 0 0 0 25427184.661480904 -7691787.4769716263 0 -7691787.4769716263 -69427972.411933899 0 0 0 0 54558661.504714012 -14356219.464906693 0 -14356219.464906693 -170801386.80480194 0 0 0 0 59843967.652540922 15556323.354227781 0 15556323.354227781 -198846152.30644989 0 0 0 0 -10074821.604221821 35299738.311615944 0 35299738.311615944 -128150385.3562851 0 0 0 0 5869007.4781146049 70058689.881278992 0 70058689.881278992 -193375477.72823715 0 0 0 0 67069425.917818606 66389641.362373352 0 66389641.362373352 -280409177.74790764 0 0 0 0 23211622.72243892 6816637.1398741826 0 6816637.1398741826 -3815591.4106030441 0 0 0 0 4792762.9776711464 27179407.404098511 0 27179407.404098511 -74995349.949501514 0 0 0 0 2542520.3464596868 -38910412.51488018 0 -38910412.51488018 -183554624.04961777 0 0 0 0 14178295.764390945 -38859419.421345711 0 -38859419.421345711 -44056673.860616922 0 0 0 0 25037397.229484558 -14444110.817446709 0 -14444110.817446709 -39542781.227748275 0 0 0 0 3208966.7363967896 -34277568.304069042 0 -34277568.304069042 -41048581.609102249 0 0 0 0 19507896.7370224 -40352900.320267558 0 -40352900.320267558 -112703419.7291508 0 0 0 0 23584438.502333641 -25045162.978869677 0 -25045162.978869677 -11654234.761075974 0 0 0 0 37590786.193254307 -5447568.38618863 0 -5447568.38618863 -2681507.604627558 0 0 0 0 110960861.78266525 -31601218.624515936 0 -31601218.624515936 -249628146.70973065 0 0 0 0 123189051.5332756 14571430.791696765 0 14571430.791696765 -252133421.6920014 0 0 0 0 42470252.734997034 -2133957.4859186094 0 -2133957.4859186094 -1408794.1359981834 0 0 0 0 46926582.817793846 -35125729.573121071 0 -35125729.573121071 12305729.132395506 0 0 0 0 44397861.903404236 -10882767.690457821 0 -10882767.690457821 -26086285.808521271 0 0 0 0 46834386.308197975 -23303747.005035877 0 -23303747.005035877 -37045051.403421402 0 0 0 0 50346189.908208847 -28897062.927116394 0 -28897062.927116394 -34949255.307400227 0 0 0 0 47069345.124382019 -13473542.12629509 0 -13473542.12629509 -42796586.289665222 0 0 0 0 39869543.11246109 -18074480.243432999 0 -18074480.243432999 -45505859.817484856 0 0 0 0 37529006.40206141 -2514129.6928835195 0 -2514129.6928835195 -16672484.70938028 0 0 0 0 216373641.50667572 18452051.232751369 0 18452051.232751369 -44591094.351707458 0 0 0 0 26598195.713403702 -16556906.099961281 0 -16556906.099961281 -36947371.557545662 0 0 0 0 35928710.767712116 -27398555.644326925 0 -27398555.644326925 -45967357.669845581 0 0 0 0 135882161.53414917 217479316.27759552 0 217479316.27759552 56415414.689445496 0 0 0 0 41109121.929624736 -3985915.4537981064 0 -3985915.4537981064 -15801064.474499712 0 0 0 0 207951413.94709396 65230582.431530952 0 65230582.431530952 -188002308.11814785 0 0 0 0 66423810.367275238 24248380.053662777 0 24248380.053662777 19297868.681532145 0 0 0 0 -75820118.295488358 165509947.30026793 0 165509947.30026793 50415559.516748428 0 0 0 0 70083564.255662918 4462759.9171493053 0 4462759.9171493053 -105519013.72154236 0 0 0 0 107516348.2112236 83851340.01451683 0 83851340.01451683 -160384614.18222427 0 0 0 0 -148842181.30962372 -311782414.59117842 0 -311782414.59117842 29996715.247002363 0 0 0 0 2058078.436530361 1268311.1495631263 0 1268311.1495631263 -4273324.5994759845 0 0 0 0 83977802.580295563 -60873271.222337246 0 -60873271.222337246 -255827694.27857971 0 0 0 0 84301277.970209122 -98386364.786001444 0 -98386364.786001444 427235339.62841225 0 0 0 0 370511033.76375961 137577194.03244209 0 137577194.03244209 -66496111.835938752 0 0 0 0 322549789.51455307 -227211570.7311821 0 -227211570.7311821 -38055832.310805321 0 0 0 0 14980235.033489227 -56688555.948635578 0 -56688555.948635578 -63152877.148200512 0 0 0 0 380668661.89465761 -266369323.04671305 0 -266369323.04671305 -19310657.885955811 0 0 0 0 406422125.4046402 190292403.10122013 0 190292403.10122013 -28037307.356190681 0 0 0 0 47055161.158889771 2812896.8877792358 0 2812896.8877792358 -49123431.140796661 0 0 0 0 3648173.3304141462 -6301226.558817545 0 -6301226.558817545 -5619694.9083583895 0 0 0 0 37468783.609166473 684005.66463532764 0 684005.66463532764 -17207504.336932879 0 0 0 0 16152891.224727631 -40772037.548575878 0 -40772037.548575878 -24915737.571520805 0 0 0 0 50930645.307971239 5274951.4227340221 0 5274951.4227340221 -76612768.35077095 0 0 0 0 2060692.8397388458 -20597376.606321573 0 -20597376.606321573 -52317840.480435848 0 0 0 0 4487945.3419680893 -3628845.4186456287 0 -3628845.4186456287 -7648995.6369088627 0 0 0 0 22347952.624673393 9194926.9289288446 0 9194926.9289288446 -10489407.430588532 0 0 0 0 36204446.376403809 -14611999.638438225 0 -14611999.638438225 -36971109.868413925 0 0 0 0 48593158.57124424 -30876621.321010977 0 -30876621.321010977 -19068316.12698555 0 0 0 0 170210550.59151077 201644612.15728235 0 201644612.15728235 134242897.66837311 0 0 0 0 -105676973.5242157 -25250564.224489212 0 -25250564.224489212 -38967574.788311362 0 0 0 0 62220134.473686218 -995356.34063911438 0 -995356.34063911438 -113256539.04077673 0 0 0 0 1835382.3854573518 -505055.67723310489 0 -505055.67723310489 -2416755.0175011596 0 0 0 0 58497643.646476746 68162511.897837162 0 68162511.897837162 15905406.63318634 0 0 0 0 190956159.62900543 105348904.37311459 0 105348904.37311459 -27943158.123863697 0 0 0 0 186407333.25365448 65361903.602656126 0 65361903.602656126 -73268976.90776825 0 0 0 0 126978958.87457466 -48567001.177200675 0 -48567001.177200675 5134676.2775650024 0 0 0 0 196419626.88825989 33943461.997511387 0 33943461.997511387 -32925904.886679649 0 0 0 0 33105545.732620239 21398710.073721409 0 21398710.073721409 -85435907.791784286 0 0 0 0 7945095.1956941262 -53491.237397253513 0 -53491.237397253513 -7597983.6504306206 0 0 0 0 23352689.634188652 5705001.4066249132 0 5705001.4066249132 -30744993.565781593 0 0 0 0 20833060.528327942 415543.39790630341 0 415543.39790630341 708156.91580581665 0 0 0 0 91965296.825439453 506310070.25362349 0 506310070.25362349 -302975953.550524 0 0 0 0 -158363807.66046906 -56109895.969310045 0 -56109895.969310045 81103497.24414444 0 0 0 0 441394.0830649659 280490.84892651625 0 280490.84892651625 -1461809.8696216932 0 0 0 0 102940313.68972778 106820376.16080737 0 106820376.16080737 49828157.603024721 0 0 0 0 196846947.3030715 92397598.986841574 0 92397598.986841574 -47272049.967699051 0 0 0 0 366679178.32534027 74976813.738883257 0 74976813.738883257 -72338575.319057465 0 0 0 0 306759214.06981659 334157480.44432044 0 334157480.44432044 20687778.530789375 0 0 0 0 298891629.55456543 -95904964.261280537 0 -95904964.261280537 -6483930.3003784418 0 0 0 0 1012417.7397336736 153874.42007580213 0 153874.42007580213 -734403.93855940551 0 0 0 0 117078231.46149445 64583220.961173058 0 64583220.961173058 -46933841.965193272 0 0 0 0 96715788.377349854 13479156.45152998 0 13479156.45152998 -134136430.31864715 0 0 0 0 128807756.9535675 -91314782.255191088 0 -91314782.255191088 119596149.32909317 0 0 0 0 179495855.11901855 187003913.21527767 0 187003913.21527767 137724582.72415447 0 0 0 0 4753913.586009955 3061583.1263222117 0 3061583.1263222117 -7878466.5749375261 0 0 0 0 -74560148.555335999 18411859.658546805 0 18411859.658546805 90667226.500185728 0 0 0 0 -73745789.430530548 -100224172.015706 0 -100224172.015706 -27467424.36972791 0 0 0 0 43533962.586483479 8805439.4581073523 0 8805439.4581073523 -15089829.808225632 0 0 0 0 110754358.57032204 -10998130.953653336 0 -10998130.953653336 -55580447.614935875 0 0 0 0 4972483.1063270569 -27218518.40254879 0 -27218518.40254879 26143846.67615509 0 0 0 0 29160758.960414886 -28938295.326102257 0 -28938295.326102257 -558662.27998542786 0 0 0 0 18002723.856206894 -14871991.130860329 0 -14871991.130860329 -15993066.022808075 0 0 0 0 15251664.267131805 32710263.353180885 0 32710263.353180885 37318907.495474458 0 0 0 0 -146617199.48951721 -28293174.030101299 0 -28293174.030101299 12932891.177077293 0 0 0 0 48511170.539608002 118153044.81264353 0 118153044.81264353 -143526921.59985924 0 0 0 0 195847419.7105751 112637024.36076069 0 112637024.36076069 -104658561.5637989 0 0 0 0 87078409.418769836 56228026.278140068 0 56228026.278140068 -63988770.132193789 0 0 0 0 102553897.32427216 17582970.016035557 0 17582970.016035557 -90556614.454077721 0 0 0 0 109528894.63394928 8918505.9046030045 0 8918505.9046030045 -223300763.8567009 0 0 0 0 13349546.326938629 12366863.781075478 0 12366863.781075478 -26189264.327535629 0 0 0 0 4540197.9400405884 6131573.3473854065 0 6131573.3473854065 -10978819.058950424 0 0 0 0 7175196.4830732346 766019.70133733749 0 766019.70133733749 -37053563.42549324 0 0 0 0 9369907.9519386292 13363568.156876564 0 13363568.156876564 -22542029.542179108 0 0 0 0 10887424.237141609 29613511.725147724 0 29613511.725147724 -19172816.429773331 0 0 0 0 8762974.8953361511 27487343.363794327 0 27487343.363794327 -21028138.540812969 0 0 0 0 -14999388.462013245 32567064.526449203 0 32567064.526449203 -32913732.760282844 0 0 0 0 7029639.6777334213 -26003825.266555786 0 -26003825.266555786 -16799844.747386932 0 0 0 0 26131733.696483612 24213575.592765808 0 24213575.592765808 -33066031.142217636 0 0 0 0 13327800.951530457 9093474.7400960922 0 9093474.7400960922 -68791663.485722542 0 0 0 0 -703172.59373855591 -15292964.076848984 0 -15292964.076848984 -32583350.952683449 0 0 0 0 2506156.6629571775 2803056.2820293065 0 2803056.2820293065 -2265298.3515432905 0 0 0 0 4460524.3384552002 16864726.095086098 0 16864726.095086098 -25387971.301377296 0 0 0 0 -20362523.794223785 45572205.374537468 0 45572205.374537468 -37931891.398884773 0 0 0 0 33402918.625144005 660482.92614865303 0 660482.92614865303 -37074760.559898376 0 0 0 0 20208302.297416687 35962858.196043968 0 35962858.196043968 -61362628.496055603 0 0 0 0 16153656.844235148 13229864.245925132 0 13229864.245925132 -631706.62419453193 0 0 0 0 12457926.329267502 11357722.587666035 0 11357722.587666035 -32042364.514077187 0 0 0 0 17612477.480961062 -1326452.2056334326 0 -1326452.2056334326 -9634537.5771890432 0 0 0 0 -33663823.591511726 -22500615.094586849 0 -22500615.094586849 -12317136.302459717 0 0 0 0 30271119.927303266 5919946.5776916472 0 5919946.5776916472 -10268958.591170415 0 0 0 0 6338162.8939304352 3851648.3144328594 0 3851648.3144328594 -12767938.227340221 0 0 0 0 16987208.13646698 10271069.234972477 0 10271069.234972477 -26477883.734567404 0 0 0 0 16420106.564385291 -1597338.9330546707 0 -1597338.9330546707 -13709117.387308583 0 0 0 0 18119871.776092529 -1903296.7213563919 0 -1903296.7213563919 -16689359.040423393 0 0 0 0 20173979.139766693 5639398.7650818825 0 5639398.7650818825 -24070772.962421179 0 0 0 0 12932626.50490804 3900362.4009180041 0 3900362.4009180041 -8698312.3679812364 0 0 0 0 25090378.157762051 -21042531.898611456 0 -21042531.898611456 -21797173.627789497 0 0 0 0 6481473.5144348145 3087261.015417099 0 3087261.015417099 -6622094.1034584045 0 0 0 0 1004855.49178987 -2727014.1282742405 0 -2727014.1282742405 -6155414.7859337274 0 0 0 0 115043240.45951843 -83766364.349850655 0 -83766364.349850655 -686297340.04982913 0 0 0 0 -119900912.24121094 674316450.34944761 0 674316450.34944761 293165256.10429573 0 0 0 0 921784311.1222744 -683088250.91575706 0 -683088250.91575706 -363237856.8735671 0 0 0 0 -553824012.48667908 -356618612.82131577 0 -356618612.82131577 743236865.96204233 0 0 0 0 -673978482.29924011 -23705146.218908787 0 -23705146.218908787 164448230.92398882 0 0 0 0 6095335.4180526733 -1154033.8637194633 0 -1154033.8637194633 -5662739.103990078 0 0 0 0 10636288.520612257 -2774921.4547598138 0 -2774921.4547598138 -7863046.2030143347 0 0 0 0 -149083849.45799255 -57889600.719229221 0 -57889600.719229221 -216551098.67616844 0 0 0 0 2080985.4656190872 -926594.82693588734 0 -926594.82693588734 -8983591.3148050308 0 0 0 0 11160294.650369531 -384849.89356417581 0 -384849.89356417581 -6200681.1193454992 0 0 0 0 3725991.6688537598 -197168.45577144623 0 -197168.45577144623 -4059643.795042038 0 0 0 0 3410706.7953888327 -259512.56430783472 0 -259512.56430783472 -9308387.7311400529 0 0 0 0 6001319.1046123132 846395.98869249411 0 846395.98869249411 -6688774.7047630763 0 0 0 0 9132787.9151695836 1813463.9697935004 0 1813463.9697935004 -5078638.556846099 0 0 0 0 6657219.4277496338 3412435.095739603 0 3412435.095739603 -6602816.165790081 0 0 0 0 6655086.6914291382 3123951.0974550247 0 3123951.0974550247 -6739092.2650580406 0 0 0 0 4972823.5270535164 5757468.7365665659 0 5757468.7365665659 -10946750.431750663 0 0 0 0 6321966.063873291 2529549.3906884193 0 2529549.3906884193 -3897094.1258664131 0 0 0 0 3453685.5355882011 -2337502.2108036336 0 -2337502.2108036336 -6176740.3112060688 0 0 0 0 3155125.8853477687 1585318.7807694878 0 1585318.7807694878 -3371414.003996124 0 0 0 0 2629402.5587673187 -478816.44290757179 0 -478816.44290757179 -7221513.3700976372 0 0 0 0 475433.33780670166 -2246123.3951292038 0 -2246123.3951292038 -19540109.440237045 0 0 0 0 5244869.1038017273 -1651199.1480970383 0 -1651199.1480970383 -11912101.172679782 0 0 0 0 4882051.6476129554 182030.07179050148 0 182030.07179050148 -4660773.9173844848 0 0 0 0 4006812.1169366837 -2110460.9689228535 0 -2110460.9689228535 -10292448.389296532 0 0 0 0 634072.19387958944 -1435252.9237333867 0 -1435252.9237333867 -1797511.7833524235 0 0 0 0 6596977.2455711365 -5196147.9496641159 0 -5196147.9496641159 -32914175.152238846 0 0 0 0 8546554.5594787598 -4835559.5361509323 0 -4835559.5361509323 -41923803.087553024 0 0 0 0 -38092081.72277832 -77950508.537083626 0 -77950508.537083626 192236092.31228733 0 0 0 0 -15051922.920574188 -99825488.949229717 0 -99825488.949229717 86756071.541461945 0 0 0 0 -2998693.4912910461 2856937.3481318951 0 2856937.3481318951 -25974863.993522644 0 0 0 0 10249093.741455078 488494.28586006165 0 488494.28586006165 -31483342.878927231 0 0 0 0 6048265.536649134 -4066739.8791561751 0 -4066739.8791561751 -5022964.8636062145 0 0 0 0 -24192561.319717407 -65425351.725797653 0 -65425351.725797653 91824347.861061096 0 0 0 0 15300503.286354065 -7619883.0802278519 0 -7619883.0802278519 -47200495.853720665 0 0 0 0 -33040254.980155945 -53533125.31223774 0 -53533125.31223774 -68483495.960559845 0 0 0 0 1514643.275767494 -117786.94585587271 0 -117786.94585587271 -1806330.4002160281 0 0 0 0 10593967.02041626 -22920834.771847725 0 -22920834.771847725 -5953394.031167984 0 0 0 0 139656604.23487854 -72296381.993106842 0 -72296381.993106842 3401347.3305187225 0 0 0 0 4234364.735118866 -123179957.02601385 0 -123179957.02601385 105600339.64899826 0 0 0 0 140349839.50891876 -203870669.95363903 0 -203870669.95363903 128625512.09687495 0 0 0 0 33655511.181207657 38646572.526206493 0 38646572.526206493 47483863.479351997 0 0 0 0 -20922964.218837738 -440810.34282588959 0 -440810.34282588959 19600681.540988445 0 0 0 0 41817123.681209564 6894502.8074326515 0 6894502.8074326515 -69542064.566408157 0 0 0 0 6278558.3560943678 -5156105.49459319 0 -5156105.49459319 -8100086.0048169922 0 0 0 0 77648553.051181793 1320491.217965126 0 1320491.217965126 -69079355.158660889 0 0 0 0 1534983963.7234955 726483571.02722406 0 726483571.02722406 -752289713.34944344 0 0 0 0 39781232.891086578 -9214855.0587120056 0 -9214855.0587120056 -24232027.435187459 0 0 0 0 10289363.732541166 -3343140.9340542359 0 -3343140.9340542359 -6143182.513177257 0 0 0 0 19206212.738021851 11181373.512566328 0 11181373.512566328 34906154.211174011 0 0 0 0 5398665.5611521415 -5087544.0849236939 0 -5087544.0849236939 -14249891.482242586 0 0 0 0 2157757.4757424928 -3896346.4387110285 0 -3896346.4387110285 -10431466.513232749 0 0 0 0 159855329.80372047 -49449147.124357045 0 -49449147.124357045 -68711333.47897625 0 0 0 0 50979199.831882477 -114967269.49779081 0 -114967269.49779081 71692060.740884781 0 0 0 0 170626142.79123688 -148477942.70811701 0 -148477942.70811701 49533377.368351698 0 0 0 0 161574914.3060112 -95288912.991292 0 -95288912.991292 -61011445.668365717 0 0 0 0 194357014.38054657 28180271.798122406 0 28180271.798122406 37143508.415041685 0 0 0 0 98473423.53278923 -188118514.6564641 0 -188118514.6564641 172128883.7220192 0 0 0 0 -57897250.986076355 -189468670.67000818 0 -189468670.67000818 238447686.26061583 0 0 0 0 -789988.07749485411 174464.57384614274 0 174464.57384614274 1765518.1197686344 0 0 0 0 -233930975.8483429 -125884897.2675693 0 -125884897.2675693 217070251.80296016 0 0 0 0 256150546.41211891 -175721184.70855689 0 -175721184.70855689 -11563600.128246784 0 0 0 0 120511269.48458862 -95989003.058941841 0 -95989003.058941841 -105181832.37697029 0 0 0 0 -138878961.34489441 23844523.806854963 0 23844523.806854963 67390925.853306532 0 0 0 0 -114129156.45727539 -95440855.545041561 0 -95440855.545041561 202404165.92473006 0 0 0 0 19569979.351748466 -82061195.834799826 0 -82061195.834799826 138163437.96997261 0 0 0 0 -32513874.921779633 71043258.507837534 0 71043258.507837534 -81616423.969595909 0 0 0 0 -45116636.377410889 23753939.087063789 0 23753939.087063789 -10610004.482398987 0 0 0 0 1711852.7167942673 2030766.0329731256 0 2030766.0329731256 -2249450.7575436966 0 0 0 0 7818913.4887469262 38632.035929694772 0 38632.035929694772 -939378.81522121513 0 0 0 0 7177267.8523483276 843266.51974773407 0 843266.51974773407 -9059136.2181482315 0 0 0 0 7166833.9739761353 1316101.5707135201 0 1316101.5707135201 -7723923.929101944 0 0 0 0 7466714.6415700912 -1286264.0132645369 0 -1286264.0132645369 -10151181.559106827 0 0 0 0 7693787.163356781 -1087723.1460795403 0 -1087723.1460795403 -4805619.6939430237 0 0 0 0 8953734.4648047835 -3407318.713643021 0 -3407318.713643021 -2226674.9210220366 0 0 0 0 7591009.393737793 -2012526.9859342575 0 -2012526.9859342575 -6744363.5985472202 0 0 0 0 5956013.8439025879 -1623281.7263441086 0 -1623281.7263441086 -8785315.0943126678 0 0 0 0 9487491.2924248725 -1983602.8721946124 0 -1983602.8721946124 -2998310.296043314 0 0 0 0 5679765.7358856201 898080.44816398621 0 898080.44816398621 -8919647.9452943802 0 0 0 0 4713666.6389389038 3216542.0441708565 0 3216542.0441708565 -14355127.99695015 0 0 0 0 7545451.2335662842 -5187689.2749176025 0 -5187689.2749176025 -17190052.875261784 0 0 0 0 367570.21722496301 -50919.252493182197 0 -50919.252493182197 -147756.38612665609 0 0 0 0 113111905.01308441 -44308102.077296466 0 -44308102.077296466 -163925045.49937338 0 0 0 0 5673524.7075920105 6041760.4670815468 0 6041760.4670815468 -15769766.394246101 0 0 0 0 5186397.3901748657 3204514.0890433788 0 3204514.0890433788 -15769928.205090523 0 0 0 0 9989250.8922078945 -1490603.5311364401 0 -1490603.5311364401 -1659137.1836110586 0 0 0 0 6924786.1635084301 7773114.052916008 0 7773114.052916008 -4828290.6901125535 0 0 0 0 68295398.973918915 62502726.30589211 0 62502726.30589211 -83527579.202343464 0 0 0 0 47396831.872467041 -18391469.224822044 0 -18391469.224822044 -47135955.28659153 0 0 0 0 -242776879.52077293 21292206.097228169 0 21292206.097228169 116898800.20520973 0 0 0 0 -632117255.20896912 732156693.38947678 0 732156693.38947678 -527300566.72080994 0 0 0 0 -159501.05912858993 782713.35327061941 0 782713.35327061941 -288891.003541813 0 0 0 0 390336552.33204651 249212104.44591808 0 249212104.44591808 92365475.577836514 0 0 0 0 -337135564.08096313 -627012225.60027218 0 -627012225.60027218 35532572.733724594 0 0 0 0 1005564806.5650635 -278851996.55245972 0 -278851996.55245972 46964625.288043976 0 0 0 0 -165315192.17160797 179773254.44404882 0 179773254.44404882 429466708.2571404 0 0 0 0 76703576.816101074 -144512284.47489166 0 -144512284.47489166 334745248.43905258 0 0 0 0 4006589.7806711271 -1062703.6993411002 0 -1062703.6993411002 -1936925.7509361219 0 0 0 0 6109061.4334298037 2768094.4192205565 0 2768094.4192205565 -763747.51464983635 0 0 0 0 81625295.471008301 39943330.054487467 0 39943330.054487467 17113472.297986507 0 0 0 0 -936588202.57559204 -2055510576.5245583 0 -2055510576.5245583 1137521820.2000847 0 0 0 0 1287683992.6951447 -177066340.25512314 0 -177066340.25512314 -98979555.717578888 0 0 0 0 120248039.900177 157750681.56394911 0 157750681.56394911 97896722.765672684 0 0 0 0 202332794.40519714 10791516.12649703 0 10791516.12649703 -34958734.663605452 0 0 0 0 436357518.87119293 50970541.220593929 0 50970541.220593929 -93568822.272144318 0 0 0 0 202107348.22848511 -122838755.06371212 0 -122838755.06371212 -98726247.883094549 0 0 0 0 211636057.63150787 -39193376.282829523 0 -39193376.282829523 -120490647.68926096 0 0 0 0 200138477.94509888 -8650945.8766276836 0 -8650945.8766276836 -99053457.658380568 0 0 0 0 -317136.23763275146 82569132.421562195 0 82569132.421562195 -103675317.15910435 0 0 0 0 89645132.298248291 -38549749.420256138 0 -38549749.420256138 -79046708.311424732 0 0 0 0 150305342.10860634 -28989547.291756988 0 -28989547.291756988 -86280629.187540054 0 0 0 0 145455394.90818787 -61241886.312018394 0 -61241886.312018394 -84030448.662722051 0 0 0 0 156366706.02147675 -20142042.498973608 0 -20142042.498973608 -114513733.27750731 0 0 0 0 148855941.71034241 -116721642.38470197 0 -116721642.38470197 -129468739.69453549 0 0 0 0 158270283.97989655 -67982869.062422693 0 -67982869.062422693 -12960572.220551252 0 0 0 0 87777226.356739044 -39260668.386475086 0 -39260668.386475086 31220463.962553263 0 0 0 0 109311256.39699268 9271797.470518291 0 9271797.470518291 -4397579.5765943527 0 0 0 0 86628385.738052487 35986978.553587437 0 35986978.553587437 -260461111.85994244 0 0 0 0 -61265908.177536011 -130899890.54555225 0 -130899890.54555225 -119579052.07702732 0 0 0 0 37602798.117332458 88730871.962341428 0 88730871.962341428 -220681637.33605957 0 0 0 0 4692018.1031513214 94483641.605116248 0 94483641.605116248 -157060816.00645685 0 0 0 0 95356642.41519165 -60674691.747762203 0 -60674691.747762203 -372832851.77686763 0 0 0 0 159856073.16444397 219295374.76709473 0 219295374.76709473 184903053.78333914 0 0 0 0 207693411.29064178 119942868.26120818 0 119942868.26120818 68644965.327754617 0 0 0 0 69651032.632924795 92611598.955150709 0 92611598.955150709 197062225.72413015 0 0 0 0 84922498.735473633 -36989421.490378141 0 -36989421.490378141 -28096802.513640642 0 0 0 0 26243318.339660645 -13771473.399280071 0 -13771473.399280071 -35239440.171537638 0 0 0 0 16972524.523071289 8430317.3009727001 0 8430317.3009727001 -27397859.625354409 0 0 0 0 -3106366.4417037964 -24941883.026285648 0 -24941883.026285648 -25789768.213577986 0 0 0 0 186167993.03948975 -127543682.24569893 0 -127543682.24569893 21496191.125640869 0 0 0 0 5957306.0453676581 -831178.00873574987 0 -831178.00873574987 -2744568.7356948294 0 0 0 0 217967414.00271606 166926965.14320755 0 166926965.14320755 128691835.05074883 0 0 0 0 3925896.6935043335 24184507.298177719 0 24184507.298177719 -57059848.748953819 0 0 0 0 232062267.68455505 113228436.5001812 0 113228436.5001812 -68013877.361246109 0 0 0 0 135245.41572792828 -187436.04585008812 0 -187436.04585008812 5200.2068191741128 0 0 0 0 386774721.68883133 -330891227.61647689 0 -330891227.61647689 221211869.67343998 0 0 0 0 -35545191.635475159 199217689.05052614 0 199217689.05052614 -223949497.09310484 0 0 0 0 -20101808.599594116 455346391.35711861 0 455346391.35711861 -220187267.67790031 0 0 0 0 170817976.17795563 -56013148.172607899 0 -56013148.172607899 -98390715.763657093 0 0 0 0 253642771.66839027 84214629.848941088 0 84214629.848941088 -338550835.69679356 0 0 0 0 213168703.13322449 82013984.681614876 0 82013984.681614876 -111597824.33168125 0 0 0 0 205458825.60145569 224288601.62696743 0 224288601.62696743 28066964.867133141 0 0 0 0 187828124.06768036 141837794.07268095 0 141837794.07268095 75756895.152235031 0 0 0 0 237958726.62226868 178777768.02872562 0 178777768.02872562 -81060986.744250298 0 0 0 0 45806021.26625061 23250927.657800913 0 23250927.657800913 -7657296.3552728891 0 0 0 0 7248364.1456604004 12696060.824081898 0 12696060.824081898 3786525.1175909042 0 0 0 0 7308610.8155212402 -5754828.0148849487 0 -5754828.0148849487 -1390661.937468648 0 0 0 0 16916568.47227478 -5621589.4999432564 0 -5621589.4999432564 -28320701.031828403 0 0 0 0 -51904956.304748535 75277431.81470871 0 75277431.81470871 -82395060.901650429 0 0 0 0 14864473.810585022 -10112197.994714499 0 -10112197.994714499 -16188545.54654789 0 0 0 0 6963169.542026002 -183374.4997060881 0 -183374.4997060881 -1641382.8340060264 0 0 0 0 7085848.5212020874 3716712.635150075 0 3716712.635150075 -17233160.859316826 0 0 0 0 1614137.6902447864 595972.08727899194 0 595972.08727899194 -1967229.1726149563 0 0 0 0 3915165.347805813 2084494.0956835728 0 2084494.0956835728 -5830180.5871084975 0 0 0 0 18482767.766951084 9894825.6088128984 0 9894825.6088128984 -11960943.431231976 0 0 0 0 56819632.858207703 3970230.0886077881 0 3970230.0886077881 -4496341.3062705994 0 0 0 0 8204414.627774518 -356392.38964406704 0 -356392.38964406704 -1954469.4273572755 0 0 0 0 65352896.338645935 -53055169.959945679 0 -53055169.959945679 -350313681.41037178 0 0 0 0 78513127.521785736 6097995.3769006729 0 6097995.3769006729 -340290681.3241272 0 0 0 0 120805652.33322144 -4413076.858247757 0 -4413076.858247757 -340662103.94253731 0 0 0 0 99533772.238082886 25458535.619218826 0 25458535.619218826 -506252593.42178345 0 0 0 0 120106268.240448 -52776937.274404526 0 -52776937.274404526 -374008387.52576828 0 0 0 0 83396819.333942413 30829874.946724892 0 30829874.946724892 -166570257.24305725 0 0 0 0 90688352.92010498 -48927155.148575783 0 -48927155.148575783 -352239767.99443245 0 0 0 0 -30846951.650947571 -82244847.322788239 0 -82244847.322788239 -166818044.97370338 0 0 0 0 62589496.359630585 -4222850.5972304344 0 -4222850.5972304344 -364130164.45217705 0 0 0 0 33429406.774185181 -126952307.8507576 0 -126952307.8507576 -278559380.27836609 0 0 0 0 121773534.29250336 106551781.50165939 0 106551781.50165939 -350454120.41123486 0 0 0 0 -47692767.209915161 182673843.7122221 0 182673843.7122221 -116328587.26455688 0 0 0 0 228395080.47795105 90079603.031541348 0 90079603.031541348 -85540885.804664612 0 0 0 0 63509519.093200684 -60522581.018768311 0 -60522581.018768311 205580232.0138588 0 0 0 0 51252441.245361328 75437981.07474041 0 75437981.07474041 -27272284.121348381 0 0 0 0 201739846.97388458 260065213.09407902 0 260065213.09407902 111509386.86224365 0 0 0 0 -37691951.698905945 254313830.46342182 0 254313830.46342182 427039671.90003729 0 0 0 0 60307306.191879272 -2510023.5871658325 0 -2510023.5871658325 -139818215.71221447 0 0 0 0 -347339.77262878418 92126324.084745407 0 92126324.084745407 142265180.88308716 0 0 0 0 450094.49540710449 232231378.84281158 0 232231378.84281158 170881744.05684543 0 0 0 0 101019588.67713165 267047140.20746613 0 267047140.20746613 -2160310.0493938923 0 0 0 0 23465622.109382629 57990484.074295521 0 57990484.074295521 -27822157.424514771 0 0 0 0 27096392.095542908 152656405.06816387 0 152656405.06816387 -171093484.59747887 0 0 0 0 1491192.957701507 -1423404.6756438874 0 -1423404.6756438874 -778915.59516704176 0 0 0 0 -72850063.41267395 162814681.02727032 0 162814681.02727032 -36909056.323760986 0 0 0 0 7278892.1997489929 421288.55376851559 0 421288.55376851559 -3513180.2937717438 0 0 0 0 9825847.1032043099 1427702.5692856982 0 1427702.5692856982 -4671003.7504535886 0 0 0 0 700055.83721616864 -745376.15937709995 0 -745376.15937709995 -175819.55511651328 0 0 0 0 -96766321.932312012 -10096682.998179913 0 -10096682.998179913 -3624535.3255429268 0 0 0 0 60408615.537948608 120701704.24762535 0 120701704.24762535 -179133798.92622757 0 0 0 0 94798000.264343262 -34100861.022645473 0 -34100861.022645473 3541177.3334407806 0 0 0 0 134155531.61154175 23874158.128679276 0 23874158.128679276 50236440.676539838 0 0 0 0 106729654.92475128 117193034.72546864 0 117193034.72546864 -71068221.245994568 0 0 0 0 218604137.33710289 -8786760.538424015 0 -8786760.538424015 -200134650.91138458 0 0 0 0 112067884.87104416 201245444.54400349 0 201245444.54400349 46726809.325556755 0 0 0 0 4626465.6478146985 -743785.03783029644 0 -743785.03783029644 -2445189.4580261 0 0 0 0 582018.25569152832 -2339399.7767925262 0 -2339399.7767925262 1255088.9329795837 0 0 0 0 4124965.0889091492 -5499721.8592152596 0 -5499721.8592152596 -12370855.064329147 0 0 0 0 1860046.2839508057 -8415106.4353981018 0 -8415106.4353981018 1985383.0918974876 0 0 0 0 9752139.5760930404 -2882209.2955497038 0 -2882209.2955497038 -2778516.8157599578 0 0 0 0 8243574.9373855591 -1188488.0644612312 0 -1188488.0644612312 -5961537.9938373566 0 0 0 0 3754652.5189361572 -802271.65885686874 0 -802271.65885686874 -6901534.4774923325 0 0 0 0 -11370623.317455292 -10192766.993278503 0 -10192766.993278503 8977132.9979152679 0 0 0 0 14014064.336622238 3940884.3302550316 0 3940884.3302550316 -28108253.854784012 0 0 0 0 4221731.600627779 -1268514.3863872979 0 -1268514.3863872979 -696302.73055790924 0 0 0 0 1347913.865056077 -281085.23959325068 0 -281085.23959325068 -279328.60509088822 0 0 0 0 -33456676.892585754 66243558.241612434 0 66243558.241612434 -73465807.313009262 0 0 0 0 -9621688.3518676758 31389974.048866272 0 31389974.048866272 -22547118.56936264 0 0 0 0 -7832080.2957687378 20024517.353729248 0 20024517.353729248 -15133498.390451431 0 0 0 0 15472089.819740295 29927593.442564964 0 29927593.442564964 -49079867.339412689 0 0 0 0 -4201951.5080871582 39256524.388836861 0 39256524.388836861 -44576058.851297379 0 0 0 0 1824492.1832580566 25084813.101511955 0 25084813.101511955 -33895085.90993309 0 0 0 0 3552169.6844978333 25465964.840911865 0 25465964.840911865 -48885980.847574234 0 0 0 0 8144349.208515957 -115335.83244839218 0 -115335.83244839218 -2218008.1784679494 0 0 0 0 1191319.2453804016 14749992.058451653 0 14749992.058451653 -35746742.609583855 0 0 0 0 3444878.9096794128 13639704.899472237 0 13639704.899472237 -37007649.245835304 0 0 0 0 6533657.4566421509 -11093255.103420258 0 -11093255.103420258 -13908116.391192436 0 0 0 0 2652492.6002502441 -15318459.080196381 0 -15318459.080196381 -3278396.5703783035 0 0 0 0 5240742.0188152455 -380093.6763546858 0 -380093.6763546858 -871576.4883460314 0 0 0 0 19923005.247835159 10609435.586063623 0 10609435.586063623 -33375411.903829575 0 0 0 0 -1337115.8419189453 -23731858.731739044 0 -23731858.731739044 -40267378.330809116 0 0 0 0 -23764610.911750793 5910871.6224727631 0 5910871.6224727631 15886596.871206284 0 0 0 0 55851405.675125122 3149758.1964130402 0 3149758.1964130402 -127656610.89996147 0 0 0 0 1876687.0044049881 396115.63223614264 0 396115.63223614264 -1272544.0305113727 0 0 0 0 -88972287.010749817 -59660802.490879059 0 -59660802.490879059 37783705.248638153 0 0 0 0 34164802.019962311 -178699.41939592361 0 -178699.41939592361 -44057624.415468216 0 0 0 0 91614869.651077271 -36981654.540661812 0 -36981654.540661812 -62135957.832700729 0 0 0 0 -67021948.693065643 2916569.8059310913 0 2916569.8059310913 -71342711.026882172 0 0 0 0 17797977.833557129 24400341.83299017 0 24400341.83299017 -57163265.559818268 0 0 0 0 25615085.553871155 -10038810.713768005 0 -10038810.713768005 -100355542.04343796 0 0 0 0 -3554079.1225442886 1375080.0100266933 0 1375080.0100266933 -56350262.721359253 0 0 0 0 26008441.714653015 12606415.183764458 0 12606415.183764458 -65884854.681819916 0 0 0 0 12863001.521644592 33791511.530790329 0 33791511.530790329 -4121572.1839179993 0 0 0 0 40115154.399147034 29149190.997543335 0 29149190.997543335 -49760231.678291321 0 0 0 0 15858878.385883331 26314705.808691025 0 26314705.808691025 -4653922.8017215729 0 0 0 0 109505704.40406036 42987160.75693655 0 42987160.75693655 -26016704.36059761 0 0 0 0 74280342.822850227 -13169828.860706568 0 -13169828.860706568 988693.88607788086 0 0 0 0 133517155.19042778 15274813.844319344 0 15274813.844319344 -30711572.696659088 0 0 0 0 53081091.086928368 35077902.076337814 0 35077902.076337814 -59194217.559494019 0 0 0 0 -3827718.379901886 67301966.371912956 0 67301966.371912956 -87959366.50256443 0 0 0 0 -258049179.49074364 -173331390.14704561 0 -173331390.14704561 -140286427.58656526 0 0 0 0 -31751583.312318802 63046912.993151665 0 63046912.993151665 78290230.487817764 0 0 0 0 -30716084.647739887 58965061.818670809 0 58965061.818670809 9581271.2945079803 0 0 0 0 472975.37358233705 370733.01888994966 0 370733.01888994966 -1239981.1348572811 0 0 0 0 23532713.574668884 -104473758.58554554 0 -104473758.58554554 66163115.057208419 0 0 0 0 12219203.492194176 -11119049.857346058 0 -11119049.857346058 -132795662.10613823 0 0 0 0 7131383.268532753 -9095390.633105278 0 -9095390.633105278 -10642832.972476959 0 0 0 0 7241529.6497154236 17283070.434189796 0 17283070.434189796 -67100625.369364262 0 0 0 0 7238661.555770874 17556922.083041191 0 17556922.083041191 -35280317.659554482 0 0 0 0 175427066.98347855 37949471.915163994 0 37949471.915163994 -81401614.23862505 0 0 0 0 140350605.88094711 122678612.94411731 0 122678612.94411731 6135198.7287731171 0 0 0 0 162270321.90518379 38725222.409080029 0 38725222.409080029 -80485840.874703407 0 0 0 0 25963447.247756958 49181466.822124481 0 49181466.822124481 -34405045.009637356 0 0 0 0 28925376.601169586 70002871.041535378 0 70002871.041535378 -53374177.721915245 0 0 0 0 114018737.00151825 59282358.988541603 0 59282358.988541603 -57261412.453341484 0 0 0 0 -65773360.768115997 94639794.629276752 0 94639794.629276752 -23223713.990278244 0 0 0 0 -29157862.622378349 -376515.091599226 0 -376515.091599226 -29356979.049732208 0 0 0 0 172582452.78719521 41199548.942538977 0 41199548.942538977 -80184310.083154678 0 0 0 0 131767480.7782917 19063041.214724064 0 19063041.214724064 -79075508.15120697 0 0 0 0 180785710.90158463 -145293.96097564697 0 -145293.96097564697 -62029396.620130539 0 0 0 0 6107782.9874660773 895987.56713447534 0 895987.56713447534 -1190932.2325190026 0 0 0 0 62664300.092456818 -6768417.1436285973 0 -6768417.1436285973 -47488298.411572456 0 0 0 0 220990425.26062775 5963770.2877569199 0 5963770.2877569199 -29412871.798570633 0 0 0 0 144553460.11643219 -9714868.1788406372 0 -9714868.1788406372 17999993.59042263 0 0 0 0 1704438.9845284112 423899.74645322375 0 423899.74645322375 -355722.50075231493 0 0 0 0 148634485.98030043 -78721821.948394537 0 -78721821.948394537 -67773133.602092743 0 0 0 0 314722217.07224274 58994527.710947514 0 58994527.710947514 -35922826.587284565 0 0 0 0 -79205860.838672638 -149435743.27955055 0 -149435743.27955055 -58563257.990119934 0 0 0 0 301947840.63342953 203687162.59612298 0 203687162.59612298 120717898.34984589 0 0 0 0 439405020.57661629 -147672316.29253292 0 -147672316.29253292 -198876645.63374519 0 0 0 0 33779371.511405945 -116228481.7555151 0 -116228481.7555151 -11047013.110908508 0 0 0 0 17428881.897109985 -82315047.535022736 0 -82315047.535022736 -2711689.9661779404 0 0 0 0 7661250.909942627 -74285598.105356216 0 -74285598.105356216 -67315020.102984309 0 0 0 0 148303918.21529388 225018786.23346138 0 225018786.23346138 403583373.34597969 0 0 0 0 1943616.2689013742 -78897.052568831015 0 -78897.052568831015 -211476.74339486193 0 0 0 0 194493610.97691345 278164296.47394753 0 278164296.47394753 432953389.79630661 0 0 0 0 143594086.69095993 97763963.528957844 0 97763963.528957844 184245996.08294678 0 0 0 0 99683704.477371216 139417428.51453209 0 139417428.51453209 463243125.8527112 0 0 0 0 198752680.27287292 33301051.760793686 0 33301051.760793686 221310036.82036209 0 0 0 0 471350511.16320229 26907681.427633286 0 26907681.427633286 72130826.036481857 0 0 0 0 278023081.44924355 -178993205.18886995 0 -178993205.18886995 128973276.06438255 0 0 0 0 242472516.05137634 240952334.96409512 0 240952334.96409512 342672738.31267166 0 0 0 0 235632486.64559174 -75485406.142379761 0 -75485406.142379761 -90132659.168373108 0 0 0 0 200228727.06536102 -60158389.793781281 0 -60158389.793781281 64539337.005843163 0 0 0 0 141887993.06080627 -30400166.586388588 0 -30400166.586388588 314223510.88975811 0 0 0 0 131806907.18341446 31337549.813108087 0 31337549.813108087 23319292.02088356 0 0 0 0 57348372.594963074 30441947.87831974 0 30441947.87831974 71273700.621784687 0 0 0 0 20823739.944648743 92493227.220002174 0 92493227.220002174 28286620.847747803 0 0 0 0 -7213089.715713501 57343879.562005043 0 57343879.562005043 11907604.424819946 0 0 0 0 3851902.0961990356 33090983.460640907 0 33090983.460640907 53171723.226572514 0 0 0 0 29480245.895021439 53397991.361020565 0 53397991.361020565 -5914545.3722991943 0 0 0 0 125044736.20999908 49767139.245219707 0 49767139.245219707 -23281326.483804703 0 0 0 0 356776453.54397583 91769944.846899033 0 91769944.846899033 -14631566.141869068 0 0 0 0 26886852.28931427 204243629.66168308 0 204243629.66168308 164568079.1982975 0 0 0 0 339442596.772686 -136669959.32331038 0 -136669959.32331038 -320484295.48639107 0 0 0 0 381285882.24598694 -31471922.417172909 0 -31471922.417172909 -80966941.71164012 0 0 0 0 2211219.6946740076 1180583.542873465 0 1180583.542873465 -1083402.9609176945 0 0 0 0 209939225.85063171 433890167.24513817 0 433890167.24513817 647632908.10858345 0 0 0 0 600958079.06010818 348393351.10592425 0 348393351.10592425 88288063.394979477 0 0 0 0 523809406.85790634 -73038554.793386459 0 -73038554.793386459 -11209886.925514221 0 0 0 0 73994831.532173157 37246068.760076523 0 37246068.760076523 -27783105.048762321 0 0 0 0 -42675934.362442017 -63332932.825006485 0 -63332932.825006485 97274362.480144501 0 0 0 0 138784911.88283539 -110705071.58293056 0 -110705071.58293056 236302162.17184448 0 0 0 0 68317784.385162354 21216632.793611526 0 21216632.793611526 -239009375.03605843 0 0 0 0 -33816442.72089386 118064766.43960285 0 118064766.43960285 -42000141.191764832 0 0 0 0 153207556.70280457 160514051.02379322 0 160514051.02379322 55043467.101293564 0 0 0 0 129200212.55228806 61226799.922418356 0 61226799.922418356 -22185060.041355133 0 0 0 0 59370541.778755188 48279372.359082222 0 48279372.359082222 190061777.43040037 0 0 0 0 102955609.18218231 62198914.130947113 0 62198914.130947113 -245177526.66135406 0 0 0 0 38363530.971458435 -109766426.79453564 0 -109766426.79453564 -171608334.07881165 0 0 0 0 208119053.89991379 37588683.822893143 0 37588683.822893143 -96508243.589481354 0 0 0 0 70960799.397964478 -89665701.055495262 0 -89665701.055495262 46073231.094110012 0 0 0 0 61100907.354919434 -302959360.79512978 0 -302959360.79512978 -414613440.74114132 0 0 0 0 83441141.881188631 63972368.256131411 0 63972368.256131411 -366441958.91444969 0 0 0 0 5879912.6748711802 3067236.4287172942 0 3067236.4287172942 -3203503.7186673325 0 0 0 0 12944980.977508545 9753670.567905426 0 9753670.567905426 -614945003.55605078 0 0 0 0 102411135.81005096 -101967625.18102169 0 -101967625.18102169 -618500521.93143749 0 0 0 0 104065240.22697449 153652191.87124252 0 153652191.87124252 143435098.31096363 0 0 0 0 -183823131.03577423 32846089.193380356 0 32846089.193380356 -362634612.36648178 0 0 0 0 -39405636.273239136 -117203150.85346413 0 -117203150.85346413 -383388101.01072311 0 0 0 0 966737.31924758106 19572.211673272774 0 19572.211673272774 -866422.14808028005 0 0 0 0 -143115516.57833862 -324662710.1104269 0 -324662710.1104269 -752123166.27059937 0 0 0 0 -33510072.330230713 -11963832.157128334 0 -11963832.157128334 -348277594.16725922 0 0 0 0 -11595278.421356201 101922222.41773605 0 101922222.41773605 -690558609.66629457 0 0 0 0 17772608.688949585 -72174307.87946701 0 -72174307.87946701 -308760697.40802193 0 0 0 0 -85659387.495498657 150792347.09463882 0 150792347.09463882 -345239639.30332184 0 0 0 0 77341480.595311165 125180472.17023158 0 125180472.17023158 119549771.24921989 0 0 0 0 114817962.68056488 122360502.40920639 0 122360502.40920639 70831178.643217087 0 0 0 0 193054723.46390533 166884555.55475044 0 166884555.55475044 37548885.300572872 0 0 0 0 177396590.91399765 186677196.88046932 0 186677196.88046932 21256708.619247437 0 0 0 0 142545402.86828613 156079034.17088032 0 156079034.17088032 110555079.19274902 0 0 0 0 121645426.70203018 174227402.28854728 0 174227402.28854728 160007927.88791084 0 0 0 0 224265367.97743988 253943747.13099098 0 253943747.13099098 108465310.60585308 0 0 0 0 187383367.68971252 154676869.53304863 0 154676869.53304863 119843243.99997234 0 0 0 0 209871150.5232048 176198761.48808622 0 176198761.48808622 23922570.026433945 0 0 0 0 183741052.48036194 172717444.24850655 0 172717444.24850655 108121332.56056213 0 0 0 0 220731616.74340057 175524365.03042698 0 175524365.03042698 11292725.90573287 0 0 0 0 136167380.09083176 137958494.47327805 0 137958494.47327805 38298138.852254868 0 0 0 0 80857510.313964844 -85233812.74036932 0 -85233812.74036932 -48985025.272307158 0 0 0 0 62401564.987308502 34198553.850414753 0 34198553.850414753 -159211683.44749117 0 0 0 0 77839825.126449585 -65322905.777708054 0 -65322905.777708054 -44578527.02182436 0 0 0 0 19325352.228034973 -119395463.59800148 0 -119395463.59800148 15588559.274024963 0 0 0 0 78826111.354568481 -143563146.56297874 0 -143563146.56297874 24102609.601147652 0 0 0 0 138606912.32816315 -96837935.397034168 0 -96837935.397034168 -31811597.401649475 0 0 0 0 114136066.30983543 -54906957.322518587 0 -54906957.322518587 65087597.716909409 0 0 0 0 68756547.805496216 177697320.41199017 0 177697320.41199017 109136769.62062961 0 0 0 0 286643530.90687943 230775687.13295984 0 230775687.13295984 -82934582.680907249 0 0 0 0 215760482.82336426 -89136314.675035477 0 -89136314.675035477 -71094382.370970726 0 0 0 0 -301726.27807191014 1266356.9963899236 0 1266356.9963899236 477673.62368247472 0 0 0 0 79279629.672314167 92175387.355095744 0 92175387.355095744 8427476.197883606 0 0 0 0 143713635.84830475 70682721.403075457 0 70682721.403075457 -39360624.459493935 0 0 0 0 3808810.103092365 11715263.062118953 0 11715263.062118953 -14746104.652977267 0 0 0 0 -47937726.059715271 57258702.48515892 0 57258702.48515892 -21418962.319738388 0 0 0 0 4374875.5718383789 141569492.45129776 0 141569492.45129776 111641761.78074265 0 0 0 0 82658725.102217674 159940425.21165943 0 159940425.21165943 113713011.30517197 0 0 0 0 1545162.2767688259 12687261.183847189 0 12687261.183847189 -12513263.180223994 0 0 0 0 32009692.1980896 97173272.156480789 0 97173272.156480789 169136175.93725586 0 0 0 0 81235376.41118598 75396999.618875623 0 75396999.618875623 -30086540.41109848 0 0 0 0 64880378.208732605 -69809398.401062489 0 -69809398.401062489 -60573031.544726849 0 0 0 0 46318994.16815567 176122741.9014473 0 176122741.9014473 -97481878.939801216 0 0 0 0 117414113.55699515 59332554.93588686 0 59332554.93588686 -170709132.3620224 0 0 0 0 48001751.029678345 6952011.7732429504 0 6952011.7732429504 -25075793.220083237 0 0 0 0 69836990.326992035 41732319.116863251 0 41732319.116863251 -24049856.749853134 0 0 0 0 122113248.15603638 29860857.239019394 0 29860857.239019394 -42898787.293319702 0 0 0 0 81869662.523405075 20677007.887504816 0 20677007.887504816 -42645750.193325043 0 0 0 0 84672115.742796421 9067235.2536869049 0 9067235.2536869049 -35342178.439464569 0 0 0 0 114555948.23321152 -34373724.214015007 0 -34373724.214015007 -111766474.82414246 0 0 0 0 79394335.300209045 -26765406.374679565 0 -26765406.374679565 31400241.767725945 0 0 0 0 170375942.6310997 126185553.45675468 0 126185553.45675468 259598866.67969513 0 0 0 0 239740305.82639313 162644389.39667249 0 162644389.39667249 109782317.54856324 0 0 0 0 61456522.653465271 -25826472.747913122 0 -25826472.747913122 -3258404.0515275002 0 0 0 0 311494.76475026645 7941961.1167900935 0 7941961.1167900935 -14798981.08812052 0 0 0 0 196350290.94236755 203659732.75567055 0 203659732.75567055 137756966.29833734 0 0 0 0 9921195.4528394341 999204.36654393561 0 999204.36654393561 -6671631.8811340462 0 0 0 0 35982842.109611511 36097901.165150642 0 36097901.165150642 3707720.5382995605 0 0 0 0 -154291470.26555634 9572256.5154120922 0 9572256.5154120922 129005588.00512147 0 0 0 0 -334697699.30458069 73451423.491202354 0 73451423.491202354 112626995.38553977 0 0 0 0 361111168.96153259 -97900357.352867842 0 -97900357.352867842 -382581.9656124115 0 0 0 0 -148180455.24330521 12468716.636971593 0 12468716.636971593 -20617248.936933994 0 0 0 0 -327136490.16103649 -167164406.6109066 0 -167164406.6109066 228770969.04438782 0 0 0 0 281204377.50629425 -27505071.797315478 0 -27505071.797315478 -61863058.105027676 0 0 0 0 404652926.52317047 4051100.665623188 0 4051100.665623188 -181809865.1574004 0 0 0 0 -100037821.3436203 285129725.39143038 0 285129725.39143038 -149173168.0312767 0 0 0 0 83159.080697327852 4929746.5329732019 0 4929746.5329732019 -11798426.428130371 0 0 0 0 -23990725.176208496 239673489.77739763 0 239673489.77739763 -478305358.47469044 0 0 0 0 4948516.9310703278 -8061173.2418546677 0 -8061173.2418546677 25772231.558582306 0 0 0 0 57244849.998901367 14870814.531527519 0 14870814.531527519 -7324830.8192825317 0 0 0 0 65595414.575935364 80098484.563488007 0 80098484.563488007 51052358.985488892 0 0 0 0 47596798.261804581 92966603.262036085 0 92966603.262036085 145876273.76960754 0 0 0 0 54738847.495407104 82138935.731615067 0 82138935.731615067 99109520.244911194 0 0 0 0 54584259.3411026 95055020.385519981 0 95055020.385519981 57534703.706094742 0 0 0 0 69233904.228591919 96860752.422372818 0 96860752.422372818 37123795.984767914 0 0 0 0 -415742076.7045517 -79515372.227664232 0 -79515372.227664232 142569822.7765646 0 0 0 0 -157077.39076942578 755114.04619385675 0 755114.04619385675 -1639829.5272330495 0 0 0 0 45687.657438974828 2525083.0160128251 0 2525083.0160128251 -7245042.0897194855 0 0 0 0 50633936.657005787 58816055.411452591 0 58816055.411452591 81924149.069519043 0 0 0 0 65059398.228124619 120518874.18563008 0 120518874.18563008 246656557.1779232 0 0 0 0 97256433.486083984 27810516.401449203 0 27810516.401449203 95732996.145383835 0 0 0 0 81637456.131671906 48847485.750245094 0 48847485.750245094 76842673.814572334 0 0 0 0 60168367.444133759 6008156.8819789886 0 6008156.8819789886 40510415.59718895 0 0 0 0 52749973.99475646 57492560.462587953 0 57492560.462587953 92924248.216016769 0 0 0 0 98082052.614391327 141331155.53912735 0 141331155.53912735 161646480.18064833 0 0 0 0 65264064.736150742 85721139.795024037 0 85721139.795024037 200908160.90742111 0 0 0 0 72748380.425624847 67133972.119591713 0 67133972.119591713 82628295.813225269 0 0 0 0 92208523.16536808 117891612.86779428 0 117891612.86779428 310825190.02575493 0 0 0 0 161231784.99960709 254967260.77046108 0 254967260.77046108 245696393.11739349 0 0 0 0 178100482.12403584 218472509.46719831 0 218472509.46719831 141007013.99565268 0 0 0 0 112060413.80076981 204006708.83418012 0 204006708.83418012 193333688.35491467 0 0 0 0 112175715.76845551 205960019.23644471 0 205960019.23644471 172498892.31892151 0 0 0 0 100828832.0095396 187911701.53550428 0 187911701.53550428 144744729.15289545 0 0 0 0 73793744.714357376 125694719.07008076 0 125694719.07008076 202031552.78461266 0 0 0 0 85635998.62947464 134862117.19495726 0 134862117.19495726 126754183.78596997 0 0 0 0 70300696.957416534 115427108.03116894 0 115427108.03116894 125047423.4681015 0 0 0 0 91826639.938713074 110205583.35508823 0 110205583.35508823 105241169.34565949 0 0 0 0 103740878.23062134 153374195.44851303 0 153374195.44851303 151476971.51507282 0 0 0 0 80860863.378082275 86986366.566634655 0 86986366.566634655 89577226.735248566 0 0 0 0 110480319.41925049 55538511.149576187 0 55538511.149576187 61137310.572252274 0 0 0 0 147166425.11978149 75030184.008043289 0 75030184.008043289 65422952.765036821 0 0 0 0 131980498.92778778 114990873.11110878 0 114990873.11110878 102442015.7346096 0 0 0 0 103444462.97881317 130523846.55859184 0 130523846.55859184 95106422.100523949 0 0 0 0 217796505.73711395 113106725.94323397 0 113106725.94323397 50792223.035799026 0 0 0 0 215231595.20419943 182756204.99492669 0 182756204.99492669 -1852895.1045866013 0 0 0 0 171974628.17707062 203274537.91632509 0 203274537.91632509 57846982.276330948 0 0 0 0 153469029.48189163 154051996.81748176 0 154051996.81748176 100677954.45589638 0 0 0 0 128699095.03450775 193944807.08854485 0 193944807.08854485 71408730.700963974 0 0 0 0 153285624.47731781 162566492.96307755 0 162566492.96307755 14862125.384853363 0 0 0 0 151909595.10689545 212047500.05315161 0 212047500.05315161 76930176.088581085 0 0 0 0 90998688.582328796 280936746.38087726 0 280936746.38087726 67585595.266511649 0 0 0 0 172979637.45491803 253199149.48553544 0 253199149.48553544 -90019431.809909821 0 0 0 0 101780150.40351391 208198976.99947256 0 208198976.99947256 163763867.33099842 0 0 0 0 109259840.09298706 181635844.95263147 0 181635844.95263147 126781981.28444862 0 0 0 0 125045645.997509 188539644.87703919 0 188539644.87703919 123409261.9634161 0 0 0 0 101057642.64558411 219065986.03402758 0 219065986.03402758 110604313.2990973 0 0 0 0 72208133.420980453 231657090.72390187 0 231657090.72390187 201973894.52995145 0 0 0 0 91318651.080444336 223382302.00388229 0 223382302.00388229 158235938.73294306 0 0 0 0 52123079.187164307 260953977.1095469 0 260953977.1095469 159474760.34945178 0 0 0 0 43947306.692583561 206380220.92445987 0 206380220.92445987 265606913.77434492 0 0 0 0 92864432.734882355 296978172.78477836 0 296978172.78477836 157314397.65773487 0 0 0 0 103672327.58628464 238964033.08854806 0 238964033.08854806 160940134.02518415 0 0 0 0 67917139.239593506 159582352.1329242 0 159582352.1329242 139173042.94716978 0 0 0 0 46767495.194286346 185231326.64151859 0 185231326.64151859 233397971.24914396 0 0 0 0 124708812.69685555 174110299.82119572 0 174110299.82119572 121127056.3042562 0 0 0 0 108650346.37639618 156515156.67543507 0 156515156.67543507 129971563.73133075 0 0 0 0 171975714.4986949 213129040.33701652 0 213129040.33701652 139191488.02365756 0 0 0 0 121870186.29598618 201113781.25445437 0 201113781.25445437 167961559.19292164 0 0 0 0 352670588.18116951 191116356.40352112 0 191116356.40352112 30108893.855149031 0 0 0 0 410383552.51012516 195909997.56697613 0 195909997.56697613 1062452.8657917976 0 0 0 0 366569935.83237457 167445936.3282609 0 167445936.3282609 446476.1680778861 0 0 0 0 356627149.89295197 126393394.18051979 0 126393394.18051979 16649914.32322526 0 0 0 0 357030461.77848816 82521631.295864657 0 82521631.295864657 -45475530.672414824 0 0 0 0 414829983.0089798 118564236.55124807 0 118564236.55124807 -30277977.600626945 0 0 0 0 412213829.66074109 53444575.374042407 0 53444575.374042407 -99085900.960987568 0 0 0 0 425674401.9227829 131798075.00224304 0 131798075.00224304 -53322798.171576262 0 0 0 0 501673590.89047241 179962935.82222342 0 179962935.82222342 -24811174.754266024 0 0 0 0 446489351.29954529 191035079.48322296 0 191035079.48322296 17962214.067060947 0 0 0 0 464676653.9392395 100002184.380467 0 100002184.380467 -42893252.791766167 0 0 0 0 534086423.10414124 205577739.99621427 0 205577739.99621427 145424070.63799953 0 0 0 0 572317631.03437805 137875800.707798 0 137875800.707798 30280241.95052433 0 0 0 0 517123714.91035461 171768701.12850261 0 171768701.12850261 10046609.243717432 0 0 0 0 575834902.0605011 207583358.93374538 0 207583358.93374538 20064274.802492499 0 0 0 0 333807511.8469044 177970984.90999418 0 177970984.90999418 28696384.097592831 0 0 0 0 511704928.14605713 254856063.3237412 0 254856063.3237412 58614487.159920931 0 0 0 0 48557918.682601929 145327808.95139956 0 145327808.95139956 202304944.00437737 0 0 0 0 337534727.37464905 258677276.10617161 0 258677276.10617161 73060494.557370901 0 0 0 0 456036551.35210037 203910964.65781862 0 203910964.65781862 -1830569.6504611969 0 0 0 0 532491218.23483276 242041383.85439587 0 242041383.85439587 223842773.18859482 0 0 0 0 996925.10777370632 39548.091977868229 0 39548.091977868229 -2227055.0787897203 0 0 0 0 239821293.04593658 115044658.10166979 0 115044658.10166979 204440352.09785306 0 0 0 0 107253560.5953064 156075085.62448168 0 156075085.62448168 321391604.15151095 0 0 0 0 159149354.91905212 246584263.54471111 0 246584263.54471111 269648014.18288153 0 0 0 0 479891665.86013412 238502654.56755114 0 238502654.56755114 94632057.755634189 0 0 0 0 345489464.44138718 -65577953.476830244 0 -65577953.476830244 -113247193.04551983 0 0 0 0 -98297270.539291382 311938706.65971613 0 311938706.65971613 200544799.06898165 0 0 0 0 907046.76867077872 1223537.6718867384 0 1223537.6718867384 -4987716.7913263133 0 0 0 0 328181796.50605822 196546153.00958517 0 196546153.00958517 80757752.414150119 0 0 0 0 326753398.06616592 182785529.18376625 0 182785529.18376625 41456408.981618404 0 0 0 0 292597626.85630798 157680664.13338685 0 157680664.13338685 83746106.979366779 0 0 0 0 307483992.48117447 151284664.22103763 0 151284664.22103763 120298025.73000646 0 0 0 0 304731260.49599075 164017962.21743912 0 164017962.21743912 66656037.511336863 0 0 0 0 -955508629.42429352 299162094.48885179 0 299162094.48885179 545730048.79382324 0 0 0 0 -782918600.57601929 -714363411.09698772 0 -714363411.09698772 -253950647.49828148 0 0 0 0 49841937.776435852 422071217.47521067 0 422071217.47521067 -8835527.5803136826 0 0 0 0 49078063.161026001 62870661.783792019 0 62870661.783792019 -250619832.5503273 0 0 0 0 268993.42884332314 499933.74580327421 0 499933.74580327421 -2548953.743671949 0 0 0 0 393304676.81159401 201973821.45127314 0 201973821.45127314 24374024.490189672 0 0 0 0 -82121.420699849725 1876009.9045020416 0 1876009.9045020416 -4493487.1332980664 0 0 0 0 365831825.78803253 132006442.78683519 0 132006442.78683519 57047906.813068032 0 0 0 0 273455955.29245758 155120913.21689299 0 155120913.21689299 46643226.499870539 0 0 0 0 287698206.98034668 133654800.68370378 0 133654800.68370378 77031986.980248973 0 0 0 0 328072163.60308075 171951041.30459255 0 171951041.30459255 29697636.454285026 0 0 0 0 288917122.35433197 156105002.94551015 0 156105002.94551015 32808910.237517238 0 0 0 0 288472961.72210693 162207161.43197 0 162207161.43197 6243000.1364915371 0 0 0 0 227444157.74259949 135778849.52771187 0 135778849.52771187 42322296.48268497 0 0 0 0 195362191.29309082 129735339.70111871 0 129735339.70111871 46138831.79399085 0 0 0 0 231683876.38139343 125818591.76351261 0 125818591.76351261 9596908.4714865685 0 0 0 0 182676107.66618347 99864309.168811083 0 99864309.168811083 53386371.210972756 0 0 0 0 195385279.12771606 83799492.361935019 0 83799492.361935019 11763632.261456966 0 0 0 0 280505377.69693756 71867353.876793012 0 71867353.876793012 59455532.445157766 0 0 0 0 260165395.73033524 109068495.23525155 0 109068495.23525155 51752879.816356122 0 0 0 0 321099113.25065994 120060428.13725984 0 120060428.13725984 48825431.057602525 0 0 0 0 238292026.00620651 103837035.52097872 0 103837035.52097872 64186614.173903704 0 0 0 0 400175720.87945557 16327548.814983994 0 16327548.814983994 -11136553.052066565 0 0 0 0 372439068.24925995 64100519.776414156 0 64100519.776414156 -23574731.262151718 0 0 0 0 273946387.93175507 -6819690.8734487295 0 -6819690.8734487295 82281177.414955735 0 0 0 0 194871839.72201538 18188038.984392881 0 18188038.984392881 76871679.734389335 0 0 0 0 211626742.6824646 33900468.76540339 0 33900468.76540339 27944147.776501179 0 0 0 0 275885657.96668434 -219652879.47921503 0 -219652879.47921503 148216917.11686563 0 0 0 0 112626545.43162537 134380800.23319268 0 134380800.23319268 -234322095.65305305 0 0 0 0 -133915780.5238266 53914470.417866886 0 53914470.417866886 90704322.052266359 0 0 0 0 135770991.49195862 -60671965.734700441 0 -60671965.734700441 -318416980.37652707 0 0 0 0 91467206.068756104 -1049677.941129446 0 -1049677.941129446 19895135.922827005 0 0 0 0 129199396.5357666 70184254.960801482 0 70184254.960801482 17701312.424509645 0 0 0 0 154033849.13983536 90624576.818392575 0 90624576.818392575 -92937338.733821392 0 0 0 0 221150679.79255676 129351352.05784726 0 129351352.05784726 -47115013.472310066 0 0 0 0 147334262.64604187 132250541.95474625 0 132250541.95474625 9372203.3238755465 0 0 0 0 91627530.638748169 72174079.363807738 0 72174079.363807738 -24942597.176761389 0 0 0 0 139088717.8010788 52989603.019292235 0 52989603.019292235 -117986401.76023078 0 0 0 0 22095400.749420166 5479015.727465868 0 5479015.727465868 -67475587.678765833 0 0 0 0 -46668672.530197144 634422.52541708946 0 634422.52541708946 -61754682.103648901 0 0 0 0 80568132.360027313 612021.97835993767 0 612021.97835993767 -119810120.17522168 0 0 0 0 3049498.527381666 1163145.1915032726 0 1163145.1915032726 -1241497.5783174916 0 0 0 0 -75810104.593910217 -186123276.70094109 0 -186123276.70094109 -184952323.17125845 0 0 0 0 -6233495.7453155518 39642695.79153809 0 39642695.79153809 72971683.48019731 0 0 0 0 1627604.3726730347 10639650.956290483 0 10639650.956290483 -8145582.9581849575 0 0 0 0 3135073.024268575 612117.0757404007 0 612117.0757404007 -975689.54958057974 0 0 0 0 956597.98905108497 700040.82549450174 0 700040.82549450174 -1687959.809821229 0 0 0 0 294522521.96012115 91618367.462711692 0 91618367.462711692 -11280342.898995399 0 0 0 0 383740371.9569416 76934284.199569583 0 76934284.199569583 -90969924.237895489 0 0 0 0 332024835.46995544 136066899.76277637 0 136066899.76277637 41386472.315747321 0 0 0 0 323082904.64889526 190092650.13442743 0 190092650.13442743 60643647.16214335 0 0 0 0 415059921.94659424 158778848.06514788 0 158778848.06514788 -50551372.106048584 0 0 0 0 336260616.05352783 157974376.95087993 0 157974376.95087993 -46427988.304048538 0 0 0 0 193233404.46378326 150816131.06985712 0 150816131.06985712 -6547302.1723659039 0 0 0 0 294851649.70603561 184291342.53039771 0 184291342.53039771 -21586280.998060942 0 0 0 0 339249836.25406647 179225852.13141811 0 179225852.13141811 -6636238.5176539421 0 0 0 0 317144087.17664719 154060109.06614274 0 154060109.06614274 4545883.7761230469 0 0 0 0 205859419.76657104 140121208.16108942 0 140121208.16108942 12928061.649487972 0 0 0 0 202275374.6830368 144502530.19895899 0 144502530.19895899 -15843755.326479912 0 0 0 0 12580220.330284119 698333.89028334618 0 698333.89028334618 12675157.112692416 0 0 0 0 109302303.70082855 181075252.85792375 0 181075252.85792375 148470002.52535129 0 0 0 0 372251155.62885284 274421081.55711687 0 274421081.55711687 32115680.252575397 0 0 0 0 410878602.39635086 429567719.70987713 0 429567719.70987713 318283757.96672487 0 0 0 0 462620257.23571777 165349795.97841382 0 165349795.97841382 -76579641.6814785 0 0 0 0 455321129.41070557 154823520.50824094 0 154823520.50824094 -83248228.976002693 0 0 0 0 792276864.63691711 40590026.027388573 0 40590026.027388573 -247435828.97229242 0 0 0 0 773206053.88124847 306983421.36830831 0 306983421.36830831 -79301329.206487671 0 0 0 0 401133577.93424225 -1146587.972413063 0 -1146587.972413063 -88558628.409664869 0 0 0 0 518694902.94802856 97438911.871188521 0 97438911.871188521 -96565718.487414837 0 0 0 0 1488079.3016286865 630725.80344833853 0 630725.80344833853 -485345.19304564642 0 0 0 0 3071904.1083150581 252773.6621771222 0 252773.6621771222 -1756063.9868194121 0 0 0 0 410787331.14666748 41511353.468908787 0 41511353.468908787 -531123372.05248022 0 0 0 0 1041841440.4999695 85903322.292344093 0 85903322.292344093 -528299218.49381042 0 0 0 0 540391711.39569092 633616310.45435333 0 633616310.45435333 408448648.7312994 0 0 0 0 1062933405.3590775 318217544.92898321 0 318217544.92898321 -29368018.931312561 0 0 0 0 -227325362.27222443 17937954.681306005 0 17937954.681306005 138455630.72432709 0 0 0 0 419752300.08541489 -416827816.4234826 0 -416827816.4234826 -118278325.08943653 0 0 0 0 412469873.42980194 -35082241.370362282 0 -35082241.370362282 -62838231.493911266 0 0 0 0 21165289.024913788 -158086487.21053457 0 -158086487.21053457 19006556.578289986 0 0 0 0 2748129.3992725536 991790.26446829922 0 991790.26446829922 -3748374.8344533588 0 0 0 0 352902892.94756317 436261586.24607611 0 436261586.24607611 466609387.18144071 0 0 0 0 242006641.36360168 14922419.252926826 0 14922419.252926826 82624599.611779332 0 0 0 0 168642908.95388031 232181230.69099522 0 232181230.69099522 165554654.78940773 0 0 0 0 18765821.951911926 14974074.367521882 0 14974074.367521882 26845299.285304904 0 0 0 0 23701888.196201324 48891509.427836418 0 48891509.427836418 -63618937.102734804 0 0 0 0 31772531.256504059 48898366.261695921 0 48898366.261695921 2003045.5238802433 0 0 0 0 2593246.5271056257 712441.77265615948 0 712441.77265615948 -2727577.2115788348 0 0 0 0 -206048440.80070496 48489608.116928101 0 48489608.116928101 -13664729.921811521 0 0 0 0 29677886.389591217 -8096284.9909117222 0 -8096284.9909117222 -10489552.148683071 0 0 0 0 6250441.580619812 249821.75713932514 0 249821.75713932514 11203964.998373747 0 0 0 0 1169100.0221252441 9864025.450502038 0 9864025.450502038 -6250936.2844479084 0 0 0 0 -7162513.8538060188 -39645718.854767084 0 -39645718.854767084 -83828498.733817101 0 0 0 0 3455392.3734754436 -307158.99549371004 0 -307158.99549371004 -1815350.6096609982 0 0 0 0 -31231193.652179718 54843161.204504251 0 54843161.204504251 31767298.035039783 0 0 0 0 16064993.259094238 8608195.7424132824 0 8608195.7424132824 53573356.941808522 0 0 0 0 505961274.70138931 133206031.96585852 0 133206031.96585852 74480615.383406401 0 0 0 0 8359319.6103262901 -204553837.21473271 0 -204553837.21473271 -70133312.324189425 0 0 0 0 1364241.1157072932 -118368.0141482316 0 -118368.0141482316 -731758.48271152051 0 0 0 0 161559278.22813416 34955125.70412457 0 34955125.70412457 93620712.275807142 0 0 0 0 198353276.05373383 -112161123.67996895 0 -112161123.67996895 -16157060.382330813 0 0 0 0 60890336.145160675 -113239301.32472599 0 -113239301.32472599 60174530.33569634 0 0 0 0 1170372.0670382418 -2458697.8257577084 0 -2458697.8257577084 -7283109.9522043131 0 0 0 0 236826394.34254837 -104508682.67845309 0 -104508682.67845309 28676916.085826635 0 0 0 0 317178483.22383118 -17128430.443636894 0 -17128430.443636894 -37079654.066729009 0 0 0 0 19467320.240924835 17610295.467651755 0 17610295.467651755 139985842.97053313 0 0 0 0 1097844.644680813 -876126.26986365393 0 -876126.26986365393 -4277714.6444385946 0 0 0 0 341785888.36753082 -129774597.05408514 0 -129774597.05408514 -13523533.84148407 0 0 0 0 382679867.19736099 -126205217.07995474 0 -126205217.07995474 -13732629.694960594 0 0 0 0 995413.05436956882 129781.62595024705 0 129781.62595024705 -1593686.9024660096 0 0 0 0 240517301.22299385 40989668.076893479 0 40989668.076893479 2839023.0256386995 0 0 0 0 242196534.38195038 91828953.769068003 0 91828953.769068003 -9326496.1737712622 0 0 0 0 213831680.18307495 68196106.665965378 0 68196106.665965378 -28529254.36641407 0 0 0 0 285964237.76763535 39998384.001840889 0 39998384.001840889 -64036244.726801276 0 0 0 0 224307028.90474701 -9449529.3975362778 0 -9449529.3975362778 -40454816.23691988 0 0 0 0 276015396.00494576 -174405221.56450546 0 -174405221.56450546 -117460257.49500728 0 0 0 0 472528089.55828094 -115895966.96317589 0 -115895966.96317589 -101109564.42693871 0 0 0 0 168901578.01989746 -146612180.2886833 0 -146612180.2886833 -88513277.904221326 0 0 0 0 161473647.62021637 -311993261.0383234 0 -311993261.0383234 -188474136.03402042 0 0 0 0 262837700.85437012 -333247076.97424519 0 -333247076.97424519 -292193038.35900366 0 0 0 0 189479689.88668823 -352341513.60260439 0 -352341513.60260439 -132934157.23513794 0 0 0 0 202408425.32649231 -126629728.38667572 0 -126629728.38667572 -408992066.85892117 0 0 0 0 196944117.1289978 -168203202.45532459 0 -168203202.45532459 -80803658.946960449 0 0 0 0 1022330.2802085057 90087.384687622543 0 90087.384687622543 -242921.75007864021 0 0 0 0 57124475.018859863 -98921389.211928144 0 -98921389.211928144 198046770.83915955 0 0 0 0 71222003.899997711 88043632.748227149 0 88043632.748227149 155039935.55675131 0 0 0 0 275641532.66259766 -253786581.12273794 0 -253786581.12273794 9727222.0343008637 0 0 0 0 5614964.689414978 14168008.258641422 0 14168008.258641422 -50239966.023675144 0 0 0 0 485497271.59780884 -120915378.91760075 0 -120915378.91760075 -76408748.501202881 0 0 0 0 317416220.7189039 -73589447.38437441 0 -73589447.38437441 244664585.87200642 0 0 0 0 420240606.92341614 51649756.025061429 0 51649756.025061429 -22095696.295807362 0 0 0 0 -94604136.549434662 -129248683.36420417 0 -129248683.36420417 -1729203.2314825058 0 0 0 0 -1050319.1672750935 14449.650066178292 0 14449.650066178292 2961078.2108273432 0 0 0 0 -101604192.88485146 -196375111.54212177 0 -196375111.54212177 -12273445.915214062 0 0 0 0 -35578648.063421249 -51314316.203198791 0 -51314316.203198791 -355336.82489538193 0 0 0 0 -46812245.238761902 -62021415.963872313 0 -62021415.963872313 -24279101.906259239 0 0 0 0 139726420.90544891 -97711355.310245395 0 -97711355.310245395 -40641478.523576975 0 0 0 0 139237923.59906387 -111775983.09792471 0 -111775983.09792471 60677806.893563032 0 0 0 0 236453934.89178467 -108801670.68696594 0 -108801670.68696594 -41648349.316480637 0 0 0 0 257084106.22623062 -153020920.26671147 0 -153020920.26671147 33747104.251281738 0 0 0 0 271409979.5238533 -68063570.99261117 0 -68063570.99261117 18039425.089528859 0 0 0 0 229624040.05156326 -139269535.78238499 0 -139269535.78238499 7556464.7290644646 0 0 0 0 203479764.49824905 -76483511.292365044 0 -76483511.292365044 3279158.5322954655 0 0 0 0 259898645.72328186 -186820002.00592676 0 -186820002.00592676 61526126.8424716 0 0 0 0 1501739.8314801725 328651.02853010222 0 328651.02853010222 188806.06744741573 0 0 0 0 69876047.773078918 -66153239.098894298 0 -66153239.098894298 65988082.851493448 0 0 0 0 -1330631.1088104248 -13595903.933184177 0 -13595903.933184177 -14909496.651009113 0 0 0 0 -33531645.596133113 -36838832.394682236 0 -36838832.394682236 -23805600.775061846 0 0 0 0 499105.12474190013 487428.35770462826 0 487428.35770462826 64024.962537561543 0 0 0 0 256471120.20033264 -112062346.15621567 0 -112062346.15621567 25798838.518546343 0 0 0 0 -32661094.22813797 -123488286.94551885 0 -123488286.94551885 27513077.722873211 0 0 0 0 -949645.59388256073 -41200200.209309742 0 -41200200.209309742 -97782812.262434006 0 0 0 0 -9013752.0223884583 -17257567.686024386 0 -17257567.686024386 -9341730.7102525942 0 0 0 0 3814062.6796819568 -2591070.93895829 0 -2591070.93895829 -1227990.4014564636 0 0 0 0 135023556.89484406 -35478927.146433353 0 -35478927.146433353 33312466.104896665 0 0 0 0 -142139200.95318985 -164589562.00841975 0 -164589562.00841975 -191918158.2148906 0 0 0 0 -178547384.47363281 -115596361.61265099 0 -115596361.61265099 -27936878.512671947 0 0 0 0 335167676.02579117 -226303856.08700967 0 -226303856.08700967 207347510.37079415 0 0 0 0 362047624.69930267 -207788897.92131799 0 -207788897.92131799 81013597.108395576 0 0 0 0 321608337.79666901 -258085102.26139498 0 -258085102.26139498 143137178.0625062 0 0 0 0 16366364.375244141 -88390684.434183419 0 -88390684.434183419 129775345.77700078 0 0 0 0 81737741.213297844 19989297.01318121 0 19989297.01318121 -51591516.568206787 0 0 0 0 3513628.4790013283 -3832811.7772913845 0 -3832811.7772913845 -1463262.9012097693 0 0 0 0 -36149970.060096741 -19537300.041827679 0 -19537300.041827679 112826588.38434708 0 0 0 0 2450358.4747255985 -2710864.7796669602 0 -2710864.7796669602 -1670073.9075776727 0 0 0 0 -27966357.459186554 -37946840.924942464 0 -37946840.924942464 -35784632.297021747 0 0 0 0 118683427.06866455 -124968426.2248835 0 -124968426.2248835 79934257.154000461 0 0 0 0 6678416.2494177669 -1029830.7875331705 0 -1029830.7875331705 -1846798.3841713439 0 0 0 0 154617585.53292084 -88826976.436747849 0 -88826976.436747849 56715825.277783155 0 0 0 0 15995899.36170578 -71414445.311405078 0 -71414445.311405078 -19142654.461064026 0 0 0 0 185664110.51320648 -52897693.888981164 0 -52897693.888981164 -41354247.459271878 0 0 0 0 -197482452.69462788 -92978903.308236718 0 -92978903.308236718 9619202.1649353504 0 0 0 0 194594852.11944962 -195865303.82369828 0 -195865303.82369828 -62285767.31321907 0 0 0 0 1138755.3112005678 -2838324.7181832679 0 -2838324.7181832679 635574.09953704523 0 0 0 0 145276734.95715606 -143927255.74449822 0 -143927255.74449822 160665886.97916776 0 0 0 0 277395098.66116714 -272722674.65552205 0 -272722674.65552205 206731678.33902127 0 0 0 0 212350649.11496353 -53917380.196975619 0 -53917380.196975619 -16529747.149805173 0 0 0 0 498920804.34276962 -232455990.97321278 0 -232455990.97321278 38641949.223560013 0 0 0 0 536938311.32736588 -460241445.66554296 0 -460241445.66554296 238987455.64859265 0 0 0 0 363501491.92362213 -209225819.89875826 0 -209225819.89875826 218352763.8660154 0 0 0 0 266016288.34289551 -105719144.29360802 0 -105719144.29360802 -259315148.1129351 0 0 0 0 79773978.220779419 13037772.555873334 0 13037772.555873334 -198254862.43430409 0 0 0 0 337167904.51205444 83899075.126757815 0 83899075.126757815 4286690.9168807268 0 0 0 0 197190448.709198 62560789.758492231 0 62560789.758492231 1687991.4236784577 0 0 0 0 -195445103.41036224 -443187201.18324041 0 -443187201.18324041 -110045563.93295902 0 0 0 0 606835535.94176674 54997187.867148228 0 54997187.867148228 -31663187.684239507 0 0 0 0 988322.28022501618 -886090.2611602284 0 -886090.2611602284 36484.956511993892 0 0 0 0 -274048107.62563133 -180517007.51050472 0 -180517007.51050472 29738446.777966022 0 0 0 0 -24732489.104675293 -240623545.30875528 0 -240623545.30875528 -116322757.00419849 0 0 0 0 123574389.93156052 -10256534.080789149 0 -10256534.080789149 -57753341.517693281 0 0 0 0 -204176732.2176857 -55141663.795131981 0 -55141663.795131981 -14950440.386961937 0 0 0 0 145302300.92514801 -32665700.820069373 0 -32665700.820069373 -72521114.069578558 0 0 0 0 207037860.37530899 57184845.182946563 0 57184845.182946563 45038901.629196048 0 0 0 0 112506436.97586536 -159155602.01137775 0 -159155602.01137775 57384786.921422362 0 0 0 0 158066576.54772949 154942396.51654354 0 154942396.51654354 -33954185.007034317 0 0 0 0 483443987.90979767 -475118333.34867382 0 -475118333.34867382 413447600.14898378 0 0 0 0 2328106.4987712502 -260573.41445273161 0 -260573.41445273161 -510059.31509259809 0 0 0 0 1032461250.5505829 103352144.93043476 0 103352144.93043476 -347413675.48339605 0 0 0 0 184357557.8398819 -40103931.92678678 0 -40103931.92678678 -156671314.59685245 0 0 0 0 626141094.81908417 38100851.616892248 0 38100851.616892248 -145564551.46760911 0 0 0 0 297973591.07633209 -212879640.56807125 0 -212879640.56807125 -170546745.05408669 0 0 0 0 100636766.25717354 -26359600.059512094 0 -26359600.059512094 -21173638.628766477 0 0 0 0 490591640.13286591 -604924331.87832439 0 -604924331.87832439 441227133.61491108 0 0 0 0 283803.49290824868 -32020.917028520256 0 -32020.917028520256 -24186.332381094064 0 0 0 0 506083174.36822414 -101336063.05437307 0 -101336063.05437307 -178700362.67662841 0 0 0 0 110680772.97994995 -26455750.407489717 0 -26455750.407489717 -99266344.568066984 0 0 0 0 481157689.30363941 -174283104.99483883 0 -174283104.99483883 -124803661.13488412 0 0 0 0 683214234.96836567 -368004439.63098133 0 -368004439.63098133 -30706640.174533367 0 0 0 0 202933832.78221512 -89258486.503831387 0 -89258486.503831387 -73734527.539812565 0 0 0 0 763492311.56602859 135304166.88703275 0 135304166.88703275 -94078170.460394204 0 0 0 0 -152421797.56208503 -405616797.66279811 0 -405616797.66279811 89296257.527081966 0 0 0 0 1024779.8547813483 -885268.49144190177 0 -885268.49144190177 86421.80012748111 0 0 0 0 -149583280.78279114 62208394.393618822 0 62208394.393618822 55545241.806448936 0 0 0 0 -77769940.207481384 -16188431.735978127 0 -16188431.735978127 71166335.958797216 0 0 0 0 208314008.60359955 -122775328.04101515 0 -122775328.04101515 78105577.96073103 0 0 0 0 54873889.011985779 128643275.38839912 0 128643275.38839912 -187214883.00994349 0 0 0 0 251390749.99712372 -39013202.307099581 0 -39013202.307099581 -77529348.089382887 0 0 0 0 1974236.8267176189 -1767929.9027517848 0 -1767929.9027517848 140114.5362192349 0 0 0 0 258107238.5790329 -14715648.783829808 0 -14715648.783829808 -226131285.20204306 0 0 0 0 101481945.38537598 -108330118.40998691 0 -108330118.40998691 -92638265.582925797 0 0 0 0 50486175.793548584 -157060864.24165329 0 -157060864.24165329 5391317.8972777128 0 0 0 0 363781937.86613464 69386509.492975712 0 69386509.492975712 -90506536.360997766 0 0 0 0 345697599.58924103 22130938.10615468 0 22130938.10615468 -84621721.390814066 0 0 0 0 242997802.93208313 -40406863.782485723 0 -40406863.782485723 -112481954.07293701 0 0 0 0 382924866.92784119 41202182.033545017 0 41202182.033545017 -149409182.27684665 0 0 0 0 461627162.77278137 117417361.91494298 0 117417361.91494298 -84759238.324721754 0 0 0 0 369634381.36453247 31205121.460361481 0 31205121.460361481 -78669576.535962582 0 0 0 0 445063109.29092407 109912561.19816875 0 109912561.19816875 -51881324.958070874 0 0 0 0 257602608.22573137 49254702.652134702 0 49254702.652134702 -67307624.710140705 0 0 0 0 405041144.86541748 111674838.36060715 0 111674838.36060715 -13144313.520427585 0 0 0 0 365872836.86102295 2051869.6771535873 0 2051869.6771535873 -58662198.959064007 0 0 0 0 465545032.00354004 71547142.005561888 0 71547142.005561888 -3185297.4149980545 0 0 0 0 541730107.69299316 144827329.18884039 0 144827329.18884039 25032128.773030043 0 0 0 0 630221707.99980164 194134793.14116478 0 194134793.14116478 144838139.16742659 0 0 0 0 509112845.20615387 101366207.77013993 0 101366207.77013993 214038303.96339893 0 0 0 0 541123204.24484253 105566604.46888018 0 105566604.46888018 110117493.40166053 0 0 0 0 417610299.87844849 57334780.770958662 0 57334780.770958662 107118588.69756699 0 0 0 0 551909514.16056442 41936345.466987371 0 41936345.466987371 260196559.24461222 0 0 0 0 380715834.84262085 87558972.760054588 0 87558972.760054588 255446408.43589973 0 0 0 0 729598590.16087341 181530475.20229292 0 181530475.20229292 213713322.31329751 0 0 0 0 712039035.4989624 159132715.5871861 0 159132715.5871861 430877063.08990669 0 0 0 0 668421321.116745 216201213.25280547 0 216201213.25280547 357559517.67812312 0 0 0 0 609063650.69615173 -70392685.541729093 0 -70392685.541729093 232351830.01259434 0 0 0 0 492614113.15915203 -4127599.6851228327 0 -4127599.6851228327 394989280.16693997 0 0 0 0 285730533.18664169 -49881171.968446016 0 -49881171.968446016 261313430.97063136 0 0 0 0 465438121.61492157 -38150351.488995314 0 -38150351.488995314 90784697.483052731 0 0 0 0 397783752.94017792 -299997154.54217434 0 -299997154.54217434 5051660.1385407448 0 0 0 0 245326164.59884262 26299276.716164947 0 26299276.716164947 151281941.16019034 0 0 0 0 506644534.45347214 -182799111.66012603 0 -182799111.66012603 111714769.69843292 0 0 0 0 522265613.76983643 -69280000.281981111 0 -69280000.281981111 18543558.393945932 0 0 0 0 524565532.3238945 100406423.30528641 0 100406423.30528641 219592912.37742037 0 0 0 0 513564357.78759766 143691085.65570754 0 143691085.65570754 138700771.20457962 0 0 0 0 329185789.09926605 5460496.3509885818 0 5460496.3509885818 229113990.19962293 0 0 0 0 568651985.23789597 -7594641.7643456459 0 -7594641.7643456459 129145216.14573908 0 0 0 0 745437577.80484009 253464032.05214143 0 253464032.05214143 224651403.75035456 0 0 0 0 814649713.24308777 282420354.84161961 0 282420354.84161961 96788328.792156398 0 0 0 0 831552880.86968231 315702756.27963263 0 315702756.27963263 149566048.1040228 0 0 0 0 1174847782.0591278 637520929.56480718 0 637520929.56480718 348907906.77333581 0 0 0 0 1378795496.3781128 78159670.551235676 0 78159670.551235676 437309805.46870732 0 0 0 0 645843559.67573166 226652826.77814591 0 226652826.77814591 746864215.76464581 0 0 0 0 707162113.48540115 240212000.96886897 0 240212000.96886897 320628884.41778994 0 0 0 0 653024252.71701431 -496352629.07122552 0 -496352629.07122552 188874470.65281951 0 0 0 0 529857906.81532192 -454842966.00848335 0 -454842966.00848335 175798323.16396308 0 0 0 0 462017684.39849472 -415742411.33992147 0 -415742411.33992147 243459577.58128446 0 0 0 0 619267191.68138885 -357493375.34600532 0 -357493375.34600532 133105799.33706886 0 0 0 0 283259.29081945901 -593396.46974272281 0 -593396.46974272281 751401.26895487297 0 0 0 0 621175261.61698151 -344499325.65340292 0 -344499325.65340292 139266799.416989 0 0 0 0 604175.03247303492 -2017309.2890005447 0 -2017309.2890005447 1514230.9106227905 0 0 0 0 -500893336.92457199 -56774181.931837678 0 -56774181.931837678 135309389.89086366 0 0 0 0 -666153238.30470276 -37304070.586878002 0 -37304070.586878002 201362179.60059935 0 0 0 0 165300263.81027412 -214645343.01271844 0 -214645343.01271844 -89240743.791190624 0 0 0 0 483868376.24335098 -327678095.66484308 0 -327678095.66484308 142447954.13144654 0 0 0 0 606588453.75318146 -309643555.78683627 0 -309643555.78683627 82620657.980486751 0 0 0 0 607622198.69357681 -340692955.5726651 0 -340692955.5726651 94477836.942973733 0 0 0 0 1462722719.1607285 -603246973.07910216 0 -603246973.07910216 85395554.872516096 0 0 0 0 562921712.66365051 -576873373.11559141 0 -576873373.11559141 282358845.476843 0 0 0 0 532086193.28507614 -375209846.94196802 0 -375209846.94196802 78749162.377858639 0 0 0 0 498215856.42203522 -265779638.21561229 0 -265779638.21561229 -224701903.04291892 0 0 0 0 294729504.95769501 -429004493.68510765 0 -429004493.68510765 46830422.079686709 0 0 0 0 551260632.69884229 -350828162.96285468 0 -350828162.96285468 44524647.550496355 0 0 0 0 401799640.55447006 -506032861.47787547 0 -506032861.47787547 273246770.00576818 0 0 0 0 33702191.439164162 -15708664.644439936 0 -15708664.644439936 1907348.8629398346 0 0 0 0 2909618.6848988105 -209523.05341318995 0 -209523.05341318995 -419442.79497848032 0 0 0 0 27548617.424220085 1492483.7142036557 0 1492483.7142036557 7638544.8350741863 0 0 0 0 302393361.76085758 -32455914.463978648 0 -32455914.463978648 -6280861.1872501373 0 0 0 0 259405896.33472443 -166711151.06550407 0 -166711151.06550407 -11129221.201980591 0 0 0 0 546085942.92675781 -384575180.55129921 0 -384575180.55129921 -18672710.130502939 0 0 0 0 401146978.7117157 -261727179.31058061 0 -261727179.31058061 30303214.15265131 0 0 0 0 470996639.89066315 -220375343.41607594 0 -220375343.41607594 -25835146.972464144 0 0 0 0 174819561.85669327 -146683729.67631459 0 -146683729.67631459 139583920.41250944 0 0 0 0 513379803.68668938 -353009262.56600118 0 -353009262.56600118 79294210.906578064 0 0 0 0 690579313.69676971 -268560206.10161662 0 -268560206.10161662 60218213.542598784 0 0 0 0 693932581.06208038 -312439173.04283744 0 -312439173.04283744 11868883.893768787 0 0 0 0 810451908.16120148 -257687345.20279086 0 -257687345.20279086 53537957.967212081 0 0 0 0 693933405.45202887 -305490268.54968476 0 -305490268.54968476 55986526.404662132 0 0 0 0 1095988253.6957321 -274845314.7609067 0 -274845314.7609067 25190877.530390978 0 0 0 0 716122910.4911356 -358951610.275473 0 -358951610.275473 106835989.66051817 0 0 0 0 1695586991.3622627 -369382322.99646759 0 -369382322.99646759 48336473.389476538 0 0 0 0 4713646.2937883437 -1205274.4464998813 0 -1205274.4464998813 -638344.16916225897 0 0 0 0 422814754.01939392 -628135598.26641297 0 -628135598.26641297 643364111.11428118 0 0 0 0 360777474.21301651 -398194270.50147355 0 -398194270.50147355 228514635.66336441 0 0 0 0 8001036.2570141554 650594.64290554076 0 650594.64290554076 -3926904.5239822497 0 0 0 0 6030152.0875892639 338615.94635844231 0 338615.94635844231 -2138225.0933914185 0 0 0 0 7607985.9279900976 -1219395.0819260553 0 -1219395.0819260553 -3400926.3368279878 0 0 0 0 10089031.068006516 -1305301.7527909875 0 -1305301.7527909875 -8229509.5227223039 0 0 0 0 143382354.21130371 35147512.11909771 0 35147512.11909771 148730138.76177382 0 0 0 0 9181255.3520431519 -3071806.0179499686 0 -3071806.0179499686 -7022971.7464295924 0 0 0 0 8915040.2314319611 -814605.02727271616 0 -814605.02727271616 -4214098.5433529019 0 0 0 0 10717326.731693268 -2971685.684108004 0 -2971685.684108004 -3161869.6891472638 0 0 0 0 8103913.4404671863 1225463.3903224356 0 1225463.3903224356 -3948930.8356760098 0 0 0 0 657930058.81516266 190734215.06963617 0 190734215.06963617 71593914.299832046 0 0 0 0 887773242.44605255 357198274.19958973 0 357198274.19958973 47814960.151779771 0 0 0 0 882855649.69231796 280885155.69922018 0 280885155.69922018 -18552283.908393025 0 0 0 0 883348594.15597725 260088395.84954867 0 260088395.84954867 97042944.183269858 0 0 0 0 811042734.64332318 1241850.3660825191 0 1241850.3660825191 116474774.16234469 0 0 0 0 980893407.89230347 25986440.362407446 0 25986440.362407446 39670874.992276669 0 0 0 0 1148953505.1679306 60025822.084510326 0 60025822.084510326 42734217.671285272 0 0 0 0 1116749639.4699249 189293217.75426984 0 189293217.75426984 60079431.746025488 0 0 0 0 847653662.02125168 224420956.58740759 0 224420956.58740759 62065460.805751562 0 0 0 0 1012664257.8902302 74496811.93906498 0 74496811.93906498 101142044.84209967 0 0 0 0 1370678229.539238 135213134.90627289 0 135213134.90627289 111319887.15209353 0 0 0 0 1449380067.0610218 326387941.77718741 0 326387941.77718741 489974365.60803699 0 0 0 0 1215736422.8770294 -131683005.49725914 0 -131683005.49725914 1061182929.3011732 0 0 0 0 1067015283.6469669 168673912.91473019 0 168673912.91473019 129069007.5601778 0 0 0 0 1207908745.2269821 -21005163.872937202 0 -21005163.872937202 271552676.03382206 0 0 0 0 1052647572.2639732 94805536.368305445 0 94805536.368305445 508392885.62834835 0 0 0 0 1001024266.8954926 35692226.915653706 0 35692226.915653706 306227544.71802831 0 0 0 0 919499802.04000473 166939533.38815284 0 166939533.38815284 200924175.89285469 0 0 0 0 896931024.42515182 193580659.03257644 0 193580659.03257644 227332126.74350452 0 0 0 0 901023237.67869759 231898615.12109524 0 231898615.12109524 10800436.916131735 0 0 0 0 2121384.0049197394 1246458.5774727464 0 1246458.5774727464 7814907.9235472232 0 0 0 0 604932642.51036835 164823356.81221247 0 164823356.81221247 186790082.6680367 0 0 0 0 1091152310.3880081 318625780.55652952 0 318625780.55652952 -31802538.990434647 0 0 0 0 2299881.5774536133 6366078.7852954865 0 6366078.7852954865 5524148.60510993 0 0 0 0 7200921.7746019363 3734970.5546459854 0 3734970.5546459854 6777828.6622681618 0 0 0 0 7193580.4795455933 4016990.1126153469 0 4016990.1126153469 1915209.9163255692 0 0 0 0 10230098.960029602 5247173.3531672955 0 5247173.3531672955 1589553.6367473602 0 0 0 0 15030235.310001373 6834788.045759201 0 6834788.045759201 -5323976.4863619804 0 0 0 0 11887688.040122986 6633155.6196792126 0 6633155.6196792126 200951.6437664032 0 0 0 0 9308889.0547485352 10167564.40565443 0 10167564.40565443 5729483.9479489326 0 0 0 0 26152958.075922012 56624139.999790192 0 56624139.999790192 3249855.1473655701 0 0 0 0 -29306787.580764771 7061418.772103548 0 7061418.772103548 16095040.159522533 0 0 0 0 2028064.8560896702 1502003.7191334404 0 1502003.7191334404 7314347.6224936694 0 0 0 0 39705248.735549927 -50827699.430398464 0 -50827699.430398464 24604057.91299963 0 0 0 0 1055614.7165173404 187941.39765761793 0 187941.39765761793 131055.76678578276 0 0 0 0 69104985.258670807 -6621329.6720108986 0 -6621329.6720108986 -4511783.6791472435 0 0 0 0 68032592.427482605 66646493.103952885 0 66646493.103952885 -42834106.718482494 0 0 0 0 2699396.7748025618 2996358.9131584205 0 2996358.9131584205 6450901.0354668638 0 0 0 0 -39138628.670677185 -53429968.445353031 0 -53429968.445353031 47045212.159550905 0 0 0 0 6807446.6464673281 9109401.4506556578 0 9109401.4506556578 9281421.5318953469 0 0 0 0 13290575.214336395 25543828.98085022 0 25543828.98085022 -45868100.473865867 0 0 0 0 -53131362.307319641 8328122.9768519402 0 8328122.9768519402 48340743.573770523 0 0 0 0 -30871197.5909729 -44935882.92556572 0 -44935882.92556572 62197830.778619289 0 0 0 0 -27304440.543994904 34864295.461920142 0 34864295.461920142 -1137421.4082021713 0 0 0 0 27050438.016036987 6468892.0253558159 0 6468892.0253558159 7891122.9747495651 0 0 0 0 -13425110.574234009 5370090.325671196 0 5370090.325671196 22307345.169874191 0 0 0 0 -15642764.994110107 -603865.07369232178 0 -603865.07369232178 10824488.401362181 0 0 0 0 1854343.6199098602 1448420.3903054036 0 1448420.3903054036 957322.44014473166 0 0 0 0 17143485.077739716 9895801.1111758947 0 9895801.1111758947 -601997.15798282623 0 0 0 0 21617067.575300783 3416508.0498207882 0 3416508.0498207882 529058.96759619855 0 0 0 0 23943017.689815521 -5088415.9887387753 0 -5088415.9887387753 6337109.7713890076 0 0 0 0 200897344.86978149 -121462741.12401569 0 -121462741.12401569 8398906.5967621505 0 0 0 0 -11694998.622627258 31916341.282421112 0 31916341.282421112 4492161.4020527303 0 0 0 0 -22157368.337203979 -32014631.368612707 0 -32014631.368612707 -9680766.4809342623 0 0 0 0 15606578.602100611 1803509.2021567039 0 1803509.2021567039 1670607.9985398841 0 0 0 0 139079348.65341187 128221363.30335152 0 128221363.30335152 -52887672.841836214 0 0 0 0 -19050580.299942017 63965730.027089238 0 63965730.027089238 24567338.827015281 0 0 0 0 20096537.333446503 981926.01791000366 0 981926.01791000366 -1838800.0668148994 0 0 0 0 26605752.383583069 -5819776.1082234383 0 -5819776.1082234383 -5457031.8276906013 0 0 0 0 4260662.2712013647 1204700.902315814 0 1204700.902315814 -378477.61225658655 0 0 0 0 4970381.6362634972 2361636.8869438637 0 2361636.8869438637 3178142.9494375158 0 0 0 0 4216040.378074646 -496073.17124062777 0 -496073.17124062777 -2049179.8394024372 0 0 0 0 9873510.6826095581 58237.684321403503 0 58237.684321403503 -955773.66424465179 0 0 0 0 9382876.9140471891 -2829424.9046617299 0 -2829424.9046617299 -5399336.1523787333 0 0 0 0 116990326.27514648 31578419.678824097 0 31578419.678824097 -25001617.287602931 0 0 0 0 131191933.97137642 53728153.098639458 0 53728153.098639458 -32558880.833274126 0 0 0 0 132321641.22615767 28623211.292466849 0 28623211.292466849 -27429195.176583767 0 0 0 0 22831737.677368164 8694931.3244782686 0 8694931.3244782686 -6131739.4884029888 0 0 0 0 14239479.616912842 -23422923.036019593 0 -23422923.036019593 -7326664.7319242954 0 0 0 0 -10942133.302612305 5483761.0472596884 0 5483761.0472596884 4604672.7434473634 0 0 0 0 -1103180.3377380371 -42906801.676948547 0 -42906801.676948547 9005268.8040566407 0 0 0 0 48154953.666297913 -22711886.84241157 0 -22711886.84241157 -8185165.7184928656 0 0 0 0 31420983.061065674 -12957435.441761881 0 -12957435.441761881 -6013940.3945462108 0 0 0 0 140457193.81434631 -9478224.6642280221 0 -9478224.6642280221 -58392852.203837872 0 0 0 0 207276807.09143066 -17472109.692867875 0 -17472109.692867875 -67524774.735238671 0 0 0 0 202624019.35620117 -52158097.746948689 0 -52158097.746948689 -90960520.01037772 0 0 0 0 133839834.18093872 -77924189.384033963 0 -77924189.384033963 7488263.1171188354 0 0 0 0 261185144.46940613 6905780.1922142506 0 6905780.1922142506 -106116127.96986794 0 0 0 0 22344804.275527954 -65395750.323780455 0 -65395750.323780455 -84555659.94228439 0 0 0 0 266340858.73137188 79001303.567584932 0 79001303.567584932 -66311858.462255478 0 0 0 0 2954161.3745129518 1761077.8410121948 0 1761077.8410121948 448438.88471226784 0 0 0 0 295891793.84658813 -191137550.36560965 0 -191137550.36560965 -88583723.510100275 0 0 0 0 216986979.1877594 -62972160.333125614 0 -62972160.333125614 -145619634.91491774 0 0 0 0 216153495.33251953 -33527977.780875802 0 -33527977.780875802 -119227821.42780817 0 0 0 0 209112853.0506134 52943550.206467748 0 52943550.206467748 -42819805.403544188 0 0 0 0 52293091.806999207 4721963.9696580227 0 4721963.9696580227 -29429549.371503014 0 0 0 0 172738574.72576904 4959833.797187537 0 4959833.797187537 -149330795.69435167 0 0 0 0 85653976.178985596 54692779.921605125 0 54692779.921605125 11929989.662765145 0 0 0 0 33425546.961257935 18498926.568172872 0 18498926.568172872 -20245997.835441962 0 0 0 0 56058582.464477539 43114719.370148979 0 43114719.370148979 1906124.8650326431 0 0 0 0 76540082.204788208 23856914.58509323 0 23856914.58509323 -54797548.938798323 0 0 0 0 32958654.920776367 22489284.643681467 0 22489284.643681467 -16313766.328825563 0 0 0 0 44199695.149729729 17328299.713572863 0 17328299.713572863 -20925262.991941851 0 0 0 0 45091360.94216156 11794116.569232285 0 11794116.569232285 -18493554.681936108 0 0 0 0 45185003.443553925 11334569.132331731 0 11334569.132331731 -18188403.06813449 0 0 0 0 9656543.9579311535 5620151.2087060884 0 5620151.2087060884 1519317.5295253238 0 0 0 0 82018144.427825928 -7988110.8208327293 0 -7988110.8208327293 45600061.798026681 0 0 0 0 5619581.7174256593 3380008.6848049518 0 3380008.6848049518 -787196.72821565054 0 0 0 0 208308991.06164551 21764188.462723315 0 21764188.462723315 -17529398.487347126 0 0 0 0 202162477.84603119 18102984.51342386 0 18102984.51342386 20197719.525226116 0 0 0 0 203535940.65826416 80041089.987104058 0 80041089.987104058 -54124104.147857189 0 0 0 0 205167228.60726738 66906792.265880421 0 66906792.265880421 13134304.098317146 0 0 0 0 14051244.89888382 15473727.116698742 0 15473727.116698742 39915.310298800468 0 0 0 0 -940956.60865020752 24094615.995983027 0 24094615.995983027 -9216229.2479200363 0 0 0 0 13698747.042733192 10710417.902411342 0 10710417.902411342 -204038.04756736755 0 0 0 0 12371330.621916294 8355066.859185271 0 8355066.859185271 1791355.0192418096 0 0 0 0 156343.84960651398 34370047.572637171 0 34370047.572637171 12222933.837304413 0 0 0 0 18761760.962153297 7857603.7152034342 0 7857603.7152034342 -881201.02597984485 0 0 0 0 13149546.770145416 13267832.419320107 0 13267832.419320107 12366305.210291862 0 0 0 0 7790448.4619140625 3971168.4127678871 0 3971168.4127678871 2858732.1520764828 0 0 0 0 2994502.8986930847 -2621836.3410704136 0 -2621836.3410704136 12072815.845892906 0 0 0 0 4842469.2230072021 -5079089.2174413204 0 -5079089.2174413204 -2309057.656709671 0 0 0 0 6089000.2345466614 -2942629.359513998 0 -2942629.359513998 -963611.36116790771 0 0 0 0 4734096.3315272331 3365100.8698901832 0 3365100.8698901832 -7152233.5190906525 0 0 0 0 4907093.6135864258 5322299.8429915905 0 5322299.8429915905 6042804.2343463898 0 0 0 0 3874461.2492675781 -7423129.2861216068 0 -7423129.2861216068 -5397956.6287670135 0 0 0 0 93931372.228126526 68204868.063727379 0 68204868.063727379 5415503.3896570206 0 0 0 0 8019028.6982968822 3723495.9393796735 0 3723495.9393796735 -1125115.1847112849 0 0 0 0 25088950.963103365 4573121.5088565685 0 4573121.5088565685 -4660197.8436587965 0 0 0 0 1834538.6567764282 -6260275.8023138046 0 -6260275.8023138046 -530462.02995347977 0 0 0 0 -2124874.1969718933 -34931420.294085503 0 -34931420.294085503 -29851286.103085756 0 0 0 0 2899617.2387657166 -4224317.4213805199 0 -4224317.4213805199 641019.30219459534 0 0 0 0 23575395.076201618 -2172110.3261841163 0 -2172110.3261841163 -6133794.5907583246 0 0 0 0 35561952.064239502 9394798.8653411865 0 9394798.8653411865 1459643.7781639099 0 0 0 0 53893919.829071045 7309438.2958432436 0 7309438.2958432436 32251491.856755495 0 0 0 0 27320775.325740814 19363778.32467556 0 19363778.32467556 14379942.486680984 0 0 0 0 12298923.31590271 119454903.36691141 0 119454903.36691141 33345910.562050581 0 0 0 0 20867914.255527228 7014033.6139138229 0 7014033.6139138229 -2281660.3317668475 0 0 0 0 32262021.796234131 8897561.575544402 0 8897561.575544402 2687561.6048625112 0 0 0 0 21800334.403928965 3461519.3296366949 0 3461519.3296366949 -5081748.5280238269 0 0 0 0 47763153.355941772 29021999.428717375 0 29021999.428717375 14956534.720279694 0 0 0 0 43290493.967224121 20498842.034126282 0 20498842.034126282 15163445.514476776 0 0 0 0 12458017.306673881 12530441.807931907 0 12530441.807931907 6635564.7033421136 0 0 0 0 10754076.740844727 3741417.0347251892 0 3741417.0347251892 -3254176.861790657 0 0 0 0 20372720.256821014 11270427.035737561 0 11270427.035737561 2541139.8311138544 0 0 0 0 19114693.37677107 11486609.365583878 0 11486609.365583878 879255.36915581115 0 0 0 0 12684980.146768298 2606030.1918261889 0 2606030.1918261889 645697.81699877232 0 0 0 0 37168814.583007812 20000928.154678345 0 20000928.154678345 17394161.824295044 0 0 0 0 64449183.37097168 20543283.286722183 0 20543283.286722183 16964788.556499481 0 0 0 0 2679561.2830773592 219135.96179968771 0 219135.96179968771 -2121693.0248480719 0 0 0 0 43971470.180793762 24675877.735040665 0 24675877.735040665 27615210.624898911 0 0 0 0 89718726.533882141 37624439.088623047 0 37624439.088623047 5874149.3317527771 0 0 0 0 11759583.406967163 2844052.5956535339 0 2844052.5956535339 -3345069.9720420837 0 0 0 0 14628375.622243062 10309376.535223313 0 10309376.535223313 7783257.4324032087 0 0 0 0 23571412.255581614 4153614.4585843123 0 4153614.4585843123 -5452284.9795958903 0 0 0 0 9562069.3943963051 4597925.8998226784 0 4597925.8998226784 167265.40162278526 0 0 0 0 35727269.946498871 15620115.881266594 0 15620115.881266594 16619700.235280037 0 0 0 0 34933239.739334106 18804919.587218285 0 18804919.587218285 13128977.06002903 0 0 0 0 15049223.988943934 -4331865.3122831285 0 -4331865.3122831285 -39487301.360128403 0 0 0 0 50202264.824695587 45147079.476542473 0 45147079.476542473 22161407.93346405 0 0 0 0 65070488.274353027 25064667.584388733 0 25064667.584388733 4266430.694067955 0 0 0 0 1547680.450088501 7816793.3423709869 0 7816793.3423709869 -4441830.3755846024 0 0 0 0 34256968.985837936 -2881726.6974692345 0 -2881726.6974692345 -43459788.189247131 0 0 0 0 89297386.447788239 16042311.18948555 0 16042311.18948555 49175995.473182678 0 0 0 0 73152714.001861572 52503753.944254875 0 52503753.944254875 12985991.677520752 0 0 0 0 85606409.885322571 27160667.158832073 0 27160667.158832073 23139666.607195616 0 0 0 0 90193167.346540689 44640706.731481254 0 44640706.731481254 13930743.366966248 0 0 0 0 7522929.1049059331 513437.74870590679 0 513437.74870590679 -2794045.1952903103 0 0 0 0 46643841.897071838 759429.15920448303 0 759429.15920448303 -42427832.479300976 0 0 0 0 -11437778.304847717 -58483516.778886318 0 -58483516.778886318 359520.21803665161 0 0 0 0 25995183.716449738 -13536416.640127182 0 -13536416.640127182 90080854.944280624 0 0 0 0 60119197.510686874 17654228.345362663 0 17654228.345362663 39415663.683362961 0 0 0 0 26689176.87097168 -21731013.973724842 0 -21731013.973724842 29962456.390867233 0 0 0 0 87861203.894405365 45367205.238886356 0 45367205.238886356 -3213001.127579689 0 0 0 0 25997697.675925683 -1595917.7030297071 0 -1595917.7030297071 -3971401.4524053782 0 0 0 0 34738356.899421692 -20574250.54156208 0 -20574250.54156208 13353189.642540932 0 0 0 0 54028983.970727921 26523510.279928684 0 26523510.279928684 16632577.178781509 0 0 0 0 100346815.29263306 23318168.691817284 0 23318168.691817284 12057458.530808449 0 0 0 0 4498667.0331683978 -86022.334296472371 0 -86022.334296472371 -605781.23647578992 0 0 0 0 143702249.52176666 105947828.94506574 0 105947828.94506574 -2071003.8809490204 0 0 0 0 92106867.792354584 27626930.011588097 0 27626930.011588097 10121883.441184044 0 0 0 0 95278574.704517365 34819476.517616272 0 34819476.517616272 5911215.515335083 0 0 0 0 101521498.81406021 32812053.195899844 0 32812053.195899844 6553417.8806400299 0 0 0 0 89463171.422764778 36225870.141203046 0 36225870.141203046 -6212271.0749816895 0 0 0 0 97213527.069818497 64587208.926967382 0 64587208.926967382 43693227.563577652 0 0 0 0 106182980.35090828 74363710.955710888 0 74363710.955710888 27142232.696439743 0 0 0 0 105419983.02279663 71811743.973426819 0 71811743.973426819 35620238.702537537 0 0 0 0 5591585.7126653381 -888058.35696473531 0 -888058.35696473531 -3216676.8866430772 0 0 0 0 127985301.28204346 75184482.817130566 0 75184482.817130566 21144366.5715518 0 0 0 0 136100780.93748856 39399169.87501955 0 39399169.87501955 62682376.241356373 0 0 0 0 106490211.18964672 144052605.24028695 0 144052605.24028695 143510115.65565014 0 0 0 0 2712075.9841635749 -731693.72325430997 0 -731693.72325430997 -1953465.770179837 0 0 0 0 125270676.38130951 99010964.730019331 0 99010964.730019331 23374760.318881512 0 0 0 0 28669786.532165527 34138464.898793221 0 34138464.898793221 201756875.27316752 0 0 0 0 31004419.472682953 73587206.864367008 0 73587206.864367008 95447466.882455826 0 0 0 0 -14018866.220691681 19641122.206449032 0 19641122.206449032 105985752.10414791 0 0 0 0 -900580.00922012329 66098133.553622246 0 66098133.553622246 58666993.682645321 0 0 0 0 18957242.161902428 28660062.520620108 0 28660062.520620108 118509298.28409767 0 0 0 0 43420232.171699524 109253628.39488769 0 109253628.39488769 164757529.36512673 0 0 0 0 38129466.29309082 54527475.257740021 0 54527475.257740021 69549856.811828852 0 0 0 0 49596873.216846466 171172305.54954553 0 171172305.54954553 204785545.43430805 0 0 0 0 49414892.854617029 199649467.89297247 0 199649467.89297247 300071019.38630247 0 0 0 0 14376959.327571869 106506059.25210834 0 106506059.25210834 230596910.75255394 0 0 0 0 43440067.667396545 121046629.70090103 0 121046629.70090103 200784154.6503908 0 0 0 0 41146632.973800659 86931625.088667393 0 86931625.088667393 297777635.0468297 0 0 0 0 188533067.89658737 243110622.48570228 0 243110622.48570228 319490770.57960892 0 0 0 0 76670815.857879639 117950535.26969433 0 117950535.26969433 425760693.12530613 0 0 0 0 99706811.688903809 122358816.72505283 0 122358816.72505283 267628403.17229748 0 0 0 0 54279752.180221558 33962303.299117088 0 33962303.299117088 271112835.42874992 0 0 0 0 49927687.462722778 80477389.710994244 0 80477389.710994244 363324203.43859863 0 0 0 0 143440670.04062271 140969175.05167913 0 140969175.05167913 326711852.78590107 0 0 0 0 95408976.051250458 74847484.455556393 0 74847484.455556393 223955692.44021797 0 0 0 0 100056241.30667114 -6647349.3721990585 0 -6647349.3721990585 159271944.00743103 0 0 0 0 58884932.356491089 71109905.616615772 0 71109905.616615772 160783794.40055275 0 0 0 0 -14112187.806091309 -40825283.078469276 0 -40825283.078469276 360337889.88027668 0 0 0 0 89928458.290336609 -58542765.866524696 0 -58542765.866524696 102564930.09938431 0 0 0 0 55090163.24659729 7737184.9373245239 0 7737184.9373245239 271338530.3493166 0 0 0 0 77975021.763191223 52042902.093893051 0 52042902.093893051 274502411.14182949 0 0 0 0 73764905.109725952 188612694.75624847 0 188612694.75624847 505155907.84433794 0 0 0 0 -2063845.8973236084 1465660.1648111343 0 1465660.1648111343 445675621.65551567 0 0 0 0 -150505591.77090454 -10515810.759754181 0 -10515810.759754181 629680942.57775879 0 0 0 0 37073684.632579803 60250343.989977598 0 60250343.989977598 410922947.44827461 0 0 0 0 -44278705.304756165 272622944.62801504 0 272622944.62801504 908755117.19235039 0 0 0 0 37356648.982833862 499565387.75239277 0 499565387.75239277 659573734.21997213 0 0 0 0 127475984.76950455 456285497.93044126 0 456285497.93044126 635941015.80949306 0 0 0 0 613256495.87536907 584461802.88184524 0 584461802.88184524 408419394.7130537 0 0 0 0 318776406.32235718 303134515.39264345 0 303134515.39264345 412562186.62765527 0 0 0 0 47657626.204338074 173556291.22470665 0 173556291.22470665 511128158.94791794 0 0 0 0 165047608.10284042 277274536.78999114 0 277274536.78999114 483868936.82297611 0 0 0 0 196942836.21118927 451245889.10038233 0 451245889.10038233 352379818.71383953 0 0 0 0 797262552.54693604 586413493.96891975 0 586413493.96891975 226997325.7144928 0 0 0 0 519028690.54019928 261194440.27402496 0 261194440.27402496 598912221.84905434 0 0 0 0 607748144.54769897 432770626.52991009 0 432770626.52991009 712194380.85107517 0 0 0 0 1252886939.6473083 100288733.27995968 0 100288733.27995968 361061218.61069965 0 0 0 0 314105900.29714966 924354923.44510317 0 924354923.44510317 1311455591.5042744 0 0 0 0 605143941.23197937 274167046.08055353 0 274167046.08055353 303481748.18482113 0 0 0 0 501207782.53121185 130578051.3112011 0 130578051.3112011 141158582.28274822 0 0 0 0 487714221.7742157 212265495.05381489 0 212265495.05381489 165560200.61497688 0 0 0 0 570619063.5789032 152618150.15736008 0 152618150.15736008 173482311.37649059 0 0 0 0 614188212.83135986 293409968.63304186 0 293409968.63304186 216892122.13074112 0 0 0 0 698321319.64707947 439736014.30628967 0 439736014.30628967 543792907.20572948 0 0 0 0 623561316.71644592 356903968.21221066 0 356903968.21221066 556686173.22067833 0 0 0 0 582888023.30754852 178765218.92658663 0 178765218.92658663 302413467.58956432 0 0 0 0 580489520.41860962 321220443.99998093 0 321220443.99998093 629657202.10745621 0 0 0 0 591232271.18174744 206165832.53829628 0 206165832.53829628 422568296.21831608 0 0 0 0 656399978.7856369 328439334.19297493 0 328439334.19297493 387227013.43929672 0 0 0 0 568216568.42681122 174108876.258636 0 174108876.258636 270631119.61229324 0 0 0 0 800368183.07263947 748374656.4969908 0 748374656.4969908 385824575.86694598 0 0 0 0 628688571.49258423 323563578.74471235 0 323563578.74471235 405756591.42024279 0 0 0 0 1067016580.356308 556649826.69964194 0 556649826.69964194 488558431.06564891 0 0 0 0 572788976.54217529 491562805.82823348 0 491562805.82823348 939213001.57205772 0 0 0 0 798642979.14601898 859912895.82568192 0 859912895.82568192 673657154.87539995 0 0 0 0 1010734.9726033024 -924656.27824211121 0 -924656.27824211121 2273692.4518203917 0 0 0 0 830740180.70625305 1006678118.9621413 0 1006678118.9621413 1080531530.1734712 0 0 0 0 -366723768.12221527 -206525117.71704483 0 -206525117.71704483 511403806.19297791 0 0 0 0 -225397085.24008179 136938365.73465919 0 136938365.73465919 1221790444.3414426 0 0 0 0 614594805.24639893 228620263.03683376 0 228620263.03683376 1396286121.6468754 0 0 0 0 -15043892.885307312 -113395943.32044411 0 -113395943.32044411 -31736000.500959396 0 0 0 0 2031770.0525365137 -1166433.583291553 0 -1166433.583291553 6423398.0133623332 0 0 0 0 -16341294.929107666 119919161.47199154 0 119919161.47199154 -51083003.800222397 0 0 0 0 -167185921.7180481 46048274.690671921 0 46048274.690671921 4556309.9161567688 0 0 0 0 65842864.578056335 214956294.33053064 0 214956294.33053064 739043575.47073507 0 0 0 0 1101463291.2150269 722043313.31400216 0 722043313.31400216 348516445.25122356 0 0 0 0 805029.95518098772 1243094.8719472401 0 1243094.8719472401 2473505.8059311192 0 0 0 0 1350564725.2856522 4950444.4640683681 0 4950444.4640683681 -41538147.06283474 0 0 0 0 488427904.00747299 -74568740.326965839 0 -74568740.326965839 83523052.581455469 0 0 0 0 -24666369.09853363 63640952.171345949 0 63640952.171345949 -19669149.099910736 0 0 0 0 1896977.3738615885 5855104.3670693617 0 5855104.3670693617 10518763.531560311 0 0 0 0 25238870.344966888 10559176.542074203 0 10559176.542074203 -21747743.051263809 0 0 0 0 -11662586.966474533 82928721.379106045 0 82928721.379106045 -12047836.340433121 0 0 0 0 43843200.665924072 20162304.924385071 0 20162304.924385071 -45470642.371687293 0 0 0 0 24281685.601951599 7169981.8824849129 0 7169981.8824849129 -22247787.074913025 0 0 0 0 71039933.074935913 2371410.9426593781 0 2371410.9426593781 -22107518.813411713 0 0 0 0 49137953.243875504 38314428.072216034 0 38314428.072216034 7813932.1415405273 0 0 0 0 53678260.20866394 -17641492.763970375 0 -17641492.763970375 122262109.66056347 0 0 0 0 69533294.905833244 43464116.461208344 0 43464116.461208344 125837276.94139099 0 0 0 0 89201866.380012512 -16089567.573306084 0 -16089567.573306084 36303382.827682495 0 0 0 0 57845872.670318604 60251085.776826859 0 60251085.776826859 81968676.838566542 0 0 0 0 37723458.110824585 12720166.867369413 0 12720166.867369413 -4919305.4854831696 0 0 0 0 1064557313.6781642 -687410396.13756084 0 -687410396.13756084 -309384217.87463462 0 0 0 0 574347207.05570793 -682001742.15453625 0 -682001742.15453625 125739776.10275123 0 0 0 0 2199131780.5741501 -1070610794.4505676 0 -1070610794.4505676 -310790786.97057015 0 0 0 0 1044622246.5415573 -589402398.5774622 0 -589402398.5774622 -507850108.90687084 0 0 0 0 1379340301.6222658 -618141881.14795876 0 -618141881.14795876 -583345495.55604756 0 0 0 0 1120568352.5546303 -355210027.35794234 0 -355210027.35794234 -848567313.36046588 0 0 0 0 2205775807.130147 384443266.77611136 0 384443266.77611136 -1220116654.4299166 0 0 0 0 736282261.00297928 -466949092.43730223 0 -466949092.43730223 -338677812.90419924 0 0 0 0 743959799.45289612 -452859565.72749782 0 -452859565.72749782 -397533254.55819631 0 0 0 0 548160503.62556458 -408687275.66029215 0 -408687275.66029215 -119221828.21186605 0 0 0 0 737192846.77836609 -436669596.4137361 0 -436669596.4137361 -203921906.0074296 0 0 0 0 526474261.9639287 -214631214.75003844 0 -214631214.75003844 -148699450.73198223 0 0 0 0 280047822.36373901 -406416331.6220361 0 -406416331.6220361 72061752.456189632 0 0 0 0 548873096.38492966 -506667197.83349508 0 -506667197.83349508 15941348.876297764 0 0 0 0 93071907.936296463 -195829961.65186268 0 -195829961.65186268 277760854.17660785 0 0 0 0 432895909.31231689 -568552573.55993676 0 -568552573.55993676 200398427.09876657 0 0 0 0 140173653.10538101 -83137357.094063044 0 -83137357.094063044 -94487236.287159652 0 0 0 0 460426843.9598217 -287105450.48751855 0 -287105450.48751855 -71376898.033011556 0 0 0 0 150995469.09523678 -8778521.3977845497 0 -8778521.3977845497 -50760588.252360091 0 0 0 0 121506203.60979462 -23324173.307975292 0 -23324173.307975292 -302171957.20003891 0 0 0 0 135455200.73015976 -163001646.32345772 0 -163001646.32345772 -262049922.97433281 0 0 0 0 47715227.819923401 -133469582.61237955 0 -133469582.61237955 -194543728.5627982 0 0 0 0 302023644.62757969 -217179433.00835562 0 -217179433.00835562 -199475027.65678906 0 0 0 0 140993902.39031792 -80195898.630355239 0 -80195898.630355239 -215841867.05952358 0 0 0 0 267257016.73687744 -199722390.09725142 0 -199722390.09725142 -402210221.40832186 0 0 0 0 422490109.84513283 -609121036.31206584 0 -609121036.31206584 105552914.05826376 0 0 0 0 927036338.425313 -1432011949.7833993 0 -1432011949.7833993 641566495.29079843 0 0 0 0 2202851064.832828 1190894350.6045492 0 1190894350.6045492 462470459.94166952 0 0 0 0 -368069620.65341759 -694322562.28326225 0 -694322562.28326225 951508265.74996853 0 0 0 0 3555230.247573466 -1949113.9322808208 0 -1949113.9322808208 1985855.6909161182 0 0 0 0 1139066819.7521291 507784660.17323506 0 507784660.17323506 32621550.077780277 0 0 0 0 -122913140.27373123 -325425025.77502847 0 -325425025.77502847 -360017338.79095697 0 0 0 0 8268920.3868914507 -6094504.8311585542 0 -6094504.8311585542 3435825.9729921813 0 0 0 0 1143370139.5522411 298345524.43689454 0 298345524.43689454 137889.94407486916 0 0 0 0 366887530.05058002 260003520.07610017 0 260003520.07610017 92861628.888782591 0 0 0 0 2204906927.4435568 461406155.36114508 0 461406155.36114508 -343801623.9408493 0 0 0 0 1530648155.4288106 125712724.91435209 0 125712724.91435209 -299011432.28422743 0 0 0 0 1538000997.8129163 84051670.420040816 0 84051670.420040816 -145557514.21398216 0 0 0 0 387283846.91811848 -231445510.00721526 0 -231445510.00721526 -7600437.5398955047 0 0 0 0 1773073680.8396072 -562528980.22822118 0 -562528980.22822118 50065911.197907329 0 0 0 0 2274227.0374971032 -1745152.0950410818 0 -1745152.0950410818 -1408288.7836812767 0 0 0 0 233134427.97329426 30898637.257873774 0 30898637.257873774 -182207070.92542329 0 0 0 0 1823604467.8218367 -925548847.13784587 0 -925548847.13784587 -320105995.50899041 0 0 0 0 1907216625.2030334 127366565.57168455 0 127366565.57168455 -299855570.5245502 0 0 0 0 2204735643.1816921 206515006.83543417 0 206515006.83543417 -97925212.230308622 0 0 0 0 2986111885.4866967 -269434151.62242079 0 -269434151.62242079 -557006604.32394671 0 0 0 0 26691027.07669735 -7619827.2939473391 0 -7619827.2939473391 -77807811.094682813 0 0 0 0 32571173.991693497 -52867854.419115067 0 -52867854.419115067 405300.15079116821 0 0 0 0 -54108881.866524696 -10784958.186910272 0 -10784958.186910272 41115117.76851964 0 0 0 0 -43102634.855457783 -49938657.212428331 0 -49938657.212428331 179249796.26981926 0 0 0 0 -2412083.5605535507 -43254899.618441343 0 -43254899.618441343 57393303.473115683 0 0 0 0 224014742.79174364 137281290.99372715 0 137281290.99372715 5225342.267791152 0 0 0 0 5716871.3462722488 -5724527.1093069902 0 -5724527.1093069902 -3972797.9438320822 0 0 0 0 7689323.7886650562 7334462.2889442146 0 7334462.2889442146 83105290.856554508 0 0 0 0 43603252.040776253 5229882.2454311848 0 5229882.2454311848 -11884931.574446678 0 0 0 0 2533279.767110954 40164.303516541608 0 40164.303516541608 -2150957.2048934279 0 0 0 0 16247090.813050389 -19744520.268599808 0 -19744520.268599808 -79012511.677796364 0 0 0 0 15716138.720538538 -3718401.9538922245 0 -3718401.9538922245 -6750504.2342363028 0 0 0 0 13932609.439224243 114338781.5838294 0 114338781.5838294 -245536270.87188745 0 0 0 0 214173727.5992651 -152061084.89142215 0 -152061084.89142215 47338111.900201336 0 0 0 0 15556275.576892376 -33361260.695486814 0 -33361260.695486814 -218587046.92375565 0 0 0 0 11678716.708610417 -8894182.1171619706 0 -8894182.1171619706 2395934.7943916069 0 0 0 0 94828205.007156372 -65344813.436410904 0 -65344813.436410904 -222631666.99329805 0 0 0 0 119154448.27335167 15526726.473363757 0 15526726.473363757 -309566661.78118515 0 0 0 0 100031971.8873558 -17190490.805430174 0 -17190490.805430174 -338690415.19394922 0 0 0 0 183064579.6673336 -74704029.984925747 0 -74704029.984925747 -331493430.29151821 0 0 0 0 81362073.93850708 -94209326.807450771 0 -94209326.807450771 -416700297.35462868 0 0 0 0 108840304.03639984 62787638.675797462 0 62787638.675797462 -388061797.00843167 0 0 0 0 -144570174.46760559 -49303514.513129473 0 -49303514.513129473 -440232871.0327239 0 0 0 0 -172456224.98649979 307095495.01779032 0 307095495.01779032 -221799700.34455395 0 0 0 0 2196076.7247614264 -276621.14064350352 0 -276621.14064350352 -1916875.2085557263 0 0 0 0 104098622.71641541 30760990.557107449 0 30760990.557107449 -595914580.3598609 0 0 0 0 -504109116.3662262 -148920358.02236331 0 -148920358.02236331 227375.92421603203 0 0 0 0 -153009236.4814949 182160954.78162003 0 182160954.78162003 -475718620.07751167 0 0 0 0 -53240846.606033325 -18550196.588314772 0 -18550196.588314772 -846438911.30148077 0 0 0 0 2075080.2339936346 -1904124.7508182675 0 -1904124.7508182675 -1391052.3246399681 0 0 0 0 11147751.890163422 66575073.937430024 0 66575073.937430024 -831975284.27300167 0 0 0 0 -136930079.22218704 -238403980.59326005 0 -238403980.59326005 -592771893.15391207 0 0 0 0 -232082828.61294937 -86578606.996450782 0 -86578606.996450782 -36191795.963334084 0 0 0 0 5835169.0785062313 -20478843.927098244 0 -20478843.927098244 3972525.5648956299 0 0 0 0 5395883.3089043312 -8831119.440935418 0 -8831119.440935418 6036728.2282562722 0 0 0 0 14734285.648540497 29710878.082183838 0 29710878.082183838 -159367809.41081166 0 0 0 0 13857706.2854518 -3403995.2229670091 0 -3403995.2229670091 -6142917.079675789 0 0 0 0 7683763.1219379902 -11671804.818819225 0 -11671804.818819225 -3884646.3751726151 0 0 0 0 15997142.108325958 -17088216.977970123 0 -17088216.977970123 -2095027.0082454681 0 0 0 0 237035.07616996765 -22898263.11661756 0 -22898263.11661756 45797936.802039385 0 0 0 0 32340248.433439732 -33671100.879457414 0 -33671100.879457414 13793628.873464584 0 0 0 0 -6492302.564907074 -5594938.0588217378 0 -5594938.0588217378 5798365.0783646107 0 0 0 0 -10100582.42978096 -5592916.0453404188 0 -5592916.0453404188 17503063.542264223 0 0 0 0 10465366.904051304 -25063055.716506958 0 -25063055.716506958 6864605.2532634735 0 0 0 0 -2191615.8079805374 2951652.4501997232 0 2951652.4501997232 5385396.6249952316 0 0 0 0 10997571.429691076 33832565.417404726 0 33832565.417404726 18270875.679783344 0 0 0 0 12054631.374059677 2480757.8666516542 0 2480757.8666516542 -47063799.269082628 0 0 0 0 -346500252.65729332 -234926537.33480299 0 -234926537.33480299 37926766.450431824 0 0 0 0 340000663.63626289 34811726.732902512 0 34811726.732902512 -97668862.369036138 0 0 0 0 7672762.0333896242 -3907709.6620106697 0 -3907709.6620106697 -970517.50555248722 0 0 0 0 4011992.8884410858 -1060512.0240226984 0 -1060512.0240226984 -15776506.931300938 0 0 0 0 5510295.5716729313 -6110913.2766402336 0 -6110913.2766402336 3913144.6693056729 0 0 0 0 -321560690.22631073 -240659282.57804805 0 -240659282.57804805 -45410108.903326511 0 0 0 0 -258724814.02538776 -50692736.642546549 0 -50692736.642546549 60882321.319324017 0 0 0 0 351482237.25141716 -180521624.26078412 0 -180521624.26078412 -96130794.833162069 0 0 0 0 2158628.98828125 62964494.286813736 0 62964494.286813736 -36571182.683277369 0 0 0 0 -248117258.34635162 -111315627.40080237 0 -111315627.40080237 -48476249.62050274 0 0 0 0 -74193889.41180706 -203903419.0729242 0 -203903419.0729242 -125121124.49930477 0 0 0 0 107483121.14991951 -52179336.146612883 0 -52179336.146612883 -419667943.94367123 0 0 0 0 -44636402.34444809 -24951242.924159527 0 -24951242.924159527 -100769505.63860309 0 0 0 0 149519340.91657495 96427588.219144657 0 96427588.219144657 -91029016.632855415 0 0 0 0 434331694.93075562 -41449685.677164197 0 -41449685.677164197 -202518323.54419816 0 0 0 0 375399603.52067375 206963285.01795837 0 206963285.01795837 -189495185.55885065 0 0 0 0 255900290.31528664 285966537.19684571 0 285966537.19684571 70509285.083610609 0 0 0 0 140100153.86796284 22325353.331109092 0 22325353.331109092 -255157290.63267553 0 0 0 0 252121.07490543649 -460771.57599853491 0 -460771.57599853491 100762.88125991655 0 0 0 0 28391778.064373016 161134495.50417873 0 161134495.50417873 -232311479.95973706 0 0 0 0 -66370332.527038574 22032258.366752744 0 22032258.366752744 -179945383.07017028 0 0 0 0 -462392019.32542992 -149823417.13009441 0 -149823417.13009441 -373952828.25940967 0 0 0 0 -115170246.85124969 83428072.68982935 0 83428072.68982935 -259217883.79513454 0 0 0 0 32704016.839698792 11348581.727600813 0 11348581.727600813 -159329349.60039461 0 0 0 0 63772410.074584007 4585011.2730118781 0 4585011.2730118781 -436198747.05284691 0 0 0 0 -183494561.24158478 -157081393.62641048 0 -157081393.62641048 -286684482.00371766 0 0 0 0 -39943251.527404785 -106637313.07741657 0 -106637313.07741657 -83329567.478414714 0 0 0 0 -111176704.19513512 -29828584.63694182 0 -29828584.63694182 -126521896.79099452 0 0 0 0 590158.59839400277 -1104194.2345218202 0 -1104194.2345218202 240676.0723039736 0 0 0 0 -94333088.341968536 51189364.854198441 0 51189364.854198441 -32514488.019845571 0 0 0 0 137971597.12678146 5933660.4345178604 0 5933660.4345178604 -256557561.89173305 0 0 0 0 275187036.84271812 -342989221.87612116 0 -342989221.87612116 -125758699.11018276 0 0 0 0 251247.10568610579 -871974.87191362167 0 -871974.87191362167 221209.28363875771 0 0 0 0 100013737.72599125 120636728.75107594 0 120636728.75107594 -21250255.532931447 0 0 0 0 223726959.14094925 183682827.65573049 0 183682827.65573049 -22440653.336622 0 0 0 0 257544470.48375654 169464637.64430767 0 169464637.64430767 -51225624.018265963 0 0 0 0 261873490.06954193 187282707.8842234 0 187282707.8842234 -22525742.818090141 0 0 0 0 414076007.83860779 201485603.41345802 0 201485603.41345802 -46735046.602270707 0 0 0 0 82067994.035058975 203998519.88544858 0 203998519.88544858 46982740.294882059 0 0 0 0 324505821.93143845 94973849.090578914 0 94973849.090578914 -54115765.739023134 0 0 0 0 330025782.96648026 95794669.918824881 0 95794669.918824881 -60374013.983001873 0 0 0 0 261387461.81789207 152589272.22840118 0 152589272.22840118 -31389503.108971238 0 0 0 0 249818451.02739716 59948223.707692385 0 59948223.707692385 -70538039.230287671 0 0 0 0 27120947.384178162 -53603101.565652132 0 -53603101.565652132 -28311668.703951001 0 0 0 0 272742948.97940826 -102896202.23600781 0 -102896202.23600781 -23168974.778275371 0 0 0 0 303908063.35110474 -89931709.429683179 0 -89931709.429683179 -17898933.602215886 0 0 0 0 241406728.98006821 -82466482.259944245 0 -82466482.259944245 3366894.0009013414 0 0 0 0 533612564.02024841 -174637201.18252796 0 -174637201.18252796 57260920.958418667 0 0 0 0 276512973.54259109 -65488846.846495397 0 -65488846.846495397 11135272.798193246 0 0 0 0 451696286.0321033 -442772424.2257424 0 -442772424.2257424 186990440.16937876 0 0 0 0 482900840.42093349 -230621385.28492901 0 -230621385.28492901 15915706.325067997 0 0 0 0 634639351.90531921 -311235606.94534898 0 -311235606.94534898 58743642.778339267 0 0 0 0 723093010.55537796 -70871951.634443164 0 -70871951.634443164 -100863707.91091686 0 0 0 0 402565381.03325272 6823634.8206262141 0 6823634.8206262141 -41008508.842989922 0 0 0 0 496645634.30039978 71339373.079149067 0 71339373.079149067 -74112008.529851243 0 0 0 0 559737474.79262066 120478801.75813496 0 120478801.75813496 -49589006.679251671 0 0 0 0 730476824.01710892 -145985010.46515608 0 -145985010.46515608 -17116261.026714325 0 0 0 0 818153639.80367804 -341047526.77217007 0 -341047526.77217007 428286416.24740601 0 0 0 0 932668033.50232315 -58786163.122668743 0 -58786163.122668743 -4867759.4465750456 0 0 0 0 841764265.40872192 -221074314.12363595 0 -221074314.12363595 -32077967.742801558 0 0 0 0 583320232.51375961 -318546912.36472416 0 -318546912.36472416 96469046.240306407 0 0 0 0 483719298.34027195 32646998.402312815 0 32646998.402312815 -8410409.0164077282 0 0 0 0 1108186867.4188805 -335338677.88059127 0 -335338677.88059127 230308455.62148064 0 0 0 0 1285597101.6934509 -946571272.67875457 0 -946571272.67875457 513495159.47983873 0 0 0 0 1401052704.5573845 -884946174.58792663 0 -884946174.58792663 281051265.75732338 0 0 0 0 1086788369.0101552 -901581843.72207105 0 -901581843.72207105 311801825.00450993 0 0 0 0 1152010514.5874653 -237795875.96243694 0 -237795875.96243694 -196494704.49735406 0 0 0 0 2219555968.7710094 -687995533.1090765 0 -687995533.1090765 -122924338.65050137 0 0 0 0 4212432.4243996851 -2087345.2383440635 0 -2087345.2383440635 -857971.83582189726 0 0 0 0 99890067.805797577 30842692.967787504 0 30842692.967787504 -51834750.587234139 0 0 0 0 11695846.899938583 -28141573.022510767 0 -28141573.022510767 -26121486.772792339 0 0 0 0 162007.72106370702 -228951.43447534367 0 -228951.43447534367 117818.72385707195 0 0 0 0 1133684286.0805409 -482444827.03903264 0 -482444827.03903264 -104408912.68271473 0 0 0 0 1717622838.0902634 -914812754.68944168 0 -914812754.68944168 105106031.57397175 0 0 0 0 1492711562.7326393 -543378544.23891044 0 -543378544.23891044 427702455.81814742 0 0 0 0 2414863774.0498953 -955346628.14441383 0 -955346628.14441383 123070203.77996778 0 0 0 0 -10247.329328217194 -114004.32102741674 0 -114004.32102741674 2548191.1805690657 0 0 0 0 1324350168.0896168 -979743860.98225582 0 -979743860.98225582 1400177016.221478 0 0 0 0 22316012.345245838 91514469.10814178 0 91514469.10814178 441328229.54729748 0 0 0 0 76624065.332389832 -580938109.67939019 0 -580938109.67939019 741806280.8105886 0 0 0 0 884323148.96367645 -762050054.46686935 0 -762050054.46686935 312572985.44835925 0 0 0 0 1216082917.5196743 -273837177.91016567 0 -273837177.91016567 214803781.72954154 0 0 0 0 972305657.48606873 -445344211.21556103 0 -445344211.21556103 98013182.501961231 0 0 0 0 703161764.77314734 -319807042.82797724 0 -319807042.82797724 39683576.953545213 0 0 0 0 667644461.42215395 -585487342.63022482 0 -585487342.63022482 185370813.35178924 0 0 0 0 324114767.97702789 -419183271.81857932 0 -419183271.81857932 197816799.67540944 0 0 0 0 323164596.58614349 -472528005.8016355 0 -472528005.8016355 250298642.11603117 0 0 0 0 462603454.91100311 -153108687.90974355 0 -153108687.90974355 206827133.66918454 0 0 0 0 116112081.76888752 -477501645.03817964 0 -477501645.03817964 200568555.42492652 0 0 0 0 -64393283.360543251 -146237638.23837173 0 -146237638.23837173 228403032.25014114 0 0 0 0 304455393.32686615 -591633578.48967218 0 -591633578.48967218 279323923.81806219 0 0 0 0 160110812.29147339 -154321796.93924356 0 -154321796.93924356 10795088.721920967 0 0 0 0 4752154.8054658808 -1450436.7139546922 0 -1450436.7139546922 -1520050.8523287927 0 0 0 0 295146762.95793152 -169054982.15288067 0 -169054982.15288067 56345416.259905815 0 0 0 0 276080560.10336876 -198691095.89709991 0 -198691095.89709991 65729731.939808369 0 0 0 0 211789888.31235886 -102392966.57888633 0 -102392966.57888633 10316455.938178062 0 0 0 0 28804738.374429703 -44089400.55868125 0 -44089400.55868125 28886613.985590935 0 0 0 0 451029854.81814194 -136938953.359478 0 -136938953.359478 -99899755.640748262 0 0 0 0 411765447.58637619 -244194139.54455817 0 -244194139.54455817 -20015450.513314962 0 0 0 0 103795025.62060547 14016104.183487117 0 14016104.183487117 -36304071.886485577 0 0 0 0 741280764.19191742 -180757477.8027392 0 -180757477.8027392 -122450903.55438083 0 0 0 0 -145856204.03937531 12858270.147695959 0 12858270.147695959 -12038349.959243059 0 0 0 0 -507851.45569078252 43871.781182331964 0 43871.781182331964 1475250.7866021404 0 0 0 0 393735061.69727325 -100129803.56810999 0 -100129803.56810999 113344016.27287149 0 0 0 0 2204654.8152522556 -595110.53598317131 0 -595110.53598317131 -794160.27133590833 0 0 0 0 543691053.14548874 -589363687.24209404 0 -589363687.24209404 444474185.79885471 0 0 0 0 722848785.7024231 122373684.90613222 0 122373684.90613222 -916597336.69054461 0 0 0 0 924921444.69034004 -468384006.39112222 0 -468384006.39112222 177048973.56685138 0 0 0 0 898871675.8392334 -6479985.706577301 0 -6479985.706577301 -823670194.2216661 0 0 0 0 623062804.40270996 -657473780.44800627 0 -657473780.44800627 617069330.65563619 0 0 0 0 1042051859.3988037 248524812.09289575 0 248524812.09289575 -838391172.08186221 0 0 0 0 -642429443.16260529 76872046.777996182 0 76872046.777996182 -5814801.4005792141 0 0 0 0 1966683.7107131146 -1076706.7529425179 0 -1076706.7529425179 -564609.82249306166 0 0 0 0 315187564.26121712 -267182679.84023717 0 -267182679.84023717 130313073.72215474 0 0 0 0 737911091.8962326 -487093035.39480221 0 -487093035.39480221 230363347.28629971 0 0 0 0 176773676.88857508 -308352378.01843029 0 -308352378.01843029 376046543.78752542 0 0 0 0 577687206.11417389 -363402281.19038701 0 -363402281.19038701 138317730.96324372 0 0 0 0 701695180.31329203 -356396911.15307766 0 -356396911.15307766 145834130.54703307 0 0 0 0 533498907.94987297 -436425454.81970263 0 -436425454.81970263 124220665.97246632 0 0 0 0 447301750.26394653 -395156397.6914314 0 -395156397.6914314 224049749.60900161 0 0 0 0 411141741.44671249 -445447365.06467247 0 -445447365.06467247 251051106.93759942 0 0 0 0 401062128.74947739 -489783945.46557492 0 -489783945.46557492 156999287.62492925 0 0 0 0 118676589.5980835 -337609296.35335892 0 -337609296.35335892 239291398.83377102 0 0 0 0 435534518.63176727 -422492740.72499287 0 -422492740.72499287 169043332.62498087 0 0 0 0 801392592.37094879 -432108177.55958283 0 -432108177.55958283 101279371.07418749 0 0 0 0 396847284.43735313 -572466524.50727844 0 -572466524.50727844 210634822.92793757 0 0 0 0 -515700074.91717148 -372679231.44069707 0 -372679231.44069707 186449383.80614662 0 0 0 0 1140262.688875474 -1345755.9965340719 0 -1345755.9965340719 1609345.1008720738 0 0 0 0 900328634.26398087 -647293623.46545625 0 -647293623.46545625 383712494.7985394 0 0 0 0 636376972.89901733 -362873934.01581407 0 -362873934.01581407 223674518.46993172 0 0 0 0 553641952.21830368 -343836537.03396463 0 -343836537.03396463 220263718.98562258 0 0 0 0 541347275.87177467 -341706728.75209093 0 -341706728.75209093 440774967.77754343 0 0 0 0 702124523.82791901 -253267733.91282809 0 -253267733.91282809 225751360.33703271 0 0 0 0 621193425.65784836 -66086642.2400776 0 -66086642.2400776 65703696.878853321 0 0 0 0 525781606.92544174 -436837632.49191684 0 -436837632.49191684 213027374.7479817 0 0 0 0 515471572.26728249 -409134117.94925469 0 -409134117.94925469 256961119.2917147 0 0 0 0 1507293449.4182701 34718746.376356468 0 34718746.376356468 73255799.669037968 0 0 0 0 127607627.25559998 -163127405.63531649 0 -163127405.63531649 -240749650.74099422 0 0 0 0 -331488799.34109116 -294174150.19558477 0 -294174150.19558477 -142758513.85366607 0 0 0 0 3319420.1134068239 -3821277.3988694418 0 -3821277.3988694418 3247436.3006886216 0 0 0 0 492827037.84734249 164812304.21037939 0 164812304.21037939 131527036.60143553 0 0 0 0 428471734.24258041 43117879.3170055 0 43117879.3170055 73229707.076287314 0 0 0 0 278597232.82767677 137528862.36683193 0 137528862.36683193 150963618.76640844 0 0 0 0 325710044.35481071 -23531291.353934668 0 -23531291.353934668 -96196436.612998754 0 0 0 0 206978104.55158234 -30228844.640738159 0 -30228844.640738159 -4743698.0383900702 0 0 0 0 329318960.86164856 40120357.768443257 0 40120357.768443257 -218721967.28185755 0 0 0 0 282503372.86787033 61967247.08509998 0 61967247.08509998 -354098079.11654139 0 0 0 0 194370183.12589645 208772612.78586379 0 208772612.78586379 -388227298.86364341 0 0 0 0 243047106.82857704 -51206861.46026177 0 -51206861.46026177 -105276315.94330239 0 0 0 0 303863473.12956238 84152693.936129183 0 84152693.936129183 -171097411.34778976 0 0 0 0 203284994.21853638 36018208.298792362 0 36018208.298792362 -190285139.70936522 0 0 0 0 266568343.39937592 3047194.1813084483 0 3047194.1813084483 -330262686.73339885 0 0 0 0 191020935.57071686 -67978648.097498 0 -67978648.097498 -263543024.4692955 0 0 0 0 179386366.26421356 34513129.815039545 0 34513129.815039545 -185618954.92140529 0 0 0 0 -3681292.8029708862 -125848374.78249592 0 -125848374.78249592 -76365684.328291044 0 0 0 0 333252103.64753723 -99374172.481028229 0 -99374172.481028229 -80358231.10538131 0 0 0 0 196692954.20908737 -76645974.105252773 0 -76645974.105252773 74043760.327088043 0 0 0 0 202367582.21066284 -355976617.47635442 0 -355976617.47635442 99565349.979272515 0 0 0 0 435586611.81813955 -319476517.40009212 0 -319476517.40009212 83260845.149032354 0 0 0 0 308132214.82295084 -204452000.94169956 0 -204452000.94169956 -158024754.47526929 0 0 0 0 103330188.74507141 -394261231.20987213 0 -394261231.20987213 -324055070.84539634 0 0 0 0 -109012649.2881012 -34697663.142913669 0 -34697663.142913669 -149347592.80394524 0 0 0 0 -31551687.659744263 -140224336.9214474 0 -140224336.9214474 -464619062.50035405 0 0 0 0 1896002.747378435 304859.87089966238 0 304859.87089966238 -1269163.5587887028 0 0 0 0 -230607832.4292984 -187954017.58216867 0 -187954017.58216867 -47020006.75262183 0 0 0 0 1436032.2218179107 -439953.97581711784 0 -439953.97581711784 -1342223.6515280956 0 0 0 0 44988669.81842804 -224901632.54046792 0 -224901632.54046792 -536721074.81999844 0 0 0 0 42166587.64024353 74376009.625678793 0 74376009.625678793 -399669028.95512819 0 0 0 0 131213943.88269043 -59378932.695642501 0 -59378932.695642501 -220713367.59104031 0 0 0 0 -5301048.1616485119 -106992004.48388918 0 -106992004.48388918 -191634275.45902491 0 0 0 0 16189097.515670776 -33949825.693247616 0 -33949825.693247616 -36807821.687195182 0 0 0 0 10189699.827342987 -1199564.5163092613 0 -1199564.5163092613 -123583.02162840962 0 0 0 0 5699602.2934408039 -3816052.096505044 0 -3816052.096505044 -1700998.2286449126 0 0 0 0 -14040813.964569092 2337984.1911627054 0 2337984.1911627054 -41858897.285854049 0 0 0 0 7880453.9438297674 2279512.4270533528 0 2279512.4270533528 -2820720.1288873162 0 0 0 0 7953971.8599014282 -1120896.6913684607 0 -1120896.6913684607 -120052.2262699753 0 0 0 0 9239065.5842781067 -1328877.1226002723 0 -1328877.1226002723 -2815168.1572050452 0 0 0 0 13510373.349559784 14488274.424197972 0 14488274.424197972 -30756662.204776764 0 0 0 0 5663004.1764007732 -3400340.3492988087 0 -3400340.3492988087 -2107870.9078630814 0 0 0 0 6666695.8265686035 -2690253.0084543228 0 -2690253.0084543228 -2979586.2561126053 0 0 0 0 7696453.6163840294 -3604685.4748661835 0 -3604685.4748661835 -6206881.250764668 0 0 0 0 9898045.9580383301 -2162912.6957076192 0 -2162912.6957076192 -8693016.7427666187 0 0 0 0 4157256.1848959159 994955.28438718989 0 994955.28438718989 -1592753.2943768834 0 0 0 0 433744356.26034546 -16229407.617514729 0 -16229407.617514729 84748657.423111439 0 0 0 0 356752571.91931915 88569264.626712799 0 88569264.626712799 27039679.199925423 0 0 0 0 14370144.809425354 -2407218.6794576645 0 -2407218.6794576645 6072008.3481280804 0 0 0 0 6049059.951656945 -3324414.0746995956 0 -3324414.0746995956 -3029959.3776495135 0 0 0 0 7789587.9377110004 -1894621.7919557355 0 -1894621.7919557355 -4018131.8789492249 0 0 0 0 -2973033.0714645386 -6158400.1179867983 0 -6158400.1179867983 5279974.2429559827 0 0 0 0 2085115.0829874035 95629.665035918355 0 95629.665035918355 -1698107.6872021433 0 0 0 0 792917172.6640377 -84147491.306580186 0 -84147491.306580186 -282317731.71660089 0 0 0 0 12181028.812606812 8237051.94663167 0 8237051.94663167 -57706097.913547516 0 0 0 0 21194819.862413406 12779279.189190999 0 12779279.189190999 -55457067.272919297 0 0 0 0 32193179.858177185 7663538.5033403039 0 7663538.5033403039 -211227821.25134254 0 0 0 0 149370296.0399704 22974818.768148363 0 22974818.768148363 -209993343.02827391 0 0 0 0 104607870.40410233 114503609.89422172 0 114503609.89422172 -306008066.46991539 0 0 0 0 127188572.71440506 -34835306.244569153 0 -34835306.244569153 -323270363.67912227 0 0 0 0 570777.37060212344 -232192.91898143664 0 -232192.91898143664 -803949.36578088044 0 0 0 0 -229424361.37401199 296423401.26351625 0 296423401.26351625 -216700091.48019886 0 0 0 0 -75137015.78478241 112470340.94072521 0 112470340.94072521 -125589857.82520723 0 0 0 0 85197734.216629028 104961891.19151902 0 104961891.19151902 -295907908.44123256 0 0 0 0 89075386.396911621 282716156.73317605 0 282716156.73317605 -389743734.48049617 0 0 0 0 316961008.72628021 -3726529.732409358 0 -3726529.732409358 -144766125.45037699 0 0 0 0 649576824.40489578 -437638553.9974227 0 -437638553.9974227 -215465681.03319532 0 0 0 0 166348485.90615082 -466005549.7709161 0 -466005549.7709161 -100748259.56270409 0 0 0 0 5737909.9326531179 -7370888.8536949083 0 -7370888.8536949083 6107325.7989736805 0 0 0 0 -9153607.9896450043 -99313002.720113993 0 -99313002.720113993 -69979127.282091141 0 0 0 0 382689643.17701721 -137308342.46869397 0 -137308342.46869397 266275557.8193512 0 0 0 0 382709977.2234993 -137698607.52828932 0 -137698607.52828932 -592258834.36310077 0 0 0 0 445836013.48564911 -34509161.109383345 0 -34509161.109383345 -181624791.28699374 0 0 0 0 444836023.586689 56275302.949240685 0 56275302.949240685 10999293.152028322 0 0 0 0 -188864248.30028534 227361079.36764789 0 227361079.36764789 -153290036.77553678 0 0 0 0 -714139858.28931427 -422075680.15997839 0 -422075680.15997839 -22959008.701611519 0 0 0 0 -592960909.49227571 -1110328684.7007637 0 -1110328684.7007637 4769577.7110848427 0 0 0 0 788755326.2540741 -294545632.97449183 0 -294545632.97449183 -126156711.60697472 0 0 0 0 357944286.26070213 -1132707898.0472519 0 -1132707898.0472519 -284186373.62041187 0 0 0 0 429099899.80657578 -49846435.816102386 0 -49846435.816102386 12698951.084001541 0 0 0 0 464112300.23988342 -194186051.34312844 0 -194186051.34312844 440374738.65583837 0 0 0 0 418695746.09095955 176877947.29175198 0 176877947.29175198 199166750.87551546 0 0 0 0 2360493.4592284188 -629337.30172645533 0 -629337.30172645533 -304456.30408437853 0 0 0 0 1148892939.03619 348630007.27742064 0 348630007.27742064 -433942092.52384472 0 0 0 0 980581371.09321213 402741036.17983007 0 402741036.17983007 -394526760.84308338 0 0 0 0 -72990984.450092316 73600251.839878559 0 73600251.839878559 -90303052.768913269 0 0 0 0 1444375631.015583 355416386.36423063 0 355416386.36423063 -446528800.28064108 0 0 0 0 -983008954.5968399 -25260833.779487252 0 -25260833.779487252 501982696.31009686 0 0 0 0 1199371750.1820526 254590416.12387466 0 254590416.12387466 -258952216.81789112 0 0 0 0 299298218.22429657 -70376161.416739225 0 -70376161.416739225 34013514.654081345 0 0 0 0 515872634.56355667 643426452.1470108 0 643426452.1470108 911360029.62422419 0 0 0 0 4294392.3403835166 -6694609.1249966603 0 -6694609.1249966603 7820574.5791528346 0 0 0 0 140051213.82575226 -258889831.32745266 0 -258889831.32745266 391919601.01128769 0 0 0 0 652773028.35111618 -350147410.6215992 0 -350147410.6215992 6430574.3211598396 0 0 0 0 291615854.61456633 -273253405.25498033 0 -273253405.25498033 -101582115.31115437 0 0 0 0 294349862.24124694 -174682755.12444305 0 -174682755.12444305 -79336263.811768532 0 0 0 0 355750379.80291748 -205393120.50460887 0 -205393120.50460887 -143567201.61335897 0 0 0 0 342627168.32370377 66476659.757417679 0 66476659.757417679 -67532035.306153297 0 0 0 0 219477741.96456528 -77584724.391008377 0 -77584724.391008377 -118227726.2062974 0 0 0 0 26426387.781406403 -32413919.069082975 0 -32413919.069082975 -75285732.751607895 0 0 0 0 236723574.63999557 -181552788.56877017 0 -181552788.56877017 -137011682.24856544 0 0 0 0 227023232.61713958 -260242325.0467096 0 -260242325.0467096 -164634929.98867512 0 0 0 0 192433158.08287048 -166727150.68071508 0 -166727150.68071508 -102632617.02460623 0 0 0 0 145318492.47393653 -153889710.76857555 0 -153889710.76857555 -98036874.115743637 0 0 0 0 133718771.57613754 -120312040.75499439 0 -120312040.75499439 -31945800.903471589 0 0 0 0 141506785.54840088 -38632779.808275938 0 -38632779.808275938 -62709233.750828385 0 0 0 0 131351073.69198227 -47522316.729965568 0 -47522316.729965568 -15377232.366387844 0 0 0 0 127849675.75378036 -74941619.060402155 0 -74941619.060402155 -121863606.23394156 0 0 0 0 119656350.34545135 -83712671.57384932 0 -83712671.57384932 -122947999.18978357 0 0 0 0 57202976.691574097 -112646641.79251719 0 -112646641.79251719 -102368255.15871763 0 0 0 0 -119303295.41592789 -79656389.245800495 0 -79656389.245800495 -74751652.038986444 0 0 0 0 40258745.882508278 -66839913.595029652 0 -66839913.595029652 -94995002.290860176 0 0 0 0 5028563.0867933724 -5788889.2493879311 0 -5788889.2493879311 4047649.7515695626 0 0 0 0 146366172.65511703 377615967.9309833 0 377615967.9309833 -68494549.603303671 0 0 0 0 -175121421.80138206 -217090038.50024927 0 -217090038.50024927 -114715856.76447725 0 0 0 0 56025910.090755463 -109855286.4097445 0 -109855286.4097445 -159770842.71302509 0 0 0 0 56604563.016113281 -74100082.918482542 0 -74100082.918482542 -75124152.745302439 0 0 0 0 -32186113.36126709 -84024848.09955585 0 -84024848.09955585 -91966013.534202337 0 0 0 0 84169705.968547821 -103095448.59080148 0 -103095448.59080148 -162827613.17426348 0 0 0 0 -17757580.562072754 -131606780.69215631 0 -131606780.69215631 -191108576.0549953 0 0 0 0 191485692.82369995 -7433832.1271703243 0 -7433832.1271703243 -151494473.4107523 0 0 0 0 168585138.56512403 61395400.832656085 0 61395400.832656085 -49245401.839102268 0 0 0 0 197863168.21675396 65715186.28554368 0 65715186.28554368 -15230563.502856731 0 0 0 0 157211739.48674393 235148.1883122921 0 235148.1883122921 -94171101.145973682 0 0 0 0 129320684.10834217 -1170521.502332747 0 -1170521.502332747 -68982155.161195278 0 0 0 0 219501315.196064 100337049.49128854 0 100337049.49128854 109632428.03267193 0 0 0 0 191609012.39836121 122727131.23764515 0 122727131.23764515 105828818.93417609 0 0 0 0 169380402.50047874 74411506.731360078 0 74411506.731360078 21011658.840939999 0 0 0 0 239930343.56474304 160161506.33027947 0 160161506.33027947 -9340526.7506484985 0 0 0 0 197489172.5085907 195094804.70188028 0 195094804.70188028 82095508.657596588 0 0 0 0 458141069.35897827 141702372.89522076 0 141702372.89522076 65634001.155210972 0 0 0 0 277283815.17079544 34988729.222442627 0 34988729.222442627 11864900.480828404 0 0 0 0 409321878.13578749 -77586783.496991098 0 -77586783.496991098 -30655608.530025959 0 0 0 0 634685521.32271099 64208116.704737663 0 64208116.704737663 142397908.44004583 0 0 0 0 605863746.64224625 217126123.60659647 0 217126123.60659647 187115170.83310986 0 0 0 0 836202406.42950058 122873560.66053867 0 122873560.66053867 55610988.764283419 0 0 0 0 391990249.5662384 66753327.201167822 0 66753327.201167822 99754136.356066942 0 0 0 0 273762187.3570652 174770216.21529651 0 174770216.21529651 206366790.88283396 0 0 0 0 292117715.28990936 149846092.40702021 0 149846092.40702021 452289345.88960505 0 0 0 0 239782624.74635696 30848577.666759014 0 30848577.666759014 239984861.97674048 0 0 0 0 778988957.11448479 -86170510.746916533 0 -86170510.746916533 466739828.91071415 0 0 0 0 509230715.08135986 139965409.38216376 0 139965409.38216376 492481138.21756363 0 0 0 0 376887320.88160324 -61216972.772737503 0 -61216972.772737503 309265525.38007522 0 0 0 0 261104550.35214424 39359614.420255661 0 39359614.420255661 240972617.68062973 0 0 0 0 73814276.175479889 -91542565.235050678 0 -91542565.235050678 243485416.58357048 0 0 0 0 114408131.76748085 -85489366.847151518 0 -85489366.847151518 138047941.57397985 0 0 0 0 195639938.71775436 75793893.708739519 0 75793893.708739519 214740070.74240303 0 0 0 0 125715287.78911972 -11198185.109470844 0 -11198185.109470844 125505565.89412093 0 0 0 0 147633279.48872471 -7303868.6726611853 0 -7303868.6726611853 81533053.967986584 0 0 0 0 80150655.593730927 -154130483.06474113 0 -154130483.06474113 48417899.768775284 0 0 0 0 145277522.91724044 -160951700.05780873 0 -160951700.05780873 11237946.178306103 0 0 0 0 83357537.369088173 -232263329.86702281 0 -232263329.86702281 -20735485.387916565 0 0 0 0 74420360.357723236 -267221341.40578938 0 -267221341.40578938 -60944684.287584305 0 0 0 0 -181805392.0397563 -89870357.439917803 0 -89870357.439917803 -1244011.4427957535 0 0 0 0 117884585.55108261 -98825447.805223107 0 -98825447.805223107 -3275285.2961492538 0 0 0 0 -17465353.410507202 -231418508.81861782 0 -231418508.81861782 109089827.7299931 0 0 0 0 -137530447.6958313 -371728398.46580029 0 -371728398.46580029 -104182159.40699267 0 0 0 0 156879184.08806229 -212743458.36713314 0 -212743458.36713314 -110209800.27501607 0 0 0 0 142235600.88145828 -286866375.17379856 0 -286866375.17379856 -400931958.22810411 0 0 0 0 6349704.0067214966 -69598511.711341858 0 -69598511.711341858 127507420.25531673 0 0 0 0 28506177.604660034 -37490414.638696671 0 -37490414.638696671 -35423647.745670795 0 0 0 0 48087142.807277679 18502275.754449368 0 18502275.754449368 -131653763.49855947 0 0 0 0 53445203.454170227 43709845.567342162 0 43709845.567342162 -15667254.07499218 0 0 0 0 668647.64419499785 532206.04192457907 0 532206.04192457907 -1613818.6759070526 0 0 0 0 1172571.9863128662 -9127441.4158670902 0 -9127441.4158670902 -6736821.5125427246 0 0 0 0 5140079.2155160904 -1800919.3562913504 0 -1800919.3562913504 -1024713.6152213359 0 0 0 0 10084937.168107033 -20494480.106330752 0 -20494480.106330752 -6347791.3031787872 0 0 0 0 -51737137.498970032 -253777170.37174129 0 -253777170.37174129 -354685538.68680513 0 0 0 0 -52720119.932295918 -443169924.85863405 0 -443169924.85863405 93700521.61989212 0 0 0 0 1229180.4823820964 78188.122232489288 0 78188.122232489288 -395328.08521431265 0 0 0 0 446768995.5669899 -231457479.49467826 0 -231457479.49467826 115847969.67076015 0 0 0 0 78063980.534873962 145294292.84130278 0 145294292.84130278 -321627276.8820796 0 0 0 0 -330134.45825200528 -110977.90269038733 0 -110977.90269038733 -235909.09144654556 0 0 0 0 6570827.6726313606 -1258197.6831544866 0 -1258197.6831544866 -2783340.4266956151 0 0 0 0 -23446528.022743225 -164238985.48379016 0 -164238985.48379016 -294876556.70422792 0 0 0 0 3140148.522833012 1558195.1802105382 0 1558195.1802105382 -5808317.3096405109 0 0 0 0 27764047.193817139 1464598.8583421707 0 1464598.8583421707 -22637698.279732108 0 0 0 0 -245970125.66409492 -456151354.63681555 0 -456151354.63681555 -392229641.91099501 0 0 0 0 136600590.50588608 -65774437.004874706 0 -65774437.004874706 -267562650.34239006 0 0 0 0 585478145.80524826 160699046.31212294 0 160699046.31212294 -337665861.18373561 0 0 0 0 161122253.74280167 -94195269.568995714 0 -94195269.568995714 -253874001.74437237 0 0 0 0 610814513.35984945 125544534.39767453 0 125544534.39767453 -228005399.32574749 0 0 0 0 629006284.61089706 -25931173.671695232 0 -25931173.671695232 -321469193.49719608 0 0 0 0 180893863.87494469 -126481228.71531379 0 -126481228.71531379 -35963044.786739826 0 0 0 0 219342203.03825378 -78672999.934285641 0 -78672999.934285641 -412262089.12831283 0 0 0 0 463167472.45185661 -32957564.380168915 0 -32957564.380168915 -47624392.131025314 0 0 0 0 100380750.99332428 -169325956.04811478 0 -169325956.04811478 249053903.35499942 0 0 0 0 644184800.05519676 -285008269.14405584 0 -285008269.14405584 297739097.14791346 0 0 0 0 806335002.15770721 -13833795.223285675 0 -13833795.223285675 -134557768.17217433 0 0 0 0 1004897069.4625206 120358862.32505274 0 120358862.32505274 -82114053.617549658 0 0 0 0 794199776.48155975 347514404.99201119 0 347514404.99201119 -50541766.223927021 0 0 0 0 959875511.41875458 332214415.3126421 0 332214415.3126421 -55663939.621662259 0 0 0 0 817951092.66506958 112586302.78688538 0 112586302.78688538 -317765960.8140316 0 0 0 0 1027242530.3827305 132117014.1967299 0 132117014.1967299 -325598902.55685186 0 0 0 0 803902572.84858322 36815687.97525835 0 36815687.97525835 -380680343.68537188 0 0 0 0 708404566.30342102 197703330.65332562 0 197703330.65332562 -222748462.92696446 0 0 0 0 814824868.37243366 236942841.53097349 0 236942841.53097349 -336564647.50107455 0 0 0 0 837385850.97009277 172046710.60036159 0 172046710.60036159 -226623920.40271735 0 0 0 0 610707428.45023346 356360585.00986588 0 356360585.00986588 -140298708.85070997 0 0 0 0 777858348.57683563 263737052.90007687 0 263737052.90007687 -196359291.99545717 0 0 0 0 581823496.21976471 234728322.72237822 0 234728322.72237822 24907281.768462986 0 0 0 0 609769279.02238083 149545087.86050263 0 149545087.86050263 -78881720.438553095 0 0 0 0 733929497.55125046 139598585.00457215 0 139598585.00457215 -145907793.70089483 0 0 0 0 762786960.32527542 14079644.195546687 0 14079644.195546687 -127456091.88875794 0 0 0 0 634887998.0868988 152796248.46986094 0 152796248.46986094 -124030557.61787371 0 0 0 0 1452553072.3008976 291878315.22584939 0 291878315.22584939 -677032835.99041307 0 0 0 0 2199046277.3331108 795376620.12496018 0 795376620.12496018 -496801511.70917571 0 0 0 0 679695435.00389481 476191867.81338894 0 476191867.81338894 32542231.521124363 0 0 0 0 757372046.94632614 -153444247.56278917 0 -153444247.56278917 -775743618.5321188 0 0 0 0 796207660.44889832 304383153.87237298 0 304383153.87237298 -255999938.73980141 0 0 0 0 2204404034.3047867 337366146.0106656 0 337366146.0106656 -231205447.44536707 0 0 0 0 5102915.6200637221 -277608.28648359142 0 -277608.28648359142 -2316516.5718229818 0 0 0 0 -54282186.460098267 -328551130.20470929 0 -328551130.20470929 -368382027.11791563 0 0 0 0 2200491303.5618439 339407446.08794636 0 339407446.08794636 -232193036.73388907 0 0 0 0 567067211.40701103 152665938.97311258 0 152665938.97311258 -189912791.70432997 0 0 0 0 560106623.60763931 67205676.693669558 0 67205676.693669558 -115110010.24074578 0 0 0 0 4954950.5956504941 765970.96344259009 0 765970.96344259009 -3803563.8424025346 0 0 0 0 319941317.10884857 -441008236.95042145 0 -441008236.95042145 359436484.81189668 0 0 0 0 384315412.00737 -48758687.204639792 0 -48758687.204639792 18998365.773048401 0 0 0 0 8540079.1443984527 -14919948.21888002 0 -14919948.21888002 408039.53290115099 0 0 0 0 -171533908.36645126 -86686017.911592364 0 -86686017.911592364 107031306.02476096 0 0 0 0 42421516.853889465 48134754.652597666 0 48134754.652597666 7535657.5139769763 0 0 0 0 -4090807.5817184448 -31909337.782723904 0 -31909337.782723904 -40318612.394810677 0 0 0 0 7067889.8355864799 -1710424.164256189 0 -1710424.164256189 1297847.1046657702 0 0 0 0 2173754666.0828743 -178005851.41295329 0 -178005851.41295329 13028756.027452588 0 0 0 0 98586530.00718689 -8808550.4683997035 0 -8808550.4683997035 -56308493.734089136 0 0 0 0 20842430.706134796 -8115893.0569964647 0 -8115893.0569964647 -18928187.71108222 0 0 0 0 30161920.473104477 -30540635.510429144 0 -30540635.510429144 44322110.413079739 0 0 0 0 4727356.0137670301 964976.1059988495 0 964976.1059988495 -5128304.4717199765 0 0 0 0 2108770201.3315334 456005877.43710393 0 456005877.43710393 98283689.445352897 0 0 0 0 1640708.1870018616 -5350310.6938497089 0 -5350310.6938497089 -4351369.6197106251 0 0 0 0 11655232.467411313 -3726721.5826746323 0 -3726721.5826746323 -4856130.4883093834 0 0 0 0 54014435.746559143 14534261.201302528 0 14534261.201302528 -48690010.360609055 0 0 0 0 150180041.85017014 -233354196.17463446 0 -233354196.17463446 191108706.19986248 0 0 0 0 192962577.99647141 -122898717.45974302 0 -122898717.45974302 55742700.642752171 0 0 0 0 -38091289.097980499 -96222451.953824043 0 -96222451.953824043 139796212.00326252 0 0 0 0 10226032.792945176 -4620496.6123086698 0 -4620496.6123086698 -4356632.3540086122 0 0 0 0 186424847.24823761 -42131769.962821484 0 -42131769.962821484 -26596742.856294632 0 0 0 0 11210436.770654678 6176343.7487048209 0 6176343.7487048209 -12634058.8102777 0 0 0 0 5379715.2522029877 12774520.635692477 0 12774520.635692477 -17828960.381531835 0 0 0 0 5908026.8547224011 2550866.4607818704 0 2550866.4607818704 -6978339.8957586521 0 0 0 0 1509215369.9723091 715870568.97135329 0 715870568.97135329 21795663.351353645 0 0 0 0 184368203.62208176 156420604.76543093 0 156420604.76543093 341023932.76057291 0 0 0 0 702587125.27717209 816605207.41315889 0 816605207.41315889 711052888.68782425 0 0 0 0 3695814.0498838052 572360.93911622092 0 572360.93911622092 -1117676.0079681405 0 0 0 0 1584429907.2602882 -377804000.93579388 0 -377804000.93579388 340940103.63998508 0 0 0 0 947357295.22980118 314826785.86227942 0 314826785.86227942 1290745662.0270586 0 0 0 0 1864199266.7196541 497451585.12610912 0 497451585.12610912 394133813.06155777 0 0 0 0 994909531.81896591 -38022191.561314583 0 -38022191.561314583 92403602.652429104 0 0 0 0 1050279984.8085251 407315874.1282742 0 407315874.1282742 413905530.36318076 0 0 0 0 -154425083.04788208 -46910235.06851387 0 -46910235.06851387 397435576.34143043 0 0 0 0 1310149.7991814446 -628492.62466945406 0 -628492.62466945406 -1097749.9661605814 0 0 0 0 501111865.77484131 -692443805.04495335 0 -692443805.04495335 962311759.49086285 0 0 0 0 2051577237.1979165 -682611647.9367795 0 -682611647.9367795 197724858.36125278 0 0 0 0 682051249.30709839 -313603711.22482872 0 -313603711.22482872 139288420.63342857 0 0 0 0 512524332.84561157 -440707887.44453526 0 -440707887.44453526 279300985.68660617 0 0 0 0 688150104.06956863 -299509849.7141304 0 -299509849.7141304 67634663.496297836 0 0 0 0 790382885.85217667 -260849051.0292511 0 -260849051.0292511 -109496188.94727913 0 0 0 0 685447635.04039764 -382105325.76067829 0 -382105325.76067829 62487996.175966948 0 0 0 0 579823575.46168327 -275653842.19436836 0 -275653842.19436836 2962280.1964769363 0 0 0 0 688577052.94798279 -368208824.97266197 0 -368208824.97266197 123226389.8728447 0 0 0 0 811363392.72416496 -246583911.45648384 0 -246583911.45648384 -238388427.80941582 0 0 0 0 1375573939.4273567 -194436786.96390009 0 -194436786.96390009 -104069677.35902643 0 0 0 0 945742370.43133307 -194029947.12589386 0 -194029947.12589386 -194169050.20528555 0 0 0 0 724691028.47128677 -191667968.53935456 0 -191667968.53935456 -147850692.2759169 0 0 0 0 685146831.55550957 -232031328.93778539 0 -232031328.93778539 -184612960.38001156 0 0 0 0 736251105.43989944 -331960116.70193744 0 -331960116.70193744 -235649121.37553215 0 0 0 0 755529010.29620552 -339722194.58272171 0 -339722194.58272171 -275312328.78019762 0 0 0 0 709929538.12359619 -272300153.85924745 0 -272300153.85924745 -365686010.2014178 0 0 0 0 767110675.2804203 -224819926.56919932 0 -224819926.56919932 -355549872.65597916 0 0 0 0 440299133.95233917 -70461578.113460541 0 -70461578.113460541 -350908192.95450461 0 0 0 0 -16938161.063360214 157400162.87483954 0 157400162.87483954 -205724635.03572464 0 0 0 0 1575081.2735734349 956124.02154463902 0 956124.02154463902 -1733055.6456907969 0 0 0 0 435133108.01514816 166460442.90919447 0 166460442.90919447 -800875536.30211878 0 0 0 0 2285783901.6400967 124784025.85817727 0 124784025.85817727 -506216160.42524964 0 0 0 0 194660910.78620911 -48133606.058894157 0 -48133606.058894157 -9974133.1600103378 0 0 0 0 2203996213.9399347 227364673.49351451 0 227364673.49351451 191456790.8473368 0 0 0 0 87573696.482971191 -15748686.926089525 0 -15748686.926089525 -3368549.5079488754 0 0 0 0 140111120.34991837 -142290058.84901714 0 -142290058.84901714 83174182.149300098 0 0 0 0 374377342.95362854 -216912837.08295727 0 -216912837.08295727 -13544195.251600981 0 0 0 0 721969780.58873749 -307777563.08683133 0 -307777563.08683133 -163273523.96010685 0 0 0 0 195305175.51917648 -40563814.602374077 0 -40563814.602374077 -104582749.62623787 0 0 0 0 379036050.7480011 -143264711.42318901 0 -143264711.42318901 -48896001.714756012 0 0 0 0 1755330587.4995613 -381757016.39372212 0 -381757016.39372212 37752297.51783964 0 0 0 0 1832826775.1652832 -181685294.29933894 0 -181685294.29933894 -203646694.24724087 0 0 0 0 2204423053.2723885 86875503.916912302 0 86875503.916912302 -391435193.59761202 0 0 0 0 1655079092.9978714 -97725268.326146394 0 -97725268.326146394 -205120685.33438614 0 0 0 0 1665928788.5386047 -179420066.21781069 0 -179420066.21781069 -122096852.86420301 0 0 0 0 69693377.007595062 -74475387.026466906 0 -74475387.026466906 19831002.804587543 0 0 0 0 1531539440.9404755 -203459966.77579212 0 -203459966.77579212 -101298908.89705956 0 0 0 0 10606190.706501007 -21289748.236201584 0 -21289748.236201584 4994081.3100181222 0 0 0 0 1056010.7234709151 -680993.99536939338 0 -680993.99536939338 -266482.26917466248 0 0 0 0 35654877.520843506 -15191804.668334246 0 -15191804.668334246 -4134627.2418857217 0 0 0 0 38926778.544471741 -20665667.838374615 0 -20665667.838374615 4848177.4373059869 0 0 0 0 2940381.2715431787 -1945478.6108778976 0 -1945478.6108778976 -684650.22568717552 0 0 0 0 65322808.597446442 -9503679.57285285 0 -9503679.57285285 -9027418.4263890386 0 0 0 0 61499739.301557541 5761720.4326111227 0 5761720.4326111227 -51874545.415388823 0 0 0 0 18749246.440334551 7812539.5389920212 0 7812539.5389920212 -1050833.6774928805 0 0 0 0 12741862.260887146 17881762.008768022 0 17881762.008768022 -23277198.790724963 0 0 0 0 39724496.437328339 38077789.498463422 0 38077789.498463422 -23888768.306401849 0 0 0 0 25745236.745124817 -15140235.667265624 0 -15140235.667265624 -401605.45001852512 0 0 0 0 1836747534.9668655 -578903888.44638741 0 -578903888.44638741 -14853311.998324312 0 0 0 0 1580034531.0596809 -430211687.12889183 0 -430211687.12889183 33424598.396844298 0 0 0 0 2204271845.8655205 -419386221.35363048 0 -419386221.35363048 -180469877.51663843 0 0 0 0 2206219650.1904373 -697050902.17357492 0 -697050902.17357492 -74497447.998924434 0 0 0 0 1888502878.0632324 -467105092.6781531 0 -467105092.6781531 -149661286.43928018 0 0 0 0 1875527391.2328024 -666584944.17324591 0 -666584944.17324591 444586616.68569177 0 0 0 0 1787176979.4582825 -1169023750.5733795 0 -1169023750.5733795 622423018.5227617 0 0 0 0 2987697740.2536545 -612163657.92175341 0 -612163657.92175341 434320117.07848692 0 0 0 0 5823254.6158396825 -2195264.8688337915 0 -2195264.8688337915 -1827935.6753413819 0 0 0 0 973997219.2671814 -501939531.19738394 0 -501939531.19738394 305443079.14542288 0 0 0 0 79309590.011295319 153448604.95386276 0 153448604.95386276 394535425.38406122 0 0 0 0 -592603922.39123535 159054742.15929365 0 159054742.15929365 -537227272.14641047 0 0 0 0 -1065400832.5131302 224913359.98820958 0 224913359.98820958 368041252.03090066 0 0 0 0 2189238.4143552985 316916.32745705545 0 316916.32745705545 278862.14342361805 0 0 0 0 -586183712.34234619 899617657.6338762 0 899617657.6338762 971726886.99732494 0 0 0 0 2596470838.1705513 737090743.06336546 0 737090743.06336546 -403470333.33683908 0 0 0 0 2201992903.4642143 57275813.431012571 0 57275813.431012571 1278160048.4930999 0 0 0 0 2245172020.2049484 -1205577393.8274803 0 -1205577393.8274803 617268049.85542464 0 0 0 0 4940676.6566242799 175355.52276249416 0 175355.52276249416 -183030.02605975542 0 0 0 0 856439076.18215942 -332433479.33860123 0 -332433479.33860123 -1048865460.2874151 0 0 0 0 1195284142.539093 1424652657.2499263 0 1424652657.2499263 696289252.8734473 0 0 0 0 131264166.70695496 836108062.51683402 0 836108062.51683402 774201839.3257618 0 0 0 0 290848.81511865556 3276055.090825079 0 3276055.090825079 2097815.881470405 0 0 0 0 -646599972.35415459 25628810.693060428 0 25628810.693060428 314654875.71518064 0 0 0 0 -324573061.86987495 -484982953.59353316 0 -484982953.59353316 -463641133.47894955 0 0 0 0 145372219.11149597 -96857398.224944234 0 -96857398.224944234 -242178874.68333292 0 0 0 0 391219157.96594238 568820202.45986497 0 568820202.45986497 441540011.02194893 0 0 0 0 -536938552.71086884 230643755.92707205 0 230643755.92707205 503165632.87796807 0 0 0 0 550417561.633461 463532879.92487633 0 463532879.92487633 31312209.243727267 0 0 0 0 -40243752.705940247 185130877.22586283 0 185130877.22586283 216496932.93045688 0 0 0 0 456016752.34961319 402299796.13007945 0 402299796.13007945 263469377.73961121 0 0 0 0 2202353977.4549565 1298906511.8689036 0 1298906511.8689036 -100071319.34784485 0 0 0 0 1101932138.5494385 972316031.61178279 0 972316031.61178279 272704459.79301935 0 0 0 0 1429020381.0432663 720726333.63048351 0 720726333.63048351 -434703723.40856463 0 0 0 0 236244400.12025452 754306768.62844598 0 754306768.62844598 333954154.88709915 0 0 0 0 476441744.37031174 130595189.94939905 0 130595189.94939905 25757677.871272087 0 0 0 0 538752276.90791321 -7057434.859941937 0 -7057434.859941937 -119334831.45960692 0 0 0 0 637848070.68572235 137875408.47237855 0 137875408.47237855 -86184026.543199301 0 0 0 0 637926301.55660248 126389620.42795518 0 126389620.42795518 -93704103.57327503 0 0 0 0 646144769.75844955 103117860.54187073 0 103117860.54187073 -61769652.005043738 0 0 0 0 320280371.80965424 188253329.06893557 0 188253329.06893557 24312435.03288281 0 0 0 0 563754933.78577805 77626981.952453226 0 77626981.952453226 27959970.742205977 0 0 0 0 620180720.53179932 106542162.21576142 0 106542162.21576142 -160442658.1356349 0 0 0 0 348377858.17742157 29443818.28486824 0 29443818.28486824 17190052.390278041 0 0 0 0 121425643.63098145 -33662338.16488719 0 -33662338.16488719 -34417633.359411001 0 0 0 0 399589956.72090149 108800259.93306875 0 108800259.93306875 26657144.079340696 0 0 0 0 466846866.30515289 -61455797.041616917 0 -61455797.041616917 -331153893.22968316 0 0 0 0 502520415.13567352 500196352.46724188 0 500196352.46724188 -295563565.40073991 0 0 0 0 1305937.5234311894 -961182.20916110836 0 -961182.20916110836 -150934.20608992269 0 0 0 0 912153902.89973068 271486614.82770711 0 271486614.82770711 -4493001.8674075603 0 0 0 0 680694744.50003815 -13019603.903480351 0 -13019603.903480351 70201105.951864958 0 0 0 0 273068236.68092823 -175311628.31370509 0 -175311628.31370509 96496609.905876637 0 0 0 0 503017630.55098724 470712299.27290082 0 470712299.27290082 281108646.72196341 0 0 0 0 494046194.42860699 413279026.63507491 0 413279026.63507491 386296700.7571063 0 0 0 0 219031649.39048767 -105941387.48128772 0 -105941387.48128772 135300143.27809489 0 0 0 0 498906333.61206818 223246950.53508031 0 223246950.53508031 -880736464.40684903 0 0 0 0 -760376635.43709183 546108483.19285178 0 546108483.19285178 334457611.00821328 0 0 0 0 1217844.7914632112 2300001.1278555179 0 2300001.1278555179 1370980.000038014 0 0 0 0 1028269998.9845047 510529113.48795927 0 510529113.48795927 -417341572.35884428 0 0 0 0 242146179.21886444 992009118.98759937 0 992009118.98759937 268138423.89952821 0 0 0 0 209268066.90507507 869599021.02246714 0 869599021.02246714 -700614622.33000195 0 0 0 0 16459572.058606282 7514608.3103696704 0 7514608.3103696704 190851.52169972908 0 0 0 0 31577348.971282005 1153942.5739822164 0 1153942.5739822164 -21624984.354134738 0 0 0 0 -305279228.78197479 618818585.56701398 0 618818585.56701398 -379016725.94616604 0 0 0 0 159244143.55268478 -133892661.8536346 0 -133892661.8536346 -813065378.83405519 0 0 0 0 155031892.67166471 -237907646.27266461 0 -237907646.27266461 -240114716.95052099 0 0 0 0 202594874.87695026 136934654.94161576 0 136934654.94161576 -238151262.68927097 0 0 0 0 -231955262.88582611 -152330217.82893419 0 -152330217.82893419 -399395651.48896289 0 0 0 0 64750670.868984222 -86066646.343393832 0 -86066646.343393832 -433614749.13483334 0 0 0 0 -36701931.305587769 19009173.386875868 0 19009173.386875868 -167640002.74636269 0 0 0 0 -1690785.8773574829 28276371.488663673 0 28276371.488663673 -380355040.76335669 0 0 0 0 153040666.84605789 179455213.27107698 0 179455213.27107698 -420429949.79967201 0 0 0 0 327677.1858215332 -113550692.38631475 0 -113550692.38631475 -133496328.87722111 0 0 0 0 131261875.07375789 -51272672.551315412 0 -51272672.551315412 -110443819.63405991 0 0 0 0 2198322.8743209839 -101609729.28376603 0 -101609729.28376603 -41740231.720836163 0 0 0 0 -17210523.78058815 -83095419.868301362 0 -83095419.868301362 56445909.197742224 0 0 0 0 59046833.754734039 -46931546.820494175 0 -46931546.820494175 10423358.615720987 0 0 0 0 11557535.846183777 -130113267.04951429 0 -130113267.04951429 -102124794.07719362 0 0 0 0 -13838093.274326324 -40803283.759310961 0 -40803283.759310961 54146556.158836603 0 0 0 0 -783150.65653991699 -3885826.7075396776 0 -3885826.7075396776 24340305.185586929 0 0 0 0 -7237310.0088577271 -148778.13361489773 0 -148778.13361489773 165333624.4475283 0 0 0 0 10826212.07447052 -20181189.985389709 0 -20181189.985389709 11116122.797834516 0 0 0 0 -1443485.5930404663 -25769631.914061785 0 -25769631.914061785 64757851.54336071 0 0 0 0 -299769.55414772034 -28452792.065468252 0 -28452792.065468252 5090040.7346258163 0 0 0 0 5344475.0990638733 -5201148.6099828482 0 -5201148.6099828482 6578528.236571312 0 0 0 0 8816921.436501503 -8953566.6110026836 0 -8953566.6110026836 2490970.5544917583 0 0 0 0 3559519.9719558284 -4545118.3081868477 0 -4545118.3081868477 -2036399.5019569753 0 0 0 0 -125162524.06051636 -15717515.185099125 0 -15717515.185099125 -8851345.0680571795 0 0 0 0 273260608.38007736 33504282.034865558 0 33504282.034865558 303962.33417275548 0 0 0 0 3833367.801320076 -8944996.413094312 0 -8944996.413094312 10635648.785455704 0 0 0 0 3947924.2108516991 -3084167.3096743226 0 -3084167.3096743226 -896091.0094213495 0 0 0 0 6539115.5582084656 -13418223.68015188 0 -13418223.68015188 15053692.626081228 0 0 0 0 282749216.42504883 1218224.2879323363 0 1218224.2879323363 129312.4432156682 0 0 0 0 -226280086.22476959 -86557504.039182663 0 -86557504.039182663 71087550.215166569 0 0 0 0 -205951396.03427505 -269519744.93028891 0 -269519744.93028891 490031961.28512764 0 0 0 0 -275203271.81719589 -89469153.599268198 0 -89469153.599268198 118700722.67231083 0 0 0 0 -111952548.6619072 -120842456.36342549 0 -120842456.36342549 26752456.782027245 0 0 0 0 7909195.6190466881 -4746254.3543069586 0 -4746254.3543069586 -843847.30172324181 0 0 0 0 -508105374.99673879 -55428157.136265047 0 -55428157.136265047 747842158.3963747 0 0 0 0 3784732.5949300714 -4514421.5277418811 0 -4514421.5277418811 -1813143.0877535897 0 0 0 0 -494704804.04735184 487463496.21153998 0 487463496.21153998 53914965.028168142 0 0 0 0 -35708453.278713226 86940358.455399871 0 86940358.455399871 48354170.59667027 0 0 0 0 674302.6073426716 -1910801.5779657345 0 -1910801.5779657345 227108.87843034929 0 0 0 0 15602619.69342804 -10320343.593215704 0 -10320343.593215704 -1027683.1364125609 0 0 0 0 26391449.243938446 -7638064.5936592817 0 -7638064.5936592817 -15342503.216032505 0 0 0 0 127251419.17126083 42623058.26992546 0 42623058.26992546 -7909687.1709611416 0 0 0 0 -71714818.798488617 -198097416.03939167 0 -198097416.03939167 -275656407.85092169 0 0 0 0 -64655.350146450102 -608121.07608739473 0 -608121.07608739473 309689.27369207283 0 0 0 0 32236508.057533264 107700310.6627028 0 107700310.6627028 -146245278.70533836 0 0 0 0 -75018273.970462799 70286351.74033916 0 70286351.74033916 -357965781.51765645 0 0 0 0 -11267955.635864735 -116683148.10812561 0 -116683148.10812561 -159140834.62665224 0 0 0 0 -49448000.459253311 75974728.45334971 0 75974728.45334971 134480495.11388969 0 0 0 0 90333833.508134842 43816677.436913729 0 43816677.436913729 -31472416.574556828 0 0 0 0 -45262521.719960213 1151945.7182768583 0 1151945.7182768583 -43562094.103897572 0 0 0 0 32884103.590000153 123025891.38376713 0 123025891.38376713 -111172479.83619404 0 0 0 0 21225077.057981025 1167334.7623681761 0 1167334.7623681761 -3968919.5427559568 0 0 0 0 921028.46281433105 42337216.531718016 0 42337216.531718016 -31278427.353733599 0 0 0 0 -1684083.0238540173 842192.58229030902 0 842192.58229030902 -113488.27499653951 0 0 0 0 24748833.811470032 -35011879.128759861 0 -35011879.128759861 -42340936.61490643 0 0 0 0 115607256.79180908 -121808850.90971263 0 -121808850.90971263 -773212649.77994514 0 0 0 0 -1574243.5009289086 9493557.7745899092 0 9493557.7745899092 -1654648.6937658535 0 0 0 0 84893532.773033142 -23483579.866032839 0 -23483579.866032839 -650921295.04191589 0 0 0 0 -23116305.064200878 80736353.684320539 0 80736353.684320539 -1709122.9333148003 0 0 0 0 23637702.548026722 3546392.606629476 0 3546392.606629476 -3586575.3602059563 0 0 0 0 1585582.2373604029 5917554.1287839822 0 5917554.1287839822 -1239338.1520524526 0 0 0 0 108901183.54026794 228546500.93430054 0 228546500.93430054 -892083422.09564495 0 0 0 0 44834509.92199707 -12981372.046993673 0 -12981372.046993673 -72849895.25621371 0 0 0 0 -118683805.77205658 162172174.93481529 0 162172174.93481529 -441222346.26642913 0 0 0 0 45452926.449874878 -5196881.8604961038 0 -5196881.8604961038 -26910607.993535519 0 0 0 0 10975423.283145905 16417423.797283649 0 16417423.797283649 -47552852.592501283 0 0 0 0 69452572.23374939 13412948.677351952 0 13412948.677351952 -48978141.277632803 0 0 0 0 37288053.703109741 41804564.004258633 0 41804564.004258633 -67885544.638888776 0 0 0 0 15616968.60798645 8769426.2369047999 0 8769426.2369047999 -49201185.989101619 0 0 0 0 32545239.515823364 39809146.9992823 0 39809146.9992823 -8873203.803337872 0 0 0 0 28172783.168380737 17445152.270047665 0 17445152.270047665 -5697385.096883297 0 0 0 0 8938561.7811050415 38021407.526929721 0 38021407.526929721 18706339.717329979 0 0 0 0 137658670.94102478 6085600.9143059254 0 6085600.9143059254 -25598743.890775964 0 0 0 0 63857285.917556763 64674932.895697653 0 64674932.895697653 56777789.837900579 0 0 0 0 5597687.8559341431 -699471.02611073852 0 -699471.02611073852 99316481.88009946 0 0 0 0 4986918.392868042 -8953218.3334167004 0 -8953218.3334167004 25246444.390977949 0 0 0 0 -1748940.0312347412 9001826.0146369636 0 9001826.0146369636 6309121.6686509252 0 0 0 0 -5551063.518119812 8755831.5188632607 0 8755831.5188632607 45405624.462967813 0 0 0 0 -3968675.5439147949 6569161.0784426332 0 6569161.0784426332 14163051.112088591 0 0 0 0 -2418437.2893514633 11455589.706761345 0 11455589.706761345 7221233.0909816027 0 0 0 0 -278960.56095409393 16327156.787986785 0 16327156.787986785 -7823675.6794695854 0 0 0 0 12455256.763931274 20443737.371153653 0 20443737.371153653 -24259407.092068404 0 0 0 0 15113811.814464383 -4266378.9255659729 0 -4266378.9255659729 -4190766.5304431804 0 0 0 0 -20937387.881141663 116686284.09236717 0 116686284.09236717 -189937372.9315114 0 0 0 0 -56104486.745292664 100623982.22212219 0 100623982.22212219 -167827078.32695007 0 0 0 0 -23094055.239959717 96435183.827542305 0 96435183.827542305 -170088171.16201997 0 0 0 0 -21032346.836654663 45737263.084897041 0 45737263.084897041 -161714925.03564394 0 0 0 0 18167942.970392078 -1303424.0562989172 0 -1303424.0562989172 -4214456.9902443867 0 0 0 0 3321998.9021148682 4964285.7828520536 0 4964285.7828520536 947227.50647567213 0 0 0 0 6489440.190700531 -1650993.1420985609 0 -1650993.1420985609 5886142.9645396471 0 0 0 0 4594375.9515380859 -1665152.1929115653 0 -1665152.1929115653 7313888.4849520624 0 0 0 0 5691302.1733322144 -2485772.3509413302 0 -2485772.3509413302 5128392.107624948 0 0 0 0 3935941.0383415222 -4088248.8909394071 0 -4088248.8909394071 5528432.4987440109 0 0 0 0 7032900.4209289551 -3498009.5349131823 0 -3498009.5349131823 5177907.9197297096 0 0 0 0 11205595.016174316 -5362563.9039158821 0 -5362563.9039158821 2917533.4391679764 0 0 0 0 5694768.6548919678 -4867402.6514629126 0 -4867402.6514629126 5870847.2153285742 0 0 0 0 6735427.3890075684 -7422302.3137677312 0 -7422302.3137677312 4128230.6125175357 0 0 0 0 5861220.2961053848 -6890424.559453167 0 -6890424.559453167 3804937.8861044645 0 0 0 0 32804180.361022949 53630064.953998566 0 53630064.953998566 -275234687.76724339 0 0 0 0 8808694.414276123 -8208188.3029120862 0 -8208188.3029120862 2958121.5156742334 0 0 0 0 5971207.3994140625 -8868364.3424802423 0 -8868364.3424802423 2804692.479726553 0 0 0 0 9622268.1930194125 -6640017.9745379249 0 -6640017.9745379249 -4299466.7289688159 0 0 0 0 12207726.271743774 -8133221.8096774817 0 -8133221.8096774817 11232.903607308865 0 0 0 0 14052480.589447021 -8845892.6894384623 0 -8845892.6894384623 -704609.79633635283 0 0 0 0 1361698.9875330925 -1373020.7700832449 0 -1373020.7700832449 737240.24235566892 0 0 0 0 41226681.040740967 86698876.020412445 0 86698876.020412445 -269237159.89082336 0 0 0 0 10349592.187316895 -5510107.4085617065 0 -5510107.4085617065 3471495.3404661119 0 0 0 0 7078275.9887695312 -6427395.10710603 0 -6427395.10710603 3274227.3571178913 0 0 0 0 8900152.6909790039 -7535662.3567225933 0 -7535662.3567225933 2321986.4050273895 0 0 0 0 9573604.908203125 -8092056.3275825977 0 -8092056.3275825977 2575070.4685588479 0 0 0 0 8396086.1820068359 -8717992.1038118601 0 -8717992.1038118601 2349409.8796701729 0 0 0 0 9189062.4700164795 -8581981.359990716 0 -8581981.359990716 1954102.2403697968 0 0 0 0 8859011.4754180908 -9524969.8789602816 0 -9524969.8789602816 1932191.4810402393 0 0 0 0 10342312.694152832 -9680289.492358923 0 -9680289.492358923 1324917.5992463306 0 0 0 0 10012103.869995117 -9975804.492743969 0 -9975804.492743969 2106048.6187653542 0 0 0 0 10395035.855651855 -9562064.3507575989 0 -9562064.3507575989 1333469.3402133882 0 0 0 0 12765873.16204834 -10947500.504986465 0 -10947500.504986465 1892239.2633107901 0 0 0 0 10192223.613586426 -9382662.8741303682 0 -9382662.8741303682 1493218.7003083229 0 0 0 0 9435095.4458312988 -8758286.138861984 0 -8758286.138861984 1424124.7779533863 0 0 0 0 53533670.729858398 73408587.902030945 0 73408587.902030945 -264611535.81790161 0 0 0 0 54037239.08001709 81258102.128639221 0 81258102.128639221 -255546843.59734535 0 0 0 0 48169350.899414062 68714685.595378876 0 68714685.595378876 -235151928.22959518 0 0 0 0 46806829.318389893 68903533.540214539 0 68903533.540214539 -244905073.24066925 0 0 0 0 49721672.037231445 65545373.649600983 0 65545373.649600983 -258789122.30847549 0 0 0 0 32766796.77923584 50276449.149650574 0 50276449.149650574 -264991105.16390431 0 0 0 0 25124066.81817627 55441843.744773865 0 55441843.744773865 -250456156.85670471 0 0 0 0 -5937539.8655853271 32919080.056705475 0 32919080.056705475 -265231787.28902817 0 0 0 0 -24887102.275512695 27766216.635852814 0 27766216.635852814 -252592663.24756622 0 0 0 0 11501992.231010437 -6320718.4512594342 0 -6320718.4512594342 2884958.4264349937 0 0 0 0 10280068.11907959 -7641589.7557423115 0 -7641589.7557423115 2247365.9496486187 0 0 0 0 34977867.658081055 -39345516.168937743 0 -39345516.168937743 19424799.531069934 0 0 0 0 -38564003.434432983 10944736.424840927 0 10944736.424840927 -165677971.9965744 0 0 0 0 -30088312.501918793 9260642.9890080169 0 9260642.9890080169 44084412.719781995 0 0 0 0 -36798450.23626709 -14651912.516659737 0 -14651912.516659737 87913786.317049623 0 0 0 0 -48489094.728546143 92140905.049369812 0 92140905.049369812 -209787064.81330109 0 0 0 0 -70904470.634811401 55572418.640810013 0 55572418.640810013 -178385562.61842346 0 0 0 0 16755348.695220947 -9274822.352028966 0 -9274822.352028966 -1141927.6601039767 0 0 0 0 22720676.74597168 -9433098.2963556051 0 -9433098.2963556051 -1268887.6962566674 0 0 0 0 13309042.648620605 -10561806.800685018 0 -10561806.800685018 551786.6991366148 0 0 0 0 -6654078.9991455078 103868378.21800995 0 103868378.21800995 -230556430.29931641 0 0 0 0 49087540.388096571 69405466.394467056 0 69405466.394467056 -229593440.31908417 0 0 0 0 49193683.999572754 81481605.297340393 0 81481605.297340393 -250509989.3973999 0 0 0 0 19521229.732086182 67579342.348955154 0 67579342.348955154 -220265157.88943863 0 0 0 0 50494164.358215332 72060084.431663513 0 72060084.431663513 -234888828.91195679 0 0 0 0 17249927.800201416 95998498.079521179 0 95998498.079521179 -239614702.63447762 0 0 0 0 8847285.065864563 65926833.329828262 0 65926833.329828262 -200908840.62536621 0 0 0 0 4632084.4972991943 29287767.369802475 0 29287767.369802475 -180967330.9907074 0 0 0 0 -14157630.006439209 55967882.505332947 0 55967882.505332947 -200640974.68981171 0 0 0 0 42063443.52053833 35493372.563514709 0 35493372.563514709 -200247475.69111252 0 0 0 0 24012403.798469543 21025726.990846634 0 21025726.990846634 -197560657.09169769 0 0 0 0 55373545.46383667 -3276430.5391159058 0 -3276430.5391159058 -186962951.02297115 0 0 0 0 35307343.292098999 -21693898.711406708 0 -21693898.711406708 -170117429.26249695 0 0 0 0 -11012781.356689453 14959586.417556763 0 14959586.417556763 -188143244.50872087 0 0 0 0 93324895.975097656 6241282.2528400421 0 6241282.2528400421 -198783037.73904419 0 0 0 0 84791821.085823059 4770701.5274705887 0 4770701.5274705887 -191830490.07750702 0 0 0 0 76576397.721008301 1971634.9151535034 0 1971634.9151535034 -193186964.81370544 0 0 0 0 49044907.79776001 40627389.718353271 0 40627389.718353271 -209904790.02418518 0 0 0 0 99182664.245132446 19596005.453317642 0 19596005.453317642 -201635304.99412251 0 0 0 0 71703845.226875305 51197264.609239578 0 51197264.609239578 -194358360.00396347 0 0 0 0 50770378.877868652 68978310.74140358 0 68978310.74140358 -230209292.91355324 0 0 0 0 57807092.541625977 45283743.07636261 0 45283743.07636261 -208373656.45868111 0 0 0 0 51706287.519012451 57053867.227176666 0 57053867.227176666 -212406004.48134995 0 0 0 0 56265806.300926208 69183524.392654896 0 69183524.392654896 -236050861.23890686 0 0 0 0 63503777.095832825 68629273.3650527 0 68629273.3650527 -208926175.00277328 0 0 0 0 73052046.738037109 46432864.879364014 0 46432864.879364014 -214663330.1786027 0 0 0 0 83942522.650016785 79027650.618487358 0 79027650.618487358 -168612590.82888794 0 0 0 0 111389023.89213562 34277245.904515266 0 34277245.904515266 -190879235.21450424 0 0 0 0 151020515.67033386 -169629.99803733826 0 -169629.99803733826 -194384003.79232407 0 0 0 0 102781233.25281525 30720747.923603058 0 30720747.923603058 -179024974.78811836 0 0 0 0 -68473403.931049347 62960000.79438591 0 62960000.79438591 -185124184.40693665 0 0 0 0 -611003.22583007812 68615583.427944183 0 68615583.427944183 -198935106.99820709 0 0 0 0 -22669004.534301758 61807441.439743042 0 61807441.439743042 -182665270.06731796 0 0 0 0 -33471332.014465332 89926597.642044067 0 89926597.642044067 -167427567.10090828 0 0 0 0 -47639849.477676392 31429427.606559753 0 31429427.606559753 -224511674.8792572 0 0 0 0 -30823506.33605957 51202397.784486771 0 51202397.784486771 -206942217.03552246 0 0 0 0 -2883630.5644378662 54037072.038825989 0 54037072.038825989 -227129365.62091827 0 0 0 0 4980318.9281158447 42351319.353139877 0 42351319.353139877 -241128824.23440552 0 0 0 0 26619631.451553345 50757921.953211308 0 50757921.953211308 -238344650.70652771 0 0 0 0 22094591.618255615 61224490.709205627 0 61224490.709205627 -221056808.78936768 0 0 0 0 43508548.700500488 56752131.488384247 0 56752131.488384247 -215980151.0860672 0 0 0 0 45493573.2237854 64773707.378082275 0 64773707.378082275 -228438501.06167221 0 0 0 0 15584257.393951416 61231755.88968277 0 61231755.88968277 -200995677.94545364 0 0 0 0 44627480.36428833 67498627.291599274 0 67498627.291599274 -199663422.08685303 0 0 0 0 8610093.3573989868 50128911.761446953 0 50128911.761446953 -218649982.23744965 0 0 0 0 2918552.5902557373 74253611.051383018 0 74253611.051383018 -166105281.0846653 0 0 0 0 72127804.265838623 64107358.930330276 0 64107358.930330276 -185729654.95657253 0 0 0 0 38199534.253158569 59860521.371181488 0 59860521.371181488 -186046245.46430588 0 0 0 0 30665945.731033325 79396446.767168045 0 79396446.767168045 -159840505.08862305 0 0 0 0 36063451.032752991 85401691.864849091 0 85401691.864849091 -162840921.19375992 0 0 0 0 3167792.7696838379 82681220.215575218 0 82681220.215575218 -142886893.5209446 0 0 0 0 -25218574.54901886 84801361.696273804 0 84801361.696273804 -141841682.63159657 0 0 0 0 3411502.777923584 71041464.754179001 0 71041464.754179001 -179553258.91167545 0 0 0 0 -7663893.4737243652 97167080.004396439 0 97167080.004396439 -166043176.55825043 0 0 0 0 -39092314.741661072 100338420.07601929 0 100338420.07601929 -106669321.12087631 0 0 0 0 -2460428.3495235443 109683217.11871326 0 109683217.11871326 -116003659.77022171 0 0 0 0 33908768.87638855 105256349.81969261 0 105256349.81969261 -130598794.14307976 0 0 0 0 76634064.952636719 81227944.847520828 0 81227944.847520828 -159833462.98683333 0 0 0 0 52877799.270324707 98084828.693922043 0 98084828.693922043 -128829697.74917674 0 0 0 0 64503748.425720215 108531905.938591 0 108531905.938591 -128411916.9561367 0 0 0 0 160318053.98719788 109684423.82721615 0 109684423.82721615 -132374039.3491044 0 0 0 0 8483297.4701805115 139479289.95281148 0 139479289.95281148 -87491827.875143051 0 0 0 0 -2023587.7028656006 134252328.9339571 0 134252328.9339571 -87067364.474397302 0 0 0 0 155605943.30224228 -20550172.935396671 0 -20550172.935396671 -166603303.96530151 0 0 0 0 192093263.37760162 39801435.351419926 0 39801435.351419926 -180277189.84630203 0 0 0 0 141185514.77935791 82921487.611721039 0 82921487.611721039 -157503465.15316772 0 0 0 0 121273437.68802643 54147400.406462669 0 54147400.406462669 -145094745.64881134 0 0 0 0 67639440.850151062 67388185.341210365 0 67388185.341210365 -156164214.80526352 0 0 0 0 223150164.97314453 63222985.156527519 0 63222985.156527519 -152511899.91160917 0 0 0 0 140111526.67776489 82708578.697695255 0 82708578.697695255 -128519852.1607089 0 0 0 0 194387385.92569733 22380278.095797539 0 22380278.095797539 -120459870.55009747 0 0 0 0 411402565.79234314 2522985.7605681419 0 2522985.7605681419 -141179901.50195169 0 0 0 0 268376220.66850185 -25701475.456751823 0 -25701475.456751823 -109705095.60064507 0 0 0 0 288280388.2743988 34368689.269282818 0 34368689.269282818 -118094512.77562428 0 0 0 0 254032603.77048492 90122258.65027833 0 90122258.65027833 -152233663.38229275 0 0 0 0 289605924.25122833 42380784.209031343 0 42380784.209031343 -104804694.72041821 0 0 0 0 9941685.2294464111 169833686.4598155 0 169833686.4598155 -98434341.138554454 0 0 0 0 7130465.8713321686 179280598.51721573 0 179280598.51721573 -80875023.909583092 0 0 0 0 65406018.329048157 174259816.10140467 0 174259816.10140467 -99919128.424483299 0 0 0 0 71375106.178871155 164911057.94626117 0 164911057.94626117 -145352772.90328342 0 0 0 0 221812151.17359924 210540384.91402155 0 210540384.91402155 -179355464.91048574 0 0 0 0 -148242258.46825409 250380671.07988095 0 250380671.07988095 -111283414.43969774 0 0 0 0 -109481634.81665802 165253241.99696445 0 165253241.99696445 -216761112.81855774 0 0 0 0 -94440920.427745819 86957827.494102597 0 86957827.494102597 9817837.3410291672 0 0 0 0 -171452165.97224426 195144732.97108936 0 195144732.97108936 -8239115.7775602341 0 0 0 0 -54821549.172576904 179468905.22251105 0 179468905.22251105 -74679349.179870605 0 0 0 0 -51137403.328020096 74668371.056874216 0 74668371.056874216 -57986264.792794228 0 0 0 0 -114093008.17996216 126640832.93914986 0 126640832.93914986 -50551794.688850403 0 0 0 0 -49854513.366281509 84916631.630992591 0 84916631.630992591 -104488700.973032 0 0 0 0 -43861838.840270996 113045315.72431087 0 113045315.72431087 -48093055.220029116 0 0 0 0 -7795340.352897644 95750427.078578472 0 95750427.078578472 -142504524.98953915 0 0 0 0 -79865107.280105591 68847495.615426064 0 68847495.615426064 -58392911.701250613 0 0 0 0 -65622932.847702026 2298941.7734441757 0 2298941.7734441757 126283163.62483883 0 0 0 0 -150598991.54503632 117827698.11250734 0 117827698.11250734 235749955.18840659 0 0 0 0 -771983.26228564978 -864392.1532458365 0 -864392.1532458365 165368.45025513473 0 0 0 0 116626585.67404938 -34026121.343569607 0 -34026121.343569607 -844156668.65348244 0 0 0 0 -82640151.427187562 -169416577.14272061 0 -169416577.14272061 -471542333.34251612 0 0 0 0 27553991.171333313 -189424858.35224104 0 -189424858.35224104 -304266397.10247838 0 0 0 0 5981863.4877090454 154643548.10941124 0 154643548.10941124 -173934469.05311179 0 0 0 0 -189389368.42698288 335593667.43541121 0 335593667.43541121 -343557398.30486822 0 0 0 0 -477003130.16934967 74284192.81013763 0 74284192.81013763 -207993586.06175041 0 0 0 0 -436601973.3736496 64383012.667911023 0 64383012.667911023 -350123715.16260338 0 0 0 0 561692.69692523777 -1261482.7729396392 0 -1261482.7729396392 -1053021.6901682795 0 0 0 0 -608451057.29860687 -84881083.698687434 0 -84881083.698687434 42285240.741682529 0 0 0 0 -68125938.358558655 -61998901.672827214 0 -61998901.672827214 -546101637.03077221 0 0 0 0 -282610578.23356628 105057760.5161972 0 105057760.5161972 112302201.86512756 0 0 0 0 -567027900.33023739 326501567.20344508 0 326501567.20344508 -61918614.751211166 0 0 0 0 -263766512.13941193 86124364.548333883 0 86124364.548333883 -2056274.1294865608 0 0 0 0 -367294098.59980392 37480446.470205903 0 37480446.470205903 198628220.31478071 0 0 0 0 -78567219.149093628 -66961504.981756449 0 -66961504.981756449 121676621.17884302 0 0 0 0 -162225091.94215393 4145794.0039738417 0 4145794.0039738417 -388037.58360314369 0 0 0 0 -46570562.107687235 -92271615.517623365 0 -92271615.517623365 72931707.745323658 0 0 0 0 1247467.858125627 -3474812.059556786 0 -3474812.059556786 -1738162.840315097 0 0 0 0 -297429078.33032227 -94122285.866259098 0 -94122285.866259098 10152359.737448126 0 0 0 0 2566631.7237305343 -6177362.2400884479 0 -6177362.2400884479 4763718.5136067448 0 0 0 0 1718682670.5725861 -1103678344.9765024 0 -1103678344.9765024 180958226.94611835 0 0 0 0 -297588648.57254028 -24944876.078303576 0 -24944876.078303576 139559021.65751791 0 0 0 0 -120795594.25863647 -119361809.67907739 0 -119361809.67907739 166001229.27625251 0 0 0 0 569745.65949995071 -2722408.4904348496 0 -2722408.4904348496 2946850.9007474529 0 0 0 0 41853601.693588257 -49149446.398311138 0 -49149446.398311138 -159791491.97885942 0 0 0 0 -1112259898.5448551 342257533.65938866 0 342257533.65938866 -414171406.4830246 0 0 0 0 1506129.684462484 -2624808.4020285066 0 -2624808.4020285066 4104500.1153525836 0 0 0 0 1563299032.5591698 150296230.33458233 0 150296230.33458233 -515814456.65032005 0 0 0 0 1568012586.6547432 -519082593.29356575 0 -519082593.29356575 -65059007.711401463 0 0 0 0 1248403521.4564362 -321387764.63932037 0 -321387764.63932037 16018994.659114838 0 0 0 0 761096150.89064789 -753279281.78156352 0 -753279281.78156352 676683460.53955173 0 0 0 0 643131949.65273285 -118189978.65756118 0 -118189978.65756118 21764626.787650347 0 0 0 0 746928687.44643402 -375924563.41498756 0 -375924563.41498756 -43868323.792800903 0 0 0 0 749041910.07892179 -138074808.92225772 0 -138074808.92225772 -170309699.34021902 0 0 0 0 383071158.1367569 -421010496.38644385 0 -421010496.38644385 83954980.917405605 0 0 0 0 383980677.30284119 -407193835.96268618 0 -407193835.96268618 -184062739.62237406 0 0 0 0 361159047.13838577 -466170310.72285712 0 -466170310.72285712 217065657.02933884 0 0 0 0 597847066.33087921 -369253510.44627857 0 -369253510.44627857 -27777290.247762203 0 0 0 0 299274711.75296021 -271469437.84918737 0 -271469437.84918737 30098165.01202631 0 0 0 0 -14856746.430450439 -29905230.736259222 0 -29905230.736259222 126925184.79703486 0 0 0 0 108870577.85343933 -243011942.52884114 0 -243011942.52884114 328059800.77259445 0 0 0 0 290226655.96411896 -201488752.22887158 0 -201488752.22887158 227218670.86656642 0 0 0 0 1037948361.9486847 -762711175.28140306 0 -762711175.28140306 323215416.7899456 0 0 0 0 351342617.53384399 -435066458.5280776 0 -435066458.5280776 988608641.65746236 0 0 0 0 1391355068.9840088 -349747170.46532214 0 -349747170.46532214 -243176009.49182653 0 0 0 0 1355269400.2300339 -82000114.825516731 0 -82000114.825516731 23800667.873147726 0 0 0 0 597595524.66767883 241120846.91049004 0 241120846.91049004 618785651.01264048 0 0 0 0 -92144963.790771484 -121282858.50767565 0 -121282858.50767565 401442426.05838394 0 0 0 0 309061488.07905579 -107832944.39124024 0 -107832944.39124024 217596980.20737672 0 0 0 0 -47389951.417617798 -135372443.32580185 0 -135372443.32580185 -6055946.7093999386 0 0 0 0 189717385.85404968 70875689.313459158 0 70875689.313459158 161308120.10704327 0 0 0 0 57162989.186470032 182397814.34737223 0 182397814.34737223 -93486724.949468955 0 0 0 0 255327288.8392601 -17597848.998104453 0 -17597848.998104453 -167357579.59493122 0 0 0 0 589548331.93379211 216433789.78833479 0 216433789.78833479 -10640858.970168427 0 0 0 0 355831690.14401245 195098926.87719753 0 195098926.87719753 -229805359.23787364 0 0 0 0 74769167.410827637 165347319.25640726 0 165347319.25640726 -283571004.85767645 0 0 0 0 543015812.24160004 -82851837.290040255 0 -82851837.290040255 -101113279.11954701 0 0 0 0 667428980.62225914 -220873716.180484 0 -220873716.180484 -3307841.1061354876 0 0 0 0 476681858.56831169 -104908392.21218702 0 -104908392.21218702 -96527675.02888751 0 0 0 0 674308915.49131393 -355645483.12746382 0 -355645483.12746382 34129372.618462086 0 0 0 0 531113112.40200043 -401899849.58201534 0 -401899849.58201534 210063437.87813681 0 0 0 0 493910855.6255722 -321151547.84679794 0 -321151547.84679794 140419450.14107323 0 0 0 0 197817799.49500275 -223255519.85201001 0 -223255519.85201001 278883814.02260172 0 0 0 0 -259266312.07126617 -138854060.60288984 0 -138854060.60288984 -45761831.228713989 0 0 0 0 4771331.3593132645 -922335.85086283088 0 -922335.85086283088 -1625497.9004635811 0 0 0 0 540976285.79528809 -575035794.08897984 0 -575035794.08897984 608916639.85550928 0 0 0 0 724092566.31136131 302308785.40459687 0 302308785.40459687 122971435.65592074 0 0 0 0 3436852.0613166988 -3192405.801364799 0 -3192405.801364799 -60481.016417944455 0 0 0 0 8469695.7529562414 -4093779.6837090664 0 -4093779.6837090664 -2839868.5846246141 0 0 0 0 5616026.7876205444 -4071375.4300154299 0 -4071375.4300154299 -5831147.2629488111 0 0 0 0 -3736773.3801078796 -3535170.0291297436 0 -3535170.0291297436 4871602.1466655135 0 0 0 0 -488565.50515255705 51649.566743157804 0 51649.566743157804 -651878.96193803055 0 0 0 0 635961207.42526209 66357950.546628706 0 66357950.546628706 6267848.4623060226 0 0 0 0 8097589.0094722509 -6410092.8381622313 0 -6410092.8381622313 -12790331.350710213 0 0 0 0 11310925.682266347 -6895402.1275992431 0 -6895402.1275992431 -2893740.790594711 0 0 0 0 7965054.4410934448 -3609730.1035948098 0 -3609730.1035948098 -6294170.042016089 0 0 0 0 6838794.6041030884 -76344569.23427844 0 -76344569.23427844 -54942231.473757029 0 0 0 0 7112897.8671722412 -4959452.9145888388 0 -4959452.9145888388 -7601181.3615081906 0 0 0 0 6836145.6322751045 -8084261.9085500436 0 -8084261.9085500436 -280116.07089802786 0 0 0 0 56377236.630058289 -18523439.071306229 0 -18523439.071306229 -131897128.25222397 0 0 0 0 15095163.788352966 -82812719.414403915 0 -82812719.414403915 -213905800.48296261 0 0 0 0 299374961.57411957 -112094943.61532187 0 -112094943.61532187 -212576960.72967631 0 0 0 0 141304161.98191071 41631657.12961971 0 41631657.12961971 -158638398.79676393 0 0 0 0 8563652.6207962036 -284809077.05489361 0 -284809077.05489361 -131279068.48336673 0 0 0 0 465393188.3844223 -308027311.00474238 0 -308027311.00474238 -131489914.65019372 0 0 0 0 595544629.97094727 147798403.59194693 0 147798403.59194693 -134751341.7555019 0 0 0 0 724420130.16130066 -609391542.78459287 0 -609391542.78459287 533933527.59386325 0 0 0 0 1831908117.2459717 251386612.29932055 0 251386612.29932055 -87575212.896315575 0 0 0 0 329246.7367162481 -1169752.780158475 0 -1169752.780158475 3440428.203311618 0 0 0 0 1640016829.8873806 -405934302.19960719 0 -405934302.19960719 -22747629.020476818 0 0 0 0 880222411.30400085 208546416.00989795 0 208546416.00989795 84218369.959686995 0 0 0 0 731588610.68683624 -290045778.31233597 0 -290045778.31233597 93851130.93407774 0 0 0 0 1100181434.6825256 -166630437.68722975 0 -166630437.68722975 -108726802.24030876 0 0 0 0 -418563369.19091797 -148714268.72601271 0 -148714268.72601271 194607879.81853199 0 0 0 0 -246927579.65672302 -131985149.14125299 0 -131985149.14125299 -71676467.492213249 0 0 0 0 1994049.0059791673 893840.23848642036 0 893840.23848642036 -974895.40044423728 0 0 0 0 -1002094015.9156494 -394585271.04528689 0 -394585271.04528689 525122491.16104603 0 0 0 0 96484134.80078125 -441705808.87626171 0 -441705808.87626171 230675562.38901711 0 0 0 0 778683913.45798492 -564912738.11155236 0 -564912738.11155236 86002602.12903738 0 0 0 0 352871966.56848145 -180502861.6052928 0 -180502861.6052928 17626410.523569584 0 0 0 0 578368009.04359818 -235871547.0424428 0 -235871547.0424428 -61166999.978164196 0 0 0 0 224853765.51252747 -110019606.99810314 0 -110019606.99810314 -98783183.965806007 0 0 0 0 314912209.13037872 -72141821.152456284 0 -72141821.152456284 -83275831.802909374 0 0 0 0 198659906.31397629 -57839915.061946154 0 -57839915.061946154 -162201427.96756363 0 0 0 0 273115331.82718658 -1276654.8957667351 0 -1276654.8957667351 -169927402.67933655 0 0 0 0 -171576313.38993835 -276788610.89716244 0 -276788610.89716244 132934568.13225365 0 0 0 0 387940290.85753059 -278909580.66960454 0 -278909580.66960454 -56184744.501565933 0 0 0 0 109066631.30053711 -183447779.45696735 0 -183447779.45696735 -86227819.931657791 0 0 0 0 222100290.43982697 -108589497.97043896 0 -108589497.97043896 -192860777.26549911 0 0 0 0 131265196.75185394 -206937909.36512089 0 -206937909.36512089 -138279451.48963547 0 0 0 0 -42550170.159423828 -185686151.00017977 0 -185686151.00017977 -132845694.8584404 0 0 0 0 -117580955.44203949 -103184241.98551273 0 -103184241.98551273 -189949589.7387085 0 0 0 0 95257203.0551548 -109889122.73651147 0 -109889122.73651147 -189941042.12130356 0 0 0 0 109138912.30078125 -154753053.1408062 0 -154753053.1408062 -228845726.69819832 0 0 0 0 -6664308.2859954834 -167617482.82186317 0 -167617482.82186317 -184265635.59832382 0 0 0 0 51584571.161468506 -116048624.85836792 0 -116048624.85836792 -175182991.70411682 0 0 0 0 52989256.805633545 -138972815.39194679 0 -138972815.39194679 -172667693.26917076 0 0 0 0 471264.47754096985 -189159281.51356173 0 -189159281.51356173 -244249109.32058716 0 0 0 0 -139648475.37999725 -222616235.15385532 0 -222616235.15385532 -148121253.73778915 0 0 0 0 134339656.38719177 -4258042.8655033112 0 -4258042.8655033112 -175173091.57854176 0 0 0 0 185714605.23977661 -56567190.59095335 0 -56567190.59095335 -199669735.5455513 0 0 0 0 171056122.10171509 -126845040.38973427 0 -126845040.38973427 -198070744.49442863 0 0 0 0 137852593.18992615 -76043158.044137955 0 -76043158.044137955 -165545358.01143742 0 0 0 0 123984052.96671295 -70966837.370973587 0 -70966837.370973587 -194960998.25055695 0 0 0 0 107886782.80688477 -120700507.1760006 0 -120700507.1760006 -203021111.25788498 0 0 0 0 101631044.84706116 -52204427.179412842 0 -52204427.179412842 -199505894.73094368 0 0 0 0 112441101.49290085 -43523584.253648758 0 -43523584.253648758 -194912483.62285614 0 0 0 0 6206487.3767543733 -12133560.225295654 0 -12133560.225295654 -2810994.7188851498 0 0 0 0 22143818.666503906 -38749705.094902039 0 -38749705.094902039 -139596114.64095211 0 0 0 0 -3270538.4471130371 5724966.6283279061 0 5724966.6283279061 -8622169.6599456966 0 0 0 0 24368597.320663452 -36109086.689842224 0 -36109086.689842224 -139302075.88927078 0 0 0 0 53714858.208465576 -40276826.589862823 0 -40276826.589862823 -171795205.22576141 0 0 0 0 40013255.141616821 -22817152.911958694 0 -22817152.911958694 -184589017.96069336 0 0 0 0 52789802.305316925 -29696522.01074481 0 -29696522.01074481 -181841570.92210388 0 0 0 0 67762299.407989502 -32493158.530570984 0 -32493158.530570984 -197634679.15153885 0 0 0 0 85487027.770309448 -53805325.687299728 0 -53805325.687299728 -186747638.8207016 0 0 0 0 44400553.697845459 -41094123.41519928 0 -41094123.41519928 -171096185.66550827 0 0 0 0 52300137.362548828 -46553858.750631332 0 -46553858.750631332 -185405018.4853363 0 0 0 0 42597507.979888916 -45780562.211174011 0 -45780562.211174011 -163931604.87877083 0 0 0 0 53037573.755943298 -65343538.524261475 0 -65343538.524261475 -158372951.82302856 0 0 0 0 34653783.301513672 -62487719.91217041 0 -62487719.91217041 -158804416.01644516 0 0 0 0 55964178.614471436 -56010842.444450378 0 -56010842.444450378 -169001085.6172924 0 0 0 0 71069616.918518066 -70638021.220016479 0 -70638021.220016479 -193366941.47478008 0 0 0 0 62630037.028823853 -73577089.665473938 0 -73577089.665473938 -173951027.15435791 0 0 0 0 58166901.17855835 -99064223.011422634 0 -99064223.011422634 -161424031.75146866 0 0 0 0 27815126.627655029 -59748657.918632507 0 -59748657.918632507 -124240915.9786377 0 0 0 0 27595490.352706909 -71329898.170530319 0 -71329898.170530319 -125915731.22110748 0 0 0 0 34797279.447479248 -67837934.781837463 0 -67837934.781837463 -141874906.21337128 0 0 0 0 27742287.363067627 -54167882.896560669 0 -54167882.896560669 -137621040.38620758 0 0 0 0 33392569.481452942 -50619187.062782288 0 -50619187.062782288 -152584311.0432663 0 0 0 0 46140852.933441162 -53506332.937374115 0 -53506332.937374115 -152338542.20466614 0 0 0 0 7532704.719329834 -19701139.682510376 0 -19701139.682510376 -145311249.47350693 0 0 0 0 -8710687.8690872192 -16948165.353336334 0 -16948165.353336334 -26187677.135753632 0 0 0 0 -66335268.606328964 -11802216.538843393 0 -11802216.538843393 11387199.579673767 0 0 0 0 -9169658.8536834717 -65852227.325585127 0 -65852227.325585127 -56125960.487709045 0 0 0 0 -50550151.653030396 -94321493.437812805 0 -94321493.437812805 -75471034.206777573 0 0 0 0 -25841593.298919678 -120639242.37309456 0 -120639242.37309456 -56773061.378284454 0 0 0 0 -16819661.821868896 -142314449.07294846 0 -142314449.07294846 -142332060.98118973 0 0 0 0 22292408.891098022 -95407151.373132706 0 -95407151.373132706 -140564583.47170258 0 0 0 0 21889525.332992554 -100669902.21615219 0 -100669902.21615219 -104363049.32686996 0 0 0 0 -3944274.4273452759 -91996538.057423353 0 -91996538.057423353 -104207091.01630402 0 0 0 0 12807510.300933838 -65051838.298297882 0 -65051838.298297882 -84648857.619129181 0 0 0 0 14068860.791748047 -18471250.598358154 0 -18471250.598358154 -109525169.99970627 0 0 0 0 9589086.8934326172 -59633138.797767639 0 -59633138.797767639 -88406067.812122345 0 0 0 0 13090906.35357666 -66745288.945304871 0 -66745288.945304871 -127358789.12566376 0 0 0 0 11335955.134628296 -71504318.022470474 0 -71504318.022470474 -105933146.52110291 0 0 0 0 17219085.490936279 -49511899.544685364 0 -49511899.544685364 -128126999.12639236 0 0 0 0 10802476.857299805 -43780242.277534485 0 -43780242.277534485 -103774449.86842632 0 0 0 0 5421047.0736160278 -52764867.071187019 0 -52764867.071187019 -60915894.675643921 0 0 0 0 12326841.982269287 -11385486.039676666 0 -11385486.039676666 -79618095.2283535 0 0 0 0 11354853.443603516 -1501435.349193573 0 -1501435.349193573 -25442669.711345673 0 0 0 0 9754970.985534668 -46029211.3039608 0 -46029211.3039608 -62741289.19720459 0 0 0 0 -10997076.305038452 -43587423.784402847 0 -43587423.784402847 -3556749.3098831177 0 0 0 0 16987124.267837524 -41656573.006788254 0 -41656573.006788254 -65352147.209644318 0 0 0 0 38655.853539936244 -6587111.4606532753 0 -6587111.4606532753 8960239.1238795947 0 0 0 0 703974860.5247879 30018944.272515059 0 30018944.272515059 -118331851.7348994 0 0 0 0 2505801.4594519213 -4063488.6503548585 0 -4063488.6503548585 3753223.9301411882 0 0 0 0 307264357.83756256 -37963300.683109954 0 -37963300.683109954 96125441.170199513 0 0 0 0 342162004.87070465 -107940280.1865965 0 -107940280.1865965 5461352.8870303631 0 0 0 0 723111299.07011318 -270068330.31054902 0 -270068330.31054902 -45227070.602912381 0 0 0 0 446114562.88624573 -86330651.163590372 0 -86330651.163590372 -77096004.287507772 0 0 0 0 575799.24262159318 -137447.07141822949 0 -137447.07141822949 266937.31055531028 0 0 0 0 645304113.58892822 -77658301.269551218 0 -77658301.269551218 -115643510.65894502 0 0 0 0 664161379.01255035 -138575210.83138937 0 -138575210.83138937 -100730038.89645958 0 0 0 0 531800558.10407257 42609871.088669926 0 42609871.088669926 18491879.735989571 0 0 0 0 783182064.50730896 -84562816.800459862 0 -84562816.800459862 -117544331.95029974 0 0 0 0 1544755.9590514228 -4633175.6158603914 0 -4633175.6158603914 8812619.166053284 0 0 0 0 504034031.0178833 -46234189.600915313 0 -46234189.600915313 66571420.436744452 0 0 0 0 -191885912.83168793 -203209919.24255085 0 -203209919.24255085 -168620527.86112976 0 0 0 0 -189845716.72035217 -259133607.49052048 0 -259133607.49052048 -58767880.230569839 0 0 0 0 -263620107.50445557 -105880874.16221523 0 -105880874.16221523 29999063.042653799 0 0 0 0 107606.90789148211 -1568226.1940227523 0 -1568226.1940227523 958931.70680451393 0 0 0 0 5152774.3670387268 -4916300.0381513238 0 -4916300.0381513238 2348537.7891178131 0 0 0 0 4445948.4158782959 -7393732.6137822866 0 -7393732.6137822866 -46376.348276615143 0 0 0 0 4591848.9794616699 -4299057.914513588 0 -4299057.914513588 2366156.9197721481 0 0 0 0 4682320.3447494507 -3774749.4949024916 0 -3774749.4949024916 5343447.2153615952 0 0 0 0 5100254.2978820801 -9224051.0091495514 0 -9224051.0091495514 9275264.5562953949 0 0 0 0 5671886.5871124268 -6687833.7490419149 0 -6687833.7490419149 -1588247.3312687874 0 0 0 0 6070976.7208709717 -4145729.8832178116 0 -4145729.8832178116 4501894.787083149 0 0 0 0 703704353.05642533 -150600353.22200763 0 -150600353.22200763 117215422.30772436 0 0 0 0 4605535.1348292977 -3607296.927074004 0 -3607296.927074004 3371669.9992848397 0 0 0 0 565510915.19164085 -314604393.51914799 0 -314604393.51914799 51374997.482684195 0 0 0 0 491468871.48014832 44292973.723471075 0 44292973.723471075 11179141.698878475 0 0 0 0 1586427.3881154731 149968.40143876523 0 149968.40143876523 527740.77217686363 0 0 0 0 697614696.8791523 -371037095.12390435 0 -371037095.12390435 174623171.48061788 0 0 0 0 954122.19548019767 -1092013.9020568263 0 -1092013.9020568263 206174.2335950683 0 0 0 0 422955629.66816711 -180833767.93176463 0 -180833767.93176463 33164898.456262045 0 0 0 0 340339766.97808838 -362876511.61453235 0 -362876511.61453235 201864529.16024756 0 0 0 0 2584434.8511276245 -3772825.7038369179 0 -3772825.7038369179 314744.98158931732 0 0 0 0 6891613.25 -2841362.7800843716 0 -2841362.7800843716 -738192.69455695152 0 0 0 0 4223920.9448156655 -4515047.9104537982 0 -4515047.9104537982 1836508.879762732 0 0 0 0 7155434.3443603516 -1808199.2026073933 0 -1808199.2026073933 1479431.0911808014 0 0 0 0 20174114.551422119 6815675.4106336832 0 6815675.4106336832 -2625999.0265939832 0 0 0 0 8520868.5623547137 -4065172.489498239 0 -4065172.489498239 -3424579.5952675277 0 0 0 0 11310586.511758715 -8376244.520806063 0 -8376244.520806063 -5486929.6316386852 0 0 0 0 -20697132.832595825 -18889238.16109848 0 -18889238.16109848 94791008.150588989 0 0 0 0 2628429.4677581787 -13893498.634427063 0 -13893498.634427063 -9926585.524476584 0 0 0 0 416483.10388183594 -16424887.62062794 0 -16424887.62062794 -5888265.1653565466 0 0 0 0 3048763.0186843872 -11606656.103378028 0 -11606656.103378028 -4765112.2751069739 0 0 0 0 358066.27317810059 -16375246.106761258 0 -16375246.106761258 -2971603.6380932629 0 0 0 0 8600057.2648468018 -13210138.188919235 0 -13210138.188919235 -9247140.3596846815 0 0 0 0 2023119.2594407871 -512066.55521608144 0 -512066.55521608144 -614037.01892761211 0 0 0 0 6936824.7413520813 -2369464.5231860578 0 -2369464.5231860578 5732059.6105194092 0 0 0 0 24602590.494186401 -19179290.363547444 0 -19179290.363547444 185423.40798187256 0 0 0 0 38976763.645874023 22154344.653967619 0 22154344.653967619 -1096943.7878974453 0 0 0 0 28937946.288925171 -20094306.906666756 0 -20094306.906666756 8511924.7414675355 0 0 0 0 6571482.0976867676 -6553391.8383173943 0 -6553391.8383173943 11666536.537242413 0 0 0 0 13053939.74911499 -7217866.3640530109 0 -7217866.3640530109 -1895139.1922783852 0 0 0 0 16492705.506454468 17486.640802621841 0 17486.640802621841 -13769747.726267576 0 0 0 0 2006471.0928649902 -4612446.0254791975 0 -4612446.0254791975 -2451885.639714241 0 0 0 0 -1935359.263092041 1757853.3266768456 0 1757853.3266768456 -4484061.4434961081 0 0 0 0 17839683.070571899 -11108617.509324968 0 -11108617.509324968 -13638924.723091424 0 0 0 0 11981702.627291627 -3253523.1876762696 0 -3253523.1876762696 -3306493.7661832008 0 0 0 0 9158035.7327721119 -3822009.9059574855 0 -3822009.9059574855 161387.47374266735 0 0 0 0 11688577.858055115 -4629764.2091635382 0 -4629764.2091635382 300140.64892627159 0 0 0 0 10657976.832511902 -2363869.4056150396 0 -2363869.4056150396 885921.25425753603 0 0 0 0 13400068.292037964 -2798013.4819226069 0 -2798013.4819226069 -704249.62768777739 0 0 0 0 12881260.164794922 -1808112.8349651126 0 -1808112.8349651126 1026164.6571861617 0 0 0 0 8632652.4151687622 -8366710.1585692167 0 -8366710.1585692167 -9195618.8490376472 0 0 0 0 10233827.351545602 -2129326.7181572402 0 -2129326.7181572402 -707888.86468467594 0 0 0 0 6749511.2540130615 -11993453.012638807 0 -11993453.012638807 -1566100.4457135201 0 0 0 0 449625851.67230225 -106406627.7139989 0 -106406627.7139989 86866339.917059064 0 0 0 0 5605596.2242120616 -2647465.8147426173 0 -2647465.8147426173 2169040.4206189066 0 0 0 0 6774660.7071228027 -1857050.4835078716 0 -1857050.4835078716 -1782363.6990337372 0 0 0 0 11218168.274040222 -1736.7887633247301 0 -1736.7887633247301 1511097.559405528 0 0 0 0 10504860.926189423 -627985.99022953631 0 -627985.99022953631 1128799.3920523413 0 0 0 0 12016532.566268921 -3667249.1426222678 0 -3667249.1426222678 1732806.350146573 0 0 0 0 6000537.4634841084 -13026.995937213302 0 -13026.995937213302 1392266.7222882225 0 0 0 0 15885943.693191528 -1523685.2725739442 0 -1523685.2725739442 -90950.339666822925 0 0 0 0 14717479.809631348 -1018045.0736281127 0 -1018045.0736281127 537843.18844985822 0 0 0 0 12480.711118340492 -587.05188401043415 0 -587.05188401043415 5825.4699228579948 0 0 0 0 16514226.537910461 -3086761.9583169967 0 -3086761.9583169967 -71342.68516631145 0 0 0 0 14631307.060394287 -2578222.0518791741 0 -2578222.0518791741 590338.24465177581 0 0 0 0 13606882.750015259 -2038759.511369593 0 -2038759.511369593 685736.66495898901 0 0 0 0 14363632.09072876 -3197983.2626160923 0 -3197983.2626160923 996704.13738600025 0 0 0 0 13128344.684585571 -2080975.0531598749 0 -2080975.0531598749 521639.66216544807 0 0 0 0 12893910.221805334 -2667832.7123366017 0 -2667832.7123366017 351683.83775313292 0 0 0 0 13435639.955947876 -2321801.3109649303 0 -2321801.3109649303 219594.59010988194 0 0 0 0 13429701.656826019 -1933509.8984130197 0 -1933509.8984130197 -518602.73604482785 0 0 0 0 13391307.712837219 -1835644.2709123015 0 -1835644.2709123015 248530.72526785173 0 0 0 0 12742650.781299591 -2142041.0583228283 0 -2142041.0583228283 338016.77155056177 0 0 0 0 12913957.864364624 -2400438.8289178601 0 -2400438.8289178601 676904.80212224857 0 0 0 0 13550611.023887634 -1911391.5032104417 0 -1911391.5032104417 84406.705825271085 0 0 0 0 12645961.611076355 -1727314.6390953066 0 -1727314.6390953066 80953.38506061332 0 0 0 0 12740731.174263 -2202318.0457241675 0 -2202318.0457241675 253785.82120318105 0 0 0 0 13259190.048103333 -1374687.3050639182 0 -1374687.3050639182 -228869.05237932666 0 0 0 0 13611262.696464539 -1594408.6010224298 0 -1594408.6010224298 -343044.9634254938 0 0 0 0 13389124.763114929 -970151.95394587226 0 -970151.95394587226 -2121.7284848969985 0 0 0 0 12520172.258087158 -1629657.8998314452 0 -1629657.8998314452 -270729.62044756953 0 0 0 0 12077408.760025024 -1135424.6942284773 0 -1135424.6942284773 732.75965939360549 0 0 0 0 15311358.762916565 -521461.05489007436 0 -521461.05489007436 7086.726379102116 0 0 0 0 14478454.79499054 -1498575.7197376711 0 -1498575.7197376711 -744189.67799286102 0 0 0 0 13530716.229667664 -1794271.627711188 0 -1794271.627711188 -829063.97028706293 0 0 0 0 14325492.383310318 -2375320.1656474564 0 -2375320.1656474564 -3088889.2566811489 0 0 0 0 14171578.81010437 -2058807.4000444259 0 -2058807.4000444259 -777162.28078588704 0 0 0 0 12983920.134605408 -3164275.4789852337 0 -3164275.4789852337 -1698536.0964961452 0 0 0 0 12925808.126068115 -2358330.5879133139 0 -2358330.5879133139 150160.65373015776 0 0 0 0 13512943.801109314 -4518041.9572635433 0 -4518041.9572635433 -115287.94286650629 0 0 0 0 28831057.960140228 4633806.5737574995 0 4633806.5737574995 -13859894.548108861 0 0 0 0 13579283.201099396 -4846988.2393038766 0 -4846988.2393038766 -2559924.377890869 0 0 0 0 7002402.3216228187 -122130.45717695355 0 -122130.45717695355 -1173136.4566730566 0 0 0 0 18235778.093429565 3546140.3716588542 0 3546140.3716588542 2706017.8256179616 0 0 0 0 1608081.4754128531 233666.13684289902 0 233666.13684289902 -33683.205279172958 0 0 0 0 55916418.957923889 12439474.381570306 0 12439474.381570306 -3493693.7993567213 0 0 0 0 7003916.576171875 -6536641.8268477963 0 -6536641.8268477963 -1212914.2874721659 0 0 0 0 35719759.28502655 218588.7684004787 0 218588.7684004787 -8900.4994012869902 0 0 0 0 24872070.846809387 -8303888.9653957458 0 -8303888.9653957458 -1171984.3327680852 0 0 0 0 27116757.020371437 -2040219.9240923484 0 -2040219.9240923484 4463.3345652262569 0 0 0 0 28728123.455444336 3021296.9752812888 0 3021296.9752812888 4893563.6123164454 0 0 0 0 29092870.449150085 -2484405.7959072841 0 -2484405.7959072841 -3587769.1521642245 0 0 0 0 30300038.980766296 -6298366.5615965798 0 -6298366.5615965798 6910815.1344962064 0 0 0 0 19436518.899810791 -2451700.5019817492 0 -2451700.5019817492 4500582.4462944595 0 0 0 0 17123272.443536401 -9960012.7158096749 0 -9960012.7158096749 -7489339.0441745035 0 0 0 0 16950147.16217041 -2934037.3608088605 0 -2934037.3608088605 116324.03102447838 0 0 0 0 26959828.062026978 -7446077.9522798061 0 -7446077.9522798061 -23004355.674146518 0 0 0 0 1160995.2526321411 -21214134.171024762 0 -21214134.171024762 -28817117.359539628 0 0 0 0 -258755.01785452664 82159.374056220055 0 82159.374056220055 245403.14115666019 0 0 0 0 -16711450.39146924 -8568837.7333706692 0 -8568837.7333706692 12126541.752708167 0 0 0 0 -15959791.401168823 -30304999.666270703 0 -30304999.666270703 -11369296.712312087 0 0 0 0 13331477.706130981 -15841255.437396318 0 -15841255.437396318 -26807049.505284339 0 0 0 0 4639068.8619232178 -25995130.790952802 0 -25995130.790952802 -37397292.046513617 0 0 0 0 18962728.089564808 -1721951.870901172 0 -1721951.870901172 -1249092.4166920038 0 0 0 0 18686063.727109239 -3192015.7997744977 0 -3192015.7997744977 -1647802.5166867767 0 0 0 0 14820866.987571716 -13287907.747564942 0 -13287907.747564942 -14063172.055368274 0 0 0 0 13268097.585464478 -12351105.417141199 0 -12351105.417141199 -14084365.401350617 0 0 0 0 5658446.0515441895 -13881947.676745474 0 -13881947.676745474 -3508869.4894485474 0 0 0 0 7496315.9785804749 -17725571.405197732 0 -17725571.405197732 -8157831.498445347 0 0 0 0 13929487.403366089 -13436594.548039675 0 -13436594.548039675 -7032745.3650766723 0 0 0 0 7363150.6026916504 -11989343.821884179 0 -11989343.821884179 -3051572.0034805983 0 0 0 0 14178369.912460327 -15452229.523856275 0 -15452229.523856275 -16057198.289921928 0 0 0 0 14112492.40852356 -13601061.058301657 0 -13601061.058301657 -10138316.727893345 0 0 0 0 16291379.252624512 -17627711.678909898 0 -17627711.678909898 -7241813.9667447656 0 0 0 0 17269881.949203491 -13478429.333079845 0 -13478429.333079845 -4480869.7889658064 0 0 0 0 14424858.932292938 -12075532.693040011 0 -12075532.693040011 -3764654.3818376064 0 0 0 0 22268980.281795502 -10799373.964395013 0 -10799373.964395013 -3561855.4678577185 0 0 0 0 13885101.821792603 -11571824.825828731 0 -11571824.825828731 3042977.5657082051 0 0 0 0 23741725.777069092 -11723485.814520717 0 -11723485.814520717 547664.70746961236 0 0 0 0 27875298.411529541 -9186790.106749773 0 -9186790.106749773 -1697391.5108622909 0 0 0 0 5826511.8815727234 -21835386.626777947 0 -21835386.626777947 9823582.6543441415 0 0 0 0 18230519.551193237 -16742247.71543391 0 -16742247.71543391 2974472.845972538 0 0 0 0 48699507.248977661 -23617184.540539205 0 -23617184.540539205 296663.91645896435 0 0 0 0 18507377.806182861 -50741616.535044104 0 -50741616.535044104 48989710.884593487 0 0 0 0 8040510.913482666 -23159540.220558196 0 -23159540.220558196 10520520.75367263 0 0 0 0 6983717.2149047852 -9998433.3766974211 0 -9998433.3766974211 1742671.6891991496 0 0 0 0 7988002.3014640808 -10756476.168361951 0 -10756476.168361951 -686282.83723373711 0 0 0 0 8558540.7216796875 -11834187.661500335 0 -11834187.661500335 -117657.56661006808 0 0 0 0 13102641.956886292 -9155747.5926508605 0 -9155747.5926508605 846133.56549084187 0 0 0 0 12262412.645202637 -10094759.543512464 0 -10094759.543512464 663285.22451138496 0 0 0 0 11501087.297973633 -9387013.4083367586 0 -9387013.4083367586 2205230.2896071672 0 0 0 0 10280495.977935791 -10987979.104878098 0 -10987979.104878098 1066364.5485178828 0 0 0 0 8210270.5998382568 -9585979.9801039249 0 -9585979.9801039249 2328435.8740016222 0 0 0 0 5657434.756652832 -10368323.945781246 0 -10368323.945781246 2220289.2777625024 0 0 0 0 7981035.1210021973 -9927660.8416317701 0 -9927660.8416317701 2318022.6582967639 0 0 0 0 563295.86316680908 -6697380.9128229823 0 -6697380.9128229823 6760124.1351807266 0 0 0 0 3399154.3843841553 -8439835.1888737828 0 -8439835.1888737828 3826145.4046109915 0 0 0 0 4194874.2320556641 -6908074.1342293061 0 -6908074.1342293061 4607485.3254662156 0 0 0 0 -996814.13259887695 -8787208.9628700316 0 -8787208.9628700316 4105345.1012693513 0 0 0 0 2574705.2410736084 -12882627.321724907 0 -12882627.321724907 -133721.12325636297 0 0 0 0 1939375.5582580566 -6449180.1390229762 0 -6449180.1390229762 5233866.2020429075 0 0 0 0 -4144704.6405029297 -4840639.032867847 0 -4840639.032867847 7257020.0316903479 0 0 0 0 -1593909.0224514008 1336936.6278867219 0 1336936.6278867219 9074907.373775214 0 0 0 0 1784344.7864685059 -2948418.9699637145 0 -2948418.9699637145 7696591.6236080043 0 0 0 0 -6062660.6574821472 -801728.60654152185 0 -801728.60654152185 12601215.818767875 0 0 0 0 -16819035.698856354 -12674768.920130724 0 -12674768.920130724 5840555.7471870631 0 0 0 0 3630015.0552139282 -15790637.257230829 0 -15790637.257230829 -3878352.5738196187 0 0 0 0 -365909.04039122909 207751.2920587752 0 207751.2920587752 480220.72084255778 0 0 0 0 -33710810.975158691 -31124099.809033811 0 -31124099.809033811 62723805.671836078 0 0 0 0 2851946.8968086243 -3757906.7243329659 0 -3757906.7243329659 13746476.198158663 0 0 0 0 717074.77886581421 -5731333.7979992293 0 -5731333.7979992293 22832534.969986655 0 0 0 0 -150948.0523192361 146292.26172237471 0 146292.26172237471 282737.206610305 0 0 0 0 110038689.94892883 58266409.149961635 0 58266409.149961635 15135416.21363011 0 0 0 0 79916799.575248718 20583910.565455399 0 20583910.565455399 127509581.62759754 0 0 0 0 85517592.449371338 -61243489.333966866 0 -61243489.333966866 83298722.53964676 0 0 0 0 20727932.468704224 -51709320.121419407 0 -51709320.121419407 56192471.631473072 0 0 0 0 -31212211.675048828 -23074284.936851718 0 -23074284.936851718 84968281.895460576 0 0 0 0 6338036.2977440283 -63111442.691648737 0 -63111442.691648737 22682604.759355009 0 0 0 0 6233314.4268264771 -24615617.810799807 0 -24615617.810799807 81336734.859068274 0 0 0 0 87032782.541931152 -35940708.315300465 0 -35940708.315300465 -21872662.401911974 0 0 0 0 46577267.666015625 -86840908.187193573 0 -86840908.187193573 -15798075.701781034 0 0 0 0 29306606.209701538 -32003801.08995533 0 -32003801.08995533 -123709443.61316967 0 0 0 0 -29869451.651878357 -36547715.225955963 0 -36547715.225955963 7947730.8895387053 0 0 0 0 260366.88153076172 -102853546.79527867 0 -102853546.79527867 -59988124.796168447 0 0 0 0 6824857.7705535889 -34198561.162696362 0 -34198561.162696362 -175244636.97268403 0 0 0 0 6337308.4403457642 -31251544.477784276 0 -31251544.477784276 -59934350.405314147 0 0 0 0 -10513986.678449631 -66568556.082802624 0 -66568556.082802624 -29933617.290764391 0 0 0 0 -19239643.44468689 -54822432.162496567 0 -54822432.162496567 -62908177.360473663 0 0 0 0 2251560.5846405029 -53104998.182876796 0 -53104998.182876796 -62829720.07315965 0 0 0 0 14205984.554733276 -61749831.172609627 0 -61749831.172609627 -6214878.537914753 0 0 0 0 24495977.089946747 -15018237.989049226 0 -15018237.989049226 4765223.2190222144 0 0 0 0 28765909.740535736 -45126403.96889019 0 -45126403.96889019 -92033593.801701188 0 0 0 0 18616404.3502139 -1603123.4563078191 0 -1603123.4563078191 -1031320.597254492 0 0 0 0 19763135.755737305 -7407864.6360324938 0 -7407864.6360324938 -17499301.963411741 0 0 0 0 19933633.851722717 -7154611.0935669225 0 -7154611.0935669225 -10314994.576479716 0 0 0 0 17548921.786102295 -2985843.7395263631 0 -2985843.7395263631 -720836.34260071022 0 0 0 0 8544624.7937889099 -46074263.679786444 0 -46074263.679786444 -135079138.39790463 0 0 0 0 16445592.173789978 -6173495.7361835968 0 -6173495.7361835968 -6197127.5336138587 0 0 0 0 18135991.381782532 -6412359.6388373831 0 -6412359.6388373831 -6191895.3554832377 0 0 0 0 15245780.311927795 -4428291.4120555371 0 -4428291.4120555371 934831.33472474292 0 0 0 0 20067288.431518555 -2471547.0453602779 0 -2471547.0453602779 -731081.48059522535 0 0 0 0 19135676.60131073 -4512404.5471844636 0 -4512404.5471844636 -2126163.7067054696 0 0 0 0 17723749.21194458 -5326187.2592058964 0 -5326187.2592058964 -2351123.832693927 0 0 0 0 17849271.373958588 -4074073.6669185064 0 -4074073.6669185064 801.03811467368541 0 0 0 0 31889614.314670563 -13445965.294964461 0 -13445965.294964461 930954.95710071921 0 0 0 0 6344112.217850931 -2418568.3611172438 0 -2418568.3611172438 376355.26585902076 0 0 0 0 18583057.249549866 -4651298.3603112279 0 -4651298.3603112279 624252.12852426432 0 0 0 0 23746216.069992065 -3362227.5612530531 0 -3362227.5612530531 9766.1906371853402 0 0 0 0 17072348.840896606 -8413374.8003506921 0 -8413374.8003506921 1217314.6421800042 0 0 0 0 17648146.639373779 -4260611.0403052634 0 -4260611.0403052634 -4815791.8270108756 0 0 0 0 24649383.106498718 -5721787.0249335244 0 -5721787.0249335244 -4646711.2052534819 0 0 0 0 18914864.999842204 -1078483.6299226228 0 -1078483.6299226228 -1308060.1937330994 0 0 0 0 20290816.609550476 -6088312.9788965955 0 -6088312.9788965955 -8455935.1458223294 0 0 0 0 21483520.424804688 -59274442.262538195 0 -59274442.262538195 -6233170.8868050575 0 0 0 0 20654120.977157593 -5099600.1231630063 0 -5099600.1231630063 -7968289.4602670409 0 0 0 0 33018855.66545105 17621529.0797925 0 17621529.0797925 -102308376.15143245 0 0 0 0 -31348320.820611477 -132177096.65245873 0 -132177096.65245873 -216485550.40041137 0 0 0 0 2756563.2250771299 1623000.717763409 0 1623000.717763409 -1684148.0686346302 0 0 0 0 57999317.539901733 -94789845.750525951 0 -94789845.750525951 -261880064.17909145 0 0 0 0 -1140686.0229331926 -2832492.6581239467 0 -2832492.6581239467 404424.0628755003 0 0 0 0 19785560.302719116 -106010979.15111494 0 -106010979.15111494 -182394986.77613688 0 0 0 0 -20012752.506292343 -34577456.698580369 0 -34577456.698580369 -187960267.50676394 0 0 0 0 12160423.741455078 -88836971.961807489 0 -88836971.961807489 -121657679.43427204 0 0 0 0 87132237.526229858 -69156609.915349245 0 -69156609.915349245 -195816735.10902405 0 0 0 0 64210967.769821167 -42101086.451503515 0 -42101086.451503515 -156929746.19214439 0 0 0 0 95693143.711502075 -73468042.507175803 0 -73468042.507175803 -129756670.84066105 0 0 0 0 131135167.77656555 -18909362.782013416 0 -18909362.782013416 -181641645.92271066 0 0 0 0 82886058.143188477 -25567738.414735079 0 -25567738.414735079 -169386976.62038183 0 0 0 0 65853319.377342224 -12153563.144118309 0 -12153563.144118309 -174095224.52726245 0 0 0 0 65766020.482299805 -56561244.33515954 0 -56561244.33515954 -162783476.84614539 0 0 0 0 42596170.629211426 -55608746.588139772 0 -55608746.588139772 -127799695.88786221 0 0 0 0 103807603.30274963 36108818.161973 0 36108818.161973 -266515119.72370696 0 0 0 0 102633585.45672607 -55934579.061180592 0 -55934579.061180592 -208998782.92586654 0 0 0 0 4972334.5080901533 241682.6807041131 0 241682.6807041131 -865284.76495827024 0 0 0 0 -7692017.3002243042 99656145.463986158 0 99656145.463986158 -187926854.26443338 0 0 0 0 9046523.2424087524 -3620131.7714223862 0 -3620131.7714223862 4950250.4409929514 0 0 0 0 38955192.266609192 1150008.6969450712 0 1150008.6969450712 4761055.6986467838 0 0 0 0 8734615.2659289092 2428881.4189965613 0 2428881.4189965613 2596840.2294358481 0 0 0 0 17404909.688891597 -923820.52527073771 0 -923820.52527073771 -697437.92810876574 0 0 0 0 -8399852.2448425293 30354129.075297356 0 30354129.075297356 -66266250.897251576 0 0 0 0 16298515.247108459 -10114181.081996068 0 -10114181.081996068 -5024669.8355216244 0 0 0 0 -9316881.7529449463 38232620.177320719 0 38232620.177320719 -92457920.660286903 0 0 0 0 27626775.302093506 -19394331.044304132 0 -19394331.044304132 -65920969.845908642 0 0 0 0 22016065.464790344 -55083386.404415786 0 -55083386.404415786 -127755565.05042267 0 0 0 0 15686760.39302063 16814143.017234325 0 16814143.017234325 -172517050.95118389 0 0 0 0 17775190.230926514 -7090663.5543972114 0 -7090663.5543972114 -3576591.2022523819 0 0 0 0 23128272.032608032 4288675.6869299635 0 4288675.6869299635 -2669685.2843785435 0 0 0 0 9745150.8975347877 -2399567.4269323051 0 -2399567.4269323051 -1202007.9836128948 0 0 0 0 15138027.199546814 3361350.1222890215 0 3361350.1222890215 2325743.1148307305 0 0 0 0 3337291.2344665527 976130.27792134881 0 976130.27792134881 -1309443.4847236276 0 0 0 0 12632256.651727214 -288231.62465674058 0 -288231.62465674058 1479825.3351553085 0 0 0 0 26568580.817214966 -13517369.23469422 0 -13517369.23469422 -7423288.710063979 0 0 0 0 15565126.259735107 9525236.3624216318 0 9525236.3624216318 1067395.2705666125 0 0 0 0 675420.60807359964 -419274.49085721001 0 -419274.49085721001 -492054.34490535944 0 0 0 0 8976531.0588163286 2225032.0549192093 0 2225032.0549192093 -194052.45466215772 0 0 0 0 16786616.931549072 151119.39382959157 0 151119.39382959157 -1165281.6458869874 0 0 0 0 22823525.741729736 4283880.7346215313 0 4283880.7346215313 -2550895.3905173959 0 0 0 0 21219195.407470703 881286.52432731818 0 881286.52432731818 -1332865.4226023168 0 0 0 0 23302640.477630615 4624083.3061691113 0 4624083.3061691113 -2345629.7481488809 0 0 0 0 25867198.666366577 -314990.92963758681 0 -314990.92963758681 -4175954.291335755 0 0 0 0 8726913.2063362822 -586387.37604409456 0 -586387.37604409456 -483228.62202213379 0 0 0 0 18516552.315841675 4715120.4489031192 0 4715120.4489031192 -6021.9506304942443 0 0 0 0 8534674.2597808838 1289553.6606193483 0 1289553.6606193483 -830303.92010433134 0 0 0 0 23059430.055503845 4152307.1364899399 0 4152307.1364899399 -2754090.7748738155 0 0 0 0 1435193276.3909302 44678229.821408443 0 44678229.821408443 437096.87299279362 0 0 0 0 2201280444.1393204 -234555914.18981069 0 -234555914.18981069 -341653811.7939555 0 0 0 0 2076499585.5060501 -234378740.77201033 0 -234378740.77201033 117726790.77786158 0 0 0 0 1500763838.9522476 832002501.79444373 0 832002501.79444373 150083950.2693111 0 0 0 0 1623893.8054153547 25912.191649436951 0 25912.191649436951 -26250.534800226967 0 0 0 0 9941038.7201156616 359784.08112052456 0 359784.08112052456 929518.04137720168 0 0 0 0 6786455.8510131836 671716.54743009061 0 671716.54743009061 2414557.1090693288 0 0 0 0 4005300.7984474227 260429.89136299118 0 260429.89136299118 -116316.16554128559 0 0 0 0 7389256.0740101784 -355938.58600785583 0 -355938.58600785583 350561.68355852086 0 0 0 0 556811508.62008286 -173859866.24625078 0 -173859866.24625078 82605015.773948252 0 0 0 0 164747562.24719238 152804352.38640222 0 152804352.38640222 98109320.719212696 0 0 0 0 461597376.56277466 14623540.79505688 0 14623540.79505688 -53634514.58988753 0 0 0 0 249324590.51634216 3163255.862554837 0 3163255.862554837 159239636.95968413 0 0 0 0 1146906860.2226896 -1158406665.6698275 0 -1158406665.6698275 585838841.0757494 0 0 0 0 1087172954.1715908 -188834396.26761267 0 -188834396.26761267 -109513543.52629606 0 0 0 0 7995893.9887309 1733344.5882244296 0 1733344.5882244296 1357187.7709975117 0 0 0 0 2578856.0653098896 -661800.93577865884 0 -661800.93577865884 -2578730.2645298475 0 0 0 0 113710719.19237328 -190513810.77805182 0 -190513810.77805182 224698171.44198304 0 0 0 0 371256034.01961517 96113612.199113265 0 96113612.199113265 18762547.01991722 0 0 0 0 14705668.973472595 521055329.37438643 0 521055329.37438643 1053406515.0027089 0 0 0 0 3548964.2229325995 120857.75510771386 0 120857.75510771386 1337448.6083447873 0 0 0 0 1772412960.7983398 1037070735.0470241 0 1037070735.0470241 300507865.0378167 0 0 0 0 2201503744.2807536 1010525134.2795982 0 1010525134.2795982 -153704878.16387641 0 0 0 0 1657202713.8432465 581517819.34872615 0 581517819.34872615 123725361.36178546 0 0 0 0 1658623890.0514526 542281032.3164382 0 542281032.3164382 -139869927.44544101 0 0 0 0 1169588248.4766922 678936022.48661542 0 678936022.48661542 140811328.01801914 0 0 0 0 -257718891.95343781 343279184.61181587 0 343279184.61181587 122991335.12365818 0 0 0 0 1107251701.8972321 -124693017.42320397 0 -124693017.42320397 -241642830.14689189 0 0 0 0 2279281.3342450112 860701.02765458077 0 860701.02765458077 1534013.5061092114 0 0 0 0 352401700.37664795 554464662.16543627 0 554464662.16543627 187550864.56194702 0 0 0 0 71223324.675933838 -32222048.162231565 0 -32222048.162231565 -82418293.623282671 0 0 0 0 178200504.36128235 12569116.771592915 0 12569116.771592915 -69445769.33538653 0 0 0 0 23375125.60401535 7080886.778399393 0 7080886.778399393 112959178.442074 0 0 0 0 97034319.175689697 -17038515.276703656 0 -17038515.276703656 -101777761.46466088 0 0 0 0 99097659.875289917 -75667685.985752583 0 -75667685.985752583 21674400.608718812 0 0 0 0 77012901.263420105 -55351724.911420837 0 -55351724.911420837 76733051.240672648 0 0 0 0 150640165.55122375 18890497.355306596 0 18890497.355306596 55837966.312328458 0 0 0 0 220798916.89189148 -39928128.387919337 0 -39928128.387919337 104715955.90088326 0 0 0 0 161701309.25635529 24202360.642976835 0 24202360.642976835 81315924.741482973 0 0 0 0 317995586.56376648 284609598.45628607 0 284609598.45628607 146964911.13916636 0 0 0 0 388416344.18946838 222516796.13418448 0 222516796.13418448 182792036.02548313 0 0 0 0 981052723.19498444 344617570.39501119 0 344617570.39501119 84883676.137590662 0 0 0 0 396278408.03720093 70326230.287632436 0 70326230.287632436 140038526.85517418 0 0 0 0 373953209.96790314 98444016.039605409 0 98444016.039605409 114697531.45470321 0 0 0 0 153947142.3213501 -29126006.528049394 0 -29126006.528049394 117606479.27490032 0 0 0 0 138198024.02399445 28825804.625576869 0 28825804.625576869 183992969.94453281 0 0 0 0 385377335.19953918 -71313268.66489315 0 -71313268.66489315 19751051.383584246 0 0 0 0 112428908.08416557 77799021.806288481 0 77799021.806288481 135451672.26224256 0 0 0 0 706819021.09265137 176744946.48149461 0 176744946.48149461 28022016.527852833 0 0 0 0 922700071.75418854 -115044877.58568457 0 -115044877.58568457 -51261085.246105701 0 0 0 0 1630371715.0302353 214734559.18569526 0 214734559.18569526 -370966361.77193898 0 0 0 0 2205361505.9984765 494302113.41390401 0 494302113.41390401 -335192218.80295289 0 0 0 0 1039960894.978981 308649689.46615767 0 308649689.46615767 -64554715.800433934 0 0 0 0 1581328268.8413296 321143218.9657746 0 321143218.9657746 -172555721.77552605 0 0 0 0 25601436.096538544 26012778.539184719 0 26012778.539184719 86729191.860987663 0 0 0 0 6635564.0820935667 -6154075.6108759344 0 -6154075.6108759344 3735188.7254361189 0 0 0 0 103076930.81980896 82789530.126697063 0 82789530.126697063 22322542.964689732 0 0 0 0 47161048.442733765 -49590726.544945002 0 -49590726.544945002 29867645.513724566 0 0 0 0 176950224.90492249 33143814.311940551 0 33143814.311940551 75162432.124231696 0 0 0 0 221900293.09648132 63708562.468492985 0 63708562.468492985 31980045.127275109 0 0 0 0 203663272.94466782 105040922.35586314 0 105040922.35586314 89780886.578884244 0 0 0 0 -146576269.2054863 -174774422.97616243 0 -174774422.97616243 -82240442.994038463 0 0 0 0 -122013410.28286743 15717001.658176899 0 15717001.658176899 22140964.045852184 0 0 0 0 1350439.0438120719 -1080177.0912619531 0 -1080177.0912619531 -309119.27094796323 0 0 0 0 -190759523.18978119 -110917867.89968228 0 -110917867.89968228 97699713.09150815 0 0 0 0 11054025.631156921 11569614.418289661 0 11569614.418289661 -1809989.610098362 0 0 0 0 12070065.444763184 -3270569.7871460915 0 -3270569.7871460915 139883373.95317507 0 0 0 0 244128790.86141777 49035349.945504695 0 49035349.945504695 132675929.94844055 0 0 0 0 235159224.72088623 1824261.9327864647 0 1824261.9327864647 31332331.384419441 0 0 0 0 207959863.17766571 -79082132.321902752 0 -79082132.321902752 -157000691.26239371 0 0 0 0 154987274.76685715 62088780.8164832 0 62088780.8164832 -94965557.916788101 0 0 0 0 151357726.66371346 42169468.181325555 0 42169468.181325555 124029395.61003494 0 0 0 0 201338934.28170395 -110593967.64901137 0 -110593967.64901137 40751450.358234406 0 0 0 0 -124476893.83920288 29207604.677779675 0 29207604.677779675 102169470.67410588 0 0 0 0 61528412.600061417 -1135895.3849431276 0 -1135895.3849431276 -79848430.218325138 0 0 0 0 9009677.3022972047 -6933007.3306568451 0 -6933007.3306568451 2974440.1252436475 0 0 0 0 64790406.271830559 19548896.267135769 0 19548896.267135769 -48104849.07393074 0 0 0 0 -163891500.38522339 -285196298.51731396 0 -285196298.51731396 21865420.661991 0 0 0 0 -83411141.654144287 226326867.33588409 0 226326867.33588409 80461091.561962843 0 0 0 0 83725172.685333252 5435818.4559965134 0 5435818.4559965134 -85312167.297335148 0 0 0 0 86218705.43914032 14904670.953958511 0 14904670.953958511 -98355743.090892792 0 0 0 0 82430287.921661377 194138386.39977264 0 194138386.39977264 -91278559.717611969 0 0 0 0 97715253.997528076 20685501.460291862 0 20685501.460291862 -129013535.16551113 0 0 0 0 -57135866.423614502 -130468793.23260498 0 -130468793.23260498 -73070190.587300301 0 0 0 0 3896750.7187536657 10976.379364985973 0 10976.379364985973 -673708.46925405972 0 0 0 0 101549423.4446106 42858984.845242023 0 42858984.845242023 -87041234.616591573 0 0 0 0 75318088.008926392 49113584.991590738 0 49113584.991590738 -125119199.58054352 0 0 0 0 129608188.56113815 12945114.018515289 0 12945114.018515289 -45492072.638235092 0 0 0 0 107043163.55215454 24784758.877161503 0 24784758.877161503 -106972807.64981651 0 0 0 0 50810399.623580933 31524805.684465885 0 31524805.684465885 -49591177.59937191 0 0 0 0 -40059532.443237305 1076107.4502415657 0 1076107.4502415657 556527.05750918388 0 0 0 0 570802299.96242905 356199428.4174847 0 356199428.4174847 86398751.978851914 0 0 0 0 21360666.262641907 65888153.436368465 0 65888153.436368465 -88579714.439235687 0 0 0 0 -583445503.55024719 304245918.17985153 0 304245918.17985153 1076501506.7404633 0 0 0 0 38776741.968338013 153199142.91239309 0 153199142.91239309 79044408.281905174 0 0 0 0 665335762.95477295 445855497.30745697 0 445855497.30745697 191988286.85747814 0 0 0 0 338592064.5484314 353531595.35621357 0 353531595.35621357 172498378.08383536 0 0 0 0 703542244.84122372 93924708.799083441 0 93924708.799083441 32810134.575543404 0 0 0 0 492707230.12878418 8087018.2011518478 0 8087018.2011518478 845129.61064243317 0 0 0 0 389234325.64868164 -90683118.211740971 0 -90683118.211740971 28927337.921389103 0 0 0 0 425727708.81092834 494026683.20721591 0 494026683.20721591 -30060045.762628675 0 0 0 0 2461177.1916463897 1397116.2691025119 0 1397116.2691025119 321394.14225482265 0 0 0 0 19333112.136047363 -171804699.85243762 0 -171804699.85243762 -188352704.20598125 0 0 0 0 -58139438.144088745 -172499148.12106276 0 -172499148.12106276 132094792.41958332 0 0 0 0 -32130307.619857788 187215965.26377758 0 187215965.26377758 347297413.69543844 0 0 0 0 2595713.7784229368 295247.93177688681 0 295247.93177688681 -619396.29918937292 0 0 0 0 80274786.425880432 -150688053.18195379 0 -150688053.18195379 -68357373.061112642 0 0 0 0 -31297700.744476318 7157468.721446991 0 7157468.721446991 -125319906.98754954 0 0 0 0 -19358013.76143837 -22980096.823783517 0 -22980096.823783517 -153551482.32158089 0 0 0 0 -23516236.013046265 30480855.935190201 0 30480855.935190201 -80900340.65511322 0 0 0 0 65652341.907554626 -810753.2621319294 0 -810753.2621319294 -361115011.72426105 0 0 0 0 6493634.1498738229 2265852.1914870515 0 2265852.1914870515 64984.235133483424 0 0 0 0 18659060.52633667 91768640.845677555 0 91768640.845677555 38996045.792778492 0 0 0 0 -57592903.111763 3262010.9362926483 0 3262010.9362926483 120267583.54592991 0 0 0 0 -30324303.029464722 -21326931.496113777 0 -21326931.496113777 -109897158.07260942 0 0 0 0 -18661632.244979858 38769171.193970859 0 38769171.193970859 -86785844.882041931 0 0 0 0 -34043333.983192444 59142131.840392768 0 59142131.840392768 24248710.371031046 0 0 0 0 -877970.68992614746 125784931.34742402 0 125784931.34742402 68256579.040761411 0 0 0 0 -21997011.401023865 46004006.767086327 0 46004006.767086327 37970004.053819656 0 0 0 0 70171367.521091461 92078417.460597873 0 92078417.460597873 -14409048.184297174 0 0 0 0 135313670.53115463 -60901060.345844805 0 -60901060.345844805 -41773302.193263531 0 0 0 0 214369226.86356354 -105058341.93991071 0 -105058341.93991071 -56942055.837650716 0 0 0 0 290412666.91324234 193042132.35170075 0 193042132.35170075 29401238.98794049 0 0 0 0 253368042.71062469 64355776.866862699 0 64355776.866862699 -88853887.298749685 0 0 0 0 280686383.99666595 127057123.37408172 0 127057123.37408172 -20241155.860995606 0 0 0 0 81362901.394159317 -83042873.396044984 0 -83042873.396044984 28399795.340633519 0 0 0 0 855039.79298131913 398297.03528890386 0 398297.03528890386 -735437.23589559365 0 0 0 0 -57068190.515533447 -38143728.1804315 0 -38143728.1804315 39512474.148181349 0 0 0 0 77897270.181640625 99318250.019448355 0 99318250.019448355 55559007.863477811 0 0 0 0 273885137.56678772 50350612.68068704 0 50350612.68068704 3860464.2898256779 0 0 0 0 64474905.748287201 88247531.015891284 0 88247531.015891284 65098213.018261254 0 0 0 0 2027116.1385158747 1834974.8571144342 0 1834974.8571144342 -1581166.2733872486 0 0 0 0 12429406.735740662 43285291.558411121 0 43285291.558411121 57800495.828273237 0 0 0 0 7311061.4919967651 31900489.234250367 0 31900489.234250367 33794374.588364124 0 0 0 0 4966425.8256524354 4117835.0922098793 0 4117835.0922098793 -2974581.3186496203 0 0 0 0 31853698.286323547 -33263640.772545576 0 -33263640.772545576 37285291.828736544 0 0 0 0 -25776994.449370861 25401660.393384181 0 25401660.393384181 24412648.418516099 0 0 0 0 38383907.656265259 46798104.791247219 0 46798104.791247219 10088779.443766326 0 0 0 0 -27605533.277124166 -1735593.3396718879 0 -1735593.3396718879 11276127.065559149 0 0 0 0 12802574.552658081 2809538.2811536789 0 2809538.2811536789 -9096873.2172040939 0 0 0 0 1731553.2428099588 267976.09379199892 0 267976.09379199892 -1537451.7457939798 0 0 0 0 298009912.71295547 -8153094.5438551828 0 -8153094.5438551828 -25499678.078038514 0 0 0 0 195750194.7558136 87103400.562069625 0 87103400.562069625 4332368.5949889272 0 0 0 0 59836490.868515015 35314934.668267325 0 35314934.668267325 -1474305.4866005257 0 0 0 0 67832717.686897278 17329511.370327845 0 17329511.370327845 29383784.327327579 0 0 0 0 63825950.18913269 41276675.808851674 0 41276675.808851674 37357524.513216496 0 0 0 0 55366562.129436493 24949103.750274852 0 24949103.750274852 5975941.23717466 0 0 0 0 132545068.00726318 28652104.733422309 0 28652104.733422309 7386919.7558530793 0 0 0 0 164947454.29118347 31330781.858249903 0 31330781.858249903 10163461.34370093 0 0 0 0 181618051.91667557 -8483307.461982809 0 -8483307.461982809 824563.67683887482 0 0 0 0 205791950.96031189 8430844.8374610096 0 8430844.8374610096 -5756985.5487719774 0 0 0 0 284559903.19033813 -56207514.594772935 0 -56207514.594772935 13742156.507068351 0 0 0 0 117801009.42776871 -19487910.598114744 0 -19487910.598114744 152073660.60064757 0 0 0 0 232892241.94244385 179096609.39339194 0 179096609.39339194 25311059.937074602 0 0 0 0 125142502.98040771 -184969514.6484223 0 -184969514.6484223 168542863.48463571 0 0 0 0 432025.16089141369 -1140950.1781637613 0 -1140950.1781637613 -81656.981475023058 0 0 0 0 242426327.94683838 103129805.19517189 0 103129805.19517189 15000482.895153642 0 0 0 0 -3170822.2850160375 -5195081.7171044908 0 -5195081.7171044908 -38045.249004601937 0 0 0 0 32558413.331390381 -5673115.2756036073 0 -5673115.2756036073 -34295007.88931179 0 0 0 0 3050572.8296813965 -411048.36058586836 0 -411048.36058586836 -850684.17944602296 0 0 0 0 4108293.2456932068 1130511.159109354 0 1130511.159109354 -7995537.5755228996 0 0 0 0 6038567.0186146088 -666998.87050141767 0 -666998.87050141767 897078.24234068766 0 0 0 0 75482423.320251465 15334822.469702005 0 15334822.469702005 29734487.999714792 0 0 0 0 1755153.7153906953 -674365.9052651003 0 -674365.9052651003 1143176.0576687944 0 0 0 0 -9733550.4430847168 11187069.855429411 0 11187069.855429411 -11527558.83532548 0 0 0 0 3374676.2684058771 -2080284.4966290332 0 -2080284.4966290332 -1055922.5322054841 0 0 0 0 -11247841.083198547 47928240.881456852 0 47928240.881456852 -41894052.624841213 0 0 0 0 -18082153.737976074 44509069.073783278 0 44509069.073783278 -3012239.7865400314 0 0 0 0 -37148872.626724243 13947668.240242004 0 13947668.240242004 -6200708.3767134547 0 0 0 0 -48818123.259246826 40089753.713934422 0 40089753.713934422 -3579759.9410892129 0 0 0 0 21058610.293014526 7344531.3155130781 0 7344531.3155130781 19247964.175993472 0 0 0 0 -71028656.876655579 22076740.633247614 0 22076740.633247614 11398224.395177841 0 0 0 0 1914731.0632257685 -80097.488746654242 0 -80097.488746654242 -76023.133160581929 0 0 0 0 3753918.9854739234 -3110722.5095910802 0 -3110722.5095910802 3689451.6676265309 0 0 0 0 284616169.7643919 -19962614.709302936 0 -19962614.709302936 -57570099.050215274 0 0 0 0 -56930021.669078827 41975570.566888571 0 41975570.566888571 16274501.804938316 0 0 0 0 -29330671.797641754 75509503.319540381 0 75509503.319540381 32017478.321199417 0 0 0 0 -77307401.98343277 16116662.662078857 0 16116662.662078857 60760391.319807053 0 0 0 0 -67959319.00680542 -7151828.5578167439 0 -7151828.5578167439 -24314545.399481058 0 0 0 0 -181914752.92352104 -34554597.9470222 0 -34554597.9470222 65692088.995220184 0 0 0 0 4687188.8349752557 -4604697.5078285076 0 -4604697.5078285076 3791709.0448678616 0 0 0 0 -11606903.606765747 -5828185.2291270196 0 -5828185.2291270196 24685074.789064527 0 0 0 0 -1028831.7520191967 -462157.38200060278 0 -462157.38200060278 1488005.7324595251 0 0 0 0 263540641.18289185 176020710.64433128 0 176020710.64433128 40665521.692568675 0 0 0 0 252671573.57672119 -31343001.499625683 0 -31343001.499625683 78975462.893083572 0 0 0 0 280046095.07099915 21100237.241803408 0 21100237.241803408 133261699.64834309 0 0 0 0 139171334.10532379 78464812.7377882 0 78464812.7377882 75310263.584677696 0 0 0 0 -20767595.795394897 48999559.504368067 0 48999559.504368067 49827894.903446913 0 0 0 0 -13839196.091262817 24960210.64031744 0 24960210.64031744 122262165.90660715 0 0 0 0 -112814752.72847748 -12034322.664719105 0 -12034322.664719105 98760975.296816826 0 0 0 0 94389513.431533813 43377588.141002178 0 43377588.141002178 43296071.840339661 0 0 0 0 11177610.772270203 84526140.799365044 0 84526140.799365044 62699179.770739198 0 0 0 0 85891255.314428329 31449616.99611342 0 31449616.99611342 137925323.08979702 0 0 0 0 188403086.77368927 61220601.682664394 0 61220601.682664394 44731951.49754858 0 0 0 0 83369659.362897873 73792165.188329399 0 73792165.188329399 -18993755.188384056 0 0 0 0 92599877.852218628 10753887.375485182 0 10753887.375485182 21644015.600254536 0 0 0 0 -13803276.874481201 7129739.9110827446 0 7129739.9110827446 -61095549.477080345 0 0 0 0 -1624903.9012756348 68645380.260057926 0 68645380.260057926 -4388493.87950892 0 0 0 0 1512846.0417556763 56843489.274163604 0 56843489.274163604 -4177735.9896087646 0 0 0 0 31504433.157722473 83084116.703717232 0 83084116.703717232 -81057385.55202198 0 0 0 0 7909413.4199880138 1658484.5484765933 0 1658484.5484765933 903482.37378335453 0 0 0 0 -10021792.922241211 19683489.945481062 0 19683489.945481062 -1672531.1317791939 0 0 0 0 15141945.864906311 11695280.77850914 0 11695280.77850914 -32606275.650986314 0 0 0 0 15156332.38746129 -1437773.3486115336 0 -1437773.3486115336 -124781060.59033966 0 0 0 0 427388.16890996695 828012.4342010133 0 828012.4342010133 780807.82465021219 0 0 0 0 7450405.5541414469 1452023.8985292704 0 1452023.8985292704 1208425.7505732027 0 0 0 0 27538573.852874756 -1962904.2226836681 0 -1962904.2226836681 -34012147.059572697 0 0 0 0 100954799.44707108 8434419.5956366062 0 8434419.5956366062 -132018483.93749237 0 0 0 0 22832625.419296265 34730795.826941252 0 34730795.826941252 -118275333.9586376 0 0 0 0 57778552.529029846 -45203254.534092724 0 -45203254.534092724 -110246900.37375259 0 0 0 0 -27643401.173530579 -54971622.253358603 0 -54971622.253358603 -84777327.810758591 0 0 0 0 2189587.0919764508 1480344.0310565718 0 1480344.0310565718 2922310.0353074176 0 0 0 0 901270684.29830551 -79356248.220025301 0 -79356248.220025301 86639551.151155472 0 0 0 0 1191745635.2393646 -38759965.354387283 0 -38759965.354387283 -74513261.561860979 0 0 0 0 161696.13081525266 141115.14823282789 0 141115.14823282789 545463.88961905637 0 0 0 0 881505.90565174446 282492.56310660765 0 282492.56310660765 1000220.5739429193 0 0 0 0 -130836964.7155571 -402241405.33034086 0 -402241405.33034086 112147362.53087521 0 0 0 0 131424358.00124168 -37598578.657501757 0 -37598578.657501757 -109652493.82475281 0 0 0 0 113938175.96028137 14981726.838326454 0 14981726.838326454 -4994374.1928625107 0 0 0 0 1291310901.2410278 33545512.231200695 0 33545512.231200695 16365899.702220917 0 0 0 0 1929175466.6157608 -103896534.777668 0 -103896534.777668 5489455.3993644714 0 0 0 0 1029961365.9957581 58963816.950802803 0 58963816.950802803 95317961.811337948 0 0 0 0 1048468855.7080078 67676015.026375771 0 67676015.026375771 193190031.28314221 0 0 0 0 1188817232.9383392 -94949827.76669836 0 -94949827.76669836 224978907.08628583 0 0 0 0 1138075535.945694 48749154.302572489 0 48749154.302572489 86808934.39898777 0 0 0 0 1260593625.8204651 -285887639.41944122 0 -285887639.41944122 500747119.53417897 0 0 0 0 1198685751.0928841 -127477347.87222362 0 -127477347.87222362 117111163.2416954 0 0 0 0 1647015256.8557968 -543771210.23817372 0 -543771210.23817372 492766238.96756244 0 0 0 0 1458188924.0749054 -250111491.62823248 0 -250111491.62823248 38382630.4080019 0 0 0 0 1296978712.63797 -100669101.39355493 0 -100669101.39355493 -65418534.742026806 0 0 0 0 1339901942.6532822 -178910477.05833137 0 -178910477.05833137 38799236.979124546 0 0 0 0 1352130274.0152216 -210188509.22172958 0 -210188509.22172958 158173128.62514782 0 0 0 0 1326797334.4068375 -240174243.73236227 0 -240174243.73236227 132649179.54488254 0 0 0 0 1279220735.8258514 -76251903.916335106 0 -76251903.916335106 -42228368.38872385 0 0 0 0 1334246568.57411 -114740812.2089349 0 -114740812.2089349 -100397351.48179436 0 0 0 0 1423814193.5334167 -6316794.9147872925 0 -6316794.9147872925 -146824726.94041467 0 0 0 0 1102699380.9319458 7042210.552134037 0 7042210.552134037 -133860406.41561699 0 0 0 0 1381339478.6651917 -100679086.31429672 0 -100679086.31429672 -100737359.43311214 0 0 0 0 1321549977.8801498 -156718430.06195688 0 -156718430.06195688 -210919312.94957733 0 0 0 0 1164240154.5121002 17408333.74536705 0 17408333.74536705 -191441685.76520395 0 0 0 0 1052183021.8219223 -16542214.269247055 0 -16542214.269247055 -177866801.29598331 0 0 0 0 879402939.20170975 -322087595.76850104 0 -322087595.76850104 -373287896.79488182 0 0 0 0 1030763069.9234428 14346116.24281621 0 14346116.24281621 -221451317.66563988 0 0 0 0 2027056579.5261955 -143580881.95730841 0 -143580881.95730841 -400362412.76402354 0 0 0 0 1223985033.8665009 94526323.88564992 0 94526323.88564992 -78587040.502260208 0 0 0 0 1387501864.7008362 -78656676.644379139 0 -78656676.644379139 -290928047.91130543 0 0 0 0 1129079839.3359222 -129291689.67189252 0 -129291689.67189252 -69813076.174492836 0 0 0 0 1061060372.2651825 -122301989.07449627 0 -122301989.07449627 -40171758.172533512 0 0 0 0 1315553072.5694122 -177194577.91659498 0 -177194577.91659498 -109279270.45768309 0 0 0 0 661784362.83320618 -71153547.221743107 0 -71153547.221743107 60906300.317673683 0 0 0 0 653729662.6759491 29492605.576349735 0 29492605.576349735 38180086.835659504 0 0 0 0 1066730061.9523239 -93283614.425145626 0 -93283614.425145626 -36645078.464059353 0 0 0 0 598021059.30557251 -52423444.515099287 0 -52423444.515099287 10017854.667909622 0 0 0 0 600220874.53726709 -164716552.35535854 0 -164716552.35535854 48806498.039402008 0 0 0 0 205610412.26914215 -128041782.05647826 0 -128041782.05647826 129428751.76944542 0 0 0 0 1172001399.4288406 -367062010.09275198 0 -367062010.09275198 -4196158.5315792561 0 0 0 0 1341073877.0711002 -245954811.88830799 0 -245954811.88830799 141923341.02914047 0 0 0 0 1120499012.6572418 -47295592.498238564 0 -47295592.498238564 -6197932.1018462181 0 0 0 0 -21289559.773784637 114666446.01170641 0 114666446.01170641 -203607629.53849554 0 0 0 0 22685171.987983704 -3093976.5521364212 0 -3093976.5521364212 -11132076.093982458 0 0 0 0 8846410.7089430466 -446534.58327007666 0 -446534.58327007666 -7024682.6469361652 0 0 0 0 10439534.038234711 -3472787.0161993802 0 -3472787.0161993802 -10970020.372608781 0 0 0 0 12998171.511413574 2424957.0319747925 0 2424957.0319747925 -4175038.9379155636 0 0 0 0 9775369.9898134843 3126149.8444289993 0 3126149.8444289993 -4574740.4428040199 0 0 0 0 6273695.7384398729 1881778.9148352528 0 1881778.9148352528 -2886939.6567532644 0 0 0 0 4455471.5585962832 774413.91668509692 0 774413.91668509692 -986644.34948505368 0 0 0 0 1553601.8502807617 12216821.576562166 0 12216821.576562166 -8659074.1986351013 0 0 0 0 22088297.092247009 9322777.8623495102 0 9322777.8623495102 -19833864.373528481 0 0 0 0 183805712.2571125 154551792.48773956 0 154551792.48773956 127503430.55679607 0 0 0 0 704129669.76239014 -24463377.437470198 0 -24463377.437470198 -87627806.493627548 0 0 0 0 947383029.76448059 588354985.83524013 0 588354985.83524013 366843026.93159914 0 0 0 0 10332630.942565918 -1483861.75 0 -1483861.75 8321121.0289945602 0 0 0 0 1927128.8378186226 -264519.97209979966 0 -264519.97209979966 -1489590.8431428499 0 0 0 0 1927830581.1293755 -20253369.191849351 0 -20253369.191849351 -159733126.21909332 0 0 0 0 1109222498.5593109 239654801.49087095 0 239654801.49087095 -162793964.55261981 0 0 0 0 1137806724.2578163 117087286.94896054 0 117087286.94896054 -168106269.35132885 0 0 0 0 1550806532.963131 19292525.278211355 0 19292525.278211355 -168145733.73561573 0 0 0 0 1041054109.6562576 85228867.895507812 0 85228867.895507812 -119801922.56330824 0 0 0 0 1096051312.3079681 74865140.538138866 0 74865140.538138866 -117935695.99621499 0 0 0 0 1096686219.1563339 -8751986.3099160194 0 -8751986.3099160194 -236855382.5302639 0 0 0 0 1082258027.7888336 -17577118.105966926 0 -17577118.105966926 -81140849.56340313 0 0 0 0 1074340174.5245399 58505229.666232347 0 58505229.666232347 -122049685.29822063 0 0 0 0 1340690.9864197597 204729.71849702299 0 204729.71849702299 -7149.8694710414857 0 0 0 0 6114239.0555725098 67679873.343114495 0 67679873.343114495 -24120166.31809473 0 0 0 0 1062954327.4863586 49787369.735127926 0 49787369.735127926 -108609453.3552326 0 0 0 0 1082689838.390213 49024383.396022797 0 49024383.396022797 -117616729.44761753 0 0 0 0 6706039.7688479908 1811328.136091534 0 1811328.136091534 -4320185.3437150987 0 0 0 0 35218892.788334846 -19716458.172280192 0 -19716458.172280192 -4906241.6385803223 0 0 0 0 -245239975.00528717 415177336.06556511 0 415177336.06556511 -165100483.76559749 0 0 0 0 32940536.477737427 100949566.39994967 0 100949566.39994967 -260549198.42462483 0 0 0 0 153732971.24333954 38141230.475455105 0 38141230.475455105 -233265544.60082793 0 0 0 0 723886015.47453308 -257816872.02697742 0 -257816872.02697742 -38173477.743129194 0 0 0 0 342794197.07375908 -364072494.09972924 0 -364072494.09972924 172099365.6447773 0 0 0 0 484948955.31837463 -47758314.869202375 0 -47758314.869202375 63168884.803194582 0 0 0 0 238837810.80283356 14439098.989483118 0 14439098.989483118 505335182.14551234 0 0 0 0 217533407.5653863 316559584.98534328 0 316559584.98534328 -8791742.0425696373 0 0 0 0 119563322.06742096 -179556562.54241478 0 -179556562.54241478 204446238.14691687 0 0 0 0 45632163.087036133 126520118.04255539 0 126520118.04255539 -189975427.08376026 0 0 0 0 -464498510.08983612 74435239.466743827 0 74435239.466743827 70301400.501963615 0 0 0 0 -79206705.844932556 -122935941.1121583 0 -122935941.1121583 69719673.352989674 0 0 0 0 254446963.5208416 -98021656.667638838 0 -98021656.667638838 -120185469.01757407 0 0 0 0 -62752652.739157915 155719981.53661489 0 155719981.53661489 -462692914.70305705 0 0 0 0 -153466948.41293335 -113512803.6187638 0 -113512803.6187638 -116460470.1299665 0 0 0 0 -541242960.20519638 772248326.51852703 0 772248326.51852703 -296543931.17835331 0 0 0 0 -624839750.78598213 537678331.28384674 0 537678331.28384674 -180101571.87430596 0 0 0 0 883130540.17824554 -71882523.417783737 0 -71882523.417783737 -47132844.109082222 0 0 0 0 881701727.6515274 -108210800.98605025 0 -108210800.98605025 10901937.437692583 0 0 0 0 4582216.9060830325 2183353.9344988391 0 2183353.9344988391 -1699964.1000245372 0 0 0 0 1327270066.7477493 -432645528.21174955 0 -432645528.21174955 152398557.76460838 0 0 0 0 996019632.82379913 -175605340.01802635 0 -175605340.01802635 -29253593.041020393 0 0 0 0 1234601235.302887 -107315610.76301956 0 -107315610.76301956 -202627693.25382662 0 0 0 0 2228813215.4762268 -663808804.4585427 0 -663808804.4585427 -34149421.426154494 0 0 0 0 1601784.7480758727 823362.96234799549 0 823362.96234799549 -154162.90534004662 0 0 0 0 1647469135.6874828 411262440.76287276 0 411262440.76287276 110890018.69599652 0 0 0 0 894977651.07836151 368101051.13952565 0 368101051.13952565 -300036761.15901065 0 0 0 0 1391080049.9369469 152631768.35064822 0 152631768.35064822 -271287929.3710041 0 0 0 0 1365115073.8102274 270608387.65608418 0 270608387.65608418 42334832.561084747 0 0 0 0 1752613236.1719589 397912466.52491379 0 397912466.52491379 -194337250.51283807 0 0 0 0 1492013290.552124 28581449.826100051 0 28581449.826100051 -34189556.084567994 0 0 0 0 656787865.18147278 156992514.40076673 0 156992514.40076673 -18757681.762538791 0 0 0 0 739741771.03252411 63102332.134713411 0 63102332.134713411 49286206.237556338 0 0 0 0 314648155.34447479 -77209754.730289385 0 -77209754.730289385 151126157.54100221 0 0 0 0 -1200286.8504638672 127615041.13933778 0 127615041.13933778 48220685.61394161 0 0 0 0 272445520.8706665 -314417855.42114329 0 -314417855.42114329 -11391182.47687149 0 0 0 0 381576591.46798706 -195314249.71693593 0 -195314249.71693593 -40465430.266978264 0 0 0 0 91831572.306373596 15058724.884023368 0 15058724.884023368 -132371884.42683458 0 0 0 0 430895481.23930359 -111139673.33008401 0 -111139673.33008401 40423358.085662276 0 0 0 0 402695860.54295921 -261979304.03583056 0 -261979304.03583056 30336393.090352297 0 0 0 0 434008125.18943787 -199689760.83691907 0 -199689760.83691907 96751212.619331464 0 0 0 0 444920723.22871399 -211984482.03039569 0 -211984482.03039569 -241954.2356390655 0 0 0 0 467744326.13034058 -204883134.82196879 0 -204883134.82196879 -12669269.646263003 0 0 0 0 485756293.75483704 -245634146.47028768 0 -245634146.47028768 -43169586.97591877 0 0 0 0 498998044.45240021 -239101204.6000914 0 -239101204.6000914 -80375431.401560545 0 0 0 0 470627027.0418396 -267628767.14706868 0 -267628767.14706868 -42662107.466469526 0 0 0 0 397687689.42797089 -226649995.82413584 0 -226649995.82413584 -31446121.019375801 0 0 0 0 489675522.83216858 -343007163.7805891 0 -343007163.7805891 -14551427.379077077 0 0 0 0 723261213.84084702 -219313983.11496204 0 -219313983.11496204 -79812673.15611434 0 0 0 0 1178342709.9206352 309383000.69932008 0 309383000.69932008 152963241.4693985 0 0 0 0 1194230978.4148026 -37573610.211134911 0 -37573610.211134911 146093386.55811018 0 0 0 0 1058179828.6582298 192641731.07841885 0 192641731.07841885 -6603827.1060705185 0 0 0 0 741921227.80410767 -39844231.631504059 0 -39844231.631504059 69792236.361783177 0 0 0 0 525975777.96748352 210561916.5288806 0 210561916.5288806 33476944.285797119 0 0 0 0 676240707.85678101 209420519.97822618 0 209420519.97822618 92486077.245910913 0 0 0 0 615390881.06983948 -5825955.7776079178 0 -5825955.7776079178 39765083.064038754 0 0 0 0 1082891208.0338669 138471010.45298815 0 138471010.45298815 -4210599.7822351456 0 0 0 0 1669068796.1319542 144211348.53691638 0 144211348.53691638 -174617148.78583431 0 0 0 0 1043454726.388588 -9933916.0698063374 0 -9933916.0698063374 7461485.1055002213 0 0 0 0 1618284.3992334744 -779536.36797477305 0 -779536.36797477305 -1028219.660070722 0 0 0 0 1144457318.0035667 238773695.15157294 0 238773695.15157294 157195725.63948822 0 0 0 0 1636035.060582744 -1184383.3366999067 0 -1184383.3366999067 -175462.9688297417 0 0 0 0 353846068.03650665 -264687885.16244245 0 -264687885.16244245 -26983222.022179127 0 0 0 0 478354898.32257843 138043701.38039601 0 138043701.38039601 31149265.147621155 0 0 0 0 1021181176.318779 330712037.27249038 0 330712037.27249038 -104374126.70655012 0 0 0 0 892499326.04418945 -106101145.32070732 0 -106101145.32070732 -240973351.22114706 0 0 0 0 1053278839.0163422 101057467.17391539 0 101057467.17391539 -232964933.68996811 0 0 0 0 1425187556.7450027 -19051057.866071641 0 -19051057.866071641 -236053055.12191486 0 0 0 0 1093847843.0032978 36167330.759540603 0 36167330.759540603 -19580590.776146412 0 0 0 0 1318593495.9950027 -32954138.906386435 0 -32954138.906386435 96582108.421231776 0 0 0 0 3164019.5702021401 -2436060.0572668649 0 -2436060.0572668649 -313889.60983423283 0 0 0 0 1091305531.0568848 36599107.788037181 0 36599107.788037181 23110049.693987966 0 0 0 0 1105225444.0997696 51835622.112434611 0 51835622.112434611 -25500167.091338664 0 0 0 0 1109455085.3732147 49342103.208421364 0 49342103.208421364 -59724072.623494774 0 0 0 0 3455564.6653447729 -2034255.0674459264 0 -2034255.0674459264 -2221338.2066746624 0 0 0 0 478153087.40311432 -91566453.216074705 0 -91566453.216074705 146302539.08305764 0 0 0 0 1758510.349103272 -1323708.5415483601 0 -1323708.5415483601 -194744.95415496803 0 0 0 0 718845963.36465454 223039461.92981729 0 223039461.92981729 90590737.040239394 0 0 0 0 1169335730.6815491 -45343598.902582824 0 -45343598.902582824 17830956.472137012 0 0 0 0 1117120705.7222672 291404976.28037685 0 291404976.28037685 92595931.236293554 0 0 0 0 757043373.85779572 -17034228.749909639 0 -17034228.749909639 68061748.986957014 0 0 0 0 1555830730.589222 130967431.86444217 0 130967431.86444217 -149487810.33918095 0 0 0 0 757751018.73825836 -13546711.537438035 0 -13546711.537438035 -115895848.66151041 0 0 0 0 258619649.10105896 263724155.22069484 0 263724155.22069484 -125067646.55230832 0 0 0 0 534885745.13896942 -155449133.94921976 0 -155449133.94921976 -38023814.063610867 0 0 0 0 8383105.9424218461 -5940606.1928308755 0 -5940606.1928308755 2266689.980918061 0 0 0 0 172703668.31677246 -496951937.8424015 0 -496951937.8424015 -69713409.399231911 0 0 0 0 196773374.44312286 104552217.75645781 0 104552217.75645781 -433459467.98233414 0 0 0 0 -228719462.00062561 168139538.72171903 0 168139538.72171903 -72394507.289579391 0 0 0 0 91347846.117965698 -23985408.879169464 0 -23985408.879169464 20773077.753234386 0 0 0 0 3673255.1507206559 -2357646.9504718222 0 -2357646.9504718222 913302.68110473827 0 0 0 0 -245492772.55955005 -473933121.47923136 0 -473933121.47923136 55765231.263375759 0 0 0 0 2171200313.8359375 710732250.33027744 0 710732250.33027744 -292203348.7481854 0 0 0 0 555452158.82688999 167349681.36779872 0 167349681.36779872 119257577.76071012 0 0 0 0 1218685258.8035278 268691299.80705559 0 268691299.80705559 9877025.39828825 0 0 0 0 3862899.0707144737 -2456495.5698120892 0 -2456495.5698120892 -748405.7077874348 0 0 0 0 1553803130.4030037 154911633.25027138 0 154911633.25027138 -178378930.85247779 0 0 0 0 1261180614.2198868 132850629.65022588 0 132850629.65022588 -123189849.83976018 0 0 0 0 941156033.8340416 -139909564.55030638 0 -139909564.55030638 -69381551.824196458 0 0 0 0 1233295411.6294441 75109815.301929146 0 75109815.301929146 33530794.562481284 0 0 0 0 856410757.44332314 -130615372.93153706 0 -130615372.93153706 1063239174.326107 0 0 0 0 1321915106.3293152 66700144.402703822 0 66700144.402703822 -20480403.831079483 0 0 0 0 1797211034.435112 -245456319.33314574 0 -245456319.33314574 -319161308.96107149 0 0 0 0 3040100.6798052154 -1445248.8583505712 0 -1445248.8583505712 1270284.8606757843 0 0 0 0 1292698658.1654587 83702827.806989968 0 83702827.806989968 59652139.913555741 0 0 0 0 1293493191.2239544 -26820.34420971619 0 -26820.34420971619 -11877610.368198395 0 0 0 0 1594633561.4348907 111576179.74635494 0 111576179.74635494 -45770995.262964696 0 0 0 0 1221989348.3273468 48262039.31558758 0 48262039.31558758 71424559.887246072 0 0 0 0 1310959.7320446344 -215065.91847301275 0 -215065.91847301275 828275.99592625094 0 0 0 0 838453759.22187805 37505066.471516371 0 37505066.471516371 -229522902.92544842 0 0 0 0 835392430.95022964 68224648.257032543 0 68224648.257032543 -117884032.97213292 0 0 0 0 728212295.96855164 -42687766.293690324 0 -42687766.293690324 -74410561.1678195 0 0 0 0 407309567.47459412 -109289077.59531832 0 -109289077.59531832 -19214389.468347311 0 0 0 0 707399378.32377625 -86113113.921454549 0 -86113113.921454549 -24031880.905907035 0 0 0 0 408781342.05437469 -87209486.864389062 0 -87209486.864389062 55481030.481173515 0 0 0 0 202344408.12365723 -20749784.877806902 0 -20749784.877806902 57993084.429574266 0 0 0 0 240569822.14637375 -24411890.530257344 0 -24411890.530257344 15860849.543634415 0 0 0 0 112643911.787323 -289954189.29854304 0 -289954189.29854304 99889988.228563786 0 0 0 0 953534984.91004944 -95635004.455353498 0 -95635004.455353498 -331145746.21856999 0 0 0 0 670248838.85908508 -579170242.54223013 0 -579170242.54223013 67530520.327077508 0 0 0 0 883885659.58506775 -341944927.20465231 0 -341944927.20465231 29331480.249263525 0 0 0 0 400858522.19794464 -201429141.7001203 0 -201429141.7001203 76727820.854218841 0 0 0 0 364310692.44547272 -118957203.62996984 0 -118957203.62996984 105639121.74681264 0 0 0 0 425145336.2484436 -141027896.27454913 0 -141027896.27454913 31394029.23586645 0 0 0 0 432154784.23590851 -169846953.36741751 0 -169846953.36741751 37932804.427063882 0 0 0 0 464200984.6756897 -146454603.00997454 0 -146454603.00997454 72713028.720413357 0 0 0 0 453464439.71875 -182704787.20884925 0 -182704787.20884925 42130435.848264575 0 0 0 0 419868359.03773499 -142389011.64639229 0 -142389011.64639229 94712987.034204841 0 0 0 0 431111427.22132874 -155900625.16934693 0 -155900625.16934693 104062995.69163948 0 0 0 0 535031441.91955566 -180157956.34090203 0 -180157956.34090203 71251662.760068297 0 0 0 0 513219198.41504478 -88601215.266342551 0 -88601215.266342551 136985020.09107408 0 0 0 0 728957058.59215546 -45997688.297757655 0 -45997688.297757655 90691334.193556428 0 0 0 0 553539422.97255707 -111031077.98362911 0 -111031077.98362911 118738509.99080145 0 0 0 0 557660955.12003326 -126228626.95958698 0 -126228626.95958698 80994443.346927315 0 0 0 0 772147794.15499878 -104984856.10988295 0 -104984856.10988295 33504529.449276626 0 0 0 0 897570369.07003021 -44537867.942171603 0 -44537867.942171603 48493574.404268265 0 0 0 0 819745161.02742004 978120.70140445232 0 978120.70140445232 86950107.829942182 0 0 0 0 772520618.99311829 -92565771.370033443 0 -92565771.370033443 98788468.502535522 0 0 0 0 790734505.68836975 -4138337.2746583819 0 -4138337.2746583819 99033487.183964998 0 0 0 0 826721831.0841713 -81857578.665766448 0 -81857578.665766448 156152410.14176115 0 0 0 0 900495988.85258865 42939153.915514722 0 42939153.915514722 165583007.43129206 0 0 0 0 1146579584.9387283 57819424.899602592 0 57819424.899602592 51565094.150843561 0 0 0 0 1184494101.2756348 7918095.639406085 0 7918095.639406085 11592938.46991539 0 0 0 0 1112646434.6049957 -69216163.45605351 0 -69216163.45605351 24628586.449149609 0 0 0 0 1166544171.382782 64514401.574827135 0 64514401.574827135 17479267.494058467 0 0 0 0 1210903519.0769958 -5985673.5167177916 0 -5985673.5167177916 -15634662.993667215 0 0 0 0 1062195052.2989731 -25919509.823571946 0 -25919509.823571946 46639014.489562988 0 0 0 0 1065281360.4118118 -60522353.906644583 0 -60522353.906644583 -20461690.018159211 0 0 0 0 839309146.20180511 -109473884.31377757 0 -109473884.31377757 60736059.476540089 0 0 0 0 1019189129.2092133 9960284.4672830999 0 9960284.4672830999 11613771.990369797 0 0 0 0 830496065.68332672 -84871765.045617759 0 -84871765.045617759 11139681.549272776 0 0 0 0 624159756.33364868 -98546170.476250648 0 -98546170.476250648 80092083.49462682 0 0 0 0 894527705.87623596 -174804634.90227151 0 -174804634.90227151 -14649559.2277807 0 0 0 0 592699076.7308197 -225649436.54913279 0 -225649436.54913279 65266182.454232931 0 0 0 0 626653218.30477905 -226986840.84582916 0 -226986840.84582916 69816441.573415458 0 0 0 0 2390750.7223424427 801203.06163974479 0 801203.06163974479 680011.79381891759 0 0 0 0 486670425.73026657 -79150259.950026408 0 -79150259.950026408 92234227.204960346 0 0 0 0 610694564.60804749 -159165472.20701873 0 -159165472.20701873 37451461.327462435 0 0 0 0 622768069.20340109 -124119581.10593434 0 -124119581.10593434 -1672804.1129970551 0 0 0 0 13542959.417602539 -199265.92528686463 0 -199265.92528686463 1982834.3165528099 0 0 0 0 29317.476610928774 1445.6164562404156 0 1445.6164562404156 8266.8487692469862 0 0 0 0 3545078.642491892 408793.38955016434 0 408793.38955016434 -143672.60681662135 0 0 0 0 12483916.186611176 -5465351.2827271568 0 -5465351.2827271568 15248.122818327509 0 0 0 0 637571592.96240997 -225540437.79247826 0 -225540437.79247826 69087231.647825658 0 0 0 0 4731395.6045974679 579864.60546537489 0 579864.60546537489 356970.59739312151 0 0 0 0 2595026.9916115217 1046152.4819581807 0 1046152.4819581807 633785.62262333231 0 0 0 0 846174524.66758728 -115808859.00591989 0 -115808859.00591989 76658451.956597224 0 0 0 0 633746161.89714241 -221409690.8695311 0 -221409690.8695311 131519815.5236063 0 0 0 0 909113800.74073792 -206161496.3753289 0 -206161496.3753289 78360143.592090964 0 0 0 0 732398745.31755066 -283293148.61914611 0 -283293148.61914611 -10298986.759029567 0 0 0 0 1325560022.8732834 -268176771.60424459 0 -268176771.60424459 68741059.473805293 0 0 0 0 1301970393.6583023 28640453.509697221 0 28640453.509697221 35774501.665923476 0 0 0 0 1158296269.218605 -94285348.571746588 0 -94285348.571746588 17185457.334719181 0 0 0 0 897444846.67963099 -98762071.82346873 0 -98762071.82346873 46039246.101317883 0 0 0 0 1131667990.8354664 -5760543.9014317319 0 -5760543.9014317319 38370398.638719082 0 0 0 0 1246184192.2471466 22449643.81540221 0 22449643.81540221 17087316.561932325 0 0 0 0 1261689276.0388794 -2363234.2441724539 0 -2363234.2441724539 12891428.412137747 0 0 0 0 1254770447.5543528 16211253.638323486 0 16211253.638323486 47661678.002454996 0 0 0 0 1319334597.2693367 35253028.427428074 0 35253028.427428074 12034031.41625715 0 0 0 0 1346363186.0641098 -55974205.550294384 0 -55974205.550294384 90088346.359070301 0 0 0 0 1307971690.8049221 -74043598.936744183 0 -74043598.936744183 60706302.924266092 0 0 0 0 1339805596.1637115 -14735602.853874195 0 -14735602.853874195 145709917.47613358 0 0 0 0 1555906770.8460693 -145361834.29941112 0 -145361834.29941112 116659.89721378483 0 0 0 0 1522703593.2722168 28447672.041483745 0 28447672.041483745 75893636.803725094 0 0 0 0 1704896139.8986664 -219418348.82965404 0 -219418348.82965404 -13884258.584617674 0 0 0 0 1400110.8525881246 493980.8698492907 0 493980.8698492907 218383.7877752425 0 0 0 0 688109566.27505493 -246553309.04757133 0 -246553309.04757133 230544231.55068958 0 0 0 0 13071070.79107666 788858.01888333284 0 788858.01888333284 7884.0110589761862 0 0 0 0 1415419076.2366333 -6375076.683043425 0 -6375076.683043425 -14358278.927066144 0 0 0 0 2875544.5112992488 -38699.17075407505 0 -38699.17075407505 -220335.86648886235 0 0 0 0 35461.853999316692 79.705509789288044 0 79.705509789288044 2280.6740784518688 0 0 0 0 10136830.854362488 -1667923.7883637371 0 -1667923.7883637371 384954.80480052624 0 0 0 0 16119668.885635376 -3278652.3474719496 0 -3278652.3474719496 1048.9619711656123 0 0 0 0 15235186.869907379 -3324191.4206422493 0 -3324191.4206422493 -816.20082138758153 0 0 0 0 941037537.7591095 -131203299.29773226 0 -131203299.29773226 -132504.12966925278 0 0 0 0 476486372.07218933 -23936047.422001034 0 -23936047.422001034 63631582.279221714 0 0 0 0 699053447.47099733 -2360691.1897047944 0 -2360691.1897047944 -15961673.201557636 0 0 0 0 440891089.0263443 -26108531.926081777 0 -26108531.926081777 5022030.3659739494 0 0 0 0 688367611.07527399 -69427406.316530496 0 -69427406.316530496 76363900.621100962 0 0 0 0 755514860.16313934 57953427.046132743 0 57953427.046132743 6719054.3510268927 0 0 0 0 1459528816.8601456 -34427686.628485322 0 -34427686.628485322 -14690062.788595021 0 0 0 0 1284633468.5600758 -33271917.536069736 0 -33271917.536069736 51765660.955447435 0 0 0 0 1157463243.851326 38962503.418223128 0 38962503.418223128 60080942.630948186 0 0 0 0 1159724321.2518425 45644949.723166898 0 45644949.723166898 -14143284.247749731 0 0 0 0 1170592814.7773132 38548092.563891709 0 38548092.563891709 44279.945947360939 0 0 0 0 1033297674.1544571 -94559974.479912072 0 -94559974.479912072 1075828.9563354701 0 0 0 0 867372450.42006302 39028756.692977868 0 39028756.692977868 -43428.974596506079 0 0 0 0 685046369.06895447 39895919.697739199 0 39895919.697739199 11133401.145233691 0 0 0 0 502560502.235672 55619191.854051121 0 55619191.854051121 67325.534715403192 0 0 0 0 699847641.29579544 -96202595.593083784 0 -96202595.593083784 25979136.64033664 0 0 0 0 411418064.3855896 -49054522.213394284 0 -49054522.213394284 -1460254.7690886259 0 0 0 0 239242815.46879578 54737122.452568717 0 54737122.452568717 2953.9950356885656 0 0 0 0 251679591.74140167 14982236.482467249 0 14982236.482467249 -45696157.253065348 0 0 0 0 258285799.43492889 40070572.902983904 0 40070572.902983904 43523267.860581651 0 0 0 0 47695228.964744568 50531199.2375383 0 50531199.2375383 17307.811490743876 0 0 0 0 157761674.60897064 -11024432.224644773 0 -11024432.224644773 -5640237.3216722608 0 0 0 0 125327613.74459839 56987228.727520838 0 56987228.727520838 2226213.3163553514 0 0 0 0 43032823.777259827 -7712028.8343924209 0 -7712028.8343924209 -25812354.731040359 0 0 0 0 315959.71333747357 275531.78068153188 0 275531.78068153188 75834.646573976497 0 0 0 0 124903281.58992767 49159189.265201092 0 49159189.265201092 -44941583.21147947 0 0 0 0 135506620.71494484 26099631.977132089 0 26099631.977132089 -30378390.426283598 0 0 0 0 -59253465.732269287 -10937143.381563365 0 -10937143.381563365 75974291.013229966 0 0 0 0 148345314.74295044 22898297.393168807 0 22898297.393168807 -56140721.740869284 0 0 0 0 15583810.810264587 80931613.323698282 0 80931613.323698282 86214488.740648746 0 0 0 0 -90086625.649688721 126783753.01074821 0 126783753.01074821 80716698.7904737 0 0 0 0 473055504.06987762 6848493.4409476519 0 6848493.4409476519 -45277690.484687626 0 0 0 0 37002.508196286857 310765.5905415155 0 310765.5905415155 161049.14895541687 0 0 0 0 321192542.13638306 27001256.615244448 0 27001256.615244448 40768922.032870293 0 0 0 0 293022005.60778427 93923832.538277864 0 93923832.538277864 25254812.779179335 0 0 0 0 452378688.73328018 4468299.9283128977 0 4468299.9283128977 14802983.801180124 0 0 0 0 330371832.45863342 49295151.273614287 0 49295151.273614287 52990425.581296802 0 0 0 0 316675078.52870178 11067961.505220175 0 11067961.505220175 38367394.564026952 0 0 0 0 322505137.6806488 40132092.913576603 0 40132092.913576603 8537490.809221983 0 0 0 0 269881807.63832092 44333475.504256964 0 44333475.504256964 36677682.837251425 0 0 0 0 254897017.5643158 80117321.485055208 0 80117321.485055208 -3315376.0871937275 0 0 0 0 280839126.62723541 93499315.626730919 0 93499315.626730919 -15963872.841874599 0 0 0 0 278375133.10014343 18850228.905412674 0 18850228.905412674 -39932319.050496101 0 0 0 0 267195302.84549999 82542909.517131388 0 82542909.517131388 -23877959.114357471 0 0 0 0 220869759.2700491 52302410.486429825 0 52302410.486429825 -1559074.7436847687 0 0 0 0 219349828.61395264 62839494.88476944 0 62839494.88476944 17230331.212145805 0 0 0 0 318343016.16106558 78934784.107653648 0 78934784.107653648 -10201966.682460785 0 0 0 0 59722734.503788471 -9528049.1332255453 0 -9528049.1332255453 25899998.851519585 0 0 0 0 265575.37769025564 1182133.9801551551 0 1182133.9801551551 -147472.20866555045 0 0 0 0 68215781.011856079 102527729.87716293 0 102527729.87716293 51540063.753530145 0 0 0 0 2878254.6835634708 30019889.928434186 0 30019889.928434186 9541894.9443942308 0 0 0 0 4749692.8294677734 -25072304.998742014 0 -25072304.998742014 -30186822.973011866 0 0 0 0 115593499.70079041 8528115.3709845543 0 8528115.3709845543 -9542738.5027470589 0 0 0 0 66641586.243774414 43753921.213425636 0 43753921.213425636 -5662643.2760410011 0 0 0 0 113252687.73873901 35718672.298783064 0 35718672.298783064 3312052.3280014992 0 0 0 0 140690051.88386917 -35015741.1453619 0 -35015741.1453619 -27560071.237413883 0 0 0 0 452364025.68860626 -65054245.880253315 0 -65054245.880253315 -24909038.495466232 0 0 0 0 797599.51997119188 530376.39645158872 0 530376.39645158872 -85745.150287420955 0 0 0 0 170291.33975124359 -77654895.773606926 0 -77654895.773606926 -259951862.21355724 0 0 0 0 29169.134973175824 659506.66314958781 0 659506.66314958781 -124564.56510193041 0 0 0 0 2045147.7202100158 1420572.4574482031 0 1420572.4574482031 -349239.29058608832 0 0 0 0 14027421.290039062 42487995.407228231 0 42487995.407228231 -156661383.0600481 0 0 0 0 68415614.365386963 96296456.299678802 0 96296456.299678802 -186128946.22165132 0 0 0 0 233645955.65411377 125391709.07859111 0 125391709.07859111 -268134073.71486282 0 0 0 0 68856637.515331268 136141679.06809926 0 136141679.06809926 14131932.842939854 0 0 0 0 57323900.357711792 248793620.29564667 0 248793620.29564667 64587585.131819725 0 0 0 0 305319673.17546082 51702828.70360136 0 51702828.70360136 -7579925.6883995533 0 0 0 0 267767339.46620941 66393861.3396945 0 66393861.3396945 34336858.416221619 0 0 0 0 -52559939.507247925 255363074.359056 0 255363074.359056 87382607.761649132 0 0 0 0 -84347592.99747467 182139174.75877023 0 182139174.75877023 50980009.6872015 0 0 0 0 125810519.97906494 315385188.6639626 0 315385188.6639626 14458196.369936943 0 0 0 0 38572506.174499512 234688709.50296211 0 234688709.50296211 64411991.947666168 0 0 0 0 61327815.269943237 252818396.32885861 0 252818396.32885861 -39318257.896403313 0 0 0 0 1521928.504905358 -37923.887615412474 0 -37923.887615412474 -242498.39116613707 0 0 0 0 38572203.492460251 -158279434.10689074 0 -158279434.10689074 133137631.73454285 0 0 0 0 191945048.31686401 -180928681.84963632 0 -180928681.84963632 -183057508.18315029 0 0 0 0 271046962.85450745 -73593468.426188946 0 -73593468.426188946 -73629305.756575823 0 0 0 0 250070862.67279053 61635421.223629475 0 61635421.223629475 -151764078.85539436 0 0 0 0 148573437.2684269 128996758.16228169 0 128996758.16228169 -73260725.850650787 0 0 0 0 221532118.27209473 59849081.759078503 0 59849081.759078503 -13854843.70480442 0 0 0 0 251747893.08961868 112545783.00164872 0 112545783.00164872 -27396778.1807127 0 0 0 0 349855373.81394958 160056404.11172676 0 160056404.11172676 66290994.357085168 0 0 0 0 243381722.17747879 46770712.6100564 0 46770712.6100564 -48712401.443710327 0 0 0 0 55342967.592092514 17644806.100215733 0 17644806.100215733 -71996111.50929451 0 0 0 0 47308531.465770721 -13558722.383059204 0 -13558722.383059204 -67199568.736055374 0 0 0 0 70653766.902648926 5416034.1900491714 0 5416034.1900491714 -52665518.792615891 0 0 0 0 33010685.252166748 8673596.6898741722 0 8673596.6898741722 -46163090.785599232 0 0 0 0 33294159.102722168 35434562.91404438 0 35434562.91404438 -39550201.054274797 0 0 0 0 14004873.513975143 36552917.867604524 0 36552917.867604524 -12738066.369977951 0 0 0 0 12526225.644068718 22684253.739216179 0 22684253.739216179 -11708829.382421494 0 0 0 0 13489319.729781151 33736146.612754613 0 33736146.612754613 -57454161.024343491 0 0 0 0 16287766.468322754 10717146.652131557 0 10717146.652131557 -61564972.758807659 0 0 0 0 12400422.294025972 1314504.2724898607 0 1314504.2724898607 -670018.19260029297 0 0 0 0 23850455.571105957 31257921.391259193 0 31257921.391259193 -121838210.784688 0 0 0 0 4184084.4263486862 33630341.743768752 0 33630341.743768752 -81554102.808747292 0 0 0 0 46050246.928939819 406164.66828918457 0 406164.66828918457 -132672879.96554518 0 0 0 0 2690167.0815275162 3328235.0389609258 0 3328235.0389609258 -409721.34726825263 0 0 0 0 9685675.1808319092 29232834.233753681 0 29232834.233753681 -17204682.6617136 0 0 0 0 9926141.9963302612 -7481474.9229419231 0 -7481474.9229419231 -83846637.497926235 0 0 0 0 -38936526.022003174 -19549025.758040309 0 -19549025.758040309 18478619.783635616 0 0 0 0 7305669.8670043945 9657740.5105528831 0 9657740.5105528831 -76141904.543399811 0 0 0 0 1525647.3036346436 -39555700.088624954 0 -39555700.088624954 -24290560.02518177 0 0 0 0 69047315.884185791 -208531583.78547382 0 -208531583.78547382 27309164.030148506 0 0 0 0 286272856.2928009 -126493632.98315859 0 -126493632.98315859 35164227.22191602 0 0 0 0 13462112.154846191 -110423167.99424839 0 -110423167.99424839 95413284.731064796 0 0 0 0 766754.23143847287 325977.47556773294 0 325977.47556773294 2031.6835649946588 0 0 0 0 142671739.81706238 -239993101.39629889 0 -239993101.39629889 -80257548.120185852 0 0 0 0 51160392.403022766 36125973.94195962 0 36125973.94195962 -23029822.456904888 0 0 0 0 156560095.88542175 -158624106.67983294 0 -158624106.67983294 -217523458.57529974 0 0 0 0 112271722.55354309 18272469.986567974 0 18272469.986567974 -219499644.39885587 0 0 0 0 49730965.531105042 -46157334.413288355 0 -46157334.413288355 -92233692.556688309 0 0 0 0 70876751.914215088 -19468845.993047237 0 -19468845.993047237 -78512454.206110835 0 0 0 0 85149099.23487854 -79529459.47167635 0 -79529459.47167635 -61636353.130531311 0 0 0 0 81854027.074874878 -94005117.743545055 0 -94005117.743545055 -73868700.874634266 0 0 0 0 104848353.26657104 -16234290.417175651 0 -16234290.417175651 -71114485.932945251 0 0 0 0 96811428.795654297 -28252810.181227207 0 -28252810.181227207 -88571087.819862247 0 0 0 0 88248821.970504761 11878581.012348294 0 11878581.012348294 -31348450.686916351 0 0 0 0 190424546.04727173 17522558.79535234 0 17522558.79535234 -33274389.925321579 0 0 0 0 126418564.89917755 -16251871.869597316 0 -16251871.869597316 -71934412.561371803 0 0 0 0 73649866.723503113 -27388412.933279514 0 -27388412.933279514 -5354961.4407264292 0 0 0 0 61539358.86933136 -97645.743214130402 0 -97645.743214130402 -6184920.4282362461 0 0 0 0 1760747.4492496029 1583166.8251404688 0 1583166.8251404688 180501.69314945256 0 0 0 0 -34358833.515594482 22926283.602481306 0 22926283.602481306 19244971.112725914 0 0 0 0 85458526.310340881 -28716343.056212187 0 -28716343.056212187 23294002.087898016 0 0 0 0 305959745.01612854 -33784377.815834582 0 -33784377.815834582 23207495.852056563 0 0 0 0 719953.06636013836 518658.83661533147 0 518658.83661533147 18339.786268218188 0 0 0 0 155677933.79450989 124001286.05443186 0 124001286.05443186 128497140.92051828 0 0 0 0 73299499.611434937 69386969.853634596 0 69386969.853634596 43543512.118661642 0 0 0 0 22861785.661643982 31914801.373324871 0 31914801.373324871 137733241.26295376 0 0 0 0 87134874.450996399 48061021.851495981 0 48061021.851495981 45837930.894844532 0 0 0 0 49042336.190505981 41194547.965376377 0 41194547.965376377 10781431.018110782 0 0 0 0 33356919.204742432 37168898.335553646 0 37168898.335553646 10256619.998899937 0 0 0 0 82775343.686169624 41212973.090969592 0 41212973.090969592 -28854253.497057438 0 0 0 0 80576943.384658813 -2378889.6570734978 0 -2378889.6570734978 -48937362.142404199 0 0 0 0 37636611.615890503 45347803.316622257 0 45347803.316622257 1376725.5081849098 0 0 0 0 30738848.441452026 64914086.309509754 0 64914086.309509754 47217206.661141396 0 0 0 0 3227707.0919494629 40067349.432285786 0 40067349.432285786 27299213.899339676 0 0 0 0 -9192768.2502746582 40005185.765887737 0 40005185.765887737 66688583.700591207 0 0 0 0 22476279.713985443 38176516.608323887 0 38176516.608323887 47252768.728603601 0 0 0 0 -18973551.715332031 18578943.95953846 0 18578943.95953846 69820965.466177702 0 0 0 0 42244799.687774658 -12178552.838848174 0 -12178552.838848174 27480800.265751839 0 0 0 0 60952034.853939056 23322595.442721456 0 23322595.442721456 57809633.549543381 0 0 0 0 61231660.661361694 -3550280.0686609149 0 -3550280.0686609149 263003299.60016537 0 0 0 0 40746334.021865845 -15480138.731599092 0 -15480138.731599092 101866759.73919058 0 0 0 0 133525275.7613678 -48161496.330326319 0 -48161496.330326319 8779185.8149610758 0 0 0 0 67160514.707687378 8587777.7609369755 0 8587777.7609369755 -39713001.862684011 0 0 0 0 53509817.261138916 -31877117.517156601 0 -31877117.517156601 7023623.4826826155 0 0 0 0 -19225980.693572044 -45722853.550075702 0 -45722853.550075702 4768372.3802626133 0 0 0 0 -13560892.046435356 13206912.248549264 0 13206912.248549264 -14128073.663140416 0 0 0 0 9526216.6382255554 -17701295.067908764 0 -17701295.067908764 -23197260.512753844 0 0 0 0 -3147189.7283782959 -6984912.397715807 0 -6984912.397715807 33513332.658355594 0 0 0 0 -22987888.710123062 -15227946.543024987 0 -15227946.543024987 147066559.38300741 0 0 0 0 125598188.03897858 147751398.4028697 0 147751398.4028697 117660413.57518762 0 0 0 0 235715006.97147369 -78996104.405777872 0 -78996104.405777872 23019248.810465276 0 0 0 0 140950078.46280384 12795160.961872246 0 12795160.961872246 -55303437.110511184 0 0 0 0 111331247.59544373 16484152.161192775 0 16484152.161192775 -50822346.622439712 0 0 0 0 -44953205.012720108 -6615950.5124177262 0 -6615950.5124177262 -20032084.638064504 0 0 0 0 -28274296.249248505 71394920.654018864 0 71394920.654018864 -19209350.097515136 0 0 0 0 19460404.887702942 134026229.22354829 0 134026229.22354829 -59915329.096359558 0 0 0 0 664338.14059372246 521288.94252399355 0 521288.94252399355 47701.238322413352 0 0 0 0 78470228.10508728 -18219194.693655178 0 -18219194.693655178 -62830721.383928061 0 0 0 0 576180.37458860129 294039.28610425442 0 294039.28610425442 -275836.01270927303 0 0 0 0 -58715191.631027222 41583808.6087576 0 41583808.6087576 -28063.083999714534 0 0 0 0 189560671.33889008 -41578201.088039696 0 -41578201.088039696 -64020992.78596101 0 0 0 0 -9061226.2314758301 6886952.44759179 0 6886952.44759179 -13185209.590971151 0 0 0 0 -51529559.897125244 -27427069.971152097 0 -27427069.971152097 2576239.0037136078 0 0 0 0 -26185965.10218811 26520564.687576413 0 26520564.687576413 -41657475.740623325 0 0 0 0 -66475284.316238403 11146120.493764982 0 11146120.493764982 -16001375.637407333 0 0 0 0 -16297951.379959106 -3456707.94972004 0 -3456707.94972004 -42869865.623966478 0 0 0 0 -40211350.889968872 -31532710.499858797 0 -31532710.499858797 -50436560.952216953 0 0 0 0 -32536.76713898778 15630.742053304799 0 15630.742053304799 -5380.6632730744823 0 0 0 0 11811798.671295166 -6654845.4067673683 0 -6654845.4067673683 -18994913.284282684 0 0 0 0 103832385.75880432 10686615.889517009 0 10686615.889517009 -47506148.133842349 0 0 0 0 113243599.87787628 25340247.100597143 0 25340247.100597143 -78931215.072316706 0 0 0 0 42667622.752380371 53967637.464455396 0 53967637.464455396 -39703819.797843337 0 0 0 0 -17218330.033065796 36106377.222271562 0 36106377.222271562 -38627601.579297788 0 0 0 0 -19546064.126495361 111909717.12155396 0 111909717.12155396 125994.91157663325 0 0 0 0 210969129.08935356 30194065.609357983 0 30194065.609357983 -89485355.42646271 0 0 0 0 137604893.10427094 104214656.27992366 0 104214656.27992366 -48932219.242661804 0 0 0 0 -127655616.18628693 2094709.9167987406 0 2094709.9167987406 20184083.27646637 0 0 0 0 -244856.25314719975 271852.03433771431 0 271852.03433771431 35778.216349652292 0 0 0 0 -227864.47035598755 203249.71328711652 0 203249.71328711652 362.42074394264159 0 0 0 0 -181535.1004486084 171073.68251272925 0 171073.68251272925 -112786.82758115524 0 0 0 0 60.378376945853233 79622.505616718903 0 79622.505616718903 -161826.27262984804 0 0 0 0 1349580.101020813 1438693.2435932718 0 1438693.2435932718 -2389035.3367407508 0 0 0 0 2003691.3375091553 -1134797.8075633012 0 -1134797.8075633012 43822.511030635796 0 0 0 0 2626271.4854793549 357733.34549292573 0 357733.34549292573 -5737175.4822504893 0 0 0 0 -148612.96617126465 108042.3842400265 0 108042.3842400265 -1248.2142145779262 0 0 0 0 -2814844.5829315186 -2319276.659205487 0 -2319276.659205487 1012584.73952475 0 0 0 0 -13099.317953616381 20720.834966476075 0 20720.834966476075 -72045.559773731497 0 0 0 0 157500.80527496338 79786.745027908386 0 79786.745027908386 -242920.58087238716 0 0 0 0 541413.88459777832 -234981.16478885585 0 -234981.16478885585 3606.5878980634261 0 0 0 0 -376903.49798583984 5873418.940914724 0 5873418.940914724 -7353745.0158270784 0 0 0 0 2162633.8182983398 2277106.9363621417 0 2277106.9363621417 -11597137.593808331 0 0 0 0 -103141.73016692698 -274798.38505435083 0 -274798.38505435083 165577.89780989749 0 0 0 0 -3575561.539642334 3447118.5398948751 0 3447118.5398948751 -8497026.5287458003 0 0 0 0 -10531954.084609985 4494269.8738128506 0 4494269.8738128506 -2111981.4316442572 0 0 0 0 -3277193.8100204468 5089222.4271224439 0 5089222.4271224439 -3570010.0899520926 0 0 0 0 -3610231.1150741577 -1116464.7768330947 0 -1116464.7768330947 916100.17333107535 0 0 0 0 -1576144.4073053598 204308.41917322576 0 204308.41917322576 472718.01256089355 0 0 0 0 -7078668.9491977692 -1206601.4001983702 0 -1206601.4001983702 5463039.5643789768 0 0 0 0 -5488504.3062591553 4144538.0188164711 0 4144538.0188164711 -1921867.5284003019 0 0 0 0 10694.998260498047 1797929.8468105905 0 1797929.8468105905 -330087.26923303306 0 0 0 0 -752002.91746643931 362363.64281716943 0 362363.64281716943 682431.58560789074 0 0 0 0 -619651.77690124512 2479192.1945782751 0 2479192.1945782751 -555862.79256345332 0 0 0 0 -600238.91392318904 1245808.7720421702 0 1245808.7720421702 -875748.94899383339 0 0 0 0 -19653644.094535828 32273224.911385477 0 32273224.911385477 15516285.313260913 0 0 0 0 -43229253.63155365 4923023.0903728008 0 4923023.0903728008 36270679.212104559 0 0 0 0 -476480.33719548211 710253.64330929518 0 710253.64330929518 -238460.28223840403 0 0 0 0 41527764.936660767 -22071236.624805372 0 -22071236.624805372 -25729476.695159692 0 0 0 0 92887895.328598022 19134430.518666543 0 19134430.518666543 -10286214.092401763 0 0 0 0 37887503.841674805 7096350.8146648891 0 7096350.8146648891 -12764082.01874608 0 0 0 0 35102627.0887146 4416107.3685739217 0 4416107.3685739217 -19500.30443887502 0 0 0 0 39836823.013408661 2101495.6588045298 0 2101495.6588045298 -4059709.7266562986 0 0 0 0 33373712.748617172 9630515.4719901048 0 9630515.4719901048 -4725181.4528515404 0 0 0 0 41519689.252166748 12614290.01310331 0 12614290.01310331 -4399720.2844395665 0 0 0 0 21566452.89225769 7742043.8266246365 0 7742043.8266246365 -8266.6073632521511 0 0 0 0 4503277.8465538025 4111382.7955714315 0 4111382.7955714315 1211596.1511241142 0 0 0 0 21208529.476379395 19394032.064114325 0 19394032.064114325 5621450.1001631822 0 0 0 0 18257491.400215149 27863297.649842903 0 27863297.649842903 27381730.863442332 0 0 0 0 7882877.6664276123 2225745.7412862871 0 2225745.7412862871 1579587.2923707599 0 0 0 0 4034444.5959968567 1269881.9259251324 0 1269881.9259251324 -881720.97120995633 0 0 0 0 -572938.08903503418 1770734.0311087072 0 1770734.0311087072 -64132.248933862895 0 0 0 0 158125.62699186057 173210.45047220215 0 173210.45047220215 -234214.2243393106 0 0 0 0 -8255939.6374511719 8402186.1142923851 0 8402186.1142923851 3163.4031913881336 0 0 0 0 20349963.182060242 8539764.1145195402 0 8539764.1145195402 838452.0144466497 0 0 0 0 -316980.973101601 304952.69756627455 0 304952.69756627455 -268981.15567334334 0 0 0 0 -7204670.7761077881 3242399.8264836101 0 3242399.8264836101 -1563109.8877026648 0 0 0 0 -10479.431807458401 6842.0346950581297 0 6842.0346950581297 -19933.532287374179 0 0 0 0 -5178123.3783416748 6717786.0415034685 0 6717786.0415034685 -5146808.6000086199 0 0 0 0 -3342645.2045669556 6682513.1840701886 0 6682513.1840701886 -6538239.3565725368 0 0 0 0 -1252267.8524475098 1049686.424734435 0 1049686.424734435 1838854.5408864943 0 0 0 0 -509560.64121573418 426599.3226515539 0 426599.3226515539 -288705.2026685726 0 0 0 0 -19817.099594116211 1475629.0027815509 0 1475629.0027815509 -640071.35391280241 0 0 0 0 -3312705.779624939 4687067.2881537033 0 4687067.2881537033 -5564704.5546270963 0 0 0 0 -2452059.7285822183 1421270.6825849004 0 1421270.6825849004 611047.48607993266 0 0 0 0 -7674811.4205131531 4986764.7193917036 0 4986764.7193917036 639749.71535301208 0 0 0 0 -5263408.3406715393 3427630.7028506696 0 3427630.7028506696 -3216353.6608102322 0 0 0 0 -7735822.9282722473 15301030.147188604 0 15301030.147188604 20909080.865170062 0 0 0 0 7101255.4576797485 -10221997.262573481 0 -10221997.262573481 2602053.2984313965 0 0 0 0 3254114.8610421754 1724067.4987596869 0 1724067.4987596869 -1413370.1382227407 0 0 0 0 11992413.223510742 3000211.8030856848 0 3000211.8030856848 -32319071.467827149 0 0 0 0 1426582.1516639739 247620.73816255294 0 247620.73816255294 -616611.23979779333 0 0 0 0 24748531.475521088 32239584.694977283 0 32239584.694977283 29362748.491005898 0 0 0 0 13902319.630554199 -32455761.277626395 0 -32455761.277626395 71354483.25086993 0 0 0 0 15021798.143920898 -14216655.735424995 0 -14216655.735424995 32007040.290477514 0 0 0 0 18752505.518783569 39135588.318463862 0 39135588.318463862 49806202.11946094 0 0 0 0 5850388.8336639404 299875.14745497704 0 299875.14745497704 51680904.605165243 0 0 0 0 203446628.045578 46097208.085795239 0 46097208.085795239 8688332.6696687937 0 0 0 0 493805.75204315782 -42535.518573584035 0 -42535.518573584035 -157082.79224521073 0 0 0 0 95206173.984523773 -62919531.310048312 0 -62919531.310048312 -20122494.529837027 0 0 0 0 409243.66010627151 222325.51847688109 0 222325.51847688109 -31055.664006911451 0 0 0 0 107182565.92939758 78148111.364071518 0 78148111.364071518 55669953.861674875 0 0 0 0 115570021.43933105 -239018264.36417592 0 -239018264.36417592 -23667164.753093272 0 0 0 0 221802446.92230225 6742523.0745407939 0 6742523.0745407939 -27334567.214032598 0 0 0 0 106043858.72470856 -1917646.2347269058 0 -1917646.2347269058 -18039361.046990156 0 0 0 0 15762543.697760582 -8221209.5598586425 0 -8221209.5598586425 -18392463.075965762 0 0 0 0 16743035.794726163 1704648.1702276673 0 1704648.1702276673 -1395549.3258307134 0 0 0 0 31074297.130783081 11313315.378556013 0 11313315.378556013 -62025714.728646159 0 0 0 0 20262903.406700134 -20892226.867514014 0 -20892226.867514014 -8183675.1092689037 0 0 0 0 14852667.510345459 -2095922.7248291373 0 -2095922.7248291373 -36788446.431108713 0 0 0 0 3939421.9848175049 -11764473.789383888 0 -11764473.789383888 5328185.0361368656 0 0 0 0 4744557.8658367172 1615500.381042935 0 1615500.381042935 -1378926.5644314764 0 0 0 0 -19738782.41658783 12609511.03873086 0 12609511.03873086 -67596.236663758755 0 0 0 0 4081611.0220603943 -11176409.409398019 0 -11176409.409398019 -777302.70920109749 0 0 0 0 9113074.9320487976 -858775.11113518476 0 -858775.11113518476 -31278.942326545715 0 0 0 0 -64894505.918380737 174561975.14497137 0 174561975.14497137 -233196648.45787334 0 0 0 0 -87385394.460987091 109916946.32037699 0 109916946.32037699 -65797334.031376123 0 0 0 0 -89026678.938785553 255254394.23656654 0 255254394.23656654 -436793738.68401814 0 0 0 0 15176865.668750741 3169634.4673906285 0 3169634.4673906285 -599004.57710857387 0 0 0 0 115812742.72758484 44258452.123891473 0 44258452.123891473 -504987091.3372097 0 0 0 0 -196591949.17050934 76246427.009362161 0 76246427.009362161 -9073669.9076089859 0 0 0 0 -20805960.392883301 141489698.83170891 0 141489698.83170891 2140667.7217955589 0 0 0 0 -55862171.100997925 26958657.285644412 0 26958657.285644412 266116525.96693754 0 0 0 0 634677054.91499329 -296125522.3632617 0 -296125522.3632617 344553266.99543095 0 0 0 0 -181993452.96644592 394146275.63046122 0 394146275.63046122 320470267.03342867 0 0 0 0 -121675277.44923878 -207686127.51628047 0 -207686127.51628047 -521759825.54085016 0 0 0 0 114442647.76673126 675121159.32856739 0 675121159.32856739 -928552997.39511311 0 0 0 0 64624383.822235107 27190588.736672401 0 27190588.736672401 18177599.512257576 0 0 0 0 21260689.173019409 4264062.5915446281 0 4264062.5915446281 100877766.86781788 0 0 0 0 10882692.313446045 58006757.588222027 0 58006757.588222027 115418022.92795146 0 0 0 0 -2485159.9514007568 16779716.260864496 0 16779716.260864496 91836850.567689896 0 0 0 0 11408292.733551025 21211807.025083303 0 21211807.025083303 -14346234.285084724 0 0 0 0 19583633.550552368 42085781.290454865 0 42085781.290454865 20037230.444673836 0 0 0 0 31222720.491073608 13686453.120965958 0 13686453.120965958 -2946878.6175842285 0 0 0 0 10030656.85256958 14402242.142403126 0 14402242.142403126 30320003.110003471 0 0 0 0 8326411.5069580078 24148582.526046276 0 24148582.526046276 35688612.825072289 0 0 0 0 2638888.8806762695 20796837.744983673 0 20796837.744983673 14936530.098767519 0 0 0 0 3807403.5224914551 34306788.258081436 0 34306788.258081436 3382145.3400826454 0 0 0 0 3570459.9141616821 40984713.832015097 0 40984713.832015097 26785826.061618805 0 0 0 0 -6564992.45703125 35821174.766469479 0 35821174.766469479 56106758.578764915 0 0 0 0 21758874.756011963 19447858.486443996 0 19447858.486443996 37173890.257772207 0 0 0 0 -4176792.0828552246 36194246.612146378 0 36194246.612146378 40825621.570782185 0 0 0 0 -198737.58210754395 22315738.545406342 0 22315738.545406342 76580581.952143669 0 0 0 0 25928459.699584961 80699355.251276016 0 80699355.251276016 8154310.0070619583 0 0 0 0 8755883.8161621094 24633394.960264206 0 24633394.960264206 -1021629.3681440353 0 0 0 0 16107969.379608154 47219330.648570538 0 47219330.648570538 62172050.74061656 0 0 0 0 -12299830.924468994 29228606.344967961 0 29228606.344967961 38395869.087978363 0 0 0 0 -7011634.3922119141 32802599.917153358 0 32802599.917153358 53278932.001480103 0 0 0 0 -8807446.1659851074 43210488.950257778 0 43210488.950257778 54228675.292242765 0 0 0 0 3425712.7618713379 -310050.82282662392 0 -310050.82282662392 6232278.8541994095 0 0 0 0 13298845.706832886 -22000605.609210014 0 -22000605.609210014 12081914.860620022 0 0 0 0 45337375.484893799 65563977.887465477 0 65563977.887465477 85906341.840855122 0 0 0 0 -363193.20258412138 267549.0923108235 0 267549.0923108235 396432.68222871935 0 0 0 0 -32969.651677839458 61718.371841046959 0 61718.371841046959 -63708.861440878827 0 0 0 0 -3272620.4383506775 -5765609.0015938282 0 -5765609.0015938282 18625945.199818134 0 0 0 0 -2616425.3501701355 11285301.909656942 0 11285301.909656942 9835890.3599028587 0 0 0 0 -14095627.688453674 1856366.121973753 0 1856366.121973753 5262836.9476747513 0 0 0 0 -16307154.76574707 28055845.017392159 0 28055845.017392159 -5011327.8466281891 0 0 0 0 -11529590.291015625 24671801.512176752 0 24671801.512176752 -9734293.61577034 0 0 0 0 -12210706.613937378 23204920.634773493 0 23204920.634773493 31863110.159918308 0 0 0 0 -9672446.4324417114 21325077.446865678 0 21325077.446865678 -5051209.5792574883 0 0 0 0 9030466.7032165527 46043374.714234829 0 46043374.714234829 -6368185.5287780762 0 0 0 0 -16009114.190040588 25788095.609218836 0 25788095.609218836 -1921473.2390246391 0 0 0 0 3472105.3844985962 26920064.986485243 0 26920064.986485243 -36597288.721805096 0 0 0 0 16579434.508482195 2284372.2411412047 0 2284372.2411412047 -1096550.8537253824 0 0 0 0 5998742.0055541992 41518699.231422901 0 41518699.231422901 -46749935.624596238 0 0 0 0 -21339306.858062744 147134157.49798298 0 147134157.49798298 -313301086.83043194 0 0 0 0 8321649.9875793159 1571131.8051658981 0 1571131.8051658981 -2051117.2912230543 0 0 0 0 12131617.498172343 5175351.3391812276 0 5175351.3391812276 517081.88214428269 0 0 0 0 13849360.221794128 -1841160.7707428336 0 -1841160.7707428336 -10276737.181678534 0 0 0 0 1641453.5143391117 322460.12730749696 0 322460.12730749696 -833376.8234450873 0 0 0 0 -80625677.18894577 141868607.42187822 0 141868607.42187822 -121801615.39593792 0 0 0 0 -38564109.843109131 116455269.54139185 0 116455269.54139185 -249440016.41996384 0 0 0 0 -71251611.527786255 132776753.85835171 0 132776753.85835171 -254761282.96076107 0 0 0 0 24748667.868900299 7969358.1187421083 0 7969358.1187421083 -144866412.280828 0 0 0 0 15053288.069854736 109105519.06430149 0 109105519.06430149 -141694552.4328928 0 0 0 0 -47585037.352584839 102263461.84189463 0 102263461.84189463 -126223146.95713234 0 0 0 0 -31391641.38117981 132611472.1852746 0 132611472.1852746 -151883128.74526024 0 0 0 0 14465030.17650082 2189605.8303709673 0 2189605.8303709673 -597408.3696923008 0 0 0 0 -52168274.402938843 123185175.95294905 0 123185175.95294905 79247676.223416328 0 0 0 0 -26364275.05973053 -86397.278744220734 0 -86397.278744220734 -2275323.3429296017 0 0 0 0 82736613.566833496 7244974.8817596436 0 7244974.8817596436 -75679641.818643093 0 0 0 0 22236003.335548401 44171114.323000431 0 44171114.323000431 -100561489.66487265 0 0 0 0 2078983.7304449081 11337881.916902885 0 11337881.916902885 -56573238.543690681 0 0 0 0 28128715.741912842 43052290.30749464 0 43052290.30749464 -41631393.342692375 0 0 0 0 6303428.4160461426 34247315.922020912 0 34247315.922020912 -15078499.422813416 0 0 0 0 8672691.0139465332 14121067.327593327 0 14121067.327593327 -31239973.513000488 0 0 0 0 13247651.437194824 13686348.514503241 0 13686348.514503241 -17400432.232667446 0 0 0 0 12402421.213287354 34600022.231151581 0 34600022.231151581 -52753899.774831772 0 0 0 0 -7863102.8830413818 26163154.356389046 0 26163154.356389046 -54533108.99426496 0 0 0 0 6726198.8442840576 7510568.0851345062 0 7510568.0851345062 -88324635.880205631 0 0 0 0 665712.01751373708 5688565.29689465 0 5688565.29689465 -599720.46531429328 0 0 0 0 -23619846.967758179 35827484.17423439 0 35827484.17423439 11372982.519827247 0 0 0 0 -19061075.710136414 24646990.104501247 0 24646990.104501247 -156182806.1656096 0 0 0 0 8791788.7636566162 236463.91219091415 0 236463.91219091415 -209935089.77851784 0 0 0 0 -18052110.127376556 13317657.281578243 0 13317657.281578243 -141343179.70934772 0 0 0 0 122781.25080407411 1597862.9360164795 0 1597862.9360164795 -216450.69350675185 0 0 0 0 -19474045.2554245 -2879188.9202108383 0 -2879188.9202108383 -214486484.24217653 0 0 0 0 15283721.001480103 59226827.043148518 0 59226827.043148518 -363383888.29830313 0 0 0 0 -37342954.501731873 30293469.861279011 0 30293469.861279011 -59786291.25084734 0 0 0 0 -47839234.275182247 81102202.508836433 0 81102202.508836433 -136117783.37868166 0 0 0 0 -43973434.652406216 33769165.620627359 0 33769165.620627359 -137970467.73321104 0 0 0 0 -32019972.066978455 34950265.852699757 0 34950265.852699757 -20531721.142821312 0 0 0 0 -25619425.197471619 62449709.952880383 0 62449709.952880383 -111093075.12245762 0 0 0 0 -37825683.747535706 87787098.999041021 0 87787098.999041021 27073787.206215322 0 0 0 0 -853857.36542419065 67938920.796132773 0 67938920.796132773 37717887.933604836 0 0 0 0 -7561098.817855835 66753422.285740376 0 66753422.285740376 -44064110.544308662 0 0 0 0 -49577027.438793182 14745601.596234322 0 14745601.596234322 9369823.5779533386 0 0 0 0 -153467016.54267883 30983429.37638092 0 30983429.37638092 121970155.17517292 0 0 0 0 -337207.77794237435 1718834.0140443444 0 1718834.0140443444 3024028.7549796253 0 0 0 0 -28668519.252165377 -10689450.218991162 0 -10689450.218991162 35962458.826357961 0 0 0 0 -27917805.088699341 29916605.453816891 0 29916605.453816891 18102052.179322302 0 0 0 0 -60582357.976272583 5480014.876124382 0 5480014.876124382 14830719.395649433 0 0 0 0 -8863866.460105896 20890682.479908228 0 20890682.479908228 17378097.45497942 0 0 0 0 -60377364.261043549 42047932.5773229 0 42047932.5773229 -20486838.863580227 0 0 0 0 -4884424.5378494263 32182281.888635635 0 32182281.888635635 -33634963.958191633 0 0 0 0 -35495840.572937012 63644678.885234594 0 63644678.885234594 -117330389.34147835 0 0 0 0 -33544355.625114441 42434266.190747857 0 42434266.190747857 -43464806.474870682 0 0 0 0 -90752110.670516968 56385397.478535414 0 56385397.478535414 -38783828.111806989 0 0 0 0 -78556167.71471405 145564875.12685728 0 145564875.12685728 -203676306.69841766 0 0 0 0 -92774704.303971291 81214903.019242913 0 81214903.019242913 -97141956.214823246 0 0 0 0 -53057169.943771362 80405998.999940157 0 80405998.999940157 -83419745.9214921 0 0 0 0 -66584175.128341675 118712764.11029291 0 118712764.11029291 -157049838.45572639 0 0 0 0 -38354561.791030884 81230563.499643803 0 81230563.499643803 -86086186.871221542 0 0 0 0 -52951692.769119263 27776367.101693392 0 27776367.101693392 6174898.1904199123 0 0 0 0 -6563750.9353256226 77519680.226859808 0 77519680.226859808 -87824448.961595416 0 0 0 0 -88995151.936862946 30686330.712785304 0 30686330.712785304 83814711.417479515 0 0 0 0 1284611.7352930978 1192743.4234073609 0 1192743.4234073609 1324130.5081389162 0 0 0 0 26876887.529337883 -90598072.146208018 0 -90598072.146208018 99121652.013358593 0 0 0 0 -41949652.743118286 3024988.477489233 0 3024988.477489233 60662092.411262333 0 0 0 0 8887867.5423760414 32962197.647792652 0 32962197.647792652 529176.87406253815 0 0 0 0 713319163.41233158 -313839117.78351271 0 -313839117.78351271 34717963.716199875 0 0 0 0 35163959.12991333 -154367839.47761559 0 -154367839.47761559 249924257.25046635 0 0 0 0 622318.33753126115 279852.88614273258 0 279852.88614273258 327583.7541737752 0 0 0 0 77173086.138999939 -46499662.373455524 0 -46499662.373455524 32599007.277336597 0 0 0 0 189810228.05013275 -25548202.010379076 0 -25548202.010379076 -153596997.94207907 0 0 0 0 172425684.21073914 -87288522.609412909 0 -87288522.609412909 58154441.46473217 0 0 0 0 778050.97322720662 449439.48008021712 0 449439.48008021712 4958220.5736498516 0 0 0 0 359370810.33095932 -121441655.58946276 0 -121441655.58946276 -4232024.0662240982 0 0 0 0 265042526.11476135 -144369177.05568933 0 -144369177.05568933 56899936.131461322 0 0 0 0 284127961.05109024 -71838674.795787573 0 -71838674.795787573 5858649.6593766212 0 0 0 0 133816977.68992615 -109845929.38591361 0 -109845929.38591361 21776631.267669022 0 0 0 0 130557661.02123284 -68463938.132493675 0 -68463938.132493675 342773442.53456497 0 0 0 0 144942887.18116379 -49039886.606239796 0 -49039886.606239796 110354972.52403736 0 0 0 0 620236.94916828349 82971.541839051992 0 82971.541839051992 3297342.2538035205 0 0 0 0 275521653.81351471 481636610.40268552 0 481636610.40268552 -73657860.385930538 0 0 0 0 866499.4055685997 1964169.651929995 0 1964169.651929995 2597395.8074966329 0 0 0 0 16648746.718399048 -55337152.61584425 0 -55337152.61584425 49109121.725568622 0 0 0 0 91131344.485923767 -288817905.57822132 0 -288817905.57822132 38339846.821484208 0 0 0 0 227636540.30962372 148684052.23173428 0 148684052.23173428 222909361.28752947 0 0 0 0 58305.845968961716 147752.05008292198 0 147752.05008292198 2172325.3709644582 0 0 0 0 313756966.58722687 108420511.74999559 0 108420511.74999559 77670342.68122673 0 0 0 0 -230398853.92264557 -209607125.95306706 0 -209607125.95306706 317593944.10756981 0 0 0 0 167488281.00117493 -196000546.409053 0 -196000546.409053 130872449.07139373 0 0 0 0 -82133756.536231995 -53749682.281862736 0 -53749682.281862736 50118021.998268783 0 0 0 0 231026473.85489655 98679987.497981966 0 98679987.497981966 71487496.172962189 0 0 0 0 246352082.90368652 11786061.040529728 0 11786061.040529728 -28166805.641327381 0 0 0 0 131523000.24737549 -57392171.575826168 0 -57392171.575826168 27976520.966699123 0 0 0 0 72869942.555664062 -40604345.943775177 0 -40604345.943775177 81427261.00031662 0 0 0 0 -70448669.443489075 -18860697.885468751 0 -18860697.885468751 90795114.920600653 0 0 0 0 460207.96795991808 1343003.5321534872 0 1343003.5321534872 5680379.1212027855 0 0 0 0 52224674.247196198 14719454.332877398 0 14719454.332877398 12367083.18465519 0 0 0 0 148370126.06713867 -72496785.711366653 0 -72496785.711366653 34130508.427343369 0 0 0 0 -597116.97089625895 -73799.318707186729 0 -73799.318707186729 924279.50260367524 0 0 0 0 -56140995.851593018 14761398.308680058 0 14761398.308680058 -21985494.749171309 0 0 0 0 206488030.82330322 22489520.864593506 0 22489520.864593506 12148271.244099617 0 0 0 0 242050078.76931 79544584.51384449 0 79544584.51384449 45644580.458550215 0 0 0 0 208426643.90924072 64721453.804219723 0 64721453.804219723 124272824.83839083 0 0 0 0 98032058.392578125 -50460956.73017025 0 -50460956.73017025 432291266.94565439 0 0 0 0 131653111.07176971 -14987585.190268517 0 -14987585.190268517 189787067.60332084 0 0 0 0 230701337.133461 103803288.66256666 0 103803288.66256666 79549850.66971159 0 0 0 0 265235.9756170027 31307.887049011886 0 31307.887049011886 1333054.3903950583 0 0 0 0 315352246.40013885 176425614.58655834 0 176425614.58655834 173590340.51931286 0 0 0 0 195642876.63253021 138360971.58612859 0 138360971.58612859 433905946.65284157 0 0 0 0 -142702164.55470276 136392734.5918498 0 136392734.5918498 475514449.58276939 0 0 0 0 215295448.81144333 -306574622.91613173 0 -306574622.91613173 -50305435.78467083 0 0 0 0 117762856.32485962 30402279.023817539 0 30402279.023817539 -232875098.30269241 0 0 0 0 105338658.32303381 -100484254.16194052 0 -100484254.16194052 68959032.09664917 0 0 0 0 206300891.87915039 -92048003.627667427 0 -92048003.627667427 54203893.402781248 0 0 0 0 -13982993.530464172 20644796.145859241 0 20644796.145859241 -28021964.055920124 0 0 0 0 184438641.92966843 -127486430.28128266 0 -127486430.28128266 10509891.052682877 0 0 0 0 89735122.679489136 -32586619.02222681 0 -32586619.02222681 19547418.115461826 0 0 0 0 201576046.21257019 -81142337.011987686 0 -81142337.011987686 -62499154.894438744 0 0 0 0 216221342.48987961 -102360877.59762716 0 -102360877.59762716 -102406254.49350548 0 0 0 0 -31010325.257392883 -93346066.897795796 0 -93346066.897795796 -226176378.99982226 0 0 0 0 1464469.3483564239 303213.69493653625 0 303213.69493653625 -2050166.0923871812 0 0 0 0 -63106042.961135864 99680309.980596542 0 99680309.980596542 -71200334.772266865 0 0 0 0 7202074.0580711365 9961589.2607932091 0 9961589.2607932091 -7853370.2245225906 0 0 0 0 1738020.9852529168 1938127.4490471296 0 1938127.4490471296 -91547.962243210524 0 0 0 0 130823552.07567596 -47790607.8639853 0 -47790607.8639853 16938952.785474777 0 0 0 0 129660213.77254486 -50152512.603299141 0 -50152512.603299141 28165305.472202301 0 0 0 0 137555049.56509781 -35662980.118348479 0 -35662980.118348479 6294954.9636249542 0 0 0 0 116405974.77485657 -34259450.274867058 0 -34259450.274867058 17697769.852739334 0 0 0 0 148271505.27189657 -54492392.752516188 0 -54492392.752516188 8930455.1009788513 0 0 0 0 228046217.82386208 -142174731.31064004 0 -142174731.31064004 8948713.9771318436 0 0 0 0 435316.84693027288 173480.16231464967 0 173480.16231464967 -338652.96320655942 0 0 0 0 177899906.69959641 -126892489.06804693 0 -126892489.06804693 58828450.452173233 0 0 0 0 155367239.16421509 -48479830.965703964 0 -48479830.965703964 72016392.351693869 0 0 0 0 119058265.7182045 -51096796.691758692 0 -51096796.691758692 21765229.007241249 0 0 0 0 -1697868.6094360352 -849367.82185792923 0 -849367.82185792923 2442278.3105139732 0 0 0 0 308055.65955018997 26816661.270476446 0 26816661.270476446 -13811003.649250984 0 0 0 0 -69488066.051826477 106295232.89618969 0 106295232.89618969 -14702198.992064476 0 0 0 0 1530865.4117444456 3965155.3259921987 0 3965155.3259921987 7108634.5380063532 0 0 0 0 -89404469.918548584 47467571.544048011 0 47467571.544048011 22009299.291355133 0 0 0 0 -12635053.047653198 44466533.453160524 0 44466533.453160524 3870525.2050197124 0 0 0 0 21592149.343933105 36137428.620902777 0 36137428.620902777 -82065035.734726429 0 0 0 0 95811377.680831909 42390137.500495315 0 42390137.500495315 -2851782.3562723696 0 0 0 0 715581.07123565674 50423908.203688383 0 50423908.203688383 -1141928.5173807144 0 0 0 0 -26449143.91173172 63127243.146809876 0 63127243.146809876 128578511.62312102 0 0 0 0 -10833587.100318909 39636873.449853897 0 39636873.449853897 -49880158.704638958 0 0 0 0 4042644.5817784816 6161829.5065862387 0 6161829.5065862387 7035504.7779861186 0 0 0 0 -5349990.0927734375 96413478.885840416 0 96413478.885840416 -80747847.677395374 0 0 0 0 28422268.261047363 24496843.165090561 0 24496843.165090561 -53866030.896811485 0 0 0 0 26852528.244827271 8914538.1789193153 0 8914538.1789193153 -78944394.52833128 0 0 0 0 65653908.527252197 42695310.618726969 0 42695310.618726969 -53346788.249524713 0 0 0 0 41994875.232513428 88245965.014217854 0 88245965.014217854 -74214473.483864069 0 0 0 0 103477468.89743042 -29337093.970877647 0 -29337093.970877647 -109619005.59193373 0 0 0 0 120530797.78991699 -76581210.70477581 0 -76581210.70477581 1199123.6633700728 0 0 0 0 -8713503.472442627 37232257.172242641 0 37232257.172242641 -54367706.17090416 0 0 0 0 58742948.896209717 7016523.5474419594 0 7016523.5474419594 -40835754.812053204 0 0 0 0 -11517012.637971878 -49977002.610215388 0 -49977002.610215388 -31419123.035380363 0 0 0 0 32685647.567100525 -21925459.482400894 0 -21925459.482400894 -14229336.618344545 0 0 0 0 9185221.8156890869 -15628705.585740447 0 -15628705.585740447 25951486.658638 0 0 0 0 73191559.446472168 -48015768.694356561 0 -48015768.694356561 42208280.871145964 0 0 0 0 40248015.773262024 13441992.181444645 0 13441992.181444645 88884407.710754633 0 0 0 0 29775031.014678955 14246145.448545337 0 14246145.448545337 4954521.2838802338 0 0 0 0 87472978.975128174 30619652.866880298 0 30619652.866880298 6099231.3186332136 0 0 0 0 205020608.21136475 57873931.345030785 0 57873931.345030785 90028573.779033184 0 0 0 0 26345215.447433472 -32129836.24754557 0 -32129836.24754557 216712275.73868412 0 0 0 0 8770699.3837757111 15961876.55666253 0 15961876.55666253 139843921.06987882 0 0 0 0 6056798.1111831665 130427160.70430583 0 130427160.70430583 144818038.29781032 0 0 0 0 38614933.103630066 40505008.852407008 0 40505008.852407008 -6738659.840000838 0 0 0 0 20389450.634750366 -157180301.04476982 0 -157180301.04476982 338214858.10020834 0 0 0 0 -629177.32254268229 665000.56442131102 0 665000.56442131102 1564624.377534399 0 0 0 0 -5557296.413225174 -44456033.613118485 0 -44456033.613118485 144717616.09483767 0 0 0 0 -82065381.700744629 -57106441.748933375 0 -57106441.748933375 183104198.54446006 0 0 0 0 -35869907.297744751 39318787.413814545 0 39318787.413814545 118973534.22208071 0 0 0 0 -66601698.5287323 26708190.702192068 0 26708190.702192068 115475642.50052738 0 0 0 0 3674672.4434127808 -15809011.723430395 0 -15809011.723430395 125423574.42024922 0 0 0 0 -5292536.2983703613 76510500.511664033 0 76510500.511664033 330165444.22936481 0 0 0 0 24690114.610233307 8699996.7139425278 0 8699996.7139425278 -28427729.922020435 0 0 0 0 -7002888.1183853149 -3200907.6813912392 0 -3200907.6813912392 9399311.1506118774 0 0 0 0 -6683893.7895231247 1145934.9042331576 0 1145934.9042331576 -96980342.828864098 0 0 0 0 -3587726.7774810791 -14930435.535334826 0 -14930435.535334826 52667499.503252983 0 0 0 0 6350620.2347575873 1896602.3037907095 0 1896602.3037907095 375184.93503562594 0 0 0 0 11103162.749740601 -13240599.89966774 0 -13240599.89966774 36896956.726505756 0 0 0 0 9940743.3272476196 -8119333.9507274628 0 -8119333.9507274628 34607179.211474419 0 0 0 0 -15667333.333580017 79988698.618405342 0 79988698.618405342 -33292779.964587212 0 0 0 0 22386466.781265259 -4521107.3000090122 0 -4521107.3000090122 -21979362.288133144 0 0 0 0 6695384.5001766086 1430300.0352168111 0 1430300.0352168111 -129629.26785858395 0 0 0 0 5126504.1045588925 -244725.93920368887 0 -244725.93920368887 -530449.57194248866 0 0 0 0 88279299.200073242 65134649.999128342 0 65134649.999128342 -44980988.774483681 0 0 0 0 -42003573.446362495 -407669.53395736217 0 -407669.53395736217 75965113.248090744 0 0 0 0 11684074.620185852 -24292435.735646248 0 -24292435.735646248 15359586.23822546 0 0 0 0 -60684943.331345558 58412834.558030844 0 58412834.558030844 10829252.841077805 0 0 0 0 1478252.6252195984 83649.325520623475 0 83649.325520623475 1487255.3763628695 0 0 0 0 -9018639.0613994598 -5344222.0453872681 0 -5344222.0453872681 6662516.4116487503 0 0 0 0 -29418255.217388153 -7374448.1021542549 0 -7374448.1021542549 19926864.637844563 0 0 0 0 77299256.901329041 -43385610.155308723 0 -43385610.155308723 30686036.718161106 0 0 0 0 -7740964.0178451538 -1258996.6061407328 0 -1258996.6061407328 19292638.584844589 0 0 0 0 3692960.5129508972 -9832052.7618734837 0 -9832052.7618734837 18845501.988521576 0 0 0 0 -24887246.335319519 4504286.7675218582 0 4504286.7675218582 22332497.710016251 0 0 0 0 -8610388.9222183228 2139318.1137678623 0 2139318.1137678623 22176701.922045708 0 0 0 0 -32160791.041402817 -2185507.6817698479 0 -2185507.6817698479 29531778.390069008 0 0 0 0 -34721350.343971252 -1766879.168566227 0 -1766879.168566227 29477129.252952933 0 0 0 0 298415.80309827998 232016.00359919295 0 232016.00359919295 1729755.4168401472 0 0 0 0 -20727809.457893372 -67134539.569241047 0 -67134539.569241047 1896190.2027239203 0 0 0 0 -47329551.823619843 -26856767.916004777 0 -26856767.916004777 98827561.885707855 0 0 0 0 -26122866.866767883 56159059.520734549 0 56159059.520734549 38969351.817252159 0 0 0 0 -31048786.255062103 69812013.211741686 0 69812013.211741686 123307835.38168478 0 0 0 0 215944820.87202454 168646270.36843109 0 168646270.36843109 151334667.69268417 0 0 0 0 235878708.47451782 314217140.74975491 0 314217140.74975491 88455014.554141045 0 0 0 0 -521192535.77856445 -313942557.7881918 0 -313942557.7881918 7249007.1029419899 0 0 0 0 -261167174.06526947 882063095.12174797 0 882063095.12174797 492345306.30437374 0 0 0 0 -153403838.35145569 30848273.17168951 0 30848273.17168951 268768868.68663025 0 0 0 0 -157711875.16579437 -157739289.48644018 0 -157739289.48644018 -31732577.222315788 0 0 0 0 208109905.82673645 -9399890.6776738167 0 -9399890.6776738167 6288965.227036953 0 0 0 0 3522329.6349994764 3953420.3325652722 0 3953420.3325652722 2074265.3517253092 0 0 0 0 972138780.91648102 155204167.48915482 0 155204167.48915482 -88357139.955555439 0 0 0 0 496149372.87181854 -225509832.53643036 0 -225509832.53643036 100508773.53164804 0 0 0 0 1517719187.2537003 593831520.78587914 0 593831520.78587914 10114914.427424431 0 0 0 0 2619925.3861280829 1555348.5123841874 0 1555348.5123841874 733424.88004971528 0 0 0 0 290964657.37031555 715517119.3861599 0 715517119.3861599 -64550060.709032059 0 0 0 0 1640208334.1693115 399333215.02518463 0 399333215.02518463 -325065072.36139107 0 0 0 0 1474490226.0233231 -414017539.33989954 0 -414017539.33989954 49186863.887981296 0 0 0 0 1124787.5850671418 1444662.5747582708 0 1444662.5747582708 1274392.3444431433 0 0 0 0 230862975.35968781 614529066.33088064 0 614529066.33088064 610592437.69903803 0 0 0 0 -171180961.57818604 -184033980.15250826 0 -184033980.15250826 -93036790.059538364 0 0 0 0 1068877785.4548531 126879051.14580131 0 126879051.14580131 111486653.7032795 0 0 0 0 424287263.36531067 -12923983.191706657 0 -12923983.191706657 88944677.598148823 0 0 0 0 644627474.64917374 -132561894.9099226 0 -132561894.9099226 11085962.924686432 0 0 0 0 560175328.7614975 -249282231.85477519 0 -249282231.85477519 193681220.48189926 0 0 0 0 317345775.42456055 -103889318.90037489 0 -103889318.90037489 8738966.9036684036 0 0 0 0 209696217.67276001 -51267514.77002573 0 -51267514.77002573 34714717.685102463 0 0 0 0 493417374.3302269 -37605793.186754227 0 -37605793.186754227 -48834784.852620125 0 0 0 0 455129551.9899292 -25771214.870330811 0 -25771214.870330811 -13314165.927480698 0 0 0 0 465150871.63372803 29423697.682778835 0 29423697.682778835 -74945891.724795341 0 0 0 0 -13179789.44719696 -78081422.096724987 0 -78081422.096724987 -285485520.37872219 0 0 0 0 6003070.06533546 2243780.9138596514 0 2243780.9138596514 693215.48314894456 0 0 0 0 -646944.96936035156 27072859.487545013 0 27072859.487545013 26034127.659595013 0 0 0 0 130804204.02172852 -194329173.15525913 0 -194329173.15525913 187139299.97342753 0 0 0 0 -67717009.062477112 -10396144.675357342 0 -10396144.675357342 125066970.21421719 0 0 0 0 201036273.31305695 -76631781.615418911 0 -76631781.615418911 46160666.052781105 0 0 0 0 -12410409.695785522 -66828128.773881912 0 -66828128.773881912 125504444.05959415 0 0 0 0 -198088.98301322758 53336.637699279934 0 53336.637699279934 267282.58875414776 0 0 0 0 37408000.532356262 -23105650.681006908 0 -23105650.681006908 35102765.044898987 0 0 0 0 38310838.863693237 -8198643.748241663 0 -8198643.748241663 45990433.140928268 0 0 0 0 -466101.17668584734 99358.007898058742 0 99358.007898058742 517359.32209017593 0 0 0 0 170755282.80165482 3704168.7285499573 0 3704168.7285499573 2715693.7773799896 0 0 0 0 112633021.94994354 -80930652.75128746 0 -80930652.75128746 50521815.967541218 0 0 0 0 114173196.47622681 54464769.070248127 0 54464769.070248127 -5427033.3637881279 0 0 0 0 29834584.797319412 -58449234.063601017 0 -58449234.063601017 9234405.0607471466 0 0 0 0 477196922.7838192 29734697.105495751 0 29734697.105495751 -81135947.187906265 0 0 0 0 330028701.85452271 1716108.6809248924 0 1716108.6809248924 -26246559.892933846 0 0 0 0 293376892.20556641 -66297104.005462646 0 -66297104.005462646 19261221.576542854 0 0 0 0 293220007.27644348 10387764.723808765 0 10387764.723808765 -26587024.146944046 0 0 0 0 300145928.81510925 -13565572.230746269 0 -13565572.230746269 -30726009.193680048 0 0 0 0 393471052.51915741 63621730.399774551 0 63621730.399774551 -16929538.531579971 0 0 0 0 355407190.82399273 -320612950.33503807 0 -320612950.33503807 -401215452.3993969 0 0 0 0 608017379.00389862 -27944516.545802593 0 -27944516.545802593 -82570957.871903419 0 0 0 0 183738976.69133377 183475601.32243919 0 183475601.32243919 -99995821.87727499 0 0 0 0 722122823.63398361 524164513.9915092 0 524164513.9915092 115313649.08106995 0 0 0 0 5690455.4754147977 -840312.90753656533 0 -840312.90753656533 -402973.47671856545 0 0 0 0 306787153.10076904 -461673279.42226076 0 -461673279.42226076 252871921.6497494 0 0 0 0 846644661.11942291 -214077577.46439755 0 -214077577.46439755 242175767.59288216 0 0 0 0 1186827636.6118927 1210167671.1443901 0 1210167671.1443901 1597531350.5360031 0 0 0 0 1982885897.8937378 -113057346.67727852 0 -113057346.67727852 -1300554804.9962311 0 0 0 0 -14400409.393360138 -29289442.394443512 0 -29289442.394443512 -71174062.417866707 0 0 0 0 37555399.333656311 -13636510.730168343 0 -13636510.730168343 -67187275.947936058 0 0 0 0 31170187.424911499 -44064195.401857853 0 -44064195.401857853 -61568379.426939964 0 0 0 0 14828998.654339127 -616628.48222432565 0 -616628.48222432565 -1142302.8254485475 0 0 0 0 81515822.445075989 11534104.472257614 0 11534104.472257614 -224336784.56391811 0 0 0 0 328450952.97010803 -276742195.97262669 0 -276742195.97262669 -625980353.27037811 0 0 0 0 117374063.84315491 36177035.215239525 0 36177035.215239525 -709893274.66051972 0 0 0 0 20108879.229770899 807224.53544109873 0 807224.53544109873 -1634936.0058581769 0 0 0 0 42320299.705627441 -24084509.888147354 0 -24084509.888147354 -156152217.96700811 0 0 0 0 7069089.2184314728 -4953160.913623333 0 -4953160.913623333 -67483415.04150486 0 0 0 0 31541445.212600708 -13855379.507971287 0 -13855379.507971287 -67641435.568996608 0 0 0 0 -2961482.3090553284 -28158687.464592457 0 -28158687.464592457 12950163.453580856 0 0 0 0 27053196.074882507 -41592332.590746403 0 -41592332.590746403 16149384.952080011 0 0 0 0 -528370.27885690331 74155.79514022544 0 74155.79514022544 477598.92672214843 0 0 0 0 13427198.162572861 -21696763.722171664 0 -21696763.722171664 38471742.282495499 0 0 0 0 6050365.4923706055 -15652951.97244215 0 -15652951.97244215 36567651.785319328 0 0 0 0 14708042.557788849 -35998935.025233269 0 -35998935.025233269 54297732.11038208 0 0 0 0 15361553.265739441 -29195801.194105148 0 -29195801.194105148 52793946.294893958 0 0 0 0 13598919.869422913 -13348565.309102058 0 -13348565.309102058 25848210.646747589 0 0 0 0 7917616.0775241852 -14235287.269392252 0 -14235287.269392252 28110752.836249352 0 0 0 0 10471813.392620087 -10835739.068888187 0 -10835739.068888187 30778763.259907722 0 0 0 0 14225232.926290512 -18386945.53455925 0 -18386945.53455925 25972712.376016617 0 0 0 0 4217166.8302001953 -20390457.428043842 0 -20390457.428043842 32663555.561544418 0 0 0 0 -278418.77986222506 39678.736689599231 0 39678.736689599231 233108.55622163042 0 0 0 0 1620010.4568328857 -33506786.251027107 0 -33506786.251027107 5723922.420030117 0 0 0 0 22229681.588310242 -24632800.961201668 0 -24632800.961201668 -33140632.4840765 0 0 0 0 15992520.168830872 -11785472.667635441 0 -11785472.667635441 -28824825.780913353 0 0 0 0 7682002.8986930847 -23507825.727049828 0 -23507825.727049828 -45354778.18637085 0 0 0 0 9171696.9731521606 -23006745.886953354 0 -23006745.886953354 -59894128.674929619 0 0 0 0 27674197.338190079 -36786698.893942773 0 -36786698.893942773 -51433713.221903801 0 0 0 0 15275986.361646652 -23310420.648278713 0 -23310420.648278713 -62217036.178808212 0 0 0 0 331777545.48059082 207701826.1712265 0 207701826.1712265 -192463537.10929012 0 0 0 0 22451904.857713982 1974543.8273587187 0 1974543.8273587187 -2410141.6480220812 0 0 0 0 19872807.490257263 -12269480.000107288 0 -12269480.000107288 -77520454.938112259 0 0 0 0 20908251.439016342 644997.79959750175 0 644997.79959750175 -29914498.608320236 0 0 0 0 21252627.22542572 565632.49613189697 0 565632.49613189697 -53352947.574099779 0 0 0 0 -64366154.760993958 47143478.730301142 0 47143478.730301142 -3571257.0018806458 0 0 0 0 -175277121.27523041 200183319.57913661 0 200183319.57913661 -45759088.73847723 0 0 0 0 402126.01748558134 1841115.5227443501 0 1841115.5227443501 318170.18914668076 0 0 0 0 -29135174.898376465 10712188.794018745 0 10712188.794018745 19048681.190054417 0 0 0 0 -14275621.255989075 831451.3707280159 0 831451.3707280159 14302051.541621208 0 0 0 0 -41711969.126018524 150621673.77759552 0 150621673.77759552 39546538.621619225 0 0 0 0 -38480752.72778511 166472934.0297589 0 166472934.0297589 -26166287.731874466 0 0 0 0 -143801358.40628052 70408663.612843275 0 70408663.612843275 -107578760.45006233 0 0 0 0 -2914556.0515346527 -50124260.284007311 0 -50124260.284007311 -169684763.40992069 0 0 0 0 112764521.23793674 287636919.92898321 0 287636919.92898321 -180204550.27364731 0 0 0 0 411993.64995107055 683819.74482058734 0 683819.74482058734 -106309.21321192104 0 0 0 0 109153715.73615265 145128352.49501657 0 145128352.49501657 -120845995.91248131 0 0 0 0 -169268427.38641357 364603016.50214195 0 364603016.50214195 -59096550.296061516 0 0 0 0 -310612543.18983459 17448048.228349686 0 17448048.228349686 -212038561.77898884 0 0 0 0 -129561644.91287231 182802700.99464107 0 182802700.99464107 4101630.8166837692 0 0 0 0 -6358062.0684204102 187863394.17117167 0 187863394.17117167 -167292580.20100117 0 0 0 0 -43195790.515777588 224451853.07395411 0 224451853.07395411 -39941333.408529282 0 0 0 0 144721116.76469421 234165363.88683462 0 234165363.88683462 -499717361.49331474 0 0 0 0 257710844.00049591 -153426070.68734574 0 -153426070.68734574 96543857.492634773 0 0 0 0 116042658.42461395 115126963.05126429 0 115126963.05126429 8719344.067243576 0 0 0 0 70276156.100944519 66437380.272083402 0 66437380.272083402 147558801.31097889 0 0 0 0 62375071.97088623 89892462.503355026 0 89892462.503355026 20099.003021776676 0 0 0 0 -41461085.786254883 108947682.68811536 0 108947682.68811536 70697300.959049702 0 0 0 0 -14260909.143203735 178359377.79217744 0 178359377.79217744 -69979874.750733376 0 0 0 0 22107593.071372986 143739558.37420106 0 143739558.37420106 86102131.346016884 0 0 0 0 10778637.836585999 111360074.04567933 0 111360074.04567933 80408136.445626259 0 0 0 0 91004526.538253784 22905674.96066761 0 22905674.96066761 84731001.913896158 0 0 0 0 47146546.975402832 -4065039.0481648445 0 -4065039.0481648445 95886905.751974583 0 0 0 0 343495288.19028473 4838435.5944657326 0 4838435.5944657326 175279119.29812098 0 0 0 0 130935490.31980896 79410192.801728964 0 79410192.801728964 162957775.29018641 0 0 0 0 219538406.55250549 -87015234.478190184 0 -87015234.478190184 162085463.6398102 0 0 0 0 255485052.2167511 -29358984.671751142 0 -29358984.671751142 111915820.56475878 0 0 0 0 259071653.07643127 -61673005.668898106 0 -61673005.668898106 211753831.48790646 0 0 0 0 528768967.32400513 -50947652.9281919 0 -50947652.9281919 120351403.41158247 0 0 0 0 389927241.43920898 -103144453.72384334 0 -103144453.72384334 171025480.72289562 0 0 0 0 317405939.06445312 -22237357.006247282 0 -22237357.006247282 101037781.1125685 0 0 0 0 383037262.76324463 -5865207.7173063755 0 -5865207.7173063755 156191345.93666363 0 0 0 0 485904565.21282959 -123249336.8611902 0 -123249336.8611902 123348202.86578053 0 0 0 0 249187563.23973083 -95191750.104415298 0 -95191750.104415298 107940680.60180143 0 0 0 0 126027005.10267639 5195401.7997317314 0 5195401.7997317314 66946847.183899403 0 0 0 0 50021982.618743896 44788215.277022362 0 44788215.277022362 83159860.133032084 0 0 0 0 120817872.92596436 3096358.6577239037 0 3096358.6577239037 155653218.33754444 0 0 0 0 82656265.084594727 -38477170.147946358 0 -38477170.147946358 85516182.867770344 0 0 0 0 -27174745.982269287 29147182.835186243 0 29147182.835186243 114569570.4713726 0 0 0 0 -117448786.60360718 48620554.889198065 0 48620554.889198065 75306681.574810266 0 0 0 0 -21786720.623184204 57671798.465052366 0 57671798.465052366 12120153.256583214 0 0 0 0 -17649818.217391968 5327615.1130495071 0 5327615.1130495071 37551146.735264897 0 0 0 0 -161918028.88871765 56735294.828608036 0 56735294.828608036 44439295.946053505 0 0 0 0 -108980665.21594238 55772535.811893821 0 55772535.811893821 289690.07918143272 0 0 0 0 -175302413.25601196 60328386.479832411 0 60328386.479832411 15657224.856048346 0 0 0 0 -110876101.770401 101427852.70129085 0 101427852.70129085 -94864830.430314064 0 0 0 0 -9032311.4783782959 95891646.587899923 0 95891646.587899923 -52591795.838652611 0 0 0 0 -8125546.3465881348 75856195.2517097 0 75856195.2517097 19696252.749121249 0 0 0 0 -119548330.05068207 78779315.486000925 0 78779315.486000925 48923876.032562733 0 0 0 0 1141050656.8638 174533521.12099552 0 174533521.12099552 -407788413.94091082 0 0 0 0 264412387.39930725 -540402167.5705936 0 -540402167.5705936 322877618.26976967 0 0 0 0 662301654.89558792 -28482040.674008608 0 -28482040.674008608 403260203.17691422 0 0 0 0 688495859.2540741 -227184167.49808276 0 -227184167.49808276 309884400.03694916 0 0 0 0 523982004.39864731 160992263.71055984 0 160992263.71055984 575477195.88622665 0 0 0 0 567906.77011713386 914133.05027060211 0 914133.05027060211 2894839.9299818771 0 0 0 0 249471579.81291962 -382136191.8031745 0 -382136191.8031745 223720966.24952698 0 0 0 0 -100804604.97357178 -404544897.39162636 0 -404544897.39162636 368484058.75323629 0 0 0 0 241126428.42024994 -372253177.69274068 0 -372253177.69274068 268703797.88946438 0 0 0 0 -106750658.45206451 -137946346.06879199 0 -137946346.06879199 -284057128.05220163 0 0 0 0 291049270.38368225 -466534820.52893746 0 -466534820.52893746 -135838730.66061306 0 0 0 0 -130300287.10565186 -342981438.35204339 0 -342981438.35204339 296778527.98741937 0 0 0 0 -507280972.73995972 -235336465.61937776 0 -235336465.61937776 80999231.28190282 0 0 0 0 419199.85260225832 592753.62143662572 0 592753.62143662572 1358876.5429387055 0 0 0 0 -70332837.933074951 -479937507.32830429 0 -479937507.32830429 205132142.59019852 0 0 0 0 1616494789.3040237 -194286975.85332501 0 -194286975.85332501 -54283952.342517853 0 0 0 0 -113626678.21255875 -370399547.02777892 0 -370399547.02777892 290271750.01074409 0 0 0 0 420653963.51174164 32227794.743761539 0 32227794.743761539 -253028166.80804634 0 0 0 0 25008289.659912109 -309021364.18934226 0 -309021364.18934226 403925187.64441919 0 0 0 0 404677049.85946655 97415908.767882347 0 97415908.767882347 -89530892.707706928 0 0 0 0 -155290806.58668518 125435563.34565187 0 125435563.34565187 35471481.08126545 0 0 0 0 901817649.24816895 -548292910.24487305 0 -548292910.24487305 219382506.55304074 0 0 0 0 385073327.81743622 -38983123.399415255 0 -38983123.399415255 172330515.35221624 0 0 0 0 530858393.48745728 -219972368.38433623 0 -219972368.38433623 167906329.54384807 0 0 0 0 798595146.53643799 -94995965.392221212 0 -94995965.392221212 55063098.750798225 0 0 0 0 867555790.84767151 -211241553.9736191 0 -211241553.9736191 -11027097.322291851 0 0 0 0 1149758644.4111214 -364959405.34903216 0 -364959405.34903216 84572307.166594028 0 0 0 0 1019185583.4357758 77667248.340118885 0 77667248.340118885 81285162.651829243 0 0 0 0 790274567.89692688 -84621450.8543818 0 -84621450.8543818 54578982.389638901 0 0 0 0 528798004.21374512 -53142817.715726614 0 -53142817.715726614 257627126.65844107 0 0 0 0 822684505.23920822 -73561264.01965946 0 -73561264.01965946 16338642.398245811 0 0 0 0 671063470.21008301 -94520629.072449207 0 -94520629.072449207 108342173.4001615 0 0 0 0 487901986.80056763 -51919853.33665669 0 -51919853.33665669 196550774.49838042 0 0 0 0 663225002.60759735 -8571510.5065694749 0 -8571510.5065694749 384318111.13357687 0 0 0 0 550187570.50286102 230396567.89689609 0 230396567.89689609 99296376.723016232 0 0 0 0 -6060943.9250106812 9966072.5420696437 0 9966072.5420696437 -4599660.801346302 0 0 0 0 4106069.8423791369 1170975.264338024 0 1170975.264338024 50211.179435699247 0 0 0 0 714094.42520417273 -204267.04381643981 0 -204267.04381643981 75108.725716863526 0 0 0 0 -42090086.784160137 -123940153.79389401 0 -123940153.79389401 -279320551.53894675 0 0 0 0 815277665.09703827 -201607327.03318691 0 -201607327.03318691 47509803.076743603 0 0 0 0 1323700.2252672967 354348.18192791194 0 354348.18192791194 3865156.6060057888 0 0 0 0 11267305.940374546 -2185618.3698117454 0 -2185618.3698117454 -1597427.8400649142 0 0 0 0 2855172.3777236938 -311087467.14155406 0 -311087467.14155406 -131985589.57257676 0 0 0 0 -3782796.914730072 19887226.47897777 0 19887226.47897777 -1699686.5663819313 0 0 0 0 -1585034.8040771484 17839253.439807773 0 17839253.439807773 -17261749.521559179 0 0 0 0 3657975.8244171143 10962265.069236577 0 10962265.069236577 -12308194.080023527 0 0 0 0 15293557.94367218 25662545.440376639 0 25662545.440376639 398694.88723826408 0 0 0 0 22866293.153812408 43108841.958675124 0 43108841.958675124 -51855579.180009127 0 0 0 0 509927770.31217957 113354358.38480955 0 113354358.38480955 -1143356545.7043133 0 0 0 0 15594287.049936615 -456985.32722440176 0 -456985.32722440176 -1971136.385400644 0 0 0 0 12787621.576263428 -6427822.7294672728 0 -6427822.7294672728 2357229.6556665301 0 0 0 0 7014085.7536468506 -5816866.7691632509 0 -5816866.7691632509 8747268.5651175976 0 0 0 0 9220380.442949295 151893.10419551283 0 151893.10419551283 -4194197.8377741575 0 0 0 0 14927590.85333252 -10337489.055171251 0 -10337489.055171251 6895699.214566946 0 0 0 0 8909197.7321777344 -9694896.8541249037 0 -9694896.8541249037 16203360.765078783 0 0 0 0 5862905.2653375864 3119729.2934961338 0 3119729.2934961338 17193456.216131687 0 0 0 0 -1116677.9848632812 5258462.0239629149 0 5258462.0239629149 28533744.168585062 0 0 0 0 -1939312.7523365021 11237758.499244422 0 11237758.499244422 4946992.0963468552 0 0 0 0 -7717847.2251663208 11872523.794203982 0 11872523.794203982 2047831.1244158745 0 0 0 0 -7086523.6492066383 4916961.6349343862 0 4916961.6349343862 480814.19984352589 0 0 0 0 -6113349.9697265625 9158758.2587550282 0 9158758.2587550282 4413417.5571744442 0 0 0 0 -7068091.1775970459 5685073.7697776556 0 5685073.7697776556 11687666.953251421 0 0 0 0 -26865907.13444519 8242080.5860406458 0 8242080.5860406458 5644941.233248055 0 0 0 0 650590662.06568146 61981909.421167076 0 61981909.421167076 -28405526.566360712 0 0 0 0 2504029.6581963403 1319513.9771370292 0 1319513.9771370292 182.89309147628956 0 0 0 0 754615979.25878906 -22982835.01030612 0 -22982835.01030612 -12992215.097004414 0 0 0 0 553836090.35367584 24751506.092026651 0 24751506.092026651 -13837127.538983166 0 0 0 0 544692759.45272064 -10021981.894535542 0 -10021981.894535542 -29672025.343358457 0 0 0 0 500381456.61433077 18926312.693660989 0 18926312.693660989 24889590.653333306 0 0 0 0 501075883.42083263 12686650.832528265 0 12686650.832528265 -35205598.69470422 0 0 0 0 504958134.65021515 46382223.381865449 0 46382223.381865449 14617.698300326272 0 0 0 0 -66817975.827394485 99339000.016204432 0 99339000.016204432 638414.92259982019 0 0 0 0 624828091.99931335 10553952.360768527 0 10553952.360768527 -35815836.301722944 0 0 0 0 1930754.3793867901 919230.15510401875 0 919230.15510401875 12776.828701469771 0 0 0 0 5879103.4978790283 9455711.3282521218 0 9455711.3282521218 -13726283.184501201 0 0 0 0 15851303.629966736 -7237104.6450642198 0 -7237104.6450642198 -1130404.4949056506 0 0 0 0 316348.09438861907 119226.29200422019 0 119226.29200422019 -109570.89318644232 0 0 0 0 7407463.8616333008 632884.9850652751 0 632884.9850652751 16385.65204857456 0 0 0 0 8309407.1533546448 -18063897.787063867 0 -18063897.787063867 2566793.9476832449 0 0 0 0 18527264.250068665 -14781456.879190415 0 -14781456.879190415 -2881843.4548036782 0 0 0 0 521644.98756977916 309316.11528950185 0 309316.11528950185 36535.706260091487 0 0 0 0 14423087.831809998 -10348550.551855952 0 -10348550.551855952 1454752.0787292309 0 0 0 0 39755082.4074893 -9857170.2076534182 0 -9857170.2076534182 -2670330.0216381792 0 0 0 0 -45429870.321186066 -9775351.5891952682 0 -9775351.5891952682 24594036.803912662 0 0 0 0 97230056.084594727 14828798.480838418 0 14828798.480838418 39533422.464211941 0 0 0 0 17811176.980903625 -49281300.191718578 0 -49281300.191718578 45794088.81460835 0 0 0 0 -179327368.99072647 31687177.319397099 0 31687177.319397099 56731161.14632237 0 0 0 0 -26704543.545173645 -18020435.689676464 0 -18020435.689676464 16699711.82382226 0 0 0 0 -132212458.0182724 15101503.925986171 0 15101503.925986171 24776726.705224276 0 0 0 0 -119651297.39775085 41664387.640655935 0 41664387.640655935 63011453.41515398 0 0 0 0 -25375211.49165535 -7878333.6564258412 0 -7878333.6564258412 81881957.463995934 0 0 0 0 97798270.859054565 -15791048.19177556 0 -15791048.19177556 41248717.67263186 0 0 0 0 -8243129.3761901855 26596497.676076889 0 26596497.676076889 81438529.284927845 0 0 0 0 218217642.90646362 -58396972.053417861 0 -58396972.053417861 37579421.893103689 0 0 0 0 148149162.04284668 14339847.429986119 0 14339847.429986119 72759648.449435711 0 0 0 0 91946810.79006958 -27834379.099115267 0 -27834379.099115267 100240558.0681541 0 0 0 0 478918374.39595032 -105598621.10125193 0 -105598621.10125193 41433751.086690158 0 0 0 0 415710138.17901611 38961757.317456208 0 38961757.317456208 15376817.411749288 0 0 0 0 252820707.81958008 -6492457.169829607 0 -6492457.169829607 35005300.164148033 0 0 0 0 361130481.64955139 -58697665.911718771 0 -58697665.911718771 -8927504.4124227129 0 0 0 0 193108360.82545471 43118599.981213428 0 43118599.981213428 16067412.204742931 0 0 0 0 376434043.43723297 -35125991.293898791 0 -35125991.293898791 5147428.1860312996 0 0 0 0 318642983.62829018 49269306.16715841 0 49269306.16715841 -4819.9115344668026 0 0 0 0 99762652.163368225 -56026589.739693984 0 -56026589.739693984 8175177.8610628843 0 0 0 0 34351029.640806198 54373798.497111537 0 54373798.497111537 -105445.06757993378 0 0 0 0 -15391301.894989014 18839284.373574924 0 18839284.373574924 -12061843.187592059 0 0 0 0 -255214727.84024048 -59859527.001543202 0 -59859527.001543202 26530281.278029695 0 0 0 0 12665468.82800293 12892551.917561606 0 12892551.917561606 26089.041003594284 0 0 0 0 17919769.873954773 15546853.096865622 0 15546853.096865622 -14151349.734693237 0 0 0 0 363647.85714271292 621833.93911811709 0 621833.93911811709 93765.281199513644 0 0 0 0 21724707.724655151 5331148.7300509047 0 5331148.7300509047 -3852566.8816059195 0 0 0 0 20699804.567222595 8465539.7777587194 0 8465539.7777587194 -7136739.6394472253 0 0 0 0 20596340.167210817 6378039.7327411128 0 6378039.7327411128 -2387719.0694145001 0 0 0 0 21852234.047302246 6016350.9343303256 0 6016350.9343303256 -3072941.4786391673 0 0 0 0 20322721.911697388 5891622.1515037194 0 5891622.1515037194 -3194390.0976478159 0 0 0 0 20649023.032043457 6756391.1478716526 0 6756391.1478716526 -1213506.5007613897 0 0 0 0 17461999.280380249 6526108.7421663925 0 6526108.7421663925 -406396.86328434199 0 0 0 0 21374398.762546539 5508736.4123821333 0 5508736.4123821333 -2384976.6008545123 0 0 0 0 179483.4751303168 190252.97177563608 0 190252.97177563608 11254.674472728355 0 0 0 0 15286890.550662994 -3432512.0946578495 0 -3432512.0946578495 18811825.011980355 0 0 0 0 21998394.574531555 4919190.0007525031 0 4919190.0007525031 -3249258.5630541667 0 0 0 0 21238578.51411438 4545185.6101163179 0 4545185.6101163179 -1275752.7859456614 0 0 0 0 18503643.274597168 4017871.7961402405 0 4017871.7961402405 -950175.47011823952 0 0 0 0 8192475.1017913818 4405599.4689719919 0 4405599.4689719919 2945542.6623689141 0 0 0 0 -247931267.89250946 -52540475.662662178 0 -52540475.662662178 30455014.484583259 0 0 0 0 807392.77444426715 1191320.6572545692 0 1191320.6572545692 -267663.70489423571 0 0 0 0 550436.75543443486 866552.37325824052 0 866552.37325824052 79406.024220561027 0 0 0 0 17250770.824241638 7132471.3166061714 0 7132471.3166061714 -9718582.321282953 0 0 0 0 28415881.48374176 5579739.2269798117 0 5579739.2269798117 -3246157.5790554769 0 0 0 0 24110568.826400757 10012471.59700137 0 10012471.59700137 -1583156.0903461576 0 0 0 0 14525285.736877441 10645436.822569536 0 10645436.822569536 2053954.6782169826 0 0 0 0 1257063.0671488494 416393.59092277661 0 416393.59092277661 -1256127.4526626989 0 0 0 0 33210421.746025085 -6233358.8896718845 0 -6233358.8896718845 -3021033.0515909418 0 0 0 0 2615399.9589080811 4894412.3640476745 0 4894412.3640476745 -283150.77638198715 0 0 0 0 1002460.0065219868 2643486.8044857308 0 2643486.8044857308 381197.58245412284 0 0 0 0 -167823778.43389893 42398253.019175887 0 42398253.019175887 21111764.018283337 0 0 0 0 -196646923.09427452 26333008.725682527 0 26333008.725682527 22604883.749559402 0 0 0 0 1619840.8036082238 915804.68993800879 0 915804.68993800879 -1008646.7682511314 0 0 0 0 17292472.801742554 9002432.0352058113 0 9002432.0352058113 1291270.7740297318 0 0 0 0 19356530.424003601 3134994.2210062407 0 3134994.2210062407 511063.68538574874 0 0 0 0 33079177.382209778 3027391.6447620168 0 3027391.6447620168 -2266263.1951902732 0 0 0 0 24879980.970359802 6834901.4780965429 0 6834901.4780965429 2469346.157117635 0 0 0 0 26018781.550125122 192280.29147668369 0 192280.29147668369 1028397.1968055554 0 0 0 0 24518168.217735291 2337855.8135194741 0 2337855.8135194741 4977788.2397206733 0 0 0 0 35715.010312885046 13814.601413555443 0 13814.601413555443 -13556.747823082136 0 0 0 0 20821890.068744659 12275850.538013842 0 12275850.538013842 7655167.3107269444 0 0 0 0 12729888.259357452 -8454114.4029531144 0 -8454114.4029531144 -13592159.718042023 0 0 0 0 22252143.915100098 4378625.6148927649 0 4378625.6148927649 -2687922.0344180483 0 0 0 0 22562731.086669922 2859964.9559221594 0 2859964.9559221594 -4044750.7806730033 0 0 0 0 16738469.624702454 1428539.5220336146 0 1428539.5220336146 -2940687.8256206363 0 0 0 0 20651848.667037964 4900960.7130527226 0 4900960.7130527226 -18283.442814989034 0 0 0 0 13318100.201980591 2373499.9100528546 0 2373499.9100528546 12313.602969050948 0 0 0 0 11627944.609275818 931871.86109654582 0 931871.86109654582 47248.06033274997 0 0 0 0 15046.52720156312 10082.616634687409 0 10082.616634687409 -3289.1284837319413 0 0 0 0 3251870.362197876 4850190.465563938 0 4850190.465563938 6420080.1942129713 0 0 0 0 -604089.64050292969 -854722.1643606053 0 -854722.1643606053 -3397.227184704243 0 0 0 0 603210.59355163574 1209242.9860680294 0 1209242.9860680294 4150566.5957919718 0 0 0 0 3568859.0493164062 3716704.0763301989 0 3716704.0763301989 -316390.55657571089 0 0 0 0 1989660.8453598022 336596.89942120202 0 336596.89942120202 -2995239.0008567348 0 0 0 0 3966720.5425109863 -1535205.7913377108 0 -1535205.7913377108 -525738.21748359129 0 0 0 0 191516.08023834229 374201.76718244608 0 374201.76718244608 -1458655.898776941 0 0 0 0 14214725.186481476 9347518.1901734937 0 9347518.1901734937 630413.03567667492 0 0 0 0 -48490.383708953857 -1008760.1637354393 0 -1008760.1637354393 -2242590.5911674323 0 0 0 0 1349605.4748325348 2349632.1234016707 0 2349632.1234016707 -36285.565832382999 0 0 0 0 837269.43685913086 -2531891.7324785893 0 -2531891.7324785893 5968.5485791242481 0 0 0 0 29213.164628773928 8496.5792893134058 0 8496.5792893134058 -7383.7297262634083 0 0 0 0 -28370.141569137573 2674716.7708369368 0 2674716.7708369368 27634.647805858869 0 0 0 0 699192.70817565918 468484.53465354303 0 468484.53465354303 -3183335.0684991283 0 0 0 0 21467.692806392908 6673.5800864677876 0 6673.5800864677876 -7111.9470824465698 0 0 0 0 2830717.0316772461 1200733.1917395047 0 1200733.1917395047 -6786472.274238565 0 0 0 0 23141765.68812561 9131425.8986224793 0 9131425.8986224793 252703.66646288405 0 0 0 0 858160.15910339355 1202057.9723260938 0 1202057.9723260938 -4176090.5791047085 0 0 0 0 634357.01535797119 1094951.9121259451 0 1094951.9121259451 -4270930.0972643262 0 0 0 0 -1469866.7478141785 1054060.0580032221 0 1054060.0580032221 -3980519.6310757343 0 0 0 0 1327506.395942688 1609863.6573681934 0 1609863.6573681934 -4181174.0052553201 0 0 0 0 57554.714416503906 1000957.1260626875 0 1000957.1260626875 -939961.67288006097 0 0 0 0 250987.55559630692 295342.86165526882 0 295342.86165526882 -234186.74208591643 0 0 0 0 750801.94779205322 865960.83681032702 0 865960.83681032702 -4860890.289031771 0 0 0 0 15511989.446174622 -38195078.710473016 0 -38195078.710473016 -73092.581804096699 0 0 0 0 22221587.536575317 -2620567.9584434628 0 -2620567.9584434628 -883517.21118709445 0 0 0 0 4283.8633897900581 -104647.18008192815 0 -104647.18008192815 131773.06860007838 0 0 0 0 62294378.201721191 1976587.7423191145 0 1976587.7423191145 -768509.81722098589 0 0 0 0 363607.16264853626 -4814.0855423957109 0 -4814.0855423957109 77906.498381305399 0 0 0 0 1747872.9625244141 -1755509.6311206883 0 -1755509.6311206883 -11098390.738667233 0 0 0 0 101658.42630293965 78742.391312360764 0 78742.391312360764 -66107.439671701213 0 0 0 0 3025184.6059646606 3330227.7912410195 0 3330227.7912410195 -6381195.0314803291 0 0 0 0 157321.13388061523 639912.605377011 0 639912.605377011 34537.494260519743 0 0 0 0 1367008.5462188721 2760187.9268875271 0 2760187.9268875271 2466260.3726293631 0 0 0 0 3713195.3383483887 1877352.5628153086 0 1877352.5628153086 1240166.5383958444 0 0 0 0 3760047.9073791504 1626347.9301204141 0 1626347.9301204141 2175861.6036779284 0 0 0 0 7277423.6338043213 6070473.445020467 0 6070473.445020467 3843798.2885799631 0 0 0 0 6251579.4102630615 6252443.7783198953 0 6252443.7783198953 5831884.8530111536 0 0 0 0 10276157.979240417 3956807.5403016005 0 3956807.5403016005 -326389.71460300684 0 0 0 0 8806439.3330841064 3487496.5088360161 0 3487496.5088360161 -1837762.6942017972 0 0 0 0 11449210.361045837 6008113.0522556454 0 6008113.0522556454 -446415.63427950442 0 0 0 0 8759435.137588501 3844865.9255849048 0 3844865.9255849048 -2939938.7624824494 0 0 0 0 5326945.677520752 2433781.507273661 0 2433781.507273661 -903043.76475524902 0 0 0 0 3759430.3476371765 1716705.8908039387 0 1716705.8908039387 -3448676.4741348922 0 0 0 0 -431055.23350524902 1822495.307562001 0 1822495.307562001 862491.58607258648 0 0 0 0 5212646.5561065674 4404927.3680225909 0 4404927.3680225909 547250.46045073122 0 0 0 0 -29411565.316101074 16362738.715426981 0 16362738.715426981 9225159.1181659698 0 0 0 0 4885399.5514192581 4337182.1133623682 0 4337182.1133623682 -2037594.1451167017 0 0 0 0 2920631.1774449944 -878658.30468183383 0 -878658.30468183383 14802.358247666416 0 0 0 0 4650303.0369663239 607004.31493024249 0 607004.31493024249 -5683570.5862547755 0 0 0 0 362651.71675156057 421587.11719483137 0 421587.11719483137 -294177.23327982711 0 0 0 0 6083771.6837463379 6713001.2640135884 0 6713001.2640135884 -3175941.6167667806 0 0 0 0 8053875.1846313477 2801680.4157481343 0 2801680.4157481343 -3902077.9813395143 0 0 0 0 10877002.123413086 3955312.6317646801 0 3955312.6317646801 -6343218.5282646418 0 0 0 0 12413818.315979004 3710881.3117861375 0 3710881.3117861375 -4491367.6259556413 0 0 0 0 10764477.077529907 4150734.2597906291 0 4150734.2597906291 -3865198.2721680701 0 0 0 0 10307537.491485596 4901761.995066151 0 4901761.995066151 -2537382.9343843162 0 0 0 0 7082601.8296661377 4336557.4779401571 0 4336557.4779401571 -2245152.3761485517 0 0 0 0 -6537483.7124557495 -21763914.833040416 0 -21763914.833040416 15617912.672997415 0 0 0 0 41824959.984672546 -33607982.874634467 0 -33607982.874634467 -793612.12335789204 0 0 0 0 20285215.339759827 -10155560.595454216 0 -10155560.595454216 15646812.583618581 0 0 0 0 1487403.5849623308 -460524.19903979078 0 -460524.19903979078 342161.4610062362 0 0 0 0 -397126.08714294434 1848344.883566156 0 1848344.883566156 -393485.52688674629 0 0 0 0 8267971.1729354858 34712665.519681722 0 34712665.519681722 -12428778.490305424 0 0 0 0 86827283.492866516 -12840336.828634575 0 -12840336.828634575 -29128485.419510998 0 0 0 0 -27331042.595838547 29540689.297685392 0 29540689.297685392 61369824.809304655 0 0 0 0 -30952759.847854614 -29228403.261918381 0 -29228403.261918381 60049252.956922196 0 0 0 0 63203836.307312012 -63481033.530758977 0 -63481033.530758977 36660252.947396636 0 0 0 0 -6200464.0948638916 5389350.4780658185 0 5389350.4780658185 23895100.15095067 0 0 0 0 123898.88694234937 194237.61954167113 0 194237.61954167113 201778.74544515045 0 0 0 0 11133136.742980957 -11895089.448722959 0 -11895089.448722959 -9396566.7835431099 0 0 0 0 12256697.094116211 37910102.844240412 0 37910102.844240412 7001337.5300423 0 0 0 0 14230211.950656891 13864881.720518146 0 13864881.720518146 -61147381.389616683 0 0 0 0 437437.94080330431 -1277421.6329886336 0 -1277421.6329886336 -138183.06948272191 0 0 0 0 3479189.5356292725 -443374.4760439992 0 -443374.4760439992 -7518249.9903091788 0 0 0 0 5776660.4225447476 -2856061.5468330998 0 -2856061.5468330998 -860625.6304585404 0 0 0 0 4752580.6065605581 306270.38769811019 0 306270.38769811019 -1014636.2360579141 0 0 0 0 72769179.126716614 -47184299.669648334 0 -47184299.669648334 -70768189.798344418 0 0 0 0 3409449.5102233887 -23760579.95115304 0 -23760579.95115304 46889521.487561166 0 0 0 0 7231682.274313122 -2711367.7152836211 0 -2711367.7152836211 84398.698643276002 0 0 0 0 -6197672.7333450317 -17615943.050610542 0 -17615943.050610542 101104476.21151209 0 0 0 0 10285361.801605225 -21041273.510391176 0 -21041273.510391176 37276204.34023428 0 0 0 0 9671873.1457824707 4463173.9246824831 0 4463173.9246824831 -3444311.8928855788 0 0 0 0 3992514.0135059357 -544546.024586685 0 -544546.024586685 -4781351.1316398382 0 0 0 0 7737305.3586470038 -306838.97704840451 0 -306838.97704840451 -751053.99757792719 0 0 0 0 10736374.209213257 4654586.3510852754 0 4654586.3510852754 -3501024.0833410323 0 0 0 0 11713156.480453491 4918458.7421806455 0 4918458.7421806455 -4741855.7181839943 0 0 0 0 2490670.013885498 867283.31503856182 0 867283.31503856182 -3180098.0326443613 0 0 0 0 4322284.2403153628 -838488.53706679493 0 -838488.53706679493 -223829.71696450873 0 0 0 0 -28426010.615280151 -34845693.548642531 0 -34845693.548642531 -20229847.003712811 0 0 0 0 16033899.68787384 -18831027.32980454 0 -18831027.32980454 14513303.576375961 0 0 0 0 17844918.136009216 -17495879.56835866 0 -17495879.56835866 11068911.798864901 0 0 0 0 5736000.8154406101 -406399.41258141957 0 -406399.41258141957 -1570546.1676317416 0 0 0 0 7302373.1924133301 -2373353.3122760057 0 -2373353.3122760057 -7453514.1815912724 0 0 0 0 8237271.4223833531 1343246.191965255 0 1343246.191965255 -2928077.0240641949 0 0 0 0 8615747.4424573407 -2287251.7436116748 0 -2287251.7436116748 -3223241.5565255359 0 0 0 0 13734635.516418457 2271418.4852663875 0 2271418.4852663875 -4142495.3477428555 0 0 0 0 14749239.392211914 2396602.2228066698 0 2396602.2228066698 -3882610.5252315551 0 0 0 0 10485683.159358978 2805819.5993206371 0 2805819.5993206371 -3699912.476391688 0 0 0 0 11832817.132369995 3572510.8158557117 0 3572510.8158557117 -4063064.7412931919 0 0 0 0 17056609.503829956 -252627.24465887249 0 -252627.24465887249 -4336629.1305866241 0 0 0 0 15728801.813545227 2620863.2104909495 0 2620863.2104909495 -4705335.4058317989 0 0 0 0 10044007.60130015 -919327.01629802585 0 -919327.01629802585 -4058634.4307598802 0 0 0 0 13926500.814349413 -828174.64275496267 0 -828174.64275496267 -2822388.026022017 0 0 0 0 10348212.305908203 -566712.77523040771 0 -566712.77523040771 -13827314.672859192 0 0 0 0 3405234.4469299316 1105282.5562102199 0 1105282.5562102199 -3198303.3500351906 0 0 0 0 6373249.0951690674 3626097.973390162 0 3626097.973390162 -8983630.5435643196 0 0 0 0 -1006033.6942138672 201826.96083021164 0 201826.96083021164 -13718451.43760848 0 0 0 0 3774662.9007263184 -2839346.2347450256 0 -2839346.2347450256 -2395171.3268643618 0 0 0 0 3991030.0322265625 -3136572.1252744198 0 -3136572.1252744198 -658033.33737009764 0 0 0 0 42785251.808349609 15015235.454844952 0 15015235.454844952 -25963431.210556984 0 0 0 0 7249593.6800142825 2342148.6377125122 0 2342148.6377125122 -4259661.0394878974 0 0 0 0 -35339.302440054715 269045.6625052176 0 269045.6625052176 -190722.36512184708 0 0 0 0 17290111.656620923 1101887.7273537852 0 1101887.7273537852 -3194283.0974307475 0 0 0 0 25319000.694725037 -10035594.334045649 0 -10035594.334045649 -6239664.9931221008 0 0 0 0 23101392.977115601 5189470.2563186176 0 5189470.2563186176 -6172590.2429248216 0 0 0 0 20417381.160827637 -6045303.3605918884 0 -6045303.3605918884 -4709212.434431076 0 0 0 0 20021405.468322754 -10350557.755851746 0 -10350557.755851746 -5748664.177734375 0 0 0 0 11543430.59167558 -6362645.3353422228 0 -6362645.3353422228 -3768745.2042199825 0 0 0 0 906447.09816607833 5883.4786965623498 0 5883.4786965623498 -639422.22834933549 0 0 0 0 26455908.798126221 19640998.372407913 0 19640998.372407913 -21181225.584745407 0 0 0 0 17484615.782775879 26579894.337203979 0 26579894.337203979 -85094836.124710083 0 0 0 0 23411313.473308362 1840422.6108754161 0 1840422.6108754161 -4748877.3064086754 0 0 0 0 -11150774.380157471 50675912.143505096 0 50675912.143505096 -65216051.372860432 0 0 0 0 23865740.552246094 7025526.6701564789 0 7025526.6701564789 -61646576.271104813 0 0 0 0 13441427.339935303 -18596754.756715775 0 -18596754.756715775 -43869501.175582886 0 0 0 0 10553250.504043579 24037635.195871353 0 24037635.195871353 -49642645.37115097 0 0 0 0 19859595.343566895 8975257.6135196686 0 8975257.6135196686 -27133766.144971848 0 0 0 0 7199734.8525390625 16923276.228542328 0 16923276.228542328 -17287160.53719902 0 0 0 0 5430878.5599365234 19439517.629138947 0 19439517.629138947 -19355171.545438766 0 0 0 0 3509940.2772064209 17125667.173975468 0 17125667.173975468 -14651787.376873016 0 0 0 0 -370918.20275878906 24305873.82554245 0 24305873.82554245 -27705527.34539628 0 0 0 0 2713366.1212463379 21960400.793887615 0 21960400.793887615 -27301100.912508011 0 0 0 0 17200276.245162964 18491977.160132408 0 18491977.160132408 -6607922.0949459076 0 0 0 0 -795639.94839269668 759795.87902717292 0 759795.87902717292 126574.54862078186 0 0 0 0 -30674719.304646492 34343928.094341606 0 34343928.094341606 -7285819.6238746643 0 0 0 0 -11675645.25567627 18588636.540153503 0 18588636.540153503 5474714.4484181404 0 0 0 0 -7749591.7602157593 27330396.585064411 0 27330396.585064411 -3857226.7419128418 0 0 0 0 4772440.9983520508 14942426.78395462 0 14942426.78395462 -13090762.845509529 0 0 0 0 -4583654.8152160645 23313326.691429138 0 23313326.691429138 904573.0904045105 0 0 0 0 3498713.4488754272 25971472.573220491 0 25971472.573220491 953129.05828857422 0 0 0 0 552743.71878051758 16914522.446297646 0 16914522.446297646 769606.59730625153 0 0 0 0 -3395315.8492279053 14456126.08027935 0 14456126.08027935 258219.5492401123 0 0 0 0 -7129169.9775085449 16431872.5567379 0 16431872.5567379 5144529.0635279417 0 0 0 0 -16997255.289875031 11050958.386328459 0 11050958.386328459 5508074.9378452301 0 0 0 0 44822707.805560112 2464498.8425846398 0 2464498.8425846398 1509282.923078537 0 0 0 0 45993970.578811646 16112767.077929974 0 16112767.077929974 35583.071105957031 0 0 0 0 -11816224.479194641 32255554.322903633 0 32255554.322903633 7724500.1705411673 0 0 0 0 7787556.5393769611 -388278.05699139833 0 -388278.05699139833 -2030187.4822579757 0 0 0 0 4798859.3778739348 2919558.4067297876 0 2919558.4067297876 -2803774.4456875953 0 0 0 0 17865361.630111694 33402.593372840434 0 33402.593372840434 -4712482.710383296 0 0 0 0 24154289.837234497 -6057440.4252915382 0 -6057440.4252915382 -3871201.0225257874 0 0 0 0 -29880845.062271118 -3567734.7114014626 0 -3567734.7114014626 21352733.716835022 0 0 0 0 32925215.23223114 11506618.473057985 0 11506618.473057985 -49151.040262699127 0 0 0 0 5730628.7000319399 -892564.34615240991 0 -892564.34615240991 -2823073.4245170439 0 0 0 0 19602692.552024841 -523298.54258121923 0 -523298.54258121923 -4810256.2652186155 0 0 0 0 14866805.314971924 -3931700.1111452505 0 -3931700.1111452505 -2551235.7274423465 0 0 0 0 -5985742.3673706055 10816155.817662239 0 10816155.817662239 -8017689.8558034897 0 0 0 0 -341504.24283219874 2924642.4619852602 0 2924642.4619852602 755637.00196106825 0 0 0 0 -4517082.1343841553 7327632.2527222633 0 7327632.2527222633 -1398809.0596923828 0 0 0 0 -5244943.5166625977 14818657.50897646 0 14818657.50897646 -2797441.2083628178 0 0 0 0 10998311.885955811 5612643.4088754654 0 5612643.4088754654 -3179396.0093345642 0 0 0 0 -5912726.0663146973 11490371.760577202 0 11490371.760577202 -9336053.4452781677 0 0 0 0 -12234382.397583008 6050413.9844903946 0 6050413.9844903946 7196151.2326068878 0 0 0 0 2337181.1148896748 5204939.7637476325 0 5204939.7637476325 -1606162.4736818094 0 0 0 0 488717.12132911384 -334287.65967527777 0 -334287.65967527777 -267829.57991362456 0 0 0 0 -180797066.98194885 97858779.615048066 0 97858779.615048066 -11968798.429009676 0 0 0 0 3991570.1011886597 1796086.0079693794 0 1796086.0079693794 175777.36656188965 0 0 0 0 32832282.814308167 5206131.4553647041 0 5206131.4553647041 806039.77852249146 0 0 0 0 1376417.1811383441 4562528.4913997687 0 4562528.4913997687 -2973426.7704006112 0 0 0 0 -162401117.41822815 44670535.536002874 0 44670535.536002874 -26800901.201337099 0 0 0 0 22528162.817092896 -6431557.9719086438 0 -6431557.9719086438 -2302166.1846116483 0 0 0 0 24963511.589380264 1121581.9323799163 0 1121581.9323799163 -4638411.7456039786 0 0 0 0 21905249.600219727 1399963.4275355041 0 1399963.4275355041 -2316614.7978232354 0 0 0 0 21920791.089727283 4998662.4203945016 0 4998662.4203945016 -2781614.9977152199 0 0 0 0 16081657.935546875 3769083.322324641 0 3769083.322324641 -3643952.2145330161 0 0 0 0 15915246.596954346 3498132.8933714032 0 3498132.8933714032 -2880913.2660933062 0 0 0 0 12568204.225189209 4168643.5778021961 0 4168643.5778021961 -3343390.8059513271 0 0 0 0 15930406.364961624 3465104.8771750769 0 3465104.8771750769 -4664120.9472358823 0 0 0 0 15728844.701510429 2268992.9077292187 0 2268992.9077292187 -4361686.2641813308 0 0 0 0 18548029.915664673 22221.724564984441 0 22221.724564984441 -4781263.0332445577 0 0 0 0 20060835.890563965 2754034.5271282345 0 2754034.5271282345 -4678687.299839586 0 0 0 0 1773626088.2720451 140179911.61970294 0 140179911.61970294 -328457027.64993054 0 0 0 0 2201957144.6192999 1010002230.9363807 0 1010002230.9363807 -67243980.995813817 0 0 0 0 1471606348.2776051 762852846.35803652 0 762852846.35803652 -238971518.3117162 0 0 0 0 5007723.6574888825 723318.7461078614 0 723318.7461078614 -1850837.5444952431 0 0 0 0 1384689651.4101295 148566444.4879072 0 148566444.4879072 1402589.6096372833 0 0 0 0 1369213135.6305542 245773586.62320811 0 245773586.62320811 -208056854.54676047 0 0 0 0 1773353892.3808212 46920720.632618457 0 46920720.632618457 -152690741.19158244 0 0 0 0 3638312.4483422935 818675.15349430963 0 818675.15349430963 -736935.15325297706 0 0 0 0 1945300087.636138 -528601298.94728386 0 -528601298.94728386 4730466.0329316258 0 0 0 0 1268507602.6982422 -355438535.29607153 0 -355438535.29607153 19215850.028111041 0 0 0 0 1247840530.7375984 -213919438.20120013 0 -213919438.20120013 -149291586.1671102 0 0 0 0 2261468.462080963 283016.02966817096 0 283016.02966817096 -838374.39313171664 0 0 0 0 921204942.45027924 -370638410.26303381 0 -370638410.26303381 -719704803.56223238 0 0 0 0 788700128.70033264 366130377.95732403 0 366130377.95732403 185637761.44828814 0 0 0 0 1591369816.7009506 1138568966.1944141 0 1138568966.1944141 426558911.88177681 0 0 0 0 779695257.41749573 12415910.461246729 0 12415910.461246729 -142560198.65298 0 0 0 0 236601002.54714966 -540678931.30607307 0 -540678931.30607307 -195129138.70078611 0 0 0 0 350817834.2931633 -223723774.11131936 0 -223723774.11131936 -69682798.718725204 0 0 0 0 3050385.9165768623 3011831.7631984688 0 3011831.7631984688 1679037.0384532646 0 0 0 0 -17531375.320529938 166408581.18804371 0 166408581.18804371 185987827.8716011 0 0 0 0 -13864955.445846558 12791895.921187794 0 12791895.921187794 15388682.618271001 0 0 0 0 25426645.770690918 -11068852.382884674 0 -11068852.382884674 -12232427.564667553 0 0 0 0 684734845.21906281 -90993547.466770738 0 -90993547.466770738 19500586.188039482 0 0 0 0 673456878.79184723 -16398222.040886402 0 -16398222.040886402 -62964865.167988211 0 0 0 0 4023090.1934905574 2361301.4837535657 0 2361301.4837535657 637110.91208800557 0 0 0 0 -5041574.4398117065 6627835.4888046356 0 6627835.4888046356 -4578.8100575894841 0 0 0 0 11330139.175430298 7494751.7423254605 0 7494751.7423254605 2831.0826341900683 0 0 0 0 1731608.3880386353 -835217.83156682132 0 -835217.83156682132 -1688892.3822862525 0 0 0 0 10880478.58152771 5808504.3017088128 0 5808504.3017088128 -6230043.3409082498 0 0 0 0 10854673.312768459 5628757.2388065234 0 5628757.2388065234 730880.62062633783 0 0 0 0 34630659.085784912 53651.697333726101 0 53651.697333726101 -9264836.6502493378 0 0 0 0 24019921.856117249 -5641472.3287145765 0 -5641472.3287145765 -3580617.3890863005 0 0 0 0 22761340.42792511 3552255.0339043671 0 3552255.0339043671 -4972034.0354144555 0 0 0 0 844321.64049506746 110541.91825217009 0 110541.91825217009 32457.486885587539 0 0 0 0 24886899.898025513 -3677279.4172924347 0 -3677279.4172924347 -9961.979999181176 0 0 0 0 18560207.370834351 255793.8891788912 0 255793.8891788912 -2402569.2379767778 0 0 0 0 36610079.727798462 1470502.8743617181 0 1470502.8743617181 -5338592.779386268 0 0 0 0 32241791.409393311 -36942.108240887523 0 -36942.108240887523 -3258038.3504052078 0 0 0 0 28731801.380554199 -7104352.2736147232 0 -7104352.2736147232 -5506260.666292103 0 0 0 0 32742894.406295776 721115.51097105071 0 721115.51097105071 5172217.6624537483 0 0 0 0 68129785.919464111 -23084922.635902897 0 -23084922.635902897 21144428.89491063 0 0 0 0 40544910.123443604 14920873.747226892 0 14920873.747226892 -6205396.5210201005 0 0 0 0 -549105.53475284576 9487425.8946673721 0 9487425.8946673721 -6741692.9230604749 0 0 0 0 126525.97898799181 1773.4366737231612 0 1773.4366737231612 20734.937947810573 0 0 0 0 38272163.953887939 -13481270.590058535 0 -13481270.590058535 2540123.5827312805 0 0 0 0 60498407.410934448 -28606925.403379172 0 -28606925.403379172 3556626.077983737 0 0 0 0 44704070.386123657 15228134.448575268 0 15228134.448575268 7222989.3032101728 0 0 0 0 7897038.123008728 5126573.9738465995 0 5126573.9738465995 4315814.6325039715 0 0 0 0 1201213.5650076987 262303.15087562054 0 262303.15087562054 60617.28005286814 0 0 0 0 1749041.5849533081 231996.0756358169 0 231996.0756358169 18707976.195297934 0 0 0 0 505726.87217105925 -56832.453198496252 0 -56832.453198496252 -316842.52810273954 0 0 0 0 30218453.639842987 -13502850.879638795 0 -13502850.879638795 717687.88225331903 0 0 0 0 3618583.41381073 5977337.0848118216 0 5977337.0848118216 -3489835.1490586475 0 0 0 0 2666911.1135030715 296957.11676387489 0 296957.11676387489 -822520.60443748254 0 0 0 0 1975688.1344299316 3265856.5475745797 0 3265856.5475745797 -1497187.5033885241 0 0 0 0 824166.51801422983 1042625.2966848537 0 1042625.2966848537 617510.57688650209 0 0 0 0 14167854.866062164 -28612068.008959804 0 -28612068.008959804 7130105.1249234974 0 0 0 0 17575118.800010681 5007768.723579213 0 5007768.723579213 -6276943.7081665769 0 0 0 0 35966464.271759033 -46677115.128309585 0 -46677115.128309585 4450063.6970053352 0 0 0 0 7103981.6756286621 -2838825.182352066 0 -2838825.182352066 -1678300.7685032487 0 0 0 0 -733249.36000061035 7570876.0465003848 0 7570876.0465003848 -2726984.7544285059 0 0 0 0 64288710.651306152 -8029586.0753756166 0 -8029586.0753756166 14205969.633224249 0 0 0 0 460998.41949991137 615448.87337652221 0 615448.87337652221 489170.7275177454 0 0 0 0 -882316.19001758099 -1903130.4451776124 0 -1903130.4451776124 1146623.7410101891 0 0 0 0 -375911.25173544884 -84512.116227868944 0 -84512.116227868944 380218.46601677081 0 0 0 0 2360501.638644916 1498843.5396393016 0 1498843.5396393016 719228.27523779473 0 0 0 0 -431380.61563920975 1004196.9450558983 0 1004196.9450558983 3599972.5613182783 0 0 0 0 8370479.6623382568 5537829.3349866569 0 5537829.3349866569 -3928067.3637798354 0 0 0 0 -6175981.2609670162 5004354.8831121 0 5004354.8831121 11243567.590332687 0 0 0 0 14060167.559324265 12684605.327453561 0 12684605.327453561 -8937819.3140901513 0 0 0 0 6947094.6640472412 6572079.3406856628 0 6572079.3406856628 -178733.42006347002 0 0 0 0 7561070.1680297852 1611596.5279875961 0 1611596.5279875961 6750560.8257090952 0 0 0 0 6413239.7669525146 -5550035.6397090852 0 -5550035.6397090852 -17165633.195584685 0 0 0 0 8474904.018655777 1193619.8125028871 0 1193619.8125028871 -7059961.1570027471 0 0 0 0 5588052.7590726614 -2403097.5819314383 0 -2403097.5819314383 287452.24027330487 0 0 0 0 -13680760.817901611 -35168808.687098503 0 -35168808.687098503 287208147.97012413 0 0 0 0 634687.66100776196 242153.47029480524 0 242153.47029480524 -195819.08004453557 0 0 0 0 104374582.29838943 -307833075.2375766 0 -307833075.2375766 978863196.28458595 0 0 0 0 174894.03380307276 -67893.702563941479 0 -67893.702563941479 71079.311291007092 0 0 0 0 5794679.0569458008 1526327.3649594486 0 1526327.3649594486 -4502895.2399649173 0 0 0 0 1599564.1216317583 797734.94076402485 0 797734.94076402485 -432822.66690947907 0 0 0 0 241716005.80627441 -83563763.413479745 0 -83563763.413479745 -9177844.0685454607 0 0 0 0 238396916.69500923 -103693689.44063285 0 -103693689.44063285 48438703.673960209 0 0 0 0 138951331.26034546 -130954094.77367747 0 -130954094.77367747 98923292.586337566 0 0 0 0 141171571.24676514 -105381768.09840965 0 -105381768.09840965 391139216.91556668 0 0 0 0 713317854.00497437 -151638971.11143875 0 -151638971.11143875 -122211345.8904953 0 0 0 0 -19920436.668144226 -12645035.393029571 0 -12645035.393029571 109152742.68736455 0 0 0 0 239391607.9420929 -62481196.412196293 0 -62481196.412196293 92812154.925730109 0 0 0 0 252451050.30614853 103822152.63791883 0 103822152.63791883 153591752.63722014 0 0 0 0 -12465408.990805626 -80934039.063987404 0 -80934039.063987404 114948285.97534704 0 0 0 0 360068738.62743378 37264621.25098753 0 37264621.25098753 -18969485.840950161 0 0 0 0 531922195.03871155 -99164811.971150637 0 -99164811.971150637 -89430846.284478903 0 0 0 0 1827209.224470675 79406.886201456189 0 79406.886201456189 -748495.61092947517 0 0 0 0 662985766.79829788 418404733.34210032 0 418404733.34210032 226724182.76783109 0 0 0 0 612758845.15085602 576584001.82307661 0 576584001.82307661 -45127553.634044886 0 0 0 0 907214529.09854889 417486300.4561075 0 417486300.4561075 -124502412.37786534 0 0 0 0 3469324.7478081435 665161.93418604508 0 665161.93418604508 -1896581.9572970362 0 0 0 0 204637631.10114288 236317413.77008069 0 236317413.77008069 283071415.35397482 0 0 0 0 255404102.483284 100392738.04815984 0 100392738.04815984 138437707.26700974 0 0 0 0 86663216.231521606 38595073.858106375 0 38595073.858106375 153667408.34645641 0 0 0 0 163746148.68748474 102509795.07442203 0 102509795.07442203 102808970.34069902 0 0 0 0 97148862.31129837 58690744.329525173 0 58690744.329525173 -60230580.712612391 0 0 0 0 -55045021.077590942 94318382.854474068 0 94318382.854474068 102811389.74430978 0 0 0 0 127430948.76782227 145534388.03010303 0 145534388.03010303 -148361978.35028815 0 0 0 0 91036392.226371765 102206091.49424049 0 102206091.49424049 201818099.22059774 0 0 0 0 1827989.4347042143 663397.4729690589 0 663397.4729690589 -1251375.5903501317 0 0 0 0 150654141.95445538 262027776.67699337 0 262027776.67699337 155706596.60545272 0 0 0 0 49666805.136756897 124674436.66932166 0 124674436.66932166 104802094.90558183 0 0 0 0 840053473.65092087 1297713594.1641271 0 1297713594.1641271 1071077179.5441507 0 0 0 0 2201344636.5084391 1057024228.1994305 0 1057024228.1994305 -208174123.49189171 0 0 0 0 2198985220.3346329 1059191811.7885457 0 1059191811.7885457 -206951755.10101202 0 0 0 0 397986044.94179535 -14286480.270687044 0 -14286480.270687044 -130462836.79228079 0 0 0 0 1773516793.3397255 817380893.89787924 0 817380893.89787924 161705553.24328193 0 0 0 0 922175214.64927387 334136608.77941108 0 334136608.77941108 -60489977.535424471 0 0 0 0 796151610.12073517 361531013.24889779 0 361531013.24889779 -53730530.589867115 0 0 0 0 5146768.5275842324 1299262.0618812442 0 1299262.0618812442 -2155608.2451751307 0 0 0 0 1412096273.0793839 -502449991.94935238 0 -502449991.94935238 -280096609.21433842 0 0 0 0 1309342696.5713997 -309125167.48826635 0 -309125167.48826635 -181284232.57303673 0 0 0 0 2205538028.7696838 -871033512.21525407 0 -871033512.21525407 -123087153.47106156 0 0 0 0 2200428330.6032639 -1613319941.5733061 0 -1613319941.5733061 1001815409.4004663 0 0 0 0 6486125.1131394356 447688.14604324289 0 447688.14604324289 1488522.3686019671 0 0 0 0 849440689.27949524 -660396512.30337238 0 -660396512.30337238 332972393.4177146 0 0 0 0 851716875.48865199 -436736109.52868158 0 -436736109.52868158 140230693.55848575 0 0 0 0 15204021.530245163 3213411.8966445439 0 3213411.8966445439 1104378.0382936909 0 0 0 0 -49190281.137512207 300231651.63288999 0 300231651.63288999 -227191083.65899873 0 0 0 0 -99955075.736040115 25607692.397075415 0 25607692.397075415 -65490840.090793133 0 0 0 0 271925411.86146915 41824052.356271341 0 41824052.356271341 -115648942.72370717 0 0 0 0 283679686.74834061 -255070946.35680234 0 -255070946.35680234 170427180.95151129 0 0 0 0 904107914.3459549 -493423871.3314001 0 -493423871.3314001 123894620.49947175 0 0 0 0 380872833.50695801 -97055917.255457833 0 -97055917.255457833 12468485.703788579 0 0 0 0 605341891.48023987 -214857885.69405782 0 -214857885.69405782 31108317.991073534 0 0 0 0 145581297.07897186 -64056759.424252748 0 -64056759.424252748 38853401.843759574 0 0 0 0 34152162.591245651 72549358.17976822 0 72549358.17976822 -79885384.740703553 0 0 0 0 21994047.125185981 4937930.3669659067 0 4937930.3669659067 -130027.28629192407 0 0 0 0 218357090.77180099 -155735610.78719324 0 -155735610.78719324 49285375.772590414 0 0 0 0 812953.7525177002 76358556.950020254 0 76358556.950020254 61696461.209263287 0 0 0 0 24737454.379302979 269343828.15936553 0 269343828.15936553 -453679190.0298835 0 0 0 0 19924841.494497687 4641414.1877412554 0 4641414.1877412554 426016.52693897253 0 0 0 0 230922954.3066864 132695570.84692883 0 132695570.84692883 -58628269.645174861 0 0 0 0 100371335.78613281 122159499.6674521 0 122159499.6674521 226738572.39359212 0 0 0 0 497645828.83804607 82555188.12609075 0 82555188.12609075 174220385.03851461 0 0 0 0 574044371.71118164 -477637878.14431095 0 -477637878.14431095 826699994.22513914 0 0 0 0 310496585.1441803 -222703950.58304572 0 -222703950.58304572 156945107.76493549 0 0 0 0 265001273.37119293 -58876778.40777123 0 -58876778.40777123 -366063098.46806645 0 0 0 0 -109405234.26331902 70268547.099105328 0 70268547.099105328 -56457919.953553915 0 0 0 0 71095870.543579102 206703055.48903286 0 206703055.48903286 -499315133.19487816 0 0 0 0 -17046511.919418335 -16372912.054008126 0 -16372912.054008126 -151837577.22560325 0 0 0 0 116574757.88299179 -112045781.8256278 0 -112045781.8256278 -131479681.51475763 0 0 0 0 352528730.54244995 -207891308.84067774 0 -207891308.84067774 72144323.078206062 0 0 0 0 40965987.472297668 5008168.1840282679 0 5008168.1840282679 -49791375.912714005 0 0 0 0 346209248.85198975 -100126500.23565936 0 -100126500.23565936 86513537.163445473 0 0 0 0 -105014890.98676491 81289539.027527615 0 81289539.027527615 705924777.33404541 0 0 0 0 338755971.75726318 -82515426.927103043 0 -82515426.927103043 238582809.38848495 0 0 0 0 18413628.985874176 7048177.649657011 0 7048177.649657011 110837061.73530245 0 0 0 0 23761534.518264771 -137305146.72724128 0 -137305146.72724128 120388789.61600852 0 0 0 0 64257620.71736908 -92732079.68763572 0 -92732079.68763572 -156486778.49837589 0 0 0 0 12959290.61605072 -36316713.770228803 0 -36316713.770228803 -74615575.890616417 0 0 0 0 22376601.429337949 4492124.2605411606 0 4492124.2605411606 -639028.27003962384 0 0 0 0 27885462.261253357 49849430.387194157 0 49849430.387194157 -255747919.19622457 0 0 0 0 -42920150.673711777 84268006.773913383 0 84268006.773913383 28221764.313475668 0 0 0 0 -90767771.851252556 -6137462.3326209374 0 -6137462.3326209374 31323228.158272624 0 0 0 0 31344605.78301239 -32094197.165866792 0 -32094197.165866792 -68352420.631506085 0 0 0 0 14609827.645198822 23740023.669308007 0 23740023.669308007 -67752434.400704265 0 0 0 0 48502823.417247772 64482595.713481724 0 64482595.713481724 -43391561.4026106 0 0 0 0 -63427612.967071533 -83818442.876482561 0 -83818442.876482561 22788334.530521035 0 0 0 0 -56245983.725414276 -81828408.424669594 0 -81828408.424669594 49083665.208224058 0 0 0 0 -55780888.902175903 -18693009.511866093 0 -18693009.511866093 7410121.3049472421 0 0 0 0 -180403892.56080818 50761267.85715428 0 50761267.85715428 17626536.570133805 0 0 0 0 3208604.7207579985 -735157.56497129612 0 -735157.56497129612 -1515222.427020258 0 0 0 0 -63667682.733957291 -19231626.846881226 0 -19231626.846881226 13182539.304296494 0 0 0 0 -51023353.971107483 -25719178.048071086 0 -25719178.048071086 2895075.1553857327 0 0 0 0 -45914511.741249084 -37146495.590024292 0 -37146495.590024292 13394672.506887555 0 0 0 0 -28597027.010391235 -45381700.656243205 0 -45381700.656243205 -3516821.7809844017 0 0 0 0 -35966251.537849426 -37388021.272113681 0 -37388021.272113681 -11238493.866477877 0 0 0 0 9264842.9475431442 -79754036.206077561 0 -79754036.206077561 3724282.4288428426 0 0 0 0 12635157.676765442 -62075096.956875682 0 -62075096.956875682 -39239585.376091033 0 0 0 0 9239594.4556884766 -78843701.224762142 0 -78843701.224762142 -20606442.895157576 0 0 0 0 -24967668.493339539 -62282000.815055169 0 -62282000.815055169 18082312.148350239 0 0 0 0 -20561020.808176994 -80613539.621377587 0 -80613539.621377587 47323907.692730784 0 0 0 0 -25017369.413169861 -59791337.345339775 0 -59791337.345339775 15671706.839723229 0 0 0 0 -70084065.618682861 -19633244.149804652 0 -19633244.149804652 22659973.843840361 0 0 0 0 -50092357.703681469 -44366578.2296312 0 -44366578.2296312 38867898.621691227 0 0 0 0 43420721.126747131 -64220858.872066855 0 -64220858.872066855 28125596.187304974 0 0 0 0 44522913.000328064 -99514844.613529101 0 -99514844.613529101 68951077.713802099 0 0 0 0 43569665.307342529 -30778127.321516871 0 -30778127.321516871 99831863.769240201 0 0 0 0 45161368.744003296 -91255088.746724814 0 -91255088.746724814 6093540.7107910216 0 0 0 0 3714654.3829193115 -132091412.73531285 0 -132091412.73531285 -32206260.791685015 0 0 0 0 -3970875.1526107788 -80911230.144087642 0 -80911230.144087642 33177992.066683382 0 0 0 0 173744642.91205978 -6351447.2258579731 0 -6351447.2258579731 24542808.616666235 0 0 0 0 146612865.1552124 12542699.603055269 0 12542699.603055269 108988280.03513694 0 0 0 0 172182992.75308037 -24880657.057145685 0 -24880657.057145685 68116296.115852237 0 0 0 0 537478152.58332825 -83614075.981467783 0 -83614075.981467783 15622440.605359316 0 0 0 0 93312276.330291748 -65300635.979670882 0 -65300635.979670882 6030979.022773087 0 0 0 0 159092430.46085739 4406883.353051126 0 4406883.353051126 20787437.710646272 0 0 0 0 248496035.87165451 15185045.831282139 0 15185045.831282139 64327607.326477587 0 0 0 0 1059831058.0825577 -73915651.990687609 0 -73915651.990687609 -116087458.84813058 0 0 0 0 594316118.27616882 53016522.120213568 0 53016522.120213568 -9750942.958617866 0 0 0 0 575494236.18928909 77952798.06851542 0 77952798.06851542 29431193.674925566 0 0 0 0 632828442.52157974 -8280296.9386641383 0 -8280296.9386641383 -28062488.702202335 0 0 0 0 478860490.02840424 72315525.995369017 0 72315525.995369017 -19494257.625613037 0 0 0 0 439100401.24611664 220419925.19373441 0 220419925.19373441 90764576.517978638 0 0 0 0 1131666454.8923569 261319458.31496096 0 261319458.31496096 -89341668.027490795 0 0 0 0 1137423189.3949389 187738487.33945957 0 187738487.33945957 -157384304.97858787 0 0 0 0 1780430692.1244278 466271212.7642988 0 466271212.7642988 -226682146.29496366 0 0 0 0 1532121527.5603561 365322210.77279693 0 365322210.77279693 -126249484.3211073 0 0 0 0 2205220705.2072754 336385231.02201146 0 336385231.02201146 -292440144.95810831 0 0 0 0 1928177618.5216246 112233221.10241964 0 112233221.10241964 -462570881.9240607 0 0 0 0 2204409354.7883568 167912106.99154395 0 167912106.99154395 -497761398.89720827 0 0 0 0 1770245383.0853386 -51736188.328653768 0 -51736188.328653768 -404193131.08157384 0 0 0 0 1524966177.5897141 -128318909.46648471 0 -128318909.46648471 -424289902.68548787 0 0 0 0 1132335348.5400209 -304474872.93153256 0 -304474872.93153256 -150076992.29582286 0 0 0 0 2204660839.953845 -380033812.15587747 0 -380033812.15587747 -447193593.89293373 0 0 0 0 8035086.0896530151 -19505765.199550748 0 -19505765.199550748 -37613937.210110709 0 0 0 0 31983125.792633057 -12912691.192737222 0 -12912691.192737222 -57280570.477394342 0 0 0 0 13873919.382897709 23920.820154424757 0 23920.820154424757 -4813105.2783296285 0 0 0 0 2087821.9207700863 -2363213.5842381008 0 -2363213.5842381008 -2180820.3477435573 0 0 0 0 -46520558.283004761 -87265258.685165823 0 -87265258.685165823 18421920.386876583 0 0 0 0 28755535.294784546 -30718365.850102246 0 -30718365.850102246 6185351.9627212286 0 0 0 0 32588445.924606323 -3877847.6924394816 0 -3877847.6924394816 -4115444.6584060192 0 0 0 0 -76598357.637130737 32952933.235680044 0 32952933.235680044 10714967.931357205 0 0 0 0 132734353.18505859 -8813429.5343327522 0 -8813429.5343327522 -37317635.972897038 0 0 0 0 -42580511.06829834 -14442591.558346257 0 -14442591.558346257 -4251994.8144615293 0 0 0 0 -33047244.745080948 -51646482.795560271 0 -51646482.795560271 -14446909.181497395 0 0 0 0 -67056806.212052822 -55816785.101994418 0 -55816785.101994418 4182186.1410676837 0 0 0 0 28788075.506734595 -14615185.920447875 0 -14615185.920447875 -6398658.4119729996 0 0 0 0 -3588852.8857727051 -21741716.06992209 0 -21741716.06992209 -10035044.100498378 0 0 0 0 22045715.349617004 -27157433.820262313 0 -27157433.820262313 -16567927.983751476 0 0 0 0 24349760.319770813 -570199.16121864319 0 -570199.16121864319 -16716071.907945633 0 0 0 0 34029252.160652161 -15857047.702905923 0 -15857047.702905923 -13058049.998095095 0 0 0 0 13624043.673837502 -4378026.0761192478 0 -4378026.0761192478 -7546073.4104813123 0 0 0 0 14905397.505677015 -193515.8728565732 0 -193515.8728565732 -6139947.9495892385 0 0 0 0 24237032.093654633 -3742540.9333510399 0 -3742540.9333510399 -27911087.634759903 0 0 0 0 21844178.494033813 -10841014.034394264 0 -10841014.034394264 -19026579.636516571 0 0 0 0 15300776.963531494 3312072.914039135 0 3312072.914039135 -38514839.442070007 0 0 0 0 9898671.4404592589 1663807.083198362 0 1663807.083198362 -3019207.9292288087 0 0 0 0 31925430.68573761 11279829.027636528 0 11279829.027636528 -71089436.501531601 0 0 0 0 12882068.105941772 -5657094.0459303856 0 -5657094.0459303856 -7244453.6990642548 0 0 0 0 6866352.2337360084 -3004831.6156823728 0 -3004831.6156823728 -3280320.52761955 0 0 0 0 20387916.40247345 -19365640.788384914 0 -19365640.788384914 3422462.5896446109 0 0 0 0 19307830.332208633 -27724702.014010191 0 -27724702.014010191 4492537.4545078278 0 0 0 0 9564691.5311355591 1766826.4279489517 0 1766826.4279489517 -6686362.289219141 0 0 0 0 8418201.595060721 -4733545.1060947124 0 -4733545.1060947124 -8359132.35662363 0 0 0 0 13293240.799674988 -4350458.2762335539 0 -4350458.2762335539 -3936733.2382001877 0 0 0 0 27017429.12704277 -21329259.312125087 0 -21329259.312125087 -10844583.577648163 0 0 0 0 18237112.010627747 -12233601.728391647 0 -12233601.728391647 -10327167.875293732 0 0 0 0 12649883.931806002 -2547293.0191513859 0 -2547293.0191513859 -6628869.1851911405 0 0 0 0 28291442.07262516 -17614592.545291424 0 -17614592.545291424 -18951061.031992912 0 0 0 0 24689307.655487061 -9928723.0167722702 0 -9928723.0167722702 -19220508.259218365 0 0 0 0 24166484.464996338 -2023353.5590429306 0 -2023353.5590429306 -27803450.427501798 0 0 0 0 27254824.026550293 -9348565.602396965 0 -9348565.602396965 -39080644.246587753 0 0 0 0 27156369.238926888 -11149506.898539275 0 -11149506.898539275 -24294722.853458405 0 0 0 0 25403010.957611084 -728032.22101974487 0 -728032.22101974487 -26529186.117168427 0 0 0 0 14078979.815078735 2361134.9786007553 0 2361134.9786007553 57.830268681049347 0 0 0 0 10057092.178009033 1271040.6346697807 0 1271040.6346697807 -208642.65967750549 0 0 0 0 2861415.5103178471 -1594312.1977219358 0 -1594312.1977219358 -3568083.9594073934 0 0 0 0 24800675.768844604 -10477752.710058212 0 -10477752.710058212 -16517414.513559341 0 0 0 0 24796443.770515442 -1411181.2055578232 0 -1411181.2055578232 -16174709.519277573 0 0 0 0 9310269.5261094645 722009.26321609691 0 722009.26321609691 -945119.30858596251 0 0 0 0 2825897.4763793945 -2185354.8286304474 0 -2185354.8286304474 -2803609.1905670166 0 0 0 0 11538454.367814653 -2598107.3870088905 0 -2598107.3870088905 -5745353.7628567629 0 0 0 0 8171102.362883877 160981.7777055949 0 160981.7777055949 -1022126.7642393138 0 0 0 0 10754366.245803833 -2191814.1119971275 0 -2191814.1119971275 -3451881.6405124664 0 0 0 0 11215162.743843079 6599731.4185948372 0 6599731.4185948372 -5215539.7995244786 0 0 0 0 8249535.3186416626 -1846637.6375820637 0 -1846637.6375820637 -3352580.5282859802 0 0 0 0 9846069.6124725342 -101456.70369005203 0 -101456.70369005203 -6475007.1061782837 0 0 0 0 4913068.5894927979 -1428266.6792880297 0 -1428266.6792880297 -953191.53665614128 0 0 0 0 9082386.9871242046 -2871423.5257930476 0 -2871423.5257930476 -1416257.8152003288 0 0 0 0 8134845.3656828701 -1849225.8678366728 0 -1849225.8678366728 -3973868.3208996272 0 0 0 0 9180011.3777313232 -498611.75457024574 0 -498611.75457024574 -1523179.9255313873 0 0 0 0 4623538.3836661577 -2435410.0287966318 0 -2435410.0287966318 -2700065.6920365617 0 0 0 0 7536544.7735988572 302676.09673560411 0 302676.09673560411 -966700.4190266045 0 0 0 0 678805.10779928416 -1354044.6141782589 0 -1354044.6141782589 -1109919.5195055762 0 0 0 0 8663034.1538391113 -334923.66890048981 0 -334923.66890048981 7527925.2264137268 0 0 0 0 14177882.199981689 2050721.1512497663 0 2050721.1512497663 -741304.70225858688 0 0 0 0 708601.10523725301 -1366365.0936803184 0 -1366365.0936803184 -886632.64432295994 0 0 0 0 6566884.6510314941 363487.07469058037 0 363487.07469058037 -2045426.3911371231 0 0 0 0 751906.24336242676 492724.40419268608 0 492724.40419268608 -7381575.0290241241 0 0 0 0 10294729.058601908 -2569153.7163128257 0 -2569153.7163128257 -6388131.4064952489 0 0 0 0 19218941.614546977 -2341845.1531113088 0 -2341845.1531113088 -13190950.784691943 0 0 0 0 38206899.030082703 -5525216.8903437257 0 -5525216.8903437257 -8459706.4751160145 0 0 0 0 28858154.554580688 2020783.9893169403 0 2020783.9893169403 -5032652.2242665291 0 0 0 0 31118549.873626709 1376441.2323981524 0 1376441.2323981524 -4957410.5973553658 0 0 0 0 27321547.455127716 -3113330.3320886344 0 -3113330.3320886344 -4200001.9540159702 0 0 0 0 19777492.538032532 -5250128.5664607286 0 -5250128.5664607286 -8914302.1115119457 0 0 0 0 22541892.675842285 -9540193.4150785804 0 -9540193.4150785804 -5451033.8166747093 0 0 0 0 21726398.537859917 -13908346.842679948 0 -13908346.842679948 323666.84700012207 0 0 0 0 32775494.143493652 -21237403.755742192 0 -21237403.755742192 -7586792.5921186209 0 0 0 0 30272381.707466125 -30125341.004121184 0 -30125341.004121184 -15703171.208748817 0 0 0 0 18041501.391914368 -36015910.529872775 0 -36015910.529872775 7700240.2825274467 0 0 0 0 30614639.411289215 -43592215.393392503 0 -43592215.393392503 -41045367.035260916 0 0 0 0 41370972.324920654 -26887679.224650443 0 -26887679.224650443 -15383975.283374965 0 0 0 0 38726125.107322693 -23152746.470149219 0 -23152746.470149219 -18855555.771721005 0 0 0 0 41867964.49943161 -19592260.084938943 0 -19592260.084938943 -14829754.251411915 0 0 0 0 -3450837.7158584595 -42247149.187128901 0 -42247149.187128901 46306720.648399651 0 0 0 0 15439487.283454895 -43743156.786179304 0 -43743156.786179304 -13562440.277411938 0 0 0 0 17359668.470535278 -39062683.970319808 0 -39062683.970319808 -12906200.39007546 0 0 0 0 29017090.529968262 -36636824.938914657 0 -36636824.938914657 -87924716.402679205 0 0 0 0 11944283.866241455 -74034820.6638816 0 -74034820.6638816 -11105604.145595551 0 0 0 0 21369249.521858215 -13801754.885662407 0 -13801754.885662407 -73452293.119275466 0 0 0 0 65678791.554931641 -32589549.387059331 0 -32589549.387059331 -89122954.13232255 0 0 0 0 22274526.82778763 4090137.4058127636 0 4090137.4058127636 -1135314.5273528057 0 0 0 0 14541334.062524796 24922693.219797142 0 24922693.219797142 -117572799.40643913 0 0 0 0 31346801.041503921 -32784404.586107992 0 -32784404.586107992 -33723870.041299462 0 0 0 0 76789727.787452698 -9281704.5248631835 0 -9281704.5248631835 -30438933.024813414 0 0 0 0 48822059.173622131 14465087.414449811 0 14465087.414449811 15801067.450635374 0 0 0 0 43652185.415939331 -11294426.946501493 0 -11294426.946501493 -49959379.649408057 0 0 0 0 46384742.974563599 -20634618.889811933 0 -20634618.889811933 -24988382.972837031 0 0 0 0 66750200.156730652 -29487368.783312425 0 -29487368.783312425 -67146387.366578996 0 0 0 0 -5377698.1283226013 -12712427.267792508 0 -12712427.267792508 -28119476.721900284 0 0 0 0 123180916.91904449 8678913.0791454911 0 8678913.0791454911 -55010620.114096731 0 0 0 0 -420112.88816961646 -323701.37088274956 0 -323701.37088274956 520785.6132787668 0 0 0 0 -28180309.569122314 -48853983.978030562 0 -48853983.978030562 -16039138.070439041 0 0 0 0 117300085.06191254 61522287.411480993 0 61522287.411480993 -6245821.2489018887 0 0 0 0 -36640044.354545593 -66217347.25143978 0 -66217347.25143978 -23588808.26401329 0 0 0 0 -15994792.027877808 -60567877.778607011 0 -60567877.778607011 -47574680.393051505 0 0 0 0 46613481.294189453 137243595.52270961 0 137243595.52270961 -47776955.477792978 0 0 0 0 -7231334.383159399 -25664211.702940099 0 -25664211.702940099 -20064982.901137352 0 0 0 0 83874997.061340332 112526946.76527047 0 112526946.76527047 -39078318.570120335 0 0 0 0 1490550.4631290659 495064.62535299733 0 495064.62535299733 -1161361.8763791472 0 0 0 0 21790758.553671718 3435447.0119844275 0 3435447.0119844275 -2144025.6178286504 0 0 0 0 38084447.616340637 -69455192.856477499 0 -69455192.856477499 45941291.839563251 0 0 0 0 112193861.45256042 -127537457.11846757 0 -127537457.11846757 -71676130.248793542 0 0 0 0 59583354.504425049 12864269.803384781 0 12864269.803384781 -27961481.259018898 0 0 0 0 53104707.474657059 42836624.864311337 0 42836624.864311337 -92966814.718428612 0 0 0 0 40428919.954391479 11923402.160244226 0 11923402.160244226 -18519957.907399178 0 0 0 0 46498302.308296204 -4414287.0537335873 0 -4414287.0537335873 -4190525.4812469482 0 0 0 0 11550053.405899048 4319172.5251626968 0 4319172.5251626968 1209317.690048933 0 0 0 0 2933643.1828231812 10578340.576704979 0 10578340.576704979 3862728.7667331696 0 0 0 0 22010935.182891846 -6763026.7950577736 0 -6763026.7950577736 6356082.8196578026 0 0 0 0 14539782.73651123 -1097345.3246746063 0 -1097345.3246746063 8646798.3638894558 0 0 0 0 17758040.828765869 5673615.8736157417 0 5673615.8736157417 -306736.87662220001 0 0 0 0 27721485.146835327 -13914744.772028089 0 -13914744.772028089 -44323203.347164869 0 0 0 0 32159164.369140625 17375475.348674059 0 17375475.348674059 -16666002.286409616 0 0 0 0 -14861145.866226196 37757537.647197962 0 37757537.647197962 229430991.41385198 0 0 0 0 112800120.97799683 46921952.668842793 0 46921952.668842793 -174074434.00335896 0 0 0 0 14905007.891540527 2880505.6628087759 0 2880505.6628087759 26045309.685367629 0 0 0 0 65767074.86378479 71178863.398409843 0 71178863.398409843 16232713.749753058 0 0 0 0 69089636.878746033 -150784079.55368567 0 -150784079.55368567 29498931.581168056 0 0 0 0 163569522.08349609 329296372.66509032 0 329296372.66509032 27468580.646734953 0 0 0 0 181654064.87509155 -154315339.92617965 0 -154315339.92617965 -359428859.90309238 0 0 0 0 28958496.295570374 -34504983.464725971 0 -34504983.464725971 -81648073.01210165 0 0 0 0 34531506.07509613 33383512.00812602 0 33383512.00812602 -14725323.725263596 0 0 0 0 34001060.631622314 15090647.687836647 0 15090647.687836647 3662562.725039959 0 0 0 0 5034444.5650467649 1250408.4029522911 0 1250408.4029522911 -1493631.3137808873 0 0 0 0 26892981.604927063 18347921.265402794 0 18347921.265402794 3668772.2781996727 0 0 0 0 3252512.4857918583 193718.57823611237 0 193718.57823611237 -2056560.6373689221 0 0 0 0 21468583.547447205 4152549.8643314242 0 4152549.8643314242 -15928338.384758472 0 0 0 0 37888905.612136841 7594072.5606405735 0 7594072.5606405735 -9761800.3412683904 0 0 0 0 63048572.799297333 -1398738.5290512741 0 -1398738.5290512741 -40414613.380456924 0 0 0 0 47229868.775074005 19781897.190768331 0 19781897.190768331 -30873459.186076164 0 0 0 0 45012163.569152832 32846543.473643303 0 32846543.473643303 -53664687.451602936 0 0 0 0 64408252.746154785 8736649.7111749649 0 8736649.7111749649 -54862304.063359901 0 0 0 0 38368145.311782837 -5245116.9223361015 0 -5245116.9223361015 -11552760.697344571 0 0 0 0 13729735.956741795 -1600394.4596989602 0 -1600394.4596989602 -7709339.0622858303 0 0 0 0 -67720968.186294556 -2790093.3732083663 0 -2790093.3732083663 -4055264.9773335457 0 0 0 0 43731245.59923172 -11494708.687307715 0 -11494708.687307715 -5704597.8874998093 0 0 0 0 -48093274.575636864 -20084078.92619304 0 -20084078.92619304 -15410721.986370444 0 0 0 0 15556244.037845405 -6954476.6688649543 0 -6954476.6688649543 -4807533.7897562794 0 0 0 0 17169902.039491415 12946784.847918592 0 12946784.847918592 1388477.4072522102 0 0 0 0 23932458.366618156 19156673.847837925 0 19156673.847837925 -10462639.740716934 0 0 0 0 29726438.617733002 6866090.7841420174 0 6866090.7841420174 2336141.4326699972 0 0 0 0 15437345.666498939 2320512.6811663015 0 2320512.6811663015 -4547367.8598271571 0 0 0 0 123506441.81902504 -11003812.244036198 0 -11003812.244036198 -55387971.12638092 0 0 0 0 42645343.964502335 20381962.268579483 0 20381962.268579483 -30301259.297729492 0 0 0 0 -33953195.690704346 -31878661.274932742 0 -31878661.274932742 -8266051.2889350951 0 0 0 0 42217295.017056763 14919830.331283152 0 14919830.331283152 -44619655.202848434 0 0 0 0 17721368.467258237 -9475628.0582733732 0 -9475628.0582733732 -10689990.952970477 0 0 0 0 25958179.929145813 1811664.9612281919 0 1811664.9612281919 -3427111.0133075714 0 0 0 0 26045242.856011391 1973652.511644721 0 1973652.511644721 -4465359.9691023827 0 0 0 0 30448479.726840973 5806406.1851024628 0 5806406.1851024628 124765.19280195236 0 0 0 0 15641647.329782017 10937646.948357202 0 10937646.948357202 1598851.437296398 0 0 0 0 27674154.427963257 -1197981.7522850037 0 -1197981.7522850037 3810600.4871809483 0 0 0 0 -60816529.322649002 74983375.44479394 0 74983375.44479394 24798403.091767311 0 0 0 0 25507631.337638855 4032867.4459257126 0 4032867.4459257126 2917580.8933153152 0 0 0 0 8745754.8708510101 4262040.4178033285 0 4262040.4178033285 -593352.54739992414 0 0 0 0 24659641.931411743 15060438.890842199 0 15060438.890842199 4122529.8319301605 0 0 0 0 24306428.459033966 2175836.5541987419 0 2175836.5541987419 61489.858202934265 0 0 0 0 26600596.659425735 16406379.224082232 0 16406379.224082232 4164279.0483493805 0 0 0 0 27900605.006694794 15282961.377863407 0 15282961.377863407 3381906.4179191589 0 0 0 0 16498385.359986305 5510690.3267519474 0 5510690.3267519474 183391.81910705566 0 0 0 0 12764205.842163086 4539496.907831192 0 4539496.907831192 3050236.3256707191 0 0 0 0 21588321.892648697 20216681.309338331 0 20216681.309338331 16615977.464738846 0 0 0 0 17361567.164802551 7648978.4525442123 0 7648978.4525442123 -1159093.6576797962 0 0 0 0 13873724.982307434 3871327.9070433378 0 3871327.9070433378 -5235135.6848356724 0 0 0 0 9870496.6909971181 4871937.6235636845 0 4871937.6235636845 -4397482.5133960005 0 0 0 0 3337815.8358864933 4481604.7458771914 0 4481604.7458771914 -3022074.4294449091 0 0 0 0 18447250.255142212 7309726.0001763701 0 7309726.0001763701 -12581368.120953798 0 0 0 0 14759218.195196152 15172606.906855822 0 15172606.906855822 -14396875.544843197 0 0 0 0 -4946507.5882873535 12508533.578269005 0 12508533.578269005 -46522272.886285305 0 0 0 0 13963192.838935852 1695420.0412304401 0 1695420.0412304401 -8902191.1375255585 0 0 0 0 9686520.990978241 10844047.118231297 0 10844047.118231297 -2417692.6181507111 0 0 0 0 32563.563764072955 -4439489.5034692511 0 -4439489.5034692511 -2555170.3568344312 0 0 0 0 5715766.3704376221 -9380687.0273799896 0 -9380687.0273799896 -4368562.7621335983 0 0 0 0 2482582.9799499512 -1708465.2243995667 0 -1708465.2243995667 -3343652.9024991989 0 0 0 0 4963949.239132151 570999.33614843222 0 570999.33614843222 -2791742.3481793357 0 0 0 0 22567931.203027889 2673004.1288585067 0 2673004.1288585067 -6622338.591696728 0 0 0 0 14985513.288040288 -5122538.0674995817 0 -5122538.0674995817 -6408695.2619797951 0 0 0 0 10518944.242050171 -10532697.521086693 0 -10532697.521086693 -5093915.1479206085 0 0 0 0 48848667.06394577 11220929.247429997 0 11220929.247429997 -31123341.72404778 0 0 0 0 15323205.748537064 -9399692.763307333 0 -9399692.763307333 -8857370.5931625366 0 0 0 0 19353988.359008789 -20651051.202036619 0 -20651051.202036619 -64693790.892345786 0 0 0 0 -18280206.56870079 53444578.604688734 0 53444578.604688734 -37990490.850940585 0 0 0 0 22513033.958189681 116029.96706093196 0 116029.96706093196 -6177867.4867957896 0 0 0 0 -7620233.5602416992 -43703792.889035106 0 -43703792.889035106 -37832128.829179406 0 0 0 0 31617178.288223267 3367883.1798057556 0 3367883.1798057556 -34194509.697183132 0 0 0 0 18382145.085741043 -9075231.6109044552 0 -9075231.6109044552 -45874459.008434296 0 0 0 0 46265501.377916336 -28008633.934181213 0 -28008633.934181213 -24688680.014913559 0 0 0 0 17305797.468704224 -12752048.401663303 0 -12752048.401663303 -15865855.545192719 0 0 0 0 5787365.1359087229 -16274126.863433875 0 -16274126.863433875 4752531.5452423096 0 0 0 0 15955771.7996521 -20956720.220108986 0 -20956720.220108986 -9151657.6033554077 0 0 0 0 18728858.069068909 -28390673.276521683 0 -28390673.276521683 8326503.9625530243 0 0 0 0 12082606.050598145 -17256135.72630024 0 -17256135.72630024 7154444.1502754688 0 0 0 0 2010581.3636671901 -2027993.3703132067 0 -2027993.3703132067 -2366315.5730094453 0 0 0 0 11658171.658103943 -19530744.514610291 0 -19530744.514610291 5314974.218919754 0 0 0 0 733045.39381328225 -579633.06883398746 0 -579633.06883398746 -835157.76323299017 0 0 0 0 37002905.571617126 -58755757.105905533 0 -58755757.105905533 64068525.416815758 0 0 0 0 108232111.92983246 -41314138.734024048 0 -41314138.734024048 -16357874.302079439 0 0 0 0 50739117.117286682 56684678.574631691 0 56684678.574631691 55896101.326412439 0 0 0 0 104759782.002285 30541652.217257023 0 30541652.217257023 -4715665.8458623886 0 0 0 0 73077398.7889328 23665521.802012444 0 23665521.802012444 -2621953.8260669708 0 0 0 0 23535565.076725006 24001950.151803493 0 24001950.151803493 6968127.8827943802 0 0 0 0 12020053.852203369 18901213.685164928 0 18901213.685164928 23385972.978742599 0 0 0 0 11725193.178413391 5605354.2665214539 0 5605354.2665214539 5954937.9213104248 0 0 0 0 43141857.968490601 45232797.364824295 0 45232797.364824295 28165893.276652098 0 0 0 0 39732111.849861145 29830953.069600105 0 29830953.069600105 8218465.6629425287 0 0 0 0 47683754.49559021 29360779.20881176 0 29360779.20881176 -3316148.2351236343 0 0 0 0 44473841.384418488 16249907.650704622 0 16249907.650704622 2202382.2195768356 0 0 0 0 40291939.718399048 21776034.529874325 0 21776034.529874325 -229877.17966079712 0 0 0 0 19542762.287742615 10780459.282856941 0 10780459.282856941 5441592.0816605091 0 0 0 0 25426166.640817642 3417174.6942797899 0 3417174.6942797899 -19954864.995773315 0 0 0 0 17664391.904930115 22759870.301962376 0 22759870.301962376 39127584.304269791 0 0 0 0 61218988.093101501 36282969.179242134 0 36282969.179242134 -759504.86206436157 0 0 0 0 54382058.772042274 11381889.822419405 0 11381889.822419405 -14982104.419496536 0 0 0 0 70123666.623191833 22806235.641749859 0 22806235.641749859 -93951796.355803013 0 0 0 0 69991871.326786041 3565130.8212736249 0 3565130.8212736249 -22277052.675150871 0 0 0 0 -22582865.592407227 28620608.547992229 0 28620608.547992229 -28328790.894812822 0 0 0 0 37941494.625930786 -6905052.0701813698 0 -6905052.0701813698 -12869041.757490158 0 0 0 0 -4407757.1359786987 -35119205.904526234 0 -35119205.904526234 -27932086.08425045 0 0 0 0 19898739.108325958 -11555317.700606942 0 -11555317.700606942 84555931.093189001 0 0 0 0 1961392.4125307575 1948535.2143306623 0 1948535.2143306623 176717.45502087666 0 0 0 0 57967958.271652222 -29742952.788100719 0 -29742952.788100719 -60534407.960838318 0 0 0 0 5330571.3678817749 15021018.657559395 0 15021018.657559395 130720352.39145565 0 0 0 0 -275701020.40454102 179459432.75578308 0 179459432.75578308 174845605.67819214 0 0 0 0 42435106.71938324 -1787024.1559951305 0 -1787024.1559951305 28313298.113908768 0 0 0 0 8670244.6332593337 9488685.9058954753 0 9488685.9058954753 -4965170.5787850609 0 0 0 0 5889149.3886640817 4833790.0356233753 0 4833790.0356233753 417933.63578468002 0 0 0 0 18137623.197677612 32135415.467752457 0 32135415.467752457 18967827.580766201 0 0 0 0 21607598.776451111 35741572.631641865 0 35741572.631641865 15185495.638884306 0 0 0 0 27092784.683422089 31010350.489994049 0 31010350.489994049 18877151.91421175 0 0 0 0 9842531.1075545587 14431836.965571161 0 14431836.965571161 -9182720.2413211875 0 0 0 0 7522649.3660507202 14424549.159694672 0 14424549.159694672 -21431216.377382278 0 0 0 0 19002660.947803497 21885866.495985255 0 21885866.495985255 15536357.575370356 0 0 0 0 885973.5157623291 19156008.580289841 0 19156008.580289841 -5369588.4749164581 0 0 0 0 7586908.9551887512 13740858.964370728 0 13740858.964370728 -16344567.774299622 0 0 0 0 6204692.1835136414 13981855.645876884 0 13981855.645876884 -10552250.463069916 0 0 0 0 4904912.2995452881 18022787.091377258 0 18022787.091377258 -15505851.160358429 0 0 0 0 32029074.421051025 -13090090.977637291 0 -13090090.977637291 -7572216.4304847717 0 0 0 0 21066325.977443695 -984255.91543722153 0 -984255.91543722153 -6814673.5103406906 0 0 0 0 27066534.355587006 -13555212.737027645 0 -13555212.737027645 -5907017.5032861233 0 0 0 0 27316059.115913868 -7623209.7236955315 0 -7623209.7236955315 1957141.3614969254 0 0 0 0 22176814.772523403 -24062291.338796318 0 -24062291.338796318 -10596481.933847427 0 0 0 0 26968834.53921032 -11733042.219938993 0 -11733042.219938993 -5113326.0121269226 0 0 0 0 44125596.90335083 -21749296.936680317 0 -21749296.936680317 -1542121.719745636 0 0 0 0 56432833.681854248 1148118.2361507416 0 1148118.2361507416 -6808429.3881969452 0 0 0 0 51175490.044136047 -146816.89741706848 0 -146816.89741706848 -3369280.0923919678 0 0 0 0 54093977.646196365 674102.08093643188 0 674102.08093643188 -6413448.1649894714 0 0 0 0 13033263.501976088 7853836.86967804 0 7853836.86967804 284717.66300190357 0 0 0 0 34994566.11122036 24139580.866616964 0 24139580.866616964 -6607560.2353038788 0 0 0 0 45778952.266464233 28058743.667280793 0 28058743.667280793 -6636144.5792160034 0 0 0 0 70697099.211868286 30429278.934160233 0 30429278.934160233 -8522613.7494220734 0 0 0 0 3746749.659326151 854360.01672306843 0 854360.01672306843 -3282375.4662693655 0 0 0 0 14788268.041152239 18358382.209342524 0 18358382.209342524 60763521.743134499 0 0 0 0 -5636034.5008392334 -12009057.57984519 0 -12009057.57984519 -16265971.418912172 0 0 0 0 27266540.744676374 4616631.247488834 0 4616631.247488834 -13711718.763868656 0 0 0 0 14778362.599609375 17926769.428132772 0 17926769.428132772 43618144.683085442 0 0 0 0 44230444.408714294 56775780.737793446 0 56775780.737793446 32985980.489172935 0 0 0 0 20008095.521853447 37786584.562395692 0 37786584.562395692 63872635.720442772 0 0 0 0 19687664.381652832 34244169.40780735 0 34244169.40780735 24725889.043465614 0 0 0 0 36416365.91822052 46993380.780527979 0 46993380.780527979 42018259.735330164 0 0 0 0 71535826.572235107 5907982.4619622231 0 5907982.4619622231 -35542925.663581848 0 0 0 0 -4175761.9139099121 -11323960.514970779 0 -11323960.514970779 -6924926.2427768707 0 0 0 0 21628898.976654053 -9022481.7572078705 0 -9022481.7572078705 -16470748.027706146 0 0 0 0 -13241292.179794312 -4751660.9013037682 0 -4751660.9013037682 -4600165.043838501 0 0 0 0 4868614.2914276123 20115115.769371986 0 20115115.769371986 9957616.3700594902 0 0 0 0 33393410.140907288 33945876.624606609 0 33945876.624606609 -309498.21035957336 0 0 0 0 20399662.699344635 36520531.917364597 0 36520531.917364597 25073032.551519394 0 0 0 0 8821947.4657363892 -2726409.3292865753 0 -2726409.3292865753 -15134479.776885986 0 0 0 0 9368806.41013138 9409783.9860947262 0 9409783.9860947262 841497.88138794457 0 0 0 0 -1715129.8749847412 79585.979871749878 0 79585.979871749878 -15758460.345245361 0 0 0 0 -13005462.981009066 3249214.8530806378 0 3249214.8530806378 -10348390.083969116 0 0 0 0 12323107.582983097 2882383.0777419182 0 2882383.0777419182 -1708770.5913980026 0 0 0 0 31265151.80878067 -6845595.9193803072 0 -6845595.9193803072 -1263449.3381328583 0 0 0 0 30575763.879543304 -9097122.832120657 0 -9097122.832120657 -2164153.0359939337 0 0 0 0 31481530.379810333 -4644307.1271369457 0 -4644307.1271369457 9126064.9427585602 0 0 0 0 11375046.46577885 8328196.1954480447 0 8328196.1954480447 -2277913.5422334974 0 0 0 0 83493.787780761719 2410148.6436443329 0 2410148.6436443329 -469735.29787731171 0 0 0 0 13875222.018396465 2375368.3658461049 0 2375368.3658461049 2323672.4356648661 0 0 0 0 -3246672.8189697266 24117118.771700382 0 24117118.771700382 18171989.886087418 0 0 0 0 9091963.8615643084 8545434.1231759321 0 8545434.1231759321 -3561204.1755978083 0 0 0 0 33304531.969242096 15349904.156220913 0 15349904.156220913 -5242497.0748188496 0 0 0 0 25316687.925422326 2081806.9781595953 0 2081806.9781595953 -4628992.0389290126 0 0 0 0 8287784.2530936785 2859313.7505767494 0 2859313.7505767494 5196982.0373787303 0 0 0 0 2313036.6426294073 2198276.4829029161 0 2198276.4829029161 -649322.83302502427 0 0 0 0 -33288473.337669373 -10542746.183824539 0 -10542746.183824539 22101562.063506126 0 0 0 0 42725477.903964043 90549908.286497056 0 90549908.286497056 60656303.124526024 0 0 0 0 37250893.77935791 45346237.564938545 0 45346237.564938545 -26882984.149731338 0 0 0 0 32575561.523445129 -2858915.3668251038 0 -2858915.3668251038 -22144434.606341362 0 0 0 0 26990666.015766144 15280986.223242223 0 15280986.223242223 3241118.8356208801 0 0 0 0 17431248.133224487 7635792.8269350529 0 7635792.8269350529 530424.48282241821 0 0 0 0 27169481.098686218 15872109.586367607 0 15872109.586367607 3630130.1077232361 0 0 0 0 27529808.855059624 -3959511.9892907143 0 -3959511.9892907143 5817345.769867897 0 0 0 0 3108162.0227681072 305283.58304220065 0 305283.58304220065 224463.82426141948 0 0 0 0 356243852.42179298 -25302400.553199768 0 -25302400.553199768 -156539363.33621407 0 0 0 0 -234973677.99390411 -8220349.0819630623 0 -8220349.0819630623 404190501.18294621 0 0 0 0 54926735.352451324 150015850.07663059 0 150015850.07663059 133598606.83177948 0 0 0 0 238175702.25410461 105917483.08815289 0 105917483.08815289 -27003693.889181137 0 0 0 0 29171175.277271271 2177136.1720085144 0 2177136.1720085144 -61188745.860747814 0 0 0 0 -69564899.277641296 -464013.58542060852 0 -464013.58542060852 -68584751.227315903 0 0 0 0 266485105.89322734 -144710439.27123672 0 -144710439.27123672 -7240847.3775539398 0 0 0 0 -212303244.61935616 92084064.093776703 0 92084064.093776703 52454382.727416992 0 0 0 0 12977347.033317618 8071137.0226585399 0 8071137.0226585399 1970179.3486649245 0 0 0 0 -69908917.603927612 -97684136.289604187 0 -97684136.289604187 -135481613.71436501 0 0 0 0 -45979593.854362488 -39958002.302688599 0 -39958002.302688599 -59797349.962659836 0 0 0 0 2893051.8853437528 12026149.00628298 0 12026149.00628298 -1013305.5054156813 0 0 0 0 28478225.099085808 58990915.358148575 0 58990915.358148575 -13718229.910291672 0 0 0 0 15102223.367647171 35636216.808766365 0 35636216.808766365 44200184.209518433 0 0 0 0 1780118.915435791 18384645.26098156 0 18384645.26098156 117743003.3643322 0 0 0 0 20355329.450889587 50173909.360266685 0 50173909.360266685 66278635.020175934 0 0 0 0 8642213.7877445221 -5194545.427778244 0 -5194545.427778244 -2077953.6799468994 0 0 0 0 -599025.81061553955 84175641.317020416 0 84175641.317020416 167768326.73476028 0 0 0 0 -32369735.812057495 105034847.81300545 0 105034847.81300545 26081955.324464321 0 0 0 0 23815578.240440369 90786725.902235985 0 90786725.902235985 28929937.604804993 0 0 0 0 59792430.983276367 57083949.380828857 0 57083949.380828857 28778112.117681503 0 0 0 0 20679059.625642776 83809137.4727211 0 83809137.4727211 44371221.915704727 0 0 0 0 5051339.8451042175 86909746.464819908 0 86909746.464819908 91350210.166389465 0 0 0 0 -10677519.620430946 53950215.717502594 0 53950215.717502594 77177718.825090408 0 0 0 0 47664058.488707542 52625373.79415369 0 52625373.79415369 58958658.67142868 0 0 0 0 122121811.90348816 43390354.083862305 0 43390354.083862305 34020324.011613846 0 0 0 0 122031650.91347528 44520404.463647127 0 44520404.463647127 26766939.991592407 0 0 0 0 49873874.57305038 10234868.285587251 0 10234868.285587251 71001411.189620972 0 0 0 0 52827558.13168335 56432847.258047104 0 56432847.258047104 55361834.560699463 0 0 0 0 122142610.46518135 70202707.975477219 0 70202707.975477219 26432710.275537491 0 0 0 0 65582964.825725555 66551734.317145348 0 66551734.317145348 34598063.18157959 0 0 0 0 71287112.310941696 54797692.900814533 0 54797692.900814533 -3314901.289276123 0 0 0 0 80247508.83549881 37129149.331458092 0 37129149.331458092 31524183.513435602 0 0 0 0 12858962.48215358 -1106545.1703265123 0 -1106545.1703265123 253003.29656200507 0 0 0 0 16414043.425313473 144153.71603751183 0 144153.71603751183 -5759649.6431589127 0 0 0 0 4108743.915348053 13693511.405179977 0 13693511.405179977 31013867.040730476 0 0 0 0 37833022.156085968 65333708.76177597 0 65333708.76177597 26514560.160141945 0 0 0 0 5895070.9504165649 -17723505.244020462 0 -17723505.244020462 -12774234.869516373 0 0 0 0 38440020.415113449 63425009.125757694 0 63425009.125757694 -91454363.792303085 0 0 0 0 9443032.6288154125 45755072.242093086 0 45755072.242093086 -66190712.891000271 0 0 0 0 38633083.423084259 38444376.681445599 0 38444376.681445599 -158101663.81883812 0 0 0 0 54409537.403843403 714428.56117463112 0 714428.56117463112 -84739998.819812775 0 0 0 0 103165490.03818321 31935574.750712395 0 31935574.750712395 34573917.73886466 0 0 0 0 31363774.832691193 -51531788.111100793 0 -51531788.111100793 -203185476.4139061 0 0 0 0 7335006.3468219992 -1373308.0547821792 0 -1373308.0547821792 645523.58916068473 0 0 0 0 81500346.17001152 49099333.191731691 0 49099333.191731691 35031667.252254486 0 0 0 0 8111167.824251432 8778186.0649901554 0 8778186.0649901554 897297.81727520982 0 0 0 0 14203672.544132233 5395759.2212085724 0 5395759.2212085724 -2193315.4434201717 0 0 0 0 -48294521.422615051 -45425521.937997818 0 -45425521.937997818 -72999791.917030752 0 0 0 0 21938782.927923061 -637673.36232082453 0 -637673.36232082453 1672753.4496315233 0 0 0 0 14320863.703527451 6248430.6691174507 0 6248430.6691174507 -3850934.6362173259 0 0 0 0 8695821.2522524409 8637145.2146610823 0 8637145.2146610823 1292536.2263605029 0 0 0 0 6949481.1983604431 7887819.1806044579 0 7887819.1806044579 -6292867.3606719971 0 0 0 0 -327014.50402138755 2559060.5676305378 0 2559060.5676305378 667486.64327545743 0 0 0 0 86197492.144535065 -75131481.47528553 0 -75131481.47528553 -108185456.92009592 0 0 0 0 28247319.442359924 76180984.609017372 0 76180984.609017372 -156543546.76176262 0 0 0 0 87890.098838122562 -389169.06727380725 0 -389169.06727380725 388760.38428769074 0 0 0 0 10259581.751801252 53078547.928153276 0 53078547.928153276 -91662861.919272423 0 0 0 0 11125021.687791472 6048421.1097673913 0 6048421.1097673913 376617.66594111081 0 0 0 0 4171351.8818742186 2466247.7102332711 0 2466247.7102332711 -21704498.823325157 0 0 0 0 9512019.9024620056 5972825.5358905792 0 5972825.5358905792 -1735086.6652663946 0 0 0 0 19330870.603954963 1991483.0443419162 0 1991483.0443419162 1740192.3776319325 0 0 0 0 243513.36828613281 -19264704.738308191 0 -19264704.738308191 -616237.71514511108 0 0 0 0 -203250079.40861428 194023011.54254103 0 194023011.54254103 -122804730.62648392 0 0 0 0 38908291.495013535 -32144685.398138285 0 -32144685.398138285 -385989047.1788826 0 0 0 0 4538578.2200720143 1019702.712432401 0 1019702.712432401 -1154692.4148927629 0 0 0 0 -130678638.64348328 96436439.094877243 0 96436439.094877243 -15431401.276785612 0 0 0 0 -33767878.566611111 254510009.05141068 0 254510009.05141068 -360749703.26767254 0 0 0 0 98821030.707310677 63615554.601450443 0 63615554.601450443 -160926138.70640117 0 0 0 0 70797881.331346393 134890611.78020597 0 134890611.78020597 -250766389.65480042 0 0 0 0 173259072.63795689 30442460.948900461 0 30442460.948900461 -261186409.87951946 0 0 0 0 158685830.03124246 -84615566.753995895 0 -84615566.753995895 -523384218.71306705 0 0 0 0 -209930488.16638833 300511137.46738601 0 300511137.46738601 -256156150.71607208 0 0 0 0 49823045.859006643 183348488.29587841 0 183348488.29587841 -550539963.17514896 0 0 0 0 90931137.093323469 -597593.66119682789 0 -597593.66119682789 -190608870.4873724 0 0 0 0 35469444.410748482 -16416445.810417414 0 -16416445.810417414 -179066958.11979771 0 0 0 0 -22934250.491556644 -93524733.436517477 0 -93524733.436517477 -98488665.247325897 0 0 0 0 75503004.628102303 23700284.572528362 0 23700284.572528362 -227898238.92466831 0 0 0 0 152292051.63789034 -32204578.68903923 0 -32204578.68903923 -263945079.90422726 0 0 0 0 222976595.40033317 -132374323.12103987 0 -132374323.12103987 -162750914.11981773 0 0 0 0 124075317.16519642 -91515191.676728487 0 -91515191.676728487 -121764832.55529594 0 0 0 0 92693557.511403084 -88644432.11075449 0 -88644432.11075449 -108319028.45786095 0 0 0 0 90163282.110465884 -125462906.7864877 0 -125462906.7864877 -66110300.364398956 0 0 0 0 34854084.421729088 -121960829.69061279 0 -121960829.69061279 92546259.055416584 0 0 0 0 143387593.4884696 -163633705.76353931 0 -163633705.76353931 -52524035.883141994 0 0 0 0 19252535.659349918 -95529044.464092255 0 -95529044.464092255 49486805.401334763 0 0 0 0 62923247.19635807 -141506385.79646099 0 -141506385.79646099 13108671.872009277 0 0 0 0 62236423.930463731 -161049475.50614828 0 -161049475.50614828 72860966.458787918 0 0 0 0 224617454.67725205 -241871402.67458296 0 -241871402.67458296 43328645.029574394 0 0 0 0 138326428.83571601 -121777900.48160076 0 -121777900.48160076 -106417090.4177351 0 0 0 0 -7213559.2974047661 -36873407.096096039 0 -36873407.096096039 146540030.46913815 0 0 0 0 249963146.09743255 -210624713.15389824 0 -210624713.15389824 44082639.436839104 0 0 0 0 34846562.558810711 -184582981.25301504 0 -184582981.25301504 264494130.9415617 0 0 0 0 86638035.426869869 -229655995.23054028 0 -229655995.23054028 499607266.63228512 0 0 0 0 -14472423.270027637 -85868844.299585819 0 -85868844.299585819 70141697.400985718 0 0 0 0 20241945.259936333 -76026559.826528549 0 -76026559.826528549 65749650.367440224 0 0 0 0 67357836.058915794 140045740.91172981 0 140045740.91172981 -187890621.2720232 0 0 0 0 101953327.11861497 135308354.86631393 0 135308354.86631393 -33172959.84828949 0 0 0 0 256931168.34532258 227733535.16192627 0 227733535.16192627 -148334627.05830383 0 0 0 0 439012533.7255072 -97403631.500649452 0 -97403631.500649452 -244603885.08605075 0 0 0 0 85574271.115629464 45106533.681903601 0 45106533.681903601 13343670.582241058 0 0 0 0 425971377.28581625 -91499551.937937737 0 -91499551.937937737 45582117.908935308 0 0 0 0 643124781.40993297 181513642.86668873 0 181513642.86668873 343827482.07180023 0 0 0 0 557894996.5787822 -464368058.47861671 0 -464368058.47861671 253168782.87064171 0 0 0 0 850367323.88248229 -474657028.27338982 0 -474657028.27338982 523747592.0965991 0 0 0 0 336556206.95066804 251821273.7178694 0 251821273.7178694 23228701.927078247 0 0 0 0 434604536.69044638 -51060626.450979233 0 -51060626.450979233 105758711.24468136 0 0 0 0 125367386.61507362 76828973.679028511 0 76828973.679028511 284591863.01073265 0 0 0 0 -8742570.7180981636 71857766.551196098 0 71857766.551196098 100673285.11549187 0 0 0 0 -18040873.390545428 185054716.50398922 0 185054716.50398922 -151814975.86528969 0 0 0 0 141333202.21880907 173558382.14661682 0 173558382.14661682 -58761300.564001083 0 0 0 0 -41443394.486560702 237167933.37588787 0 237167933.37588787 26706317.628846169 0 0 0 0 127672239.82675081 245605747.38881254 0 245605747.38881254 -144649989.48332214 0 0 0 0 -122697437.43926871 317247001.21188641 0 317247001.21188641 -93339021.950567245 0 0 0 0 -35194995.968871102 216735355.84002733 0 216735355.84002733 -185191692.15302849 0 0 0 0 -1536227.4098340571 304757588.01551151 0 304757588.01551151 -235146199.80841255 0 0 0 0 -15185876.204110324 325763923.5662384 0 325763923.5662384 -121205863.00230455 0 0 0 0 -159649630.98439908 237430888.91012287 0 237430888.91012287 -257779894.21296501 0 0 0 0 -380378750.95096016 213559771.7132349 0 213559771.7132349 -125677556.18106365 0 0 0 0 -152610590.16876739 297660185.28751564 0 297660185.28751564 -132149664.3116684 0 0 0 0 -173509951.91688332 149390849.89363289 0 149390849.89363289 -67185845.355373859 0 0 0 0 -297944497.05221498 305773252.76480722 0 305773252.76480722 -177306869.23655319 0 0 0 0 -442094501.13980782 337722557.02228951 0 337722557.02228951 -130586897.1181488 0 0 0 0 91424329.654535294 19706802.24263382 0 19706802.24263382 -68638787.00844574 0 0 0 0 -352516679.15794766 215709035.42187309 0 215709035.42187309 -236527032.07352257 0 0 0 0 -77814378.983985662 61948359.169375896 0 61948359.169375896 22343808.617471695 0 0 0 0 74157879.463909149 -189425951.71950245 0 -189425951.71950245 85405008.666993141 0 0 0 0 3458804.3337842938 3169840.8239618107 0 3169840.8239618107 2301538.6326494887 0 0 0 0 89975014.215332031 -88712459.432141304 0 -88712459.432141304 158249520.18813324 0 0 0 0 120313810.41918564 -101345174.16771221 0 -101345174.16771221 -42342832.371490479 0 0 0 0 16093838.418715687 8238337.5031521553 0 8238337.5031521553 -4680280.1642228011 0 0 0 0 56582330.459907532 26114323.026068211 0 26114323.026068211 -1234179.1620149612 0 0 0 0 19751344.251594543 8367699.1529521942 0 8367699.1529521942 -16429984.852312088 0 0 0 0 130470389.8806076 15143990.856156349 0 15143990.856156349 -47515316.546426117 0 0 0 0 99816254.482402802 -11655191.102053642 0 -11655191.102053642 5946098.516620636 0 0 0 0 124939385.23357201 -71128537.326154232 0 -71128537.326154232 28394680.582083702 0 0 0 0 40643972.713047028 -40989500.209909439 0 -40989500.209909439 29987645.60549432 0 0 0 0 4916169.0294860043 -308509.27317062765 0 -308509.27317062765 -5548889.9535293207 0 0 0 0 7249447.8132145293 5704306.084529819 0 5704306.084529819 2705088.6080322508 0 0 0 0 101274228.8949585 -26161164.214430332 0 -26161164.214430332 -3994729.4603004456 0 0 0 0 109815607.92844963 -36699745.134397507 0 -36699745.134397507 8598805.0007209778 0 0 0 0 18353151.579294205 -90984919.003691673 0 -90984919.003691673 -16541413.362055779 0 0 0 0 -1036735.1497764587 -60596194.089283943 0 -60596194.089283943 31438784.762289047 0 0 0 0 173938337.963871 -73307367.794937134 0 -73307367.794937134 -76261558.485463142 0 0 0 0 140735737.96788597 13328393.600617051 0 13328393.600617051 24127463.140789032 0 0 0 0 80802235.1757164 4312829.1076335907 0 4312829.1076335907 37244688.491799831 0 0 0 0 9201855.2704315186 12051274.58927536 0 12051274.58927536 -12470227.408567429 0 0 0 0 5362540.060295105 15926157.675573349 0 15926157.675573349 -15333156.724313736 0 0 0 0 14490707.578231812 13146838.77331543 0 13146838.77331543 -18580760.083702087 0 0 0 0 6770206.8788604736 19400487.810928345 0 19400487.810928345 -19610796.805067778 0 0 0 0 11181140.050605774 17239396.676242828 0 17239396.676242828 -19830391.385051727 0 0 0 0 9206052.2073364258 16759483.498743057 0 16759483.498743057 -18489818.44915086 0 0 0 0 9573909.587726593 15944066.804404736 0 15944066.804404736 -18078171.932743073 0 0 0 0 7007195.2839508057 16380393.01335907 0 16380393.01335907 -18114306.575812578 0 0 0 0 8672477.5696589947 16989841.79048872 0 16989841.79048872 -18291051.298549652 0 0 0 0 8675050.240903616 17058439.953343153 0 17058439.953343153 -16860921.923065186 0 0 0 0 6907528.9852905273 17387550.522979736 0 17387550.522979736 -20108554.581642151 0 0 0 0 16709013.829328816 6217477.5053245518 0 6217477.5053245518 -10232002.528039567 0 0 0 0 5112094.3132858276 18122787.573444366 0 18122787.573444366 -18253724.755004883 0 0 0 0 33786879.124908447 3315087.1240997314 0 3315087.1240997314 49028774.142906189 0 0 0 0 117753137.7995224 7600790.9573230743 0 7600790.9573230743 39546607.700252533 0 0 0 0 6537139.6224419866 -916986.22629697016 0 -916986.22629697016 -1943577.1218411778 0 0 0 0 69485337.597084045 9065802.0817527771 0 9065802.0817527771 40012014.314675331 0 0 0 0 10111600.193645477 -32218812.16493392 0 -32218812.16493392 54281432.615457535 0 0 0 0 56276339.600112915 -48976982.975338936 0 -48976982.975338936 24728142.645450592 0 0 0 0 22240047.174293518 -58419419.963458061 0 -58419419.963458061 24037365.675445557 0 0 0 0 69282020.474346161 -39516303.784708023 0 -39516303.784708023 55509026.665569305 0 0 0 0 32498412.235046387 -21195101.813577652 0 -21195101.813577652 55821479.244220734 0 0 0 0 66440015.901672363 -26943008.643135071 0 -26943008.643135071 53656178.155121803 0 0 0 0 49582841.374172211 -14544546.157029152 0 -14544546.157029152 49474256.084346771 0 0 0 0 42563292.666110992 -38776329.660617828 0 -38776329.660617828 66587454.247751236 0 0 0 0 46115488.680351257 -30982532.885375977 0 -30982532.885375977 70853624.095693588 0 0 0 0 33294139.219952345 -41091126.376695752 0 -41091126.376695752 63238375.382381439 0 0 0 0 66264052.887481689 -15780908.993175507 0 -15780908.993175507 67322911.66106081 0 0 0 0 77948458.260818481 25595413.873568535 0 25595413.873568535 -8375177.1742908955 0 0 0 0 71910052.086162567 -67406708.948777199 0 -67406708.948777199 -12347221.079362869 0 0 0 0 103108728.92899323 -54068164.141908169 0 -54068164.141908169 -13568124.888328552 0 0 0 0 159117803.20922852 -22096346.008732796 0 -22096346.008732796 1399422.4693508148 0 0 0 0 3422117.5313929506 2994918.2167948168 0 2994918.2167948168 -2813126.3265501554 0 0 0 0 56321524.136123657 -30423877.420219421 0 -30423877.420219421 47033362.262197495 0 0 0 0 52040269.261329651 -33519073.974340439 0 -33519073.974340439 46369565.434196472 0 0 0 0 4513020.518825531 36653226.70982933 0 36653226.70982933 24849657.065275669 0 0 0 0 101859274.83986664 -2868083.5953502655 0 -2868083.5953502655 -5131386.2009615898 0 0 0 0 31109352.133247375 -1421973.1762256622 0 -1421973.1762256622 13208060.687802315 0 0 0 0 26781491.631233782 -34098039.800026178 0 -34098039.800026178 -270514463.4004879 0 0 0 0 51291402.835540771 -29449224.787130356 0 -29449224.787130356 52079430.139257431 0 0 0 0 15826371.885937979 5028263.4295966383 0 5028263.4295966383 -1035076.5380859803 0 0 0 0 91023862.758083344 -58294622.255214691 0 -58294622.255214691 107704833.33869171 0 0 0 0 40883462.103538513 9805657.9500865936 0 9805657.9500865936 46424829.438920736 0 0 0 0 30090130.658725739 -7096171.499920845 0 -7096171.499920845 -16736957.932219744 0 0 0 0 -14147398.967563629 24800331.083846092 0 24800331.083846092 95100529.247216225 0 0 0 0 -8086490.1252059937 -6698510.0351057053 0 -6698510.0351057053 101461993.67839909 0 0 0 0 45892676.789570034 186777379.31642914 0 186777379.31642914 -216690223.3850472 0 0 0 0 -115927833.6385631 269286208.47933954 0 269286208.47933954 -244225561.62095833 0 0 0 0 40219926.199991226 -10629546.155522346 0 -10629546.155522346 -30875172.022716522 0 0 0 0 10952411.150349248 4668286.0309607098 0 4668286.0309607098 -610359.86118721496 0 0 0 0 -105572992.27077734 322709406.73225689 0 322709406.73225689 -232987084.30724669 0 0 0 0 4041310.9286720054 1499961.9299539225 0 1499961.9299539225 -2000110.8487117738 0 0 0 0 99484307.961164474 -35249769.923453331 0 -35249769.923453331 31210596.805501938 0 0 0 0 91915651.466362 -14110938.665565491 0 -14110938.665565491 42046689.205999374 0 0 0 0 2205491256.4976578 89793898.437497452 0 89793898.437497452 -196434760.60742655 0 0 0 0 1575284610.1951475 543638394.36875629 0 543638394.36875629 -411654417.67487597 0 0 0 0 1240649501.8487244 -320121544.41670841 0 -320121544.41670841 -495703479.98969299 0 0 0 0 1564971536.1970139 -719926689.91658318 0 -719926689.91658318 -38661901.810266078 0 0 0 0 2534919321.0508995 -986347517.73176646 0 -986347517.73176646 -60549482.845883369 0 0 0 0 974415381.20690036 -280503880.35240519 0 -280503880.35240519 43378962.439312667 0 0 0 0 2394732319.6413536 750325833.59436846 0 750325833.59436846 552545367.96715105 0 0 0 0 2204717986.6153946 281786970.16357964 0 281786970.16357964 433654244.36594063 0 0 0 0 2348778281.9750099 -164720120.64661181 0 -164720120.64661181 1537291555.3937924 0 0 0 0 2301589220.6700468 -21450517.600410238 0 -21450517.600410238 183888513.43363452 0 0 0 0 2093572199.0098858 685126158.46692705 0 685126158.46692705 -226326140.20203096 0 0 0 0 1521373897.0015717 1201598041.3531508 0 1201598041.3531508 515944396.21900415 0 0 0 0 966990147.91083908 -618544416.70251632 0 -618544416.70251632 523802676.27181935 0 0 0 0 2693683869.8539658 386143350.95266783 0 386143350.95266783 -115566271.00094992 0 0 0 0 6016448.2783017606 -778271.6210590268 0 -778271.6210590268 -341153.24730297178 0 0 0 0 -390194871.27666473 140035855.75300932 0 140035855.75300932 123028918.50436544 0 0 0 0 1107622884.9122429 865136406.31136882 0 865136406.31136882 224101878.23237443 0 0 0 0 70012008.718188286 6201442.9319768315 0 6201442.9319768315 241988321.23998362 0 0 0 0 857640116.13244247 322513361.92018551 0 322513361.92018551 -45983450.667997755 0 0 0 0 202279206.87966156 453059854.26182246 0 453059854.26182246 343270087.33148712 0 0 0 0 -61442723.156143188 -38682282.692199647 0 -38682282.692199647 -4358143.8083075583 0 0 0 0 105909933.46850586 123949724.31950022 0 123949724.31950022 45175318.893720336 0 0 0 0 15066244.764876593 -2193128.170880449 0 -2193128.170880449 -1648194.9467926957 0 0 0 0 -17262775.601665497 -4891102.0609586239 0 -4891102.0609586239 -64975318.520429373 0 0 0 0 112365280.79880142 478825.68713736534 0 478825.68713736534 -168158800.33766627 0 0 0 0 251845118.61336327 -21674564.065615982 0 -21674564.065615982 -400523948.78421319 0 0 0 0 20269482.010056496 78211780.989365667 0 78211780.989365667 -5709278.9350840151 0 0 0 0 638931.55568321794 -1297340.6556448331 0 -1297340.6556448331 -1436032.6314934087 0 0 0 0 -43117900.755584717 -113787557.37348592 0 -113787557.37348592 143647025.70826614 0 0 0 0 973347520.50948989 -291873033.897228 0 -291873033.897228 12244089.926959068 0 0 0 0 959074207.6962738 -306168436.19296408 0 -306168436.19296408 13115668.40890342 0 0 0 0 -10403371.742160797 151924306.03307927 0 151924306.03307927 95668970.344406366 0 0 0 0 -82082192.369497299 18366116.687987596 0 18366116.687987596 318623718.20870614 0 0 0 0 137780499.02758789 -286411128.38001263 0 -286411128.38001263 273219454.51740992 0 0 0 0 -20209057.833610535 509051.44909405708 0 509051.44909405708 67868537.0997262 0 0 0 0 -2738884.8882999122 -1609726.3923910968 0 -1609726.3923910968 -1284908.9910129532 0 0 0 0 -7460437.2582244873 83105095.204488516 0 83105095.204488516 -88955647.530353367 0 0 0 0 702767.1837644577 3478680.7983365953 0 3478680.7983365953 28590413.789882898 0 0 0 0 19280460.889413562 -12762432.306463122 0 -12762432.306463122 -8803201.2586415336 0 0 0 0 5520063.7704859357 11308918.838203043 0 11308918.838203043 2714968.1337262159 0 0 0 0 59751133.61271286 15731101.259343266 0 15731101.259343266 620375.90685406327 0 0 0 0 57018090.231785297 948631.65100990236 0 948631.65100990236 -10946422.547580242 0 0 0 0 19659936.924268909 3662773.0758162877 0 3662773.0758162877 -9919452.1517685801 0 0 0 0 70865111.474258423 32872391.189834952 0 32872391.189834952 -2856004.0297983885 0 0 0 0 -6017410.8298416138 31490403.11799407 0 31490403.11799407 1737378.7591045648 0 0 0 0 5171056.6832962036 22263434.90960288 0 22263434.90960288 -232499.76545840502 0 0 0 0 -22657979.875602722 29302969.885301426 0 29302969.885301426 66820879.042534359 0 0 0 0 6359977.6925468445 38038569.529832125 0 38038569.529832125 -30905140.500493288 0 0 0 0 75464921.737770081 -140539057.66357124 0 -140539057.66357124 -355698191.34829539 0 0 0 0 20660480.893420666 -2070869.2045085565 0 -2070869.2045085565 -3999334.2081938186 0 0 0 0 24005434.040145874 25032836.814031363 0 25032836.814031363 -56501104.738524437 0 0 0 0 25110690.740440369 -193554981.3938477 0 -193554981.3938477 -262149749.87065321 0 0 0 0 10405192.088806152 -68450312.009371385 0 -68450312.009371385 -93928962.382773727 0 0 0 0 119914577.8580811 -94372307.524747372 0 -94372307.524747372 -88309419.719214395 0 0 0 0 56285697.802703857 -83000290.875055403 0 -83000290.875055403 -86415971.720578015 0 0 0 0 -61037420.551582336 -53211309.735113293 0 -53211309.735113293 -90338589.626010671 0 0 0 0 -127979162.33944702 -99244192.269086301 0 -99244192.269086301 -269488877.71275008 0 0 0 0 45375237.097993851 -108556119.25012392 0 -108556119.25012392 -269036765.70861125 0 0 0 0 -23476799.75374794 -158974736.30172998 0 -158974736.30172998 -110500276.45845914 0 0 0 0 4791988.6059598923 9979193.3522744644 0 9979193.3522744644 -1718274.2116852819 0 0 0 0 17116030.089447021 16917412.518410299 0 16917412.518410299 -15274776.909813169 0 0 0 0 96191984.624549866 73916795.992471129 0 73916795.992471129 47967950.762309387 0 0 0 0 865988.16798663884 2971801.9460601644 0 2971801.9460601644 -66253.625023813904 0 0 0 0 62819865.844070435 34613611.109553993 0 34613611.109553993 1689434.7954465747 0 0 0 0 19406435.741073608 14969814.531320333 0 14969814.531320333 -32358595.386706352 0 0 0 0 1081281.7832468189 406452.88823638856 0 406452.88823638856 -61888.855426003276 0 0 0 0 27117737.943153381 -35320353.669034421 0 -35320353.669034421 -1723960.8498111367 0 0 0 0 127951423.00427914 -37507216.780246235 0 -37507216.780246235 -22302059.587451782 0 0 0 0 18921864.55518622 -12175508.691557148 0 -12175508.691557148 -9482118.0189299956 0 0 0 0 153172859.78826141 -178359.14152044058 0 -178359.14152044058 -97261860.809420705 0 0 0 0 179516028.77974701 -113085316.54577033 0 -113085316.54577033 -244293995.53503698 0 0 0 0 21894977.372825623 21717020.212488059 0 21717020.212488059 -3497358.4845883772 0 0 0 0 72454683.294998169 -101382865.79064405 0 -101382865.79064405 -76250422.721281886 0 0 0 0 49709100.336853027 -63201781.680050328 0 -63201781.680050328 -85885002.690156788 0 0 0 0 18601973.697844189 -11228708.920553502 0 -11228708.920553502 -10340429.90078566 0 0 0 0 -14309514.576667786 -43794566.92408289 0 -43794566.92408289 -29223247.183591548 0 0 0 0 108747566.40346336 -194156717.51129913 0 -194156717.51129913 -17650710.882919312 0 0 0 0 2991031.1517276764 -45080869.98736883 0 -45080869.98736883 -31063562.801466525 0 0 0 0 -28454388.010016441 -7304352.7196235657 0 -7304352.7196235657 48550289.427885056 0 0 0 0 259521749.59075737 -28095886.703593254 0 -28095886.703593254 3868702.3473815918 0 0 0 0 272890877.29641747 75119709.325275242 0 75119709.325275242 -12081350.166330338 0 0 0 0 -192193945.42297459 -35033974.757465839 0 -35033974.757465839 -90106059.671883583 0 0 0 0 139945542.15406036 -49097686.200317383 0 -49097686.200317383 58608329.807797432 0 0 0 0 -1045041.3451712662 -1875199.6297252197 0 -1875199.6297252197 -1084469.1940374766 0 0 0 0 197480992.02638054 21980331.974282265 0 21980331.974282265 29243689.815056801 0 0 0 0 212297176.71348381 57525696.601698875 0 57525696.601698875 11323680.273506165 0 0 0 0 129323222.01247406 60078016.220294952 0 60078016.220294952 32874927.310418129 0 0 0 0 198958977.47761726 94740575.778628349 0 94740575.778628349 34838313.032551765 0 0 0 0 225653301.21157646 71272702.596209526 0 71272702.596209526 25576473.59245491 0 0 0 0 206227705.83397937 88559540.580286205 0 88559540.580286205 21383339.410726547 0 0 0 0 -150884511.11503601 -126913265.27671432 0 -126913265.27671432 -19087943.679149628 0 0 0 0 -6823597.7154219141 -4627614.8761468139 0 -4627614.8761468139 -1266340.5364310862 0 0 0 0 95250141.966080666 5843879.9408071041 0 5843879.9408071041 22700789.687980652 0 0 0 0 -55374561.155080795 -35360858.225450516 0 -35360858.225450516 -21120735.601703644 0 0 0 0 256613163.15461159 -23978622.735580444 0 -23978622.735580444 -15225594.454525113 0 0 0 0 107616948.69936752 -2020249.7984437943 0 -2020249.7984437943 -25162776.55475235 0 0 0 0 -63147565.502536774 -23520309.876356125 0 -23520309.876356125 -37376376.240367889 0 0 0 0 557053599.10363388 105732125.29683876 0 105732125.29683876 -27291720.745277405 0 0 0 0 -141232912.87771034 45442872.737845421 0 45442872.737845421 73089010.440602779 0 0 0 0 561847018.13861465 214901724.5143652 0 214901724.5143652 -157479527.69439983 0 0 0 0 286806787.32462502 322461057.54938269 0 322461057.54938269 221006333.11319923 0 0 0 0 105743595.12688655 72009808.825438261 0 72009808.825438261 60950751.962100983 0 0 0 0 191234448.99936104 168806519.87415504 0 168806519.87415504 170006690.78342271 0 0 0 0 25525866.404924393 -178795295.33149242 0 -178795295.33149242 -149161548.8145752 0 0 0 0 2480381.667037148 -558221.65039396565 0 -558221.65039396565 281958.35612465302 0 0 0 0 143901105.25215816 -239151281.73143482 0 -239151281.73143482 -164544704.53800869 0 0 0 0 177048884.13053417 -63523370.610973835 0 -63523370.610973835 -261683555.26976383 0 0 0 0 188914683.1906147 -109681518.08447981 0 -109681518.08447981 -130102147.66956902 0 0 0 0 756922832.38292694 -151659934.66843987 0 -151659934.66843987 -286129652.45938873 0 0 0 0 139198153.99535751 50135428.391630173 0 50135428.391630173 16909711.81586504 0 0 0 0 629235481.76450026 -325664668.60075468 0 -325664668.60075468 77828455.875867844 0 0 0 0 68329716.22183609 888501972.90210724 0 888501972.90210724 -72747673.647607088 0 0 0 0 1559596.8588788072 -1595253.4608179163 0 -1595253.4608179163 -1686685.2180649475 0 0 0 0 -1693157.1443087421 -655229.16651608795 0 -655229.16651608795 -361913.68418809026 0 0 0 0 20465008.726736069 34264028.100502014 0 34264028.100502014 37699405.448322296 0 0 0 0 -6696871.512444308 -16456932.637417331 0 -16456932.637417331 -2107940.514513928 0 0 0 0 201257463.85559082 3604883.7516868114 0 3604883.7516868114 -79588704.934753418 0 0 0 0 5489124.0806348892 -7287507.6700488767 0 -7287507.6700488767 -6136211.1227672491 0 0 0 0 69885080.617918968 -43657594.2376194 0 -43657594.2376194 -16949840.860844612 0 0 0 0 90063949.792497635 -96653930.26506424 0 -96653930.26506424 -56347490.636846542 0 0 0 0 92237903.771158218 -99039604.089532852 0 -99039604.089532852 -111962004.51395559 0 0 0 0 73394212.984752655 -105356865.37441635 0 -105356865.37441635 -31579165.708897591 0 0 0 0 73796184.920111656 -102661860.40060997 0 -102661860.40060997 -57656558.353707314 0 0 0 0 88365981.775071144 -74787701.781604767 0 -74787701.781604767 -4416354.5609798431 0 0 0 0 31254982.74557972 -72796651.048611641 0 -72796651.048611641 -3008609.3017978668 0 0 0 0 35972941.201039314 -85402981.949079514 0 -85402981.949079514 29950073.210124969 0 0 0 0 8955228.3079662323 -57196141.748452187 0 -57196141.748452187 42103791.919214725 0 0 0 0 12088587.064268231 -38888099.821722507 0 -38888099.821722507 5116981.03881073 0 0 0 0 23532115.433655739 -11660566.01161623 0 -11660566.01161623 -30259614.330734253 0 0 0 0 -3555278.6838550568 -9745353.6998023987 0 -9745353.6998023987 -14995877.13841629 0 0 0 0 29412861.553936005 -34367306.248976707 0 -34367306.248976707 1104458.6227862835 0 0 0 0 45592235.362264633 -58662173.152921677 0 -58662173.152921677 10924923.568472385 0 0 0 0 39519130.299181461 -30899869.056297541 0 -30899869.056297541 5874278.5226593018 0 0 0 0 -416087.30242583808 -1510274.5320504736 0 -1510274.5320504736 -1098788.8231997951 0 0 0 0 66115540.254337311 -39320374.478503704 0 -39320374.478503704 -3042058.4010124207 0 0 0 0 8181883.7259621676 -7273810.959055502 0 -7273810.959055502 -8886102.1267389935 0 0 0 0 -9435227.6764297485 -15024041.612434804 0 -15024041.612434804 -1165104.4419763684 0 0 0 0 12289772.723697662 -17166958.116932005 0 -17166958.116932005 -37410446.569295883 0 0 0 0 -10936836.079551697 -36037728.574092746 0 -36037728.574092746 -31731626.945909858 0 0 0 0 -75001329.41015625 66283179.949783206 0 66283179.949783206 116908940.97695827 0 0 0 0 -52496238.642776489 -55629129.109997988 0 -55629129.109997988 2320693.2739007473 0 0 0 0 -49085152.652366638 -64209385.335734814 0 -64209385.335734814 -50287906.792997777 0 0 0 0 -9262354.9697761536 -26395477.79690586 0 -26395477.79690586 2567790.3249956369 0 0 0 0 -2861521.8227996826 -17799550.210239261 0 -17799550.210239261 -61724566.678134441 0 0 0 0 13883823.032372739 -5154922.0460699908 0 -5154922.0460699908 -8913960.7272653244 0 0 0 0 10310711.491909623 17193049.562644482 0 17193049.562644482 -35118105.626235247 0 0 0 0 17272450.282821685 -6068552.5061349841 0 -6068552.5061349841 -8294087.9192559235 0 0 0 0 5696376.2519836426 -5282656.3379950523 0 -5282656.3379950523 -5766256.761821866 0 0 0 0 12189881.016878389 -1578842.9165907213 0 -1578842.9165907213 -8837857.0951495059 0 0 0 0 72791079.519245148 35003620.290809497 0 35003620.290809497 -114585455.59984446 0 0 0 0 21450865.183711164 -5191459.6013666708 0 -5191459.6013666708 -3817735.3623887817 0 0 0 0 71548431.88280201 -12533065.450936079 0 -12533065.450936079 -49431267.353623688 0 0 0 0 6320066.1603069827 -3986823.0872625606 0 -3986823.0872625606 -5136012.2079611644 0 0 0 0 -683407.53425216675 -56154822.930485845 0 -56154822.930485845 -34618181.512306392 0 0 0 0 -159878594.12136459 -44810876.272093743 0 -44810876.272093743 45181331.56615591 0 0 0 0 -42538.827823253814 -342275.76104824245 0 -342275.76104824245 -32877.24069167336 0 0 0 0 151371666.10028076 -102781816.16285677 0 -102781816.16285677 -162910096.0625155 0 0 0 0 168017850.22987747 -56014677.038925141 0 -56014677.038925141 -60994252.576695561 0 0 0 0 43716651.542263031 -106966235.34584126 0 -106966235.34584126 20580418.672894359 0 0 0 0 -69930302.124507427 -355804.76452070475 0 -355804.76452070475 -2221830.3307542801 0 0 0 0 27260919.912937164 -76294231.935119808 0 -76294231.935119808 7342058.1520400047 0 0 0 0 -157243.05269965297 -988249.76397055201 0 -988249.76397055201 -274594.4574394701 0 0 0 0 45670138.940401077 -38002513.858717412 0 -38002513.858717412 30496817.936938167 0 0 0 0 13612106.59010601 -96159419.925266534 0 -96159419.925266534 37906098.714003563 0 0 0 0 22881845.807937622 -86334670.310341775 0 -86334670.310341775 -34458152.483649135 0 0 0 0 -74069639.489070892 -86534941.569898188 0 -86534941.569898188 27812971.381817579 0 0 0 0 -1467096.8921165466 -59346265.315116301 0 -59346265.315116301 12616423.122732401 0 0 0 0 -45059521.61730957 -30466757.893844247 0 -30466757.893844247 13751750.913775206 0 0 0 0 -18631433.85916996 -12791989.792617612 0 -12791989.792617612 -13498651.684390545 0 0 0 0 58444351.763553619 -14976128.27403599 0 -14976128.27403599 -86618176.672563851 0 0 0 0 -1477615.1987964548 -771849.93857995979 0 -771849.93857995979 -146090.47522472404 0 0 0 0 -48474352.417110443 -16637931.497527599 0 -16637931.497527599 10860502.819200277 0 0 0 0 -34732395.956047058 -36244013.34559238 0 -36244013.34559238 16397187.329853058 0 0 0 0 -39367291.753166199 -24560543.072405636 0 -24560543.072405636 12137057.485651135 0 0 0 0 -45178055.231437683 -24671009.992851973 0 -24671009.992851973 13257251.580430329 0 0 0 0 7941437.7852401733 -20377633.949082851 0 -20377633.949082851 -17053273.764007807 0 0 0 0 -4977421.1003860477 -2268321.3938627951 0 -2268321.3938627951 -227405.40315689845 0 0 0 0 -28778638.703315735 -13064072.507406354 0 -13064072.507406354 -2041535.3752958477 0 0 0 0 9945244.2534637451 -7571073.202234745 0 -7571073.202234745 -13921231.830515385 0 0 0 0 54008.546404317021 -21012227.299154345 0 -21012227.299154345 -7538378.2088605026 0 0 0 0 -7074970.247253418 -8651793.9418561459 0 -8651793.9418561459 -6305890.9397389889 0 0 0 0 -2166575.6293771751 -2225934.248073576 0 -2225934.248073576 -1005186.922217764 0 0 0 0 2388888.0058277138 857106.35583783686 0 857106.35583783686 -1420637.7793612173 0 0 0 0 -8189707.2797698975 -22746749.887018085 0 -22746749.887018085 -11089134.880450249 0 0 0 0 2815715.0651931763 -247691.93654072285 0 -247691.93654072285 -1866155.5451485515 0 0 0 0 -151757116.03347778 -16752461.07017149 0 -16752461.07017149 69389564.739242315 0 0 0 0 23164021.915668488 -101958968.7276077 0 -101958968.7276077 45699457.644578695 0 0 0 0 -51359498.815315247 23980663.481831849 0 23980663.481831849 6389970.7199978828 0 0 0 0 -125771290.06291199 -29639567.45673275 0 -29639567.45673275 37105918.07585907 0 0 0 0 -81089117.983016968 -23064695.656353235 0 -23064695.656353235 -13387892.790362358 0 0 0 0 -196680437.88122559 -106802661.75835943 0 -106802661.75835943 -26490235.775525808 0 0 0 0 -20103.746072713286 -50948.193860614672 0 -50948.193860614672 -134423.2289125009 0 0 0 0 294378598.67926788 -20825833.332418263 0 -20825833.332418263 48813107.500072598 0 0 0 0 140672549.82910156 -17553925.249899268 0 -17553925.249899268 53885172.321362376 0 0 0 0 232054793.8688736 -129575399.68185854 0 -129575399.68185854 -2853106.4449660778 0 0 0 0 327273438.44256973 -203774926.52176726 0 -203774926.52176726 112670465.94766355 0 0 0 0 551033708.09537697 18937436.916680008 0 18937436.916680008 8069412.3505198956 0 0 0 0 1135577644.7559662 -436275047.00277203 0 -436275047.00277203 29574359.331739694 0 0 0 0 1393637943.3295851 579361504.99480987 0 579361504.99480987 -9860959.862539053 0 0 0 0 701771483.94957924 206809280.14750016 0 206809280.14750016 -81259071.605677843 0 0 0 0 392879505.70840454 -86013586.421499014 0 -86013586.421499014 -25450721.540848106 0 0 0 0 194547901.2735672 -1818149.5657052696 0 -1818149.5657052696 9742087.7158328295 0 0 0 0 -80551018.21257019 -58800828.387702495 0 -58800828.387702495 2983805.707021784 0 0 0 0 341301232.88580322 62469686.932027131 0 62469686.932027131 -146323725.43433005 0 0 0 0 -3269055.3970508575 -49984436.419046275 0 -49984436.419046275 -46614474.65492779 0 0 0 0 14765968.90088398 -3868647.8829780328 0 -3868647.8829780328 -704758.75355019234 0 0 0 0 274839114.37802219 174117493.29328549 0 174117493.29328549 45385017.792580009 0 0 0 0 496258486.81134605 143410862.63742173 0 143410862.63742173 -122236586.49740535 0 0 0 0 317167059.12838745 79817048.013431117 0 79817048.013431117 -53092916.815412223 0 0 0 0 482169694.66212082 166137475.63365296 0 166137475.63365296 60936439.345929936 0 0 0 0 766415227.20560074 509365878.30235577 0 509365878.30235577 143393471.60984647 0 0 0 0 2197977999.5909338 1293004896.4546773 0 1293004896.4546773 567267860.58800471 0 0 0 0 2203243281.1152344 386681834.87723362 0 386681834.87723362 -322366876.89726645 0 0 0 0 3635971.676826831 144076.49044589512 0 144076.49044589512 -1268042.046480176 0 0 0 0 745353959.53623199 -232935112.08916575 0 -232935112.08916575 -504447999.02559149 0 0 0 0 597059806.17563438 345586703.31760466 0 345586703.31760466 -65020649.73048842 0 0 0 0 597220134.40503502 358145982.13860142 0 358145982.13860142 -22366185.120564371 0 0 0 0 1998108.5737618059 -310089.34517261386 0 -310089.34517261386 -290300.99792505236 0 0 0 0 440951535.25231934 -712493286.24193776 0 -712493286.24193776 -386645192.76690125 0 0 0 0 2202113475.9866066 880613792.83914459 0 880613792.83914459 -229590998.27082327 0 0 0 0 933165660.93993759 442589736.47492343 0 442589736.47492343 -322613914.50632703 0 0 0 0 1537815854.756567 -84277633.738775149 0 -84277633.738775149 -918640186.07747722 0 0 0 0 1155905853.0194817 -669464577.3436656 0 -669464577.3436656 -47672636.078746617 0 0 0 0 1272966216.8888454 304270500.7644555 0 304270500.7644555 -1129236676.2040873 0 0 0 0 1509604160.3543854 -82600796.76321137 0 -82600796.76321137 -918101309.09054661 0 0 0 0 -168341752.65030098 -821845099.71940744 0 -821845099.71940744 237241398.33829212 0 0 0 0 -111002030.14585114 -394324295.95528412 0 -394324295.95528412 -1272991294.9028835 0 0 0 0 307834570.18988609 -213425895.87994552 0 -213425895.87994552 -487617161.44565892 0 0 0 0 -794511376.72789764 189238093.5050559 0 189238093.5050559 -765953130.31817007 0 0 0 0 115570749.26563263 28250695.533666372 0 28250695.533666372 -749776394.25801551 0 0 0 0 -1190990667.7772675 -664698871.61750841 0 -664698871.61750841 -377330972.20828104 0 0 0 0 -444410850.68849945 -784664833.69461286 0 -784664833.69461286 -371485287.63621247 0 0 0 0 -304575556.07226944 -636206573.4415648 0 -636206573.4415648 -268773591.52559137 0 0 0 0 393288885.5254364 -905061072.65638793 0 -905061072.65638793 -171020785.68390471 0 0 0 0 460798309.88950539 -118383728.54288876 0 -118383728.54288876 -460213068.30858135 0 0 0 0 6975791.961953585 -3293568.6422471614 0 -3293568.6422471614 -3572885.7204638487 0 0 0 0 273769204.47610283 -438528631.06308389 0 -438528631.06308389 405918098.50563443 0 0 0 0 891567951.43056679 -312510682.19104552 0 -312510682.19104552 188935819.30797577 0 0 0 0 722597446.27938473 -970136776.90953708 0 -970136776.90953708 258829308.90576303 0 0 0 0 1028653168.4131289 -538471965.7156837 0 -538471965.7156837 561233631.59679449 0 0 0 0 2206471002.0377011 -725097075.2965349 0 -725097075.2965349 -365003271.52699339 0 0 0 0 416926646.73913193 -173175557.33606052 0 -173175557.33606052 251437501.3041403 0 0 0 0 2201161372.0933189 -1349130373.3449898 0 -1349130373.3449898 959190348.95308018 0 0 0 0 6808822.1343269795 -3346158.4145375947 0 -3346158.4145375947 -2801543.0487484178 0 0 0 0 2180198267.4578938 -1298060190.6148551 0 -1298060190.6148551 267552644.11321005 0 0 0 0 185449390.49408531 -584579806.08750296 0 -584579806.08750296 1476660851.062917 0 0 0 0 5422733.721401602 -1927189.1893801605 0 -1927189.1893801605 791126.90624816704 0 0 0 0 -73871761.859589577 -79301570.789821208 0 -79301570.789821208 673263772.0384109 0 0 0 0 167292605.85361862 -371498873.33693039 0 -371498873.33693039 419014331.06151092 0 0 0 0 281293980.80242968 -471032808.1334635 0 -471032808.1334635 499812795.38635278 0 0 0 0 145909075.47823519 -219431371.87901697 0 -219431371.87901697 325106784.99868679 0 0 0 0 124512848.62088585 -105003652.31883493 0 -105003652.31883493 108197110.12010571 0 0 0 0 47366629.466493964 16100947.041655272 0 16100947.041655272 33202794.592982292 0 0 0 0 1428631.5783400536 -90862411.377660543 0 -90862411.377660543 259078631.92427206 0 0 0 0 173706487.59677792 -245018953.25068247 0 -245018953.25068247 238676115.60410464 0 0 0 0 111144885.98266292 -155676556.09156108 0 -155676556.09156108 144311105.88279533 0 0 0 0 76476107.009490967 -191805789.02122891 0 -191805789.02122891 311596558.64182544 0 0 0 0 182583126.23203182 -280025442.82261038 0 -280025442.82261038 259189115.02953529 0 0 0 0 174792178.52105331 -252468363.71551418 0 -252468363.71551418 432893335.43787241 0 0 0 0 99098026.154850483 -266646252.39070868 0 -266646252.39070868 383765720.08884001 0 0 0 0 325134354.65419006 -299246457.73114991 0 -299246457.73114991 319577739.21345222 0 0 0 0 2284476018.7268133 -244546205.35706925 0 -244546205.35706925 -327904008.45078057 0 0 0 0 4302302.186582447 -1379336.5516784932 0 -1379336.5516784932 -620590.99417724798 0 0 0 0 -247948352.51964951 -1215004506.7536769 0 -1215004506.7536769 -759267679.73729002 0 0 0 0 1408592523.546397 1023203085.1997671 0 1023203085.1997671 -55041908.104781151 0 0 0 0 322439514.26616573 -743715421.55847049 0 -743715421.55847049 -428411393.96113563 0 0 0 0 127386805.66986966 -1146188055.8822241 0 -1146188055.8822241 -756077675.18984723 0 0 0 0 6023993.2123951502 -3102004.2005584845 0 -3102004.2005584845 -3029100.8354552379 0 0 0 0 195152323.97645378 -385818647.64552832 0 -385818647.64552832 449892303.44352484 0 0 0 0 228021431.25839043 -304371465.55542046 0 -304371465.55542046 339352388.66122818 0 0 0 0 58575229.164275646 -259692411.04515481 0 -259692411.04515481 419309101.81045532 0 0 0 0 95947541.014043808 -230682604.90832567 0 -230682604.90832567 388780305.77018219 0 0 0 0 9543957.8447470665 -199429135.7569375 0 -199429135.7569375 577960989.5717845 0 0 0 0 1586437.4912129641 -233616019.70397329 0 -233616019.70397329 431156968.53245926 0 0 0 0 54773264.071475029 -363440381.63825226 0 -363440381.63825226 487331347.13097858 0 0 0 0 64043359.122482061 -273931601.36487591 0 -273931601.36487591 216645634.60446763 0 0 0 0 -26849705.222234488 -293513481.55803418 0 -293513481.55803418 132504816.70724702 0 0 0 0 -49241882.250524998 -266468266.60608125 0 -266468266.60608125 221869126.45191199 0 0 0 0 89320217.392430216 -183143717.81990179 0 -183143717.81990179 45775723.508524418 0 0 0 0 26108843.249361992 -293276127.79383683 0 -293276127.79383683 401692316.78247118 0 0 0 0 112343495.12498093 -278672128.94890952 0 -278672128.94890952 222419700.46731889 0 0 0 0 65471078.959283829 -190128635.58649385 0 -190128635.58649385 266598830.04209489 0 0 0 0 61907885.645751953 -109044289.18256682 0 -109044289.18256682 137091764.36742988 0 0 0 0 97217097.489359379 -222498863.29879081 0 -222498863.29879081 114890826.99706316 0 0 0 0 39187216.210350752 -19471937.441281423 0 -19471937.441281423 41395506.299972415 0 0 0 0 83199853.984804392 -138808884.61205631 0 -138808884.61205631 -311756.1925317049 0 0 0 0 92338818.025862694 -162184236.37528372 0 -162184236.37528372 145931276.83960205 0 0 0 0 78400351.001273632 -28739858.13830483 0 -28739858.13830483 11159210.060826778 0 0 0 0 13503037.093585968 -7228431.3391547203 0 -7228431.3391547203 10572158.927156925 0 0 0 0 37022829.07049942 -36206086.306369543 0 -36206086.306369543 160579105.17606923 0 0 0 0 45828823.342018604 -29057522.947442055 0 -29057522.947442055 18304119.110640526 0 0 0 0 24402182.737065792 943978.96077847481 0 943978.96077847481 9785950.1250710487 0 0 0 0 2103395.4668218829 3988997.5719333887 0 3988997.5719333887 4160361.0314056873 0 0 0 0 10208066.514970616 1960516.5199004887 0 1960516.5199004887 -6884109.9158375487 0 0 0 0 5566339.9416787028 15130546.421900392 0 15130546.421900392 1058355.9972324371 0 0 0 0 4985508.2336459309 6566630.2170396447 0 6566630.2170396447 3485172.4086682796 0 0 0 0 20875007.227562428 -5873380.6674201488 0 -5873380.6674201488 -2988058.8303897381 0 0 0 0 35577804.900166512 -30388044.620251834 0 -30388044.620251834 17615810.878602974 0 0 0 0 29196363.699704647 -9614731.7431147099 0 -9614731.7431147099 -11861929.522500515 0 0 0 0 31741483.589339137 -7562012.4595838189 0 -7562012.4595838189 -15714768.165073991 0 0 0 0 1259351.7448132355 -771966.70993944188 0 -771966.70993944188 -565908.34625991504 0 0 0 0 -177590145.40391314 -127189711.86815751 0 -127189711.86815751 -169268130.37099946 0 0 0 0 28829322.130693674 -10747758.049892038 0 -10747758.049892038 -14999159.623122454 0 0 0 0 31591424.91711998 -8219208.4562923312 0 -8219208.4562923312 -17827260.26726371 0 0 0 0 70514344.090177774 -188322370.46427366 0 -188322370.46427366 -264544147.35089588 0 0 0 0 66889009.662224174 -149637930.77712476 0 -149637930.77712476 92078984.383041859 0 0 0 0 36831516.833299935 -58776303.502179161 0 -58776303.502179161 -92598432.048437595 0 0 0 0 123558379.06372857 -96697174.25067085 0 -96697174.25067085 -245265077.53984368 0 0 0 0 26346670.604239941 -180695301.86503163 0 -180695301.86503163 -162501663.37049779 0 0 0 0 54899282.06045866 -96574815.549727514 0 -96574815.549727514 -226979947.30561775 0 0 0 0 7796761.7876336249 -8895975.4718580209 0 -8895975.4718580209 -4926794.300400665 0 0 0 0 7223101.7922293665 -6081389.4539401829 0 -6081389.4539401829 -3986074.902881443 0 0 0 0 6043866.2098277807 -5398298.9041337967 0 -5398298.9041337967 -3505400.4648075104 0 0 0 0 15454794.500048637 -3073719.580988884 0 -3073719.580988884 -16833618.688469172 0 0 0 0 14106746.8097471 -23370302.066177845 0 -23370302.066177845 -3227830.4150810242 0 0 0 0 7876136.9714389583 -8713812.4632695373 0 -8713812.4632695373 -2365958.4328243323 0 0 0 0 3542790.6118021011 -7965243.4566469193 0 -7965243.4566469193 2564263.3940315247 0 0 0 0 2360212.6973376493 -2530092.0107376082 0 -2530092.0107376082 -447163.9224280229 0 0 0 0 123709561.14041972 195328701.23821855 0 195328701.23821855 -312331284.3799715 0 0 0 0 6966460.5881946087 -48679855.592364669 0 -48679855.592364669 -118668493.10186887 0 0 0 0 367926961.73611975 -209727375.02687049 0 -209727375.02687049 62342038.754788399 0 0 0 0 227906378.84120011 136551755.02287388 0 136551755.02287388 145399265.90010262 0 0 0 0 189431206.04330111 -200622.86404252052 0 -200622.86404252052 -108415376.82332182 0 0 0 0 250307589.18681586 -199832866.0045476 0 -199832866.0045476 145106814.52590501 0 0 0 0 112078218.65880418 -236856029.99299479 0 -236856029.99299479 135231803.65765452 0 0 0 0 770636333.18567657 -549241729.25301504 0 -549241729.25301504 473879754.72242165 0 0 0 0 158406163.5221796 -171591016.44302654 0 -171591016.44302654 354406944.46287918 0 0 0 0 499184004.13687801 159323735.15872192 0 159323735.15872192 515314607.81833363 0 0 0 0 200394968.06994724 -134940815.75993919 0 -134940815.75993919 252726312.17104006 0 0 0 0 309693227.48937082 -215494767.33006656 0 -215494767.33006656 -67140100.650533199 0 0 0 0 512174652.79346085 -591724405.40420747 0 -591724405.40420747 630076042.36824226 0 0 0 0 487350938.54936123 -2196844.5217956305 0 -2196844.5217956305 -591767388.98471498 0 0 0 0 6004009.7891674042 -267082292.76374578 0 -267082292.76374578 1428251345.4360833 0 0 0 0 1617568.0738031291 -1571749.5936801895 0 -1571749.5936801895 217800.48055026308 0 0 0 0 -22154794.590970993 -29899633.265098333 0 -29899633.265098333 -308428613.74691987 0 0 0 0 771881532.15158415 -285587696.56352282 0 -285587696.56352282 -436971456.49557924 0 0 0 0 345774755.65082061 -33348359.139443167 0 -33348359.139443167 -246295538.00652075 0 0 0 0 345516629.5632025 -21046999.755513784 0 -21046999.755513784 -395831138.05938721 0 0 0 0 466079638.57431555 -72767413.907235384 0 -72767413.907235384 -277700937.57045245 0 0 0 0 434790730.10595709 -202541096.92544848 0 -202541096.92544848 -69627866.02705574 0 0 0 0 323567463.00371337 -24865451.93594718 0 -24865451.93594718 -11601847.367735624 0 0 0 0 192559034.779356 -56170172.484574437 0 -56170172.484574437 15485850.659548879 0 0 0 0 289358417.7836808 -54865535.115159109 0 -54865535.115159109 -202393022.75453353 0 0 0 0 314568438.43442583 19074072.837805629 0 19074072.837805629 -137320377.84699118 0 0 0 0 7618771.154153347 -49224272.491094828 0 -49224272.491094828 35622611.486836076 0 0 0 0 115791112.26211452 158310459.96097553 0 158310459.96097553 -183101726.65464735 0 0 0 0 676078.80797845125 15644.061427943991 0 15644.061427943991 -143552.85132917546 0 0 0 0 1823534.8802156057 -290980.10092739738 0 -290980.10092739738 -387084.8587900842 0 0 0 0 44729522.599449635 -51720536.702820271 0 -51720536.702820271 -253074624.47714531 0 0 0 0 -105916863.87660742 -91164946.506389081 0 -91164946.506389081 -169554553.61559486 0 0 0 0 -92575246.146152496 -94366175.959160924 0 -94366175.959160924 -246406211.1635749 0 0 0 0 14450835.59038353 -96643111.37305519 0 -96643111.37305519 -504150524.30619413 0 0 0 0 10589172.846948624 -42986757.617192268 0 -42986757.617192268 -688012041.61572123 0 0 0 0 24299475.737869263 -74035660.452893972 0 -74035660.452893972 -191777735.48289621 0 0 0 0 -102961160.73318005 -218998255.77856874 0 -218998255.77856874 -424825905.45233881 0 0 0 0 -25865746.738853931 19009048.61222291 0 19009048.61222291 -353265882.28422427 0 0 0 0 4307966.5768215992 -4399064.2876078002 0 -4399064.2876078002 287911.9332326618 0 0 0 0 -171977284.12574959 -280859502.41738462 0 -280859502.41738462 -412083830.71234274 0 0 0 0 35674639.998507023 -146852118.42256498 0 -146852118.42256498 505225182.74671841 0 0 0 0 854865.47166096047 -515306.7752022869 0 -515306.7752022869 -595821.11658027861 0 0 0 0 -13540485.553665161 -232823324.01651382 0 -232823324.01651382 -548245834.27651334 0 0 0 0 -8262311.9231570065 -150657150.35024756 0 -150657150.35024756 517541295.43710423 0 0 0 0 8883473.1792385019 -570831.73026124283 0 -570831.73026124283 -1896542.6446412832 0 0 0 0 4060566.4246650813 -4953990.3863894343 0 -4953990.3863894343 -2873038.7469236148 0 0 0 0 57057768.713651896 -185543196.76684618 0 -185543196.76684618 388735120.38014483 0 0 0 0 62211931.014936924 -162868066.23638487 0 -162868066.23638487 486153169.87020636 0 0 0 0 -252890566.74159336 -105623039.24889138 0 -105623039.24889138 -45160702.081750214 0 0 0 0 -214633759.25189161 -214052474.57219523 0 -214052474.57219523 262120168.66799301 0 0 0 0 1307096225.0278964 746658161.75740421 0 746658161.75740421 158689002.97366571 0 0 0 0 1279096206.5003705 1369345638.8132837 0 1369345638.8132837 588074444.22696662 0 0 0 0 1184960328.3481247 743405446.70524216 0 743405446.70524216 395359548.39843178 0 0 0 0 4003940.7011502697 43485.655979339557 0 43485.655979339557 -754461.56400325755 0 0 0 0 1266776780.2461834 611678956.62826729 0 611678956.62826729 95215265.334582984 0 0 0 0 202691966.7770468 -279174778.82318395 0 -279174778.82318395 -474284500.32394618 0 0 0 0 -24034592.709864616 -52477528.016035348 0 -52477528.016035348 -485717901.86863661 0 0 0 0 -144513609.00310421 -28855156.304462314 0 -28855156.304462314 -255254427.88226235 0 0 0 0 -46609579.987792015 -75327764.905929804 0 -75327764.905929804 -264342243.85115647 0 0 0 0 92727382.349673271 92875348.796165854 0 92875348.796165854 -324034550.13385379 0 0 0 0 655999681.56107521 -331359656.54047155 0 -331359656.54047155 -82699083.733217061 0 0 0 0 402575800.71915483 -375704475.33568525 0 -375704475.33568525 -33041210.320708752 0 0 0 0 -604393.03791809082 -143595497.48529088 0 -143595497.48529088 -40721790.946125895 0 0 0 0 1152369.5661076121 -333558.19571653439 0 -333558.19571653439 -261587.58244233148 0 0 0 0 18911550.999180317 -39976223.449291036 0 -39976223.449291036 -424361082.33383799 0 0 0 0 974257416.11772633 207405633.59228337 0 207405633.59228337 -429915995.47010142 0 0 0 0 1164469768.7918584 218532132.27614126 0 218532132.27614126 4270276.3914628774 0 0 0 0 5161864.4069685061 -2561336.0359913735 0 -2561336.0359913735 22896.22561415314 0 0 0 0 1158745995.779341 150418918.03442991 0 150418918.03442991 -713072790.75126958 0 0 0 0 1357285645.0412407 125376558.55623436 0 125376558.55623436 23918003.205669403 0 0 0 0 786834614.58544016 -159664964.93773985 0 -159664964.93773985 -102042124.73234129 0 0 0 0 756314324.41087341 -115392326.46714485 0 -115392326.46714485 -165889106.39826256 0 0 0 0 934374320.76499128 -27972116.142231524 0 -27972116.142231524 -203609467.86629516 0 0 0 0 3972486.0082151601 -2148001.3981202147 0 -2148001.3981202147 -518893.43910758069 0 0 0 0 2205499741.3930359 239223641.98480991 0 239223641.98480991 -131902323.76615638 0 0 0 0 2201169807.274528 -163080844.55856848 0 -163080844.55856848 -392743478.69513494 0 0 0 0 1220674614.072444 -299541061.98701721 0 -299541061.98701721 -14942446.022886395 0 0 0 0 1409999590.2367959 -28478442.353116214 0 -28478442.353116214 -221733139.55185598 0 0 0 0 1802849228.4618578 -544552957.53406382 0 -544552957.53406382 -307298544.37032646 0 0 0 0 1446064408.0214725 -61038818.892188087 0 -61038818.892188087 -483843605.04910821 0 0 0 0 1954747894.9000916 655933817.10609674 0 655933817.10609674 -661240027.01733303 0 0 0 0 1167392171.9538336 581375317.32504559 0 581375317.32504559 255170367.23558521 0 0 0 0 1004653980.7388177 238353389.7338233 0 238353389.7338233 432165741.95511055 0 0 0 0 1779942699.4709983 -513634337.87424254 0 -513634337.87424254 695372010.13543344 0 0 0 0 1044562809.4434719 684173393.76354933 0 684173393.76354933 469744394.00701308 0 0 0 0 913615544.77376115 356081725.71844006 0 356081725.71844006 473226128.95525551 0 0 0 0 6266550.6155714961 -2018407.1964123382 0 -2018407.1964123382 -2097609.4266917706 0 0 0 0 1126201406.836144 638773415.99486923 0 638773415.99486923 231724825.78820086 0 0 0 0 958641813.10447311 604310920.75104046 0 604310920.75104046 396345432.37797785 0 0 0 0 1186564767.6436186 540837781.47187805 0 540837781.47187805 390618800.62221718 0 0 0 0 414333.04133178527 -187306.4664954422 0 -187306.4664954422 -658488.53422522731 0 0 0 0 9619186.6562957764 -71063288.675354004 0 -71063288.675354004 -818585096.81949806 0 0 0 0 -1109700611.9194221 -1400381241.7485657 0 -1400381241.7485657 -2394300243.7989435 0 0 0 0 2200176914.5145102 -91319358.63604106 0 -91319358.63604106 -1188346283.5505178 0 0 0 0 293501.51147505827 -3801971.9054309074 0 -3801971.9054309074 674738.41635209951 0 0 0 0 213667085.59762526 -346786959.06653768 0 -346786959.06653768 547219153.97731233 0 0 0 0 1438289476.1701994 295248544.33744693 0 295248544.33744693 -730569506.47068179 0 0 0 0 176557624.05110574 -134218962.89569879 0 -134218962.89569879 -75527816.644592285 0 0 0 0 -44004119.934187531 -49909496.936799049 0 -49909496.936799049 -93898654.35723722 0 0 0 0 176998362.38337976 -142895473.03669429 0 -142895473.03669429 -106594384.77045441 0 0 0 0 258922902.2765944 -234176840.00379658 0 -234176840.00379658 -56130286.557710886 0 0 0 0 308609217.8071909 -150085168.50411606 0 -150085168.50411606 -96889557.839267969 0 0 0 0 248325371.8242217 -207428950.08334589 0 -207428950.08334589 -35193859.436076403 0 0 0 0 221974192.33731633 -56889912.53451252 0 -56889912.53451252 -47498298.327436447 0 0 0 0 155382162.25243354 -660737.21671509743 0 -660737.21671509743 -119983449.68386841 0 0 0 0 99133213.623859167 -101253928.31681633 0 -101253928.31681633 -51211688.398036957 0 0 0 0 49567173.23801899 95873602.637220383 0 95873602.637220383 -72307510.197865963 0 0 0 0 95141765.068667889 123549757.43739414 0 123549757.43739414 -94035665.964654922 0 0 0 0 145756992.20564175 34271007.167274475 0 34271007.167274475 -38513187.656555653 0 0 0 0 73625959.354304314 127352267.24132061 0 127352267.24132061 -20358792.421299934 0 0 0 0 90747904.750183582 112967082.54013062 0 112967082.54013062 -161657052.63808346 0 0 0 0 8583257.5463552475 143726363.0749383 0 143726363.0749383 -94274907.583673477 0 0 0 0 -22214388.966121674 149803385.05950737 0 149803385.05950737 -157659411.21422327 0 0 0 0 -87138616.782110214 220452451.61995697 0 220452451.61995697 -230400809.03460789 0 0 0 0 2545407.4266107082 -58497543.792430878 0 -58497543.792430878 -61720687.668819904 0 0 0 0 38653199.849914551 55424196.592364311 0 55424196.592364311 -143297655.85590935 0 0 0 0 -37762007.568347454 36019289.616000175 0 36019289.616000175 -138575643.61281586 0 0 0 0 -13639469.413436234 -59638357.712255955 0 -59638357.712255955 -227067430.07369995 0 0 0 0 -165655468.0734992 145622880.36043739 0 145622880.36043739 -210730417.0259304 0 0 0 0 -153876480.50263333 183071783.90396309 0 183071783.90396309 -592251835.80476379 0 0 0 0 -256639771.733704 112549029.44738579 0 112549029.44738579 -221717797.8140316 0 0 0 0 -48309837.009977803 218888442.92482996 0 218888442.92482996 -239193377.01264763 0 0 0 0 -257008937.63894033 42811495.666754723 0 42811495.666754723 -307270043.47206688 0 0 0 0 -295281198.70340872 285803350.77756405 0 285803350.77756405 -248607378.97270298 0 0 0 0 -103027147.7725811 360499360.6492691 0 360499360.6492691 -369849289.8664608 0 0 0 0 95475047.480115652 -56182424.651033401 0 -56182424.651033401 -130557961.17241287 0 0 0 0 -56343148.841905117 176330580.58809471 0 176330580.58809471 -447571461.5573864 0 0 0 0 641426.105685808 -588431.01897910843 0 -588431.01897910843 -1084937.8562425766 0 0 0 0 -716818612.11133218 532731942.91050053 0 532731942.91050053 -286702697.57610321 0 0 0 0 -490842563.91082621 484300480.5149498 0 484300480.5149498 -503196036.45038652 0 0 0 0 -249925457.0915224 224430699.38102388 0 224430699.38102388 -333795117.9642601 0 0 0 0 -676523503.39539123 305459129.20185089 0 305459129.20185089 -166326566.79955292 0 0 0 0 -111280841.55927408 101932733.4376955 0 101932733.4376955 -215741795.9406054 0 0 0 0 -128936867.74249102 88502037.351574421 0 88502037.351574421 -40702787.497558594 0 0 0 0 81321810.523922026 -643392.27695941925 0 -643392.27695941925 -172505933.82715511 0 0 0 0 -285250822.6544106 207002403.42723799 0 207002403.42723799 -222666632.89832306 0 0 0 0 -66416133.214874864 10391152.240125656 0 10391152.240125656 -276062599.60883284 0 0 0 0 145047338.6139496 -107461391.1916647 0 -107461391.1916647 -174689335.19385338 0 0 0 0 -90140254.308687165 8501646.0420975685 0 8501646.0420975685 -83035372.887334824 0 0 0 0 124899061.67436448 -161816880.79203033 0 -161816880.79203033 -11281438.289196014 0 0 0 0 275841748.30440307 -110780694.7474966 0 -110780694.7474966 -95656047.427105904 0 0 0 0 62747522.497322559 -49802585.994765282 0 -49802585.994765282 56397866.049959183 0 0 0 0 221425317.32663441 -6200246.361382246 0 -6200246.361382246 -65752978.864002228 0 0 0 0 205596399.66581303 -54905995.534206748 0 -54905995.534206748 226463865.19697952 0 0 0 0 481791179.65418124 -190698863.97948742 0 -190698863.97948742 22451891.012490273 0 0 0 0 533003278.1613189 -96886732.543515205 0 -96886732.543515205 45929142.245962143 0 0 0 0 741762225.99044418 -280602303.39714813 0 -280602303.39714813 161748770.98551083 0 0 0 0 935194159.24463272 -255009716.47302437 0 -255009716.47302437 120828138.96406746 0 0 0 0 420353950.22019464 -66453778.658726931 0 -66453778.658726931 360562665.08737564 0 0 0 0 1485959720.7554746 -262976992.25589752 0 -262976992.25589752 37535134.968374252 0 0 0 0 1290355699.7181664 -183060825.12736511 0 -183060825.12736511 62254371.788787842 0 0 0 0 1015884498.0239377 -29229087.555484295 0 -29229087.555484295 163131402.06033707 0 0 0 0 166452.85640883184 -1857274.5205460791 0 -1857274.5205460791 1269762.573545251 0 0 0 0 -45228937.060634255 107594100.12711251 0 107594100.12711251 219150530.51918221 0 0 0 0 66157.550191754242 -101789.25198179483 0 -101789.25198179483 -114284.61157627078 0 0 0 0 725485980.33604288 -74101658.975362778 0 -74101658.975362778 179166994.30148268 0 0 0 0 1226126760.8727083 135828979.83911705 0 135828979.83911705 -73141481.496371508 0 0 0 0 3532380.3499768763 -786249.47274596477 0 -786249.47274596477 -7539614.5584024172 0 0 0 0 752094354.77000546 -48837965.364134789 0 -48837965.364134789 -48355333.868378162 0 0 0 0 717045516.24830246 -15503797.479562998 0 -15503797.479562998 -49935854.371060371 0 0 0 0 11545699.990376472 22906718.997850299 0 22906718.997850299 -69340892.196799517 0 0 0 0 314384998.80721295 -191133209.49614751 0 -191133209.49614751 1073746.5850315094 0 0 0 0 275514149.48576027 -161200015.29147986 0 -161200015.29147986 62164049.641601562 0 0 0 0 483460897.29081988 -131685934.83280849 0 -131685934.83280849 -50995990.372046471 0 0 0 0 536866115.28913498 -211079950.3768611 0 -211079950.3768611 20926443.411548615 0 0 0 0 -28859306.638051987 10095842.444448471 0 10095842.444448471 51713454.196393967 0 0 0 0 95765827.2870121 -30685924.55075264 0 -30685924.55075264 4317854.1328585148 0 0 0 0 5794996.6867176974 -6746527.450502024 0 -6746527.450502024 -1321817.8941219754 0 0 0 0 -9329514.4856834412 1238533.3920530081 0 1238533.3920530081 -1503505.2282730639 0 0 0 0 -27416939.275128856 -55276761.059648916 0 -55276761.059648916 136657188.32199478 0 0 0 0 22146240.091795444 -23785910.827331185 0 -23785910.827331185 5175905.53041251 0 0 0 0 23009575.603050709 -22167057.456639528 0 -22167057.456639528 -75277613.824289083 0 0 0 0 106955074.92833424 -52147388.917250991 0 -52147388.917250991 -136057459.75066185 0 0 0 0 -60864190.699424267 159646549.52483588 0 159646549.52483588 34710246.457338333 0 0 0 0 -20137224.770457745 108473065.78849411 0 108473065.78849411 -172504613.59410036 0 0 0 0 -138792996.07480669 60981843.59490335 0 60981843.59490335 35132545.214780569 0 0 0 0 -4944865.7698800564 52100526.031660527 0 52100526.031660527 -10614497.479621887 0 0 0 0 -52733920.992191553 69847806.77464807 0 69847806.77464807 -23156904.065566778 0 0 0 0 -22458446.012460709 -24392190.58402133 0 -24392190.58402133 159298098.82229912 0 0 0 0 83132296.252152801 94295958.147925317 0 94295958.147925317 282748095.57678747 0 0 0 0 435370500.95847368 -185788774.96478748 0 -185788774.96478748 -70109342.785070419 0 0 0 0 448125715.94028854 -98404498.095570952 0 -98404498.095570952 -50883665.6434021 0 0 0 0 1844587.9970625374 -324709.649123949 0 -324709.649123949 -4741769.4017092492 0 0 0 0 436080927.28954959 -75927841.371286869 0 -75927841.371286869 4263568.9187524319 0 0 0 0 298119361.74949789 -81730626.751717091 0 -81730626.751717091 -19677730.74218154 0 0 0 0 287710385.25876164 -200368853.11611414 0 -200368853.11611414 -40676889.446940422 0 0 0 0 302040383.15120625 -177011500.72788215 0 -177011500.72788215 -23728307.030963898 0 0 0 0 858057.11224525841 -634397.19152607396 0 -634397.19152607396 -2142838.3918689112 0 0 0 0 134115973.44973612 -130927389.45571566 0 -130927389.45571566 19384110.262085915 0 0 0 0 106325667.15856147 -45734895.508207798 0 -45734895.508207798 -55218306.073249817 0 0 0 0 -157617760.27942896 -57477956.591307759 0 -57477956.591307759 143809757.93127847 0 0 0 0 249147.50512960588 -461262.57030986622 0 -461262.57030986622 -507192.88002012949 0 0 0 0 189269379.26269543 -186210148.09584045 0 -186210148.09584045 98188640.9652071 0 0 0 0 226966174.47665316 -145526342.06655729 0 -145526342.06655729 44899568.952212811 0 0 0 0 233065669.57546854 -306035474.75329995 0 -306035474.75329995 184028217.70391718 0 0 0 0 -236162756.97870228 -42618396.539535478 0 -42618396.539535478 175816002.47693777 0 0 0 0 -19452230.379590034 -132313658.853495 0 -132313658.853495 42811436.087591648 0 0 0 0 79821491.810680389 -111105326.12448394 0 -111105326.12448394 -59766324.033870697 0 0 0 0 71215780.72356236 -121881988.5402506 0 -121881988.5402506 16367676.495084763 0 0 0 0 276948850.19638443 -111713300.69135308 0 -111713300.69135308 -89815054.348414898 0 0 0 0 255710587.74814129 -173982637.13695335 0 -173982637.13695335 -27915567.648666322 0 0 0 0 107015515.35567474 -80112431.523585498 0 -80112431.523585498 2157446.3136224747 0 0 0 0 214062295.32274199 -97194906.716802716 0 -97194906.716802716 4728487.3756594658 0 0 0 0 53527518.322154522 34523620.457114577 0 34523620.457114577 88530517.898788542 0 0 0 0 205852439.37085199 -86262934.186248183 0 -86262934.186248183 79789587.847245142 0 0 0 0 147914731.86936378 -100195899.76980352 0 -100195899.76980352 277066412.36482763 0 0 0 0 115470649.6050725 -15475973.567895889 0 -15475973.567895889 64203475.617245913 0 0 0 0 148633933.22045159 9237165.7028862238 0 9237165.7028862238 181463576.29374373 0 0 0 0 27456226.953418732 -122852425.05513883 0 -122852425.05513883 76139078.74394393 0 0 0 0 104752463.27762687 101549540.46567655 0 101549540.46567655 112530871.00310159 0 0 0 0 75079956.384379506 103020560.42799616 0 103020560.42799616 367519292.38447559 0 0 0 0 19942521.644199397 90702463.4738352 0 90702463.4738352 534719435.98150241 0 0 0 0 234480222.28543091 52099754.078653336 0 52099754.078653336 370952740.60994637 0 0 0 0 315785002.60658431 -128161124.38256168 0 -128161124.38256168 767241963.76537633 0 0 0 0 379144928.86158037 241960644.4160133 0 241960644.4160133 492824005.58486664 0 0 0 0 561727440.94112992 -16450735.59841764 0 -16450735.59841764 537819113.81021786 0 0 0 0 424891026.43528283 -118089776.73529822 0 -118089776.73529822 245385218.79790258 0 0 0 0 472421889.21189952 -257165721.26972404 0 -257165721.26972404 602132056.82429218 0 0 0 0 195626583.08804417 -120277286.2832191 0 -120277286.2832191 538324246.43720651 0 0 0 0 303945662.50590324 -216151572.2226696 0 -216151572.2226696 108852425.34684563 0 0 0 0 310779104.73106074 -144169788.58328223 0 -144169788.58328223 121602015.93844414 0 0 0 0 407168283.49592412 -256126068.7419908 0 -256126068.7419908 249287038.49960721 0 0 0 0 487510102.68565404 -72274282.459074974 0 -72274282.459074974 116000870.17212868 0 0 0 0 416005068.68373591 -140668357.7586534 0 -140668357.7586534 67735910.405840874 0 0 0 0 343958600.30028319 -76880243.557246864 0 -76880243.557246864 12188959.245105743 0 0 0 0 346500766.88285714 -230154871.30692387 0 -230154871.30692387 49171668.560540676 0 0 0 0 290408084.74331939 -171651083.77820015 0 -171651083.77820015 -5945944.7236568928 0 0 0 0 287857231.59119856 -222817346.77319312 0 -222817346.77319312 -1331448.1794958115 0 0 0 0 179218203.93185711 142160603.98943639 0 142160603.98943639 98198424.114088058 0 0 0 0 259979317.29063463 66000626.444818974 0 66000626.444818974 35645750.181273878 0 0 0 0 180299136.92824268 128130926.95120263 0 128130926.95120263 46013574.501535416 0 0 0 0 87309021.800308704 141614890.2488296 0 141614890.2488296 48425255.811510086 0 0 0 0 156601741.51133299 86047565.578364134 0 86047565.578364134 34726385.16796875 0 0 0 0 172390687.76117134 88950249.356244564 0 88950249.356244564 -13536118.961500168 0 0 0 0 238566350.59396458 55119027.413753986 0 55119027.413753986 -37183681.333714962 0 0 0 0 312102884.18663824 -112649350.26520109 0 -112649350.26520109 -22001611.604576349 0 0 0 0 190500203.41666794 4455726.6710216999 0 4455726.6710216999 22111966.091962814 0 0 0 0 248346228.57095861 75607891.259796381 0 75607891.259796381 105905325.10075951 0 0 0 0 365910624.80805826 -23859919.80932188 0 -23859919.80932188 26536213.291628838 0 0 0 0 384755838.89578485 45729842.509163857 0 45729842.509163857 106225792.18259239 0 0 0 0 386227292.4332794 4532423.894405365 0 4532423.894405365 65490609.726935863 0 0 0 0 518718549.68954992 -75077239.762738109 0 -75077239.762738109 109611672.77039838 0 0 0 0 454652140.94217539 -97551187.387906194 0 -97551187.387906194 231568807.47866249 0 0 0 0 442800161.1558513 121815206.34130597 0 121815206.34130597 199290158.03472948 0 0 0 0 334816154.53501701 197197603.3568635 0 197197603.3568635 197651890.64492321 0 0 0 0 211671284.28760147 197520090.04116428 0 197520090.04116428 291294306.37789321 0 0 0 0 258022833.16373396 106362589.87978458 0 106362589.87978458 105965328.71878433 0 0 0 0 160360010.97929525 151200028.95052993 0 151200028.95052993 144953304.51658726 0 0 0 0 158737960.14316559 155087498.6826607 0 155087498.6826607 259026617.75019598 0 0 0 0 396861174.14619309 303067379.14653748 0 303067379.14653748 507038600.7538234 0 0 0 0 323133297.49694824 155029425.67546225 0 155029425.67546225 282532938.354734 0 0 0 0 114902419.55602741 145923768.47937459 0 145923768.47937459 514275843.55581009 0 0 0 0 783780982.43048346 -109060333.7646026 0 -109060333.7646026 231936529.08792341 0 0 0 0 699530846.66061664 67865420.872407198 0 67865420.872407198 210620730.8967104 0 0 0 0 1269543915.5463495 -160182099.30308127 0 -160182099.30308127 369776678.4103967 0 0 0 0 620299698.34990549 7230847.8416830301 0 7230847.8416830301 346814234.53886461 0 0 0 0 -9472853.3688209057 73065834.186529875 0 73065834.186529875 672182409.51778746 0 0 0 0 598709650.71223819 -224856741.39584056 0 -224856741.39584056 1303546915.0448933 0 0 0 0 591485894.80358219 439430871.81972003 0 439430871.81972003 887522123.00049996 0 0 0 0 1292530628.0217695 396524972.82383204 0 396524972.82383204 687922792.82005095 0 0 0 0 81695737.578055382 115181511.14156413 0 115181511.14156413 605477629.05485058 0 0 0 0 297358540.96039677 69892754.078651428 0 69892754.078651428 572627888.18803465 0 0 0 0 286940310.46840262 116439351.49718904 0 116439351.49718904 427456872.84052002 0 0 0 0 24479805.766869545 -122628516.47050858 0 -122628516.47050858 596533509.72003269 0 0 0 0 48673061.685152054 -63716480.502484322 0 -63716480.502484322 367005431.75189328 0 0 0 0 -24760450.966097832 -6289360.7848699093 0 -6289360.7848699093 436148534.68217027 0 0 0 0 27620958.170545101 -107626972.22325146 0 -107626972.22325146 352382576.24504948 0 0 0 0 55267547.25399065 3740909.753719449 0 3740909.753719449 388974968.43804526 0 0 0 0 -51258988.169992447 60469839.068247736 0 60469839.068247736 333229791.11006033 0 0 0 0 -19355243.362766981 -7262743.1532893181 0 -7262743.1532893181 309577292.46094418 0 0 0 0 -75509930.105019569 460635.79861831665 0 460635.79861831665 249550503.19372535 0 0 0 0 -73331147.387706757 5168505.0969250202 0 5168505.0969250202 258950964.7532568 0 0 0 0 -100665531.36954403 53900152.369258523 0 53900152.369258523 252553921.56813121 0 0 0 0 -58075993.134724617 -28124159.059311509 0 -28124159.059311509 321590251.28066206 0 0 0 0 -75713765.733158588 23398881.978328526 0 23398881.978328526 278602773.26740921 0 0 0 0 -83245252.440862656 101238032.41266084 0 101238032.41266084 257507224.84132576 0 0 0 0 -62904320.474680901 113485260.24050358 0 113485260.24050358 263593676.52589077 0 0 0 0 -18345826.583715439 90505679.519798517 0 90505679.519798517 235244049.17884016 0 0 0 0 2904908.1317615509 139484451.16761208 0 139484451.16761208 347422066.97083914 0 0 0 0 46739914.252224922 91201284.197198987 0 91201284.197198987 309512031.62793303 0 0 0 0 115296993.17779395 139805757.13351828 0 139805757.13351828 330055483.76144111 0 0 0 0 3855381.1380090714 92953327.456207827 0 92953327.456207827 473140277.21449667 0 0 0 0 -13597477.304304123 39821374.673261523 0 39821374.673261523 313184795.09851277 0 0 0 0 -42242807.83316195 80637315.380195081 0 80637315.380195081 239119742.88682032 0 0 0 0 -145502693.89999008 50607785.921797752 0 50607785.921797752 240421458.14845344 0 0 0 0 -116070971.29384995 32416326.233244807 0 32416326.233244807 225680087.53622115 0 0 0 0 -122312315.34309959 74511624.343570396 0 74511624.343570396 172987776.76842546 0 0 0 0 -79236373.411730766 110813064.73366213 0 110813064.73366213 140960332.79034293 0 0 0 0 -100442277.93561745 61823940.6259197 0 61823940.6259197 101363339.42348656 0 0 0 0 -121759096.26420021 28721899.229987159 0 28721899.229987159 170943295.27481452 0 0 0 0 -125563264.19618112 124392441.04598951 0 124392441.04598951 285983838.74299955 0 0 0 0 -116108659.04094934 202412551.02264041 0 202412551.02264041 -93096523.411148667 0 0 0 0 -176692769.53416443 98921181.327786684 0 98921181.327786684 117849387.22837895 0 0 0 0 -124451770.06004524 212316874.0027709 0 212316874.0027709 17807643.950416833 0 0 0 0 -97483737.867102623 104280121.0878166 0 104280121.0878166 7295928.2153561115 0 0 0 0 -117056361.16823196 115198814.80263352 0 115198814.80263352 156043362.6581614 0 0 0 0 -88906448.982235909 169685976.76952791 0 169685976.76952791 16239019.317691803 0 0 0 0 -92361704.594312668 226608184.03241634 0 226608184.03241634 -9373979.3452448845 0 0 0 0 -103862913.72432709 202103288.11872101 0 202103288.11872101 -39169086.153668404 0 0 0 0 -111834325.72056198 212112598.69058418 0 212112598.69058418 -13091715.475834906 0 0 0 0 -178337504.52081758 136167789.50642329 0 136167789.50642329 -35485381.254354954 0 0 0 0 -179710132.25816917 169885484.991817 0 169885484.991817 -7849021.6440601349 0 0 0 0 2099224.9962253571 178015822.03678226 0 178015822.03678226 164625998.4562726 0 0 0 0 12700358.187209129 185847315.63653994 0 185847315.63653994 81868560.895208359 0 0 0 0 65275533.236029625 193148794.63566422 0 193148794.63566422 284193487.93564701 0 0 0 0 42911842.215400696 137151596.51106727 0 137151596.51106727 144118641.48245782 0 0 0 0 -27740617.250406265 157713346.56293046 0 157713346.56293046 277988501.55473733 0 0 0 0 -32867179.467199326 118324245.55296564 0 118324245.55296564 142274615.92608213 0 0 0 0 -45166021.447762489 152700512.57233262 0 152700512.57233262 77615005.621262074 0 0 0 0 -69990903.541156769 162973299.64080048 0 162973299.64080048 175967534.26506567 0 0 0 0 -44432943.715525627 164757264.27233541 0 164757264.27233541 78901263.567093849 0 0 0 0 -41589663.68977356 209342277.06942892 0 209342277.06942892 21983634.122925282 0 0 0 0 -97423835.312473297 183146131.18451405 0 183146131.18451405 94967570.696269035 0 0 0 0 -89731270.711940765 229232180.11830807 0 229232180.11830807 -20725826.379527092 0 0 0 0 -76071659.206669569 185084243.80931377 0 185084243.80931377 5274017.9831342697 0 0 0 0 -4934638.2612571716 206077536.86366701 0 206077536.86366701 3145903.1671504974 0 0 0 0 16605886.05180645 153069041.62128472 0 153069041.62128472 -8156619.3206291199 0 0 0 0 73970632.398054123 165033048.72927904 0 165033048.72927904 161243349.17259979 0 0 0 0 76795836.161881447 148814160.25381351 0 148814160.25381351 65122111.6416502 0 0 0 0 99474486.934194565 134583743.23626041 0 134583743.23626041 -17993634.196186066 0 0 0 0 24612821.283802986 183594876.32703972 0 183594876.32703972 67795459.291417181 0 0 0 0 19515086.297561646 156391067.09720802 0 156391067.09720802 -16704816.076055229 0 0 0 0 36525354.93059206 161034640.87085533 0 161034640.87085533 -91743891.437120438 0 0 0 0 -24201410.21423912 185609805.53050327 0 185609805.53050327 -15452062.008012056 0 0 0 0 -13636530.356852531 194932777.3975544 0 194932777.3975544 -74855739.157569885 0 0 0 0 -11992448.332621098 180452829.88455725 0 180452829.88455725 -167805954.13747787 0 0 0 0 33205346.350065708 167375579.54009676 0 167375579.54009676 -185162502.22519112 0 0 0 0 -30328413.203636169 168295541.81781197 0 168295541.81781197 -91367987.178975523 0 0 0 0 -5052666.8097149134 235619411.36526871 0 235619411.36526871 -279406035.04014969 0 0 0 0 -6298237.811876297 171803057.28201675 0 171803057.28201675 -180749348.36433983 0 0 0 0 4664935.3667683601 184119816.11972833 0 184119816.11972833 -277269905.19375992 0 0 0 0 -85013046.350032806 169267716.47554874 0 169267716.47554874 -169321619.68052673 0 0 0 0 43159077.569099426 218697494.22161007 0 218697494.22161007 -379205193.82384109 0 0 0 0 -15971365.119358063 159442376.45114136 0 159442376.45114136 -291838937.2056179 0 0 0 0 -29068894.763845444 114025823.66437292 0 114025823.66437292 -388620030.3689003 0 0 0 0 45395538.671646118 147978512.3605442 0 147978512.3605442 -389723020.59594202 0 0 0 0 43544111.56892395 169724596.1061058 0 169724596.1061058 -441753173.60449982 0 0 0 0 43863963.455272675 230188980.51445484 0 230188980.51445484 -300691448.19584846 0 0 0 0 -144373766.42976141 165357467.69498968 0 165357467.69498968 -334870547.94403839 0 0 0 0 -166317169.53127766 225706042.50743413 0 225706042.50743413 -267061495.50366974 0 0 0 0 -72556547.810321808 202311977.76176071 0 202311977.76176071 -389368666.61910629 0 0 0 0 -88440402.650718689 198060979.36398697 0 198060979.36398697 -390110498.81281948 0 0 0 0 -350312768.19661522 270371538.96354103 0 270371538.96354103 -370056104.20181942 0 0 0 0 -122092290.69083786 217065345.15872192 0 217065345.15872192 -287760522.78076172 0 0 0 0 -66011109.703933716 161777862.4116869 0 161777862.4116869 -235294244.38393676 0 0 0 0 -189816841.80224228 144984446.75888062 0 144984446.75888062 -236153720.13123512 0 0 0 0 -144114518.52660275 196799955.28400755 0 196799955.28400755 -150875306.33010674 0 0 0 0 -98416147.213916779 225872320.93370438 0 225872320.93370438 -202061858.60133362 0 0 0 0 -158231609.54307365 193622947.45301342 0 193622947.45301342 -213800261.53452301 0 0 0 0 -98481577.624814987 215860426.82099819 0 215860426.82099819 -265994116.40020752 0 0 0 0 -110795327.66930389 193997384.17432213 0 193997384.17432213 -150579429.09168148 0 0 0 0 -85598227.834916592 220252609.87652647 0 220252609.87652647 -105330404.12825394 0 0 0 0 -107059353.3129735 231012700.18588495 0 231012700.18588495 -108633133.42700005 0 0 0 0 -76235931.254161835 168015956.25819683 0 168015956.25819683 -86033194.374990463 0 0 0 0 -71542594.549453735 214549636.49368095 0 214549636.49368095 -110167135.74046707 0 0 0 0 -96977816.281514645 180500812.48731744 0 180500812.48731744 -146626408.57296562 0 0 0 0 -59948580.471597672 179855070.4309082 0 179855070.4309082 -9335075.8692646027 0 0 0 0 -46098122.505594254 205585268.75440431 0 205585268.75440431 -49497779.257148743 0 0 0 0 -93640697.471845627 192720336.22612286 0 192720336.22612286 -52852697.441268921 0 0 0 0 -95855158.814319611 200765962.11547279 0 200765962.11547279 -46869361.557184219 0 0 0 0 -95618268.675949097 234142343.1326437 0 234142343.1326437 -68145568.156795502 0 0 0 0 -74638328.154146194 196581095.6895895 0 196581095.6895895 -106381322.89191914 0 0 0 0 -74437692.452964783 192266077.81542063 0 192266077.81542063 -131515091.93476105 0 0 0 0 -151643448.73204613 168461377.30192041 0 168461377.30192041 -59965315.000953674 0 0 0 0 -61456394.017507553 158893142.66179419 0 158893142.66179419 -63499427.80176568 0 0 0 0 437200.62683582306 27161805.191169381 0 27161805.191169381 -37192629.395340919 0 0 0 0 -7899342.2038764954 105098749.10192013 0 105098749.10192013 -188844580.85842228 0 0 0 0 -15242801.583848953 93809634.237344265 0 93809634.237344265 -177220106.12672806 0 0 0 0 -85043281.674404144 225880394.1293788 0 225880394.1293788 -194152015.3809166 0 0 0 0 -44179791.071517944 183750085.71215534 0 183750085.71215534 -211258059.1988678 0 0 0 0 -90998469.081763268 225240153.52101278 0 225240153.52101278 -135269896.35521126 0 0 0 0 -107051004.71603012 214561194.21756363 0 214561194.21756363 -185427523.40094662 0 0 0 0 -50146938.996416092 167190463.85371399 0 167190463.85371399 -123577881.6496067 0 0 0 0 -55202075.999130249 209378739.9075222 0 209378739.9075222 -256460940.19756317 0 0 0 0 -72597133.057540894 199081632.46462631 0 199081632.46462631 -252167849.42463875 0 0 0 0 733269.51261138916 101645714.19687653 0 101645714.19687653 -316512710.75107956 0 0 0 0 39761798.487895966 79110942.470777512 0 79110942.470777512 -376030512.09173965 0 0 0 0 -36190041.553909302 199324479.24341106 0 199324479.24341106 -526764596.48750305 0 0 0 0 -4032225.4645309448 118848007.37030411 0 118848007.37030411 -330694098.09981155 0 0 0 0 46656227.82409668 92787207.335718155 0 92787207.335718155 -528300345.29732513 0 0 0 0 44620242.229850769 94340536.229629517 0 94340536.229629517 -518704817.74765015 0 0 0 0 26166041.476278059 7186875.4936408661 0 7186875.4936408661 -3745671.6864464786 0 0 0 0 25314692.984115601 1515071.4693346024 0 1515071.4693346024 18510958.632188797 0 0 0 0 33367630.718751907 8023019.9331650734 0 8023019.9331650734 -3066177.002155304 0 0 0 0 31132066.658805847 12201723.09201622 0 12201723.09201622 -607293.17306518555 0 0 0 0 46069353.624010086 15299849.872355342 0 15299849.872355342 -57138942.064020157 0 0 0 0 49562095.16865921 -525360.09750366211 0 -525360.09750366211 -13931788.920749664 0 0 0 0 10512336.078062057 52688608.464140177 0 52688608.464140177 -19040125.979408264 0 0 0 0 36481495.233337402 25130116.635467529 0 25130116.635467529 -38634920.066449165 0 0 0 0 37002996.543596268 90429683.983127832 0 90429683.983127832 -16708070.255199432 0 0 0 0 27925582.077625275 6534742.4151620865 0 6534742.4151620865 -1773446.4985847473 0 0 0 0 22484916.162796021 11398906.582038879 0 11398906.582038879 -154731.03958702087 0 0 0 0 15534600.445747375 20617721.746219635 0 20617721.746219635 -8748129.0176410675 0 0 0 0 11912059.693092346 7958533.3707342148 0 7958533.3707342148 14955188.240822792 0 0 0 0 28192329.391593933 -2514535.0190141201 0 -2514535.0190141201 3281840.4692344666 0 0 0 0 207128251.68303013 -407594461.06987381 0 -407594461.06987381 -36665120.76579833 0 0 0 0 260283819.6418004 60924992.781315327 0 60924992.781315327 17321810.092861176 0 0 0 0 -44921032.991054535 227445181.17198086 0 227445181.17198086 -232202196.36977005 0 0 0 0 848083.97663580952 970230.01751898299 0 970230.01751898299 953371.52272315696 0 0 0 0 -66394855.92048645 305499280.17835712 0 305499280.17835712 -293770584.12713051 0 0 0 0 58100272.635616302 431336169.14678764 0 431336169.14678764 -175131729.22770214 0 0 0 0 91301761.276922226 371174874.80711174 0 371174874.80711174 -317741408.48956156 0 0 0 0 -44933319.289824992 305008968.97235572 0 305008968.97235572 -346067592.76062584 0 0 0 0 328131154.79086304 491332105.9993391 0 491332105.9993391 -359911593.61457634 0 0 0 0 118205893.92491245 305373891.77688766 0 305373891.77688766 -524229687.3147316 0 0 0 0 465412309.05998421 137559177.352458 0 137559177.352458 -766850249.36236954 0 0 0 0 -273408552.65432739 -73243988.41437149 0 -73243988.41437149 -516192839.73676109 0 0 0 0 17507855.868678793 11004546.63304037 0 11004546.63304037 2372874.1789762983 0 0 0 0 -4147759.7935657501 255064417.58751535 0 255064417.58751535 162302685.27873421 0 0 0 0 -325237666.71094513 -125495709.19617081 0 -125495709.19617081 -109867171.78129578 0 0 0 0 -142751976.24830246 304457611.07657623 0 304457611.07657623 -573240257.06591797 0 0 0 0 -22147157.449157715 233090727.79661179 0 233090727.79661179 -666517317.18168545 0 0 0 0 -2210414.1410636976 6358534.3605531985 0 6358534.3605531985 1417315.2380592781 0 0 0 0 514875714.58777618 -255975010.17879677 0 -255975010.17879677 44222161.957115173 0 0 0 0 360698950.6729126 -132012398.01885033 0 -132012398.01885033 -34585930.531259537 0 0 0 0 53897228.280151367 -443326756.37381554 0 -443326756.37381554 -31548884.569580078 0 0 0 0 1027018417.9873505 -386702946.91788864 0 -386702946.91788864 -291027501.84477496 0 0 0 0 1149540165.3731613 -129320467.24012756 0 -129320467.24012756 -366963742.00448662 0 0 0 0 621426905.34558868 -107304260.22581768 0 -107304260.22581768 -211329644.47792625 0 0 0 0 742810395.75657654 -93707467.334266663 0 -93707467.334266663 -368148555.06534815 0 0 0 0 675399752.09550476 -344135459.55986977 0 -344135459.55986977 -295686932.294842 0 0 0 0 544504951.2972374 -274856706.00628805 0 -274856706.00628805 -140280312.2405777 0 0 0 0 590668115.27194977 -150443394.68231106 0 -150443394.68231106 -81686219.415082932 0 0 0 0 577671203.94303894 -195014041.84114647 0 -195014041.84114647 -114003711.08022499 0 0 0 0 366507670.23343277 12972443.975185394 0 12972443.975185394 -248858442.73655891 0 0 0 0 694735841.11116791 -253862685.27173424 0 -253862685.27173424 16875534.55100441 0 0 0 0 1094674111.2083282 63229002.262600899 0 63229002.262600899 -150958406.58906174 0 0 0 0 659102189.2967484 -62154114.339360535 0 -62154114.339360535 -155024690.07303619 0 0 0 0 658559553.6602478 -216795465.65714455 0 -216795465.65714455 -174953749.13197517 0 0 0 0 174757553.90862656 148741886.2404542 0 148741886.2404542 10694187.011955261 0 0 0 0 561134050.97598267 -34986520.67505455 0 -34986520.67505455 -151340887.74147606 0 0 0 0 679688305.91462708 301722484.49758148 0 301722484.49758148 -80868215.33587265 0 0 0 0 748682907.61776733 280218779.09149361 0 280218779.09149361 -74851609.257785797 0 0 0 0 738175725.83398438 261893724.60052013 0 261893724.60052013 -106647385.22954178 0 0 0 0 1388510978.7067413 368240388.77113152 0 368240388.77113152 -93155179.556839943 0 0 0 0 1467392.9244287759 1001139.8225688841 0 1001139.8225688841 -267478.77439767309 0 0 0 0 283626960.7250824 182224083.66109371 0 182224083.66109371 86315264.427624702 0 0 0 0 63339425.351165771 -225023609.2478714 0 -225023609.2478714 -750532961.47433472 0 0 0 0 326569590.47809601 424453576.49713659 0 424453576.49713659 -167668228.54093933 0 0 0 0 309045390.79144287 447852071.3261466 0 447852071.3261466 -8349968.8117485046 0 0 0 0 536642544.07670593 381272248.98110771 0 381272248.98110771 -208364528.4177475 0 0 0 0 624797674.02448273 538573637.88346434 0 538573637.88346434 60110221.105453491 0 0 0 0 187565700.67048645 -64110300.659257889 0 -64110300.659257889 -522925859.1686306 0 0 0 0 95954247.345207214 128607681.25451374 0 128607681.25451374 -154619001.97421646 0 0 0 0 100438058.6918335 109504411.95759773 0 109504411.95759773 -426986848.3259697 0 0 0 0 -80677167.541640759 1133138527.1547625 0 1133138527.1547625 32183084.736793518 0 0 0 0 49832647.260559082 -3841806.3049287796 0 -3841806.3049287796 -283990072.30639076 0 0 0 0 46983635.986801147 -14647805.447877884 0 -14647805.447877884 -81708820.636099339 0 0 0 0 -2625250.7008361816 -24149455.258211613 0 -24149455.258211613 41451140.811690331 0 0 0 0 5970135.2418657951 522883.38540562615 0 522883.38540562615 -3151648.0647563692 0 0 0 0 24930428.525711313 5812483.0326936552 0 5812483.0326936552 -4229601.8994565792 0 0 0 0 18293264.056529999 -36000359.062459469 0 -36000359.062459469 -110404128.22408104 0 0 0 0 236786688.17767334 440202149.25135708 0 440202149.25135708 -364873053.62382889 0 0 0 0 -320146689.00111771 61614174.236896992 0 61614174.236896992 151991565.97895527 0 0 0 0 144225472.79467392 37372280.731993675 0 37372280.731993675 -16463276.525903702 0 0 0 0 26433591.967302322 24011192.347800255 0 24011192.347800255 66536228.432311058 0 0 0 0 17945505.360981055 5725204.277026399 0 5725204.277026399 -3544466.435523577 0 0 0 0 -9061956.3091716766 53393110.888603687 0 53393110.888603687 -62893776.703725815 0 0 0 0 11319351.613064213 -1152067.2833770839 0 -1152067.2833770839 -7519014.1804302558 0 0 0 0 -231314367.05209351 116948526.181288 0 116948526.181288 -11678049.118139029 0 0 0 0 -119005528.8140173 90256143.633871794 0 90256143.633871794 -9558169.2732963562 0 0 0 0 299379754.17262268 113807551.9173584 0 113807551.9173584 -19658579.893283367 0 0 0 0 166619870.31585312 103668341.58023596 0 103668341.58023596 49529629.429785252 0 0 0 0 271047770.28350067 136913755.87963676 0 136913755.87963676 7077442.922504425 0 0 0 0 472666147.80773926 264414180.51683617 0 264414180.51683617 -126346822.26586151 0 0 0 0 455838181.69311523 192252731.22789955 0 192252731.22789955 -71293240.113602638 0 0 0 0 501498973.83737183 309942663.18403244 0 309942663.18403244 -55525804.353004456 0 0 0 0 364402093.11380577 287833098.91586113 0 287833098.91586113 36023849.096450806 0 0 0 0 648150787.0867691 -506620752.3293047 0 -506620752.3293047 -189062625.78441811 0 0 0 0 -4497744.5657119751 134469183.81482887 0 134469183.81482887 451455171.34771347 0 0 0 0 6652042.0510054342 1956962.464999157 0 1956962.464999157 -913216.01878570393 0 0 0 0 460788237.43830872 431813038.53841972 0 431813038.53841972 104229076.58617306 0 0 0 0 152763715.3763504 634485688.08934689 0 634485688.08934689 1354159653.8619633 0 0 0 0 486188924.4949379 386894396.76756573 0 386894396.76756573 -134358820.78476715 0 0 0 0 -253504277.59474564 670188645.43829536 0 670188645.43829536 2919996496.3544693 0 0 0 0 851055492.07940674 1231269516.0535889 0 1231269516.0535889 713048038.01447296 0 0 0 0 2032930959.6320038 1199839791.7956591 0 1199839791.7956591 -1371982507.5134163 0 0 0 0 -87925664.011430144 -51557312.497667789 0 -51557312.497667789 -84400893.704902649 0 0 0 0 20683261.210974772 -19027846.166604549 0 -19027846.166604549 12500413.852117393 0 0 0 0 232136020.90961838 -212532161.49697781 0 -212532161.49697781 -293950656.01986122 0 0 0 0 -58288240.228073701 -98743746.49761188 0 -98743746.49761188 -103804378.49930954 0 0 0 0 956933870.35238457 -132266449.12886953 0 -132266449.12886953 -866898841.2755127 0 0 0 0 -181860818.17562729 -103256010.61467743 0 -103256010.61467743 -65431701.058947563 0 0 0 0 -256512350.1944499 -249483022.99317503 0 -249483022.99317503 -201029597.04126167 0 0 0 0 128207805.79518759 206207864.65542316 0 206207864.65542316 -353134239.05102348 0 0 0 0 -193535174.11501515 -41603492.91444397 0 -41603492.91444397 -22132142.000776291 0 0 0 0 380569532.01663017 193185212.52510095 0 193185212.52510095 147960613.8333683 0 0 0 0 407549899.83579826 198265534.79020262 0 198265534.79020262 98398422.989897728 0 0 0 0 516552040.82286072 255539592.61080503 0 255539592.61080503 72864672.806605339 0 0 0 0 535793580.67161083 226692384.12271428 0 226692384.12271428 30455675.888856888 0 0 0 0 498272973.96552277 359109050.3044486 0 359109050.3044486 135803838.60786638 0 0 0 0 635602064.23816681 317748426.36303806 0 317748426.36303806 72432206.793806553 0 0 0 0 48472357.906661987 -597633023.46616364 0 -597633023.46616364 -99585348.067932129 0 0 0 0 -262147569.33554983 -651949790.4628334 0 -651949790.4628334 38538517.965133667 0 0 0 0 2350363.3797222325 -956265.10869150795 0 -956265.10869150795 -1241229.8332802597 0 0 0 0 19497133.012296423 -17612988.909878999 0 -17612988.909878999 9366083.3745906875 0 0 0 0 700582420.279953 175678509.62052894 0 175678509.62052894 108725960.60552263 0 0 0 0 669136647.56507111 208866575.58085823 0 208866575.58085823 78759313.385688782 0 0 0 0 652718366.33122635 89098325.587620974 0 89098325.587620974 235580526.20592785 0 0 0 0 56687437.065732956 -166944386.73138046 0 -166944386.73138046 -94856483.044578552 0 0 0 0 77316967.698717117 428033942.81460571 0 428033942.81460571 -777083704.94661331 0 0 0 0 -94543249.826131344 -317600636.5668087 0 -317600636.5668087 -224227565.19568825 0 0 0 0 -160959902.26820183 -368002401.8629837 0 -368002401.8629837 24428488.064968109 0 0 0 0 -343842321.70886755 -649191753.85353661 0 -649191753.85353661 318256937.31984711 0 0 0 0 -150075578.72218227 -331867857.25318146 0 -331867857.25318146 83881320.456390381 0 0 0 0 -151251939.37150431 -472588508.40039253 0 -472588508.40039253 677700028.76897812 0 0 0 0 347311483.33632326 -626399060.75888228 0 -626399060.75888228 258458038.20986938 0 0 0 0 -474663100.0176034 -210390510.27567196 0 -210390510.27567196 78338075.104888916 0 0 0 0 5734727.6199561469 -2639155.5801168066 0 -2639155.5801168066 -4469836.865916146 0 0 0 0 -147596468.88914776 155204055.41617727 0 155204055.41617727 -27963840.231654167 0 0 0 0 312490340.56769562 43187313.868447304 0 43187313.868447304 22377691.69549942 0 0 0 0 462118349.14762878 149971442.81710315 0 149971442.81710315 14056252.593483239 0 0 0 0 441399863.43307495 182978877.92103291 0 182978877.92103291 -6779273.59504354 0 0 0 0 554450034.70704937 137463316.34552491 0 137463316.34552491 106467851.82964516 0 0 0 0 461813273.37885571 113719406.6900745 0 113719406.6900745 126428533.41790104 0 0 0 0 538527312.09457397 175380887.17279577 0 175380887.17279577 172041112.30289555 0 0 0 0 496022821.02771759 324225656.70014787 0 324225656.70014787 359324961.60128671 0 0 0 0 465752218.81581116 209163865.09346056 0 209163865.09346056 181226322.15812778 0 0 0 0 531735664.54315186 166250600.3380599 0 166250600.3380599 382715052.15361643 0 0 0 0 531128258.00080872 181405159.45840794 0 181405159.45840794 186848442.4009037 0 0 0 0 498143707.85411835 363065836.80421066 0 363065836.80421066 242954735.07135236 0 0 0 0 436167236.78157806 230691479.1502209 0 230691479.1502209 -76791008.3738029 0 0 0 0 449558396.98912811 178005366.73739004 0 178005366.73739004 122878964.25540543 0 0 0 0 427825244.09726906 153928645.95374799 0 153928645.95374799 64565552.271527886 0 0 0 0 -573703946.10098648 168476934.29642159 0 168476934.29642159 32946996.755636036 0 0 0 0 1821819.1801654501 -1683364.2616743259 0 -1683364.2616743259 -1507841.6568853431 0 0 0 0 -97281608.124315262 -713608.3381960392 0 -713608.3381960392 45682138.555785537 0 0 0 0 207274633.65005112 559295937.96484864 0 559295937.96484864 -161011749.62058601 0 0 0 0 235306879.58757401 80396059.481864691 0 80396059.481864691 300570939.86383295 0 0 0 0 -224275114.34811783 238877734.9748593 0 238877734.9748593 320417521.71222878 0 0 0 0 -582079280.23438787 -44498674.268476486 0 -44498674.268476486 78383647.365135193 0 0 0 0 560124916.42862701 457167794.41685581 0 457167794.41685581 153816158.11824083 0 0 0 0 584955956.3651619 402676154.23549509 0 402676154.23549509 151461646.86792755 0 0 0 0 17231761.917580213 -14316914.698581994 0 -14316914.698581994 7140304.7991026826 0 0 0 0 593581692.7484436 398036401.8230052 0 398036401.8230052 55800378.603054762 0 0 0 0 537751887.44746399 314787772.82423156 0 314787772.82423156 7267106.6936860383 0 0 0 0 366179170.54483795 323633209.11481774 0 323633209.11481774 77652780.507471561 0 0 0 0 554056079.88945007 461410242.11873007 0 461410242.11873007 40808343.028834224 0 0 0 0 497434827.21564484 378112277.93857813 0 378112277.93857813 -29796079.843241841 0 0 0 0 418177454.49684715 436841527.75782174 0 436841527.75782174 81056162.032703638 0 0 0 0 -470443037.55699205 -77298897.279708862 0 -77298897.279708862 26632310.874025345 0 0 0 0 -404994497.11814642 523914.19546127319 0 523914.19546127319 -70102238.14548111 0 0 0 0 575655673.59378338 344833814.19543767 0 344833814.19543767 727488810.40801239 0 0 0 0 611735524.45816422 203795706.50611949 0 203795706.50611949 7315161.1276707649 0 0 0 0 1111851.4935243521 -252415.48011461925 0 -252415.48011461925 -56240.441193140112 0 0 0 0 7081935.643470143 -7269755.6261905469 0 -7269755.6261905469 6160794.8364745155 0 0 0 0 211014649.21972656 216784512.88629532 0 216784512.88629532 153131367.93384552 0 0 0 0 122815550.97541809 315845929.74773407 0 315845929.74773407 428980954.73791242 0 0 0 0 -34769417.18205452 139599932.1443252 0 139599932.1443252 236905517.78201675 0 0 0 0 30471399.425109863 147686862.1788826 0 147686862.1788826 230822023.02101874 0 0 0 0 -209996923.49367619 -31206567.754997253 0 -31206567.754997253 175370342.63804531 0 0 0 0 125862521.24407089 76397387.378638268 0 76397387.378638268 308129264.67289162 0 0 0 0 -83647888.028003216 -129395007.12777138 0 -129395007.12777138 122151583.33592796 0 0 0 0 -230281880.59221315 -58387832.370212555 0 -58387832.370212555 129709243.76315498 0 0 0 0 -107969083.46023673 -30765349.249448299 0 -30765349.249448299 21559682.890487671 0 0 0 0 -259714364.09561586 41919874.814397812 0 41919874.814397812 -197121972.04183197 0 0 0 0 -636910937.07268095 234330780.56614017 0 234330780.56614017 -27744912.936672211 0 0 0 0 -406192851.1250267 -5608401.6650285721 0 -5608401.6650285721 97668554.398677826 0 0 0 0 -314300897.24180722 -16665340.245754242 0 -16665340.245754242 53509317.008159637 0 0 0 0 -460619065.43203402 55584903.322748184 0 55584903.322748184 76119716.734230042 0 0 0 0 -283181184.40173864 58961173.153598785 0 58961173.153598785 111639895.3781414 0 0 0 0 -337776262.06969035 131899081.6892283 0 131899081.6892283 12922625.825469971 0 0 0 0 -351441524.1632185 102411371.06441116 0 102411371.06441116 -26122511.6222229 0 0 0 0 -312061381.97897422 40042774.835958481 0 40042774.835958481 132254067.03806114 0 0 0 0 -397929322.64176416 56554641.668218613 0 56554641.668218613 130053647.80776215 0 0 0 0 -89518095.086467981 72726376.051813126 0 72726376.051813126 51664861.694317818 0 0 0 0 -28719798.11197871 -194446978.74131405 0 -194446978.74131405 310352298.95343971 0 0 0 0 83602374.642758131 -229996621.31494808 0 -229996621.31494808 134936311.74851036 0 0 0 0 370845212.77484226 -306015810.70810318 0 -306015810.70810318 154783296.18854332 0 0 0 0 392522911.36477602 -150895173.05528736 0 -150895173.05528736 279798385.18157864 0 0 0 0 596239452.98617029 -21909254.347426414 0 -21909254.347426414 291831058.43819809 0 0 0 0 -12725068.281531096 -137890815.57457137 0 -137890815.57457137 493645542.34740639 0 0 0 0 1203226451.1811433 799147467.77714062 0 799147467.77714062 750460066.80811787 0 0 0 0 350198350.57078958 213438194.15177965 0 213438194.15177965 350504012.71496201 0 0 0 0 1964741162.3134577 363542832.14754105 0 363542832.14754105 -28469985.857531548 0 0 0 0 555837525.60474563 83192763.62032795 0 83192763.62032795 10296619.208768845 0 0 0 0 354009.8291465707 1477189.1700569056 0 1477189.1700569056 3772704.2433192786 0 0 0 0 -103173052.99812174 -142457581.37827206 0 -142457581.37827206 1075368096.5189819 0 0 0 0 72343433.040188313 854144465.80560112 0 854144465.80560112 1390148998.0305583 0 0 0 0 1826624084.6325798 218967608.26977682 0 218967608.26977682 98929714.287653923 0 0 0 0 -98482878.921441555 78740966.333285332 0 78740966.333285332 1259058311.9951262 0 0 0 0 750177867.88329744 -393951766.97505331 0 -393951766.97505331 -902957177.19486427 0 0 0 0 8540845.0913207699 1574072.1471306197 0 1574072.1471306197 -2436121.7776450189 0 0 0 0 -168576100.22758198 173024148.12963676 0 173024148.12963676 159157926.38705635 0 0 0 0 44369993.140300751 -78000622.863353252 0 -78000622.863353252 -263356103.98267674 0 0 0 0 108105961.19017363 4890004.7660267353 0 4890004.7660267353 -204159696.23418665 0 0 0 0 80642973.745075703 27021374.738809586 0 27021374.738809586 -161233104.24637222 0 0 0 0 78128537.043274164 27898404.183620572 0 27898404.183620572 -124688197.72589397 0 0 0 0 128228076.49008238 -153678347.90610814 0 -153678347.90610814 -441649555.67341167 0 0 0 0 66081926.046605587 2720446.4763541222 0 2720446.4763541222 -126540705.8837285 0 0 0 0 573479132.88660145 1404064.0471796989 0 1404064.0471796989 -280638970.07767487 0 0 0 0 222577741.48676109 285196919.32904744 0 285196919.32904744 90147679.502429008 0 0 0 0 77126547.72797823 -546552373.06375074 0 -546552373.06375074 -35452757.970935822 0 0 0 0 3690399.7726932978 554106.43536614161 0 554106.43536614161 -951044.62631436437 0 0 0 0 -461221288.43512082 -81539704.908289909 0 -81539704.908289909 315447115.79027367 0 0 0 0 25857102.246177673 -54436903.959606171 0 -54436903.959606171 105158763.56318283 0 0 0 0 -133766576.97230911 112623630.87268257 0 112623630.87268257 12205974.925751686 0 0 0 0 95190554.392321587 32333493.222401619 0 32333493.222401619 -242311299.18153954 0 0 0 0 1893218.654524073 3389434.7102116421 0 3389434.7102116421 -979183.10358293355 0 0 0 0 -61562658.149412632 -44447086.324610233 0 -44447086.324610233 -17082858.526493073 0 0 0 0 60379031.108112335 276598036.25562859 0 276598036.25562859 104881256.47548199 0 0 0 0 272295285.41771889 398905250.51162338 0 398905250.51162338 140462561.46686673 0 0 0 0 -10405064.79947567 151826318.40992928 0 151826318.40992928 210624770.66345501 0 0 0 0 35686569.148084164 159634037.92213249 0 159634037.92213249 81648601.948570251 0 0 0 0 -35161913.193902969 117584507.54098797 0 117584507.54098797 11342315.114723206 0 0 0 0 32345664.803263664 -56575151.745269775 0 -56575151.745269775 65882419.678926945 0 0 0 0 20818723.597695827 565513941.46264267 0 565513941.46264267 459041826.25934267 0 0 0 0 -56302420.967626095 95128498.70525074 0 95128498.70525074 723537495.23192215 0 0 0 0 202173656.15771484 512805133.5600543 0 512805133.5600543 348653098.95910358 0 0 0 0 8527367.3970486671 2676079.7361967061 0 2676079.7361967061 -2906025.761652139 0 0 0 0 549305090.91629839 302675510.36421227 0 302675510.36421227 -397422321.86540794 0 0 0 0 3849868.8507942036 1905165.1623266353 0 1905165.1623266353 -1584891.6548993438 0 0 0 0 308283868.5658226 705797952.31447339 0 705797952.31447339 652741023.3061676 0 0 0 0 108197240.96710491 532950961.50088215 0 532950961.50088215 344627000.51586246 0 0 0 0 90649007.047878265 217660767.39747381 0 217660767.39747381 203092140.34502888 0 0 0 0 684468057.46860123 372476753.59249377 0 372476753.59249377 194088084.51445964 0 0 0 0 210760416.09472847 147074323.57745218 0 147074323.57745218 183019643.74192858 0 0 0 0 259291054.73714447 38280183.291322827 0 38280183.291322827 421565202.34826851 0 0 0 0 506765300.60728073 275334056.73068517 0 275334056.73068517 86827431.82864213 0 0 0 0 203258407.98212051 228495527.24675226 0 228495527.24675226 175590885.39156556 0 0 0 0 180224479.36651468 227229233.96503294 0 227229233.96503294 176002685.17637777 0 0 0 0 255315004.391572 337698844.51395535 0 337698844.51395535 393470502.68349075 0 0 0 0 425560868.31152058 -78197395.067213237 0 -78197395.067213237 -135949031.30619729 0 0 0 0 118279768.36759591 31746358.608271316 0 31746358.608271316 44680729.508664131 0 0 0 0 117333681.49556351 -206623156.50892186 0 -206623156.50892186 -148342172.69921756 0 0 0 0 -29937183.588067055 15794936.884272218 0 15794936.884272218 -64133755.831273079 0 0 0 0 20084699.613714218 -66918688.185707808 0 -66918688.185707808 -11965048.413653374 0 0 0 0 105255307.99194527 -20417977.010013103 0 -20417977.010013103 12040745.119130492 0 0 0 0 18302697.472165585 -22074940.116609514 0 -22074940.116609514 34983574.985529423 0 0 0 0 32528319.737823486 -52826533.094738722 0 -52826533.094738722 -61575424.088340521 0 0 0 0 27423694.529928207 -22396624.831491709 0 -22396624.831491709 4202042.4836485386 0 0 0 0 76249503.807943821 -34716248.25919944 0 -34716248.25919944 -31336403.350066185 0 0 0 0 106197121.99195862 25463629.60430336 0 25463629.60430336 -18542121.780402184 0 0 0 0 91991146.151163101 -14611161.71220839 0 -14611161.71220839 -7818973.3054109812 0 0 0 0 95622634.376285553 -28409916.920913339 0 -28409916.920913339 36999170.26336503 0 0 0 0 205786030.49870586 62502920.588191092 0 62502920.588191092 12306840.773588359 0 0 0 0 248723680.85680771 82852979.449973613 0 82852979.449973613 -50283740.259184122 0 0 0 0 104821711.43261719 16175989.914932251 0 16175989.914932251 -175043.84148323536 0 0 0 0 120554921.79458427 96665650.815093935 0 96665650.815093935 59731391.368817747 0 0 0 0 278001347.97332954 226543946.43523097 0 226543946.43523097 96155195.596784592 0 0 0 0 200737803.38042498 153111614.50827664 0 153111614.50827664 27280618.637984157 0 0 0 0 -114759377.57728386 -82976404.83407259 0 -82976404.83407259 -17822039.061228275 0 0 0 0 212036955.476192 88198096.967794895 0 88198096.967794895 -70529022.44275856 0 0 0 0 2489708.0955795497 -569484.09925208299 0 -569484.09925208299 -1812108.2401317507 0 0 0 0 -163096802.35091114 -63918360.377272129 0 -63918360.377272129 14348883.446353912 0 0 0 0 -81925877.912548065 -123706206.85234928 0 -123706206.85234928 -16963612.203810215 0 0 0 0 -128492851.21909046 -70184693.411834717 0 -70184693.411834717 12334249.337934494 0 0 0 0 -119911522.08344173 -59554514.340250492 0 -59554514.340250492 -33186258.193044662 0 0 0 0 -130933424.168015 -151921638.38078499 0 -151921638.38078499 -109558732.46553993 0 0 0 0 4412465.7198794745 -1481048.3104058183 0 -1481048.3104058183 -2574622.1483547315 0 0 0 0 -51580618.849572182 -127370425.11275101 0 -127370425.11275101 -146594147.42113209 0 0 0 0 -91334049.764734745 -78114165.024274349 0 -78114165.024274349 -128471647.14520645 0 0 0 0 -59438140.450143337 -136125646.36580744 0 -136125646.36580744 -100202801.37469482 0 0 0 0 61962341.181619644 9070947.5050759315 0 9070947.5050759315 -93172249.154368401 0 0 0 0 -17754221.12740612 -29798600.405663013 0 -29798600.405663013 -80244646.029293537 0 0 0 0 72564193.377204895 -9258754.7096409798 0 -9258754.7096409798 -85903487.043702364 0 0 0 0 -15686079.917307377 -29163948.169757664 0 -29163948.169757664 54978073.187173367 0 0 0 0 128737837.19646287 -94321868.495691299 0 -94321868.495691299 38416968.328588963 0 0 0 0 90742495.919788361 38566279.093848228 0 38566279.093848228 97387175.074184328 0 0 0 0 29327294.149769783 -28848210.768580168 0 -28848210.768580168 26873788.70170784 0 0 0 0 9003268.3103599548 1543432.6928540468 0 1543432.6928540468 23949260.750303909 0 0 0 0 10246823.20123291 -5235278.4658115208 0 -5235278.4658115208 48771580.238208115 0 0 0 0 17727725.336626768 -18504463.358675592 0 -18504463.358675592 12923711.876532733 0 0 0 0 46517039.263278961 -14267690.443166375 0 -14267690.443166375 -121105216.44685006 0 0 0 0 11429294.489337921 -7389937.9289861917 0 -7389937.9289861917 8059239.5037897229 0 0 0 0 24902312.468037605 -19562457.323581427 0 -19562457.323581427 -53140772.325242519 0 0 0 0 6027869.5636291504 -7512489.6121091843 0 -7512489.6121091843 -56386713.192286015 0 0 0 0 64914946.467181206 7737132.8055483103 0 7737132.8055483103 -72854428.846222162 0 0 0 0 13948023.973386709 5645334.5685588 0 5645334.5685588 -7770570.9245910924 0 0 0 0 20139101.536455154 -55886964.649661303 0 -55886964.649661303 -106714988.7464112 0 0 0 0 -201110166.73880243 26870909.829595864 0 26870909.829595864 22037373.897138596 0 0 0 0 22929770.545976967 -9716940.0842368733 0 -9716940.0842368733 6382898.6888054423 0 0 0 0 2969499.7819064856 -135966160.40534183 0 -135966160.40534183 37929160.827249885 0 0 0 0 191979384.73399734 -240484687.12965393 0 -240484687.12965393 86562685.992904663 0 0 0 0 -12627292.277172089 42331083.403549671 0 42331083.403549671 45088776.641013622 0 0 0 0 4416994.5475063454 1732426.5247971076 0 1732426.5247971076 -2432233.719444307 0 0 0 0 59440541.308982849 -129522260.65207529 0 -129522260.65207529 -5416136.3541167974 0 0 0 0 214567834.03579426 -204098818.73677135 0 -204098818.73677135 -23583135.268650174 0 0 0 0 335495517.1231575 28071314.562112689 0 28071314.562112689 -316263816.69516754 0 0 0 0 -119158665.64479923 -9461004.3103842735 0 -9461004.3103842735 -10768592.098977089 0 0 0 0 261360839.05259037 -128371690.00397474 0 -128371690.00397474 -92595122.541919708 0 0 0 0 19768095.630425118 -16007206.810620578 0 -16007206.810620578 13914747.918027811 0 0 0 0 -287957050.81287098 -495110291.9537853 0 -495110291.9537853 492172227.99588585 0 0 0 0 -181686479.87988424 -53797030.734947264 0 -53797030.734947264 12000101.878020644 0 0 0 0 -194024697.93066597 18037840.585136354 0 18037840.585136354 -18600173.445561886 0 0 0 0 401662568.82462311 222821073.73980141 0 222821073.73980141 -306360290.36420918 0 0 0 0 -228943951.83099747 202943019.92700291 0 202943019.92700291 -56201154.524550438 0 0 0 0 52829639.159744263 74956275.759650707 0 74956275.759650707 9959093.9797599316 0 0 0 0 95929350.384819031 122716752.93552208 0 122716752.93552208 -45652161.175179839 0 0 0 0 159236012.59217834 -13460449.504558563 0 -13460449.504558563 37840141.016059875 0 0 0 0 155664249.18803406 57598110.646878242 0 57598110.646878242 -56459922.166332245 0 0 0 0 -80822520.229537964 38264668.487972736 0 38264668.487972736 -66834520.500923634 0 0 0 0 13858985.081890404 -6649643.2652871069 0 -6649643.2652871069 1164830.3416616409 0 0 0 0 -55483927.068574905 -13164859.20039618 0 -13164859.20039618 167884324.48083115 0 0 0 0 41388915.996917725 -53038218.762738228 0 -53038218.762738228 138295676.24282861 0 0 0 0 -49518236.819023132 47959379.465772629 0 47959379.465772629 65014690.141618729 0 0 0 0 137123482.27413177 63863023.855422497 0 63863023.855422497 54540614.064206123 0 0 0 0 61282687.390487671 105764806.05589867 0 105764806.05589867 94777658.2752738 0 0 0 0 -385158749.92247772 198493941.73894119 0 198493941.73894119 9485801.1917695999 0 0 0 0 391667.29481834546 -372920.00967760384 0 -372920.00967760384 -506582.80927446391 0 0 0 0 215075904.07099533 83596475.720592976 0 83596475.720592976 -138371978.20696354 0 0 0 0 72625192.584299088 -148623772.4640708 0 -148623772.4640708 249856116.26561451 0 0 0 0 279401370.30526352 -15604465.733462334 0 -15604465.733462334 -79658790.606204033 0 0 0 0 38596090.658683777 17370533.754368782 0 17370533.754368782 -6407815.245385468 0 0 0 0 31464883.546397209 50348736.737922907 0 50348736.737922907 -64661013.503767014 0 0 0 0 37253390.850474581 -6468381.6902757706 0 -6468381.6902757706 -659484.48009185761 0 0 0 0 847203.78349261917 -5990097.1744364491 0 -5990097.1744364491 -44392.943667632033 0 0 0 0 -1596614.6253623962 -69330475.708873749 0 -69330475.708873749 -4902907.1079500318 0 0 0 0 63039690.722536087 -46390659.694910228 0 -46390659.694910228 -203706952.91967535 0 0 0 0 38714877.181833267 -5413659.9976285808 0 -5413659.9976285808 -3895175.9624570739 0 0 0 0 131928706.84809113 185063522.06649995 0 185063522.06649995 -243030666.06015348 0 0 0 0 20647057.234195709 110547021.80814505 0 110547021.80814505 160693761.59218216 0 0 0 0 9738210.8345340602 -670920.18201716617 0 -670920.18201716617 -2131246.7182081542 0 0 0 0 -41164756.920440674 380668403.03865528 0 380668403.03865528 -157815602.69323349 0 0 0 0 -59590580.112380981 192769583.62573957 0 192769583.62573957 374283774.28862095 0 0 0 0 32237144.758789062 51144356.870950222 0 51144356.870950222 -44377581.421142101 0 0 0 0 153584105.75203323 -116018432.49429727 0 -116018432.49429727 -64826310.865354538 0 0 0 0 313772875.44415665 127786882.95840073 0 127786882.95840073 -35705336.36302948 0 0 0 0 -13877146.489501953 23923157.630330086 0 23923157.630330086 -68326679.588617325 0 0 0 0 56325761.698898315 205809842.54168415 0 205809842.54168415 135994353.19766402 0 0 0 0 97585260.327201843 115955678.79234934 0 115955678.79234934 -53879196.354789734 0 0 0 0 -66306528.189697266 111954299.65839672 0 111954299.65839672 64682646.824691772 0 0 0 0 -60664770.741306782 186373658.57261437 0 186373658.57261437 466770031.95536232 0 0 0 0 -9538.2653453052044 3048060.8176580928 0 3048060.8176580928 1052425.4132483765 0 0 0 0 134098523.70823288 2547471.7322507501 0 2547471.7322507501 -24851055.46909523 0 0 0 0 267438095.24353027 -64838414.545517921 0 -64838414.545517921 -12551908.315593123 0 0 0 0 3139185.6369903386 410193.53452241514 0 410193.53452241514 -1165160.5197399417 0 0 0 0 199930519.54048729 -195423866.82081819 0 -195423866.82081819 88344040.675640106 0 0 0 0 -1208163.4575805664 2577747.3781591654 0 2577747.3781591654 -3818804.4582166672 0 0 0 0 2472456.6805985495 2767695.3575770501 0 2767695.3575770501 -76816.436265259515 0 0 0 0 43391088.825792313 -28270294.632443428 0 -28270294.632443428 -80544654.486607552 0 0 0 0 42472.899322509766 4720915.4265785217 0 4720915.4265785217 -8105386.9831008911 0 0 0 0 2427306.6241764426 1857590.9084807131 0 1857590.9084807131 -801629.27754879696 0 0 0 0 -57380.131156921387 3177354.4646930695 0 3177354.4646930695 -3884318.7271508574 0 0 0 0 -98712910.808441162 77685000.106923103 0 77685000.106923103 -129811103.65959787 0 0 0 0 4467159.9513986968 553292.19401516765 0 553292.19401516765 -2217830.215683965 0 0 0 0 27501540.205116272 134961136.74534988 0 134961136.74534988 -190303788.89012384 0 0 0 0 344695.72146606445 2061852.0740008354 0 2061852.0740008354 -11721380.888108015 0 0 0 0 1954632.7385124192 2057158.502316932 0 2057158.502316932 -527944.5279733967 0 0 0 0 -42912175.836013794 113988379.87975478 0 113988379.87975478 -85524871.650888443 0 0 0 0 19722443.755428314 152553925.63216472 0 152553925.63216472 -83187720.73932457 0 0 0 0 -44174180.733856201 73946766.946606636 0 73946766.946606636 -24283115.746592999 0 0 0 0 119270701.38717842 20090335.537905216 0 20090335.537905216 -66698535.136331558 0 0 0 0 104633104.52667522 119134058.63446647 0 119134058.63446647 62099852.75958252 0 0 0 0 100872605.41592503 98047786.982912719 0 98047786.982912719 -30623939.997953415 0 0 0 0 1961380.8024450019 -330202.66190604866 0 -330202.66190604866 -2658995.3583440185 0 0 0 0 -77409230.976852417 -66771856.708723545 0 -66771856.708723545 -32138574.50908947 0 0 0 0 -49654438.97819072 62282965.417950869 0 62282965.417950869 -61142219.155880928 0 0 0 0 -76029822.785247803 167852798.89196396 0 167852798.89196396 -94581463.546611071 0 0 0 0 -207780573.7620182 156272345.55423093 0 156272345.55423093 -57120269.789844513 0 0 0 0 99381006.332808256 35812705.265044987 0 35812705.265044987 -20985793.818001747 0 0 0 0 74548300.218439102 43303626.596970558 0 43303626.596970558 4618638.1725842953 0 0 0 0 173010102.86460972 69450603.031591654 0 69450603.031591654 -11442442.218294144 0 0 0 0 97173963.360617161 5679891.7848852873 0 5679891.7848852873 -38015815.465600014 0 0 0 0 6135380.8922863007 -13044850.048919678 0 -13044850.048919678 -15084550.518273354 0 0 0 0 37005417.175630569 -61996930.15846777 0 -61996930.15846777 -74502638.663790464 0 0 0 0 199164113.12072182 -527661983.22930098 0 -527661983.22930098 -148408560.63323498 0 0 0 0 33831915.398199536 -6941268.9331842773 0 -6941268.9331842773 -2988845.157591179 0 0 0 0 59066646.369023323 -16063621.94117856 0 -16063621.94117856 -65205941.606090546 0 0 0 0 46750390.32976532 -9700527.2837471962 0 -9700527.2837471962 -18955423.422607899 0 0 0 0 -2873921.8630886078 -34052091.101986885 0 -34052091.101986885 -28165170.864263296 0 0 0 0 -278502386.91383362 78222208.666594982 0 78222208.666594982 16068319.799240112 0 0 0 0 730351651.36483765 212014307.7950449 0 212014307.7950449 30862517.892947674 0 0 0 0 261542242.52051926 -489527569.62823391 0 -489527569.62823391 -112719407.76153755 0 0 0 0 733307426.12287521 405193635.23938298 0 405193635.23938298 389675733.41818619 0 0 0 0 649141.29214356095 1129617.2034237823 0 1129617.2034237823 373951.60680228844 0 0 0 0 271131025.42602539 -339219140.93767643 0 -339219140.93767643 170040210.27317619 0 0 0 0 73775736.360321045 30153051.055071592 0 30153051.055071592 246097720.34347057 0 0 0 0 484025987.27690887 -78408652.895637512 0 -78408652.895637512 -37489125.147932053 0 0 0 0 227898890.1053772 -51149259.199380875 0 -51149259.199380875 -34551600.390829802 0 0 0 0 835602.1990661025 582378.95402116328 0 582378.95402116328 414706.05522160325 0 0 0 0 -5644479.1197052002 -115217511.16269207 0 -115217511.16269207 76716914.153918266 0 0 0 0 293556274.82302856 -446173454.98516464 0 -446173454.98516464 -199272302.24564552 0 0 0 0 46994530.178546906 334795286.37790012 0 334795286.37790012 -76467700.08795023 0 0 0 0 29612915.36270741 -5318744.3660993576 0 -5318744.3660993576 -3316616.467805211 0 0 0 0 51132327.717353821 -13253679.08490324 0 -13253679.08490324 -50481290.92650795 0 0 0 0 -17306940.317188263 -86397500.870453835 0 -86397500.870453835 -31623456.362298965 0 0 0 0 54615279.635280609 46862642.769822598 0 46862642.769822598 15130294.27217865 0 0 0 0 30012122.24005127 5688276.7278308868 0 5688276.7278308868 8266242.6279730797 0 0 0 0 38641439.063346863 17201711.044798851 0 17201711.044798851 9074783.1598386765 0 0 0 0 29564216.417701721 31252357.068787575 0 31252357.068787575 19490012.453023911 0 0 0 0 17265196.987854004 7679861.9961214066 0 7679861.9961214066 14781983.25649333 0 0 0 0 15159687.726013184 11667509.093177795 0 11667509.093177795 7230188.4141016006 0 0 0 0 -23318916.420379639 -24921587.203756571 0 -24921587.203756571 15466015.806013107 0 0 0 0 -15148844.508876801 16103685.602559745 0 16103685.602559745 58601659.761599541 0 0 0 0 30438473.158258438 42321374.20633775 0 42321374.20633775 28743636.593863964 0 0 0 0 2595520.4322873801 2708564.7064453028 0 2708564.7064453028 1695699.6998760374 0 0 0 0 61827227.392658234 33860191.141461372 0 33860191.141461372 10985894.927031755 0 0 0 0 -97414541.702957153 -46598579.200345039 0 -46598579.200345039 41733357.68878746 0 0 0 0 27424590.456756592 26665324.190134048 0 26665324.190134048 10369673.719540596 0 0 0 0 -37457424.655212402 -1663897.603099823 0 -1663897.603099823 -59999579.466274261 0 0 0 0 -34771972.481018066 19255844.855709076 0 19255844.855709076 -52982466.408192635 0 0 0 0 -30829249.490356445 28633720.34774971 0 28633720.34774971 -31174511.969026566 0 0 0 0 -44134585.565124512 -9567731.8354606628 0 -9567731.8354606628 -14572137.815904617 0 0 0 0 -41400470.75390625 -22799369.495746613 0 -22799369.495746613 -43198184.540117264 0 0 0 0 -46520397.37298584 -22815669.53211689 0 -22815669.53211689 -29837423.842264175 0 0 0 0 1151159.3703255653 16956369.737651512 0 16956369.737651512 20578369.612012863 0 0 0 0 -50896509.119003296 -2299795.355381012 0 -2299795.355381012 17280986.076860428 0 0 0 0 1195315.6144104004 18111138.408590317 0 18111138.408590317 -19112945.287111282 0 0 0 0 -29992525.043914795 22024858.354215622 0 22024858.354215622 1582126.7066726685 0 0 0 0 51350139.978168488 23863667.612461567 0 23863667.612461567 49643089.705659866 0 0 0 0 47418692.201675415 9941270.1614570618 0 9941270.1614570618 5434488.8615274429 0 0 0 0 52438612.406105042 -28489355.100596666 0 -28489355.100596666 48788864.617874146 0 0 0 0 -18387466.52507019 18935385.020065308 0 18935385.020065308 24808204.535078049 0 0 0 0 43366811.074836731 -7177139.0052537918 0 -7177139.0052537918 24579543.032127745 0 0 0 0 133354259.97245026 70690783.546572685 0 70690783.546572685 -67504088.938621521 0 0 0 0 -119299324.83966637 54019569.801246762 0 54019569.801246762 65633592.629335403 0 0 0 0 149266083.9886322 65110814.559914589 0 65110814.559914589 39572094.684588432 0 0 0 0 201460461.17741394 -8927510.496427536 0 -8927510.496427536 -28904916.369667053 0 0 0 0 227778416.133461 -42130981.472426414 0 -42130981.472426414 -8300501.8537349701 0 0 0 0 205854501.54189968 -35307573.689139724 0 -35307573.689139724 52832281.489818573 0 0 0 0 541762.8429428637 287428.0084021613 0 287428.0084021613 -322418.49195332639 0 0 0 0 298417122.78232098 -111428356.79457611 0 -111428356.79457611 47831928.633657455 0 0 0 0 311186894.21575928 -16217898.686553478 0 -16217898.686553478 -33385837.825489044 0 0 0 0 178671075.34092712 -51147157.119061947 0 -51147157.119061947 35010020.819538116 0 0 0 0 300339881.59157562 -129565029.61663508 0 -129565029.61663508 7589114.4756278992 0 0 0 0 52951376.174301147 1094974.3480184078 0 1094974.3480184078 1724146.262717247 0 0 0 0 354254.37244063802 336890.67908283323 0 336890.67908283323 -57809.653196826577 0 0 0 0 42520074.238708496 -435067.26673698425 0 -435067.26673698425 28329309.38047576 0 0 0 0 40081838.494438171 -6167862.7989621162 0 -6167862.7989621162 -1202507.052441597 0 0 0 0 28516529.226343155 1079865.5221691132 0 1079865.5221691132 -10075944.496251106 0 0 0 0 11923155.72769165 9490420.9889688492 0 9490420.9889688492 -1651026.7537965775 0 0 0 0 19473085.697349548 11783306.383069038 0 11783306.383069038 -16405206.662430763 0 0 0 0 -15362290.476829529 20852898.461242199 0 20852898.461242199 -299183.2267036438 0 0 0 0 -8911591.6715698242 38125658.379794121 0 38125658.379794121 5076401.9255504608 0 0 0 0 21330298.145767212 26236653.386612177 0 26236653.386612177 -1055381.0613040924 0 0 0 0 15821922.985977173 21842115.841580391 0 21842115.841580391 -2336471.2598876953 0 0 0 0 16420361.162765503 46325688.28954792 0 46325688.28954792 11417348.16306591 0 0 0 0 64968402.680793762 11569265.478821754 0 11569265.478821754 -2949548.8956413269 0 0 0 0 5162457.0640716553 28630604.895711899 0 28630604.895711899 -6608819.4495105743 0 0 0 0 -31506822.940353394 24978393.892726898 0 24978393.892726898 4267639.4511160851 0 0 0 0 2563020.2129058838 2611247.0343894958 0 2611247.0343894958 1316829.0146427155 0 0 0 0 922278.00933486223 4522578.7174686715 0 4522578.7174686715 4896809.1785420999 0 0 0 0 -54377635.75308609 20361596.499225855 0 20361596.499225855 5693956.9764518738 0 0 0 0 -39881243.845367432 40153462.639312744 0 40153462.639312744 -10530452.525253296 0 0 0 0 3922397.2459431924 1317453.1490319371 0 1317453.1490319371 -821974.69102651812 0 0 0 0 18908156.322280884 18427333.998597145 0 18427333.998597145 19459922.590031624 0 0 0 0 6034381.2235751748 6756029.1666412838 0 6756029.1666412838 666640.32564541977 0 0 0 0 -33466076.996322632 18974806.90549469 0 18974806.90549469 -1319091.0237922668 0 0 0 0 8034473.721206665 -1562041.3856656551 0 -1562041.3856656551 -60278750.047265053 0 0 0 0 11806374.046531677 9239057.717900753 0 9239057.717900753 -51707284.456540108 0 0 0 0 -12337110.903978348 28904238.169739842 0 28904238.169739842 1069025.659986496 0 0 0 0 6131188.5945568085 8239775.0451887958 0 8239775.0451887958 6912538.8552716412 0 0 0 0 -8157127.397605896 15951730.925663233 0 15951730.925663233 29193468.06832695 0 0 0 0 932813.66595172137 3326567.5651731044 0 3326567.5651731044 1750010.0625027372 0 0 0 0 8025538.8375305906 2105733.2531243414 0 2105733.2531243414 -6542543.7770989668 0 0 0 0 52588692.453186035 55327334.012039661 0 55327334.012039661 -11725980.446182191 0 0 0 0 9125323.9881817997 1126956.1268938929 0 1126956.1268938929 -6404242.5202280488 0 0 0 0 19486374.159606934 14558993.718662262 0 14558993.718662262 1032991.6052398682 0 0 0 0 31607230.335906982 20716205.330770493 0 20716205.330770493 2900897.8153834343 0 0 0 0 16073017.714611053 7445155.9947752953 0 7445155.9947752953 22158921.519376755 0 0 0 0 44276938.569732666 2242921.7514047623 0 2242921.7514047623 -9579667.5702400208 0 0 0 0 23782414.742828369 19145295.332121849 0 19145295.332121849 2928889.8626098633 0 0 0 0 20312410.490448952 248105.49048882723 0 248105.49048882723 -3934274.1007442474 0 0 0 0 18497478.927436829 22282425.908247471 0 22282425.908247471 33542037.536209106 0 0 0 0 1777451.4857359156 -153941.17602186464 0 -153941.17602186464 -1703295.2734683268 0 0 0 0 -4573316.3014984131 3572520.2816977501 0 3572520.2816977501 807878.5851020813 0 0 0 0 4121048.3937046994 1525380.5279878527 0 1525380.5279878527 -1849951.7783709839 0 0 0 0 -3062795.740562439 8445670.1496286392 0 8445670.1496286392 -8781254.9326608181 0 0 0 0 1351912.4923782349 1614499.4770445824 0 1614499.4770445824 -5081997.0334954262 0 0 0 0 -10136376.104637146 -37864709.810350418 0 -37864709.810350418 25902758.181310415 0 0 0 0 116843848.6646347 894637.54606628418 0 894637.54606628418 -11327863.45343399 0 0 0 0 -74597838.332241058 -9649032.4146965146 0 -9649032.4146965146 -1745517.6809306145 0 0 0 0 -25071231.792152405 -13559538.841180682 0 -13559538.841180682 -13361060.47798872 0 0 0 0 -583666.31140438467 1042648.5298389252 0 1042648.5298389252 -83734.668110022321 0 0 0 0 -405532.80089950562 3205816.9697740078 0 3205816.9697740078 132390.98530864716 0 0 0 0 4339343.8316879272 8773708.9231820107 0 8773708.9231820107 -4367354.9268417358 0 0 0 0 -7275328.3581848145 11619232.847730637 0 11619232.847730637 9498861.9930751324 0 0 0 0 11269666.338926315 24852195.188936472 0 24852195.188936472 10751802.406934738 0 0 0 0 355787875.93624115 16529377.156556606 0 16529377.156556606 -32183365.736477852 0 0 0 0 250317786.22348785 -88856566.385667324 0 -88856566.385667324 18920938.251224518 0 0 0 0 499059.03129879385 341679.64570185728 0 341679.64570185728 -145600.96865513735 0 0 0 0 144654944.97579956 4900388.7770638466 0 4900388.7770638466 45450693.380524635 0 0 0 0 295028558.34762192 -173720399.14139247 0 -173720399.14139247 71476317.875551224 0 0 0 0 338184.70707702637 1546437.0746645927 0 1546437.0746645927 -5920559.5904579163 0 0 0 0 148708244.95123291 -97898829.44998455 0 -97898829.44998455 70477025.854789898 0 0 0 0 952575.8499770835 1106179.0120840669 0 1106179.0120840669 -146074.47602292709 0 0 0 0 164625292.63739395 -63529510.460438371 0 -63529510.460438371 -1302250.0328893661 0 0 0 0 103696625.00008774 -37487476.286942482 0 -37487476.286942482 13443649.28958559 0 0 0 0 152757365.90126801 -76455166.505705357 0 -76455166.505705357 10363884.479472637 0 0 0 0 193875571.19154358 -87045422.544982433 0 -87045422.544982433 12875762.804883957 0 0 0 0 195708290.55414963 -59549043.456612349 0 -59549043.456612349 11294088.356954575 0 0 0 0 868484.67042632401 403848.31014766917 0 403848.31014766917 -588201.50915311836 0 0 0 0 223960582.57483292 -81328188.181819916 0 -81328188.181819916 -10001670.373782158 0 0 0 0 195795589.2141037 -43854561.765787125 0 -43854561.765787125 39055906.865573883 0 0 0 0 889685.3065986298 832329.23862732574 0 832329.23862732574 -2092.5604062452912 0 0 0 0 187960865.03120422 -26145967.952678919 0 -26145967.952678919 26261636.911834717 0 0 0 0 77204222.679962158 -60719682.637691975 0 -60719682.637691975 10974721.923945427 0 0 0 0 182456507.60739136 -40828519.680713177 0 -40828519.680713177 -7779494.7493000031 0 0 0 0 139573390.40574646 -76646933.246694565 0 -76646933.246694565 21804763.883003235 0 0 0 0 440095.05977360159 1965221.4419784285 0 1965221.4419784285 238130.59273678903 0 0 0 0 29475624.359451294 34352408.966105938 0 34352408.966105938 -14241863.028647423 0 0 0 0 93079587.698793411 -28574668.095771909 0 -28574668.095771909 -19560737.214471817 0 0 0 0 -255358.53879928589 4436289.7792563438 0 4436289.7792563438 -5696307.4692544937 0 0 0 0 13659626.59475708 52628593.93759644 0 52628593.93759644 42244677.906619072 0 0 0 0 4474137.9309982993 2219913.3226704076 0 2219913.3226704076 -1547868.9099418996 0 0 0 0 374756615.44421387 -67023239.789347172 0 -67023239.789347172 -25722544.522682667 0 0 0 0 463717950.18130493 72753546.860956788 0 72753546.860956788 -84462622.605556488 0 0 0 0 423198205.70644379 91677266.101941586 0 91677266.101941586 -85143677.909176826 0 0 0 0 427939544.66431427 48510441.8566432 0 48510441.8566432 -87451186.149538994 0 0 0 0 140106846.65947723 -44369397.195202827 0 -44369397.195202827 -9247853.0146698952 0 0 0 0 401987494.25456619 57322759.103230476 0 57322759.103230476 -50424597.703388214 0 0 0 0 -142761.42880309373 419149.50426899642 0 419149.50426899642 75939.630168624222 0 0 0 0 409443175.4519043 25582734.456584454 0 25582734.456584454 -44255960.078441262 0 0 0 0 50793802.192813873 89961518.299637437 0 89961518.299637437 51060952.094732285 0 0 0 0 184404908.88946152 135470272.86001742 0 135470272.86001742 24166805.951024055 0 0 0 0 412546110.60471344 31467820.210984707 0 31467820.210984707 -33529474.790976524 0 0 0 0 629851131.36310577 1767905.962053299 0 1767905.962053299 -29827406.592689276 0 0 0 0 476613314.35593796 -131339680.5644455 0 -131339680.5644455 44762997.190648079 0 0 0 0 206698269.15005493 122085697.09966469 0 122085697.09966469 86583834.786170483 0 0 0 0 324083577.90089417 46592199.684147835 0 46592199.684147835 -22186729.967797279 0 0 0 0 479707514.18797302 200218147.52239394 0 200218147.52239394 -21754029.377275467 0 0 0 0 957028.769919388 601872.34694002569 0 601872.34694002569 -181580.98746556416 0 0 0 0 -64808372.911680222 -47337514.873490512 0 -47337514.873490512 56731169.27912426 0 0 0 0 155704593.2175293 43149352.728387833 0 43149352.728387833 50040231.351026773 0 0 0 0 353699569.32023239 -33833346.606880426 0 -33833346.606880426 3090755.0156861544 0 0 0 0 350149925.92496109 -45328085.818741322 0 -45328085.818741322 51304112.178966999 0 0 0 0 443368450.30031395 -17887165.796133399 0 -17887165.796133399 19834643.940609932 0 0 0 0 181768001.97655487 103696797.40377903 0 103696797.40377903 43026009.582564354 0 0 0 0 36348.25099015981 186800.74409882538 0 186800.74409882538 652501.47264699452 0 0 0 0 38269524.882709503 5460661.5959186554 0 5460661.5959186554 139518606.64500284 0 0 0 0 406126679.01426315 91905957.162737846 0 91905957.162737846 -76747992.285167217 0 0 0 0 406369655.94470215 68062248.146961689 0 68062248.146961689 4577230.1494118571 0 0 0 0 404815158.3488903 57587539.283943295 0 57587539.283943295 -84845021.031002045 0 0 0 0 34325.086931832135 338552.54020281509 0 338552.54020281509 1495565.3538868893 0 0 0 0 9498654.3590660095 -37321030.252481461 0 -37321030.252481461 27937922.410012245 0 0 0 0 -54309988.060852051 -50098067.028690338 0 -50098067.028690338 5291190.1544947624 0 0 0 0 50219623.813961029 -28577431.006721497 0 -28577431.006721497 9135206.8926839828 0 0 0 0 -11221816.427719116 -10548184.46034193 0 -10548184.46034193 27438241.306273296 0 0 0 0 4991397.5037345886 32720934.354084015 0 32720934.354084015 -22094237.970802307 0 0 0 0 -27293211.02501297 5403259.3613605499 0 5403259.3613605499 30189836.828321457 0 0 0 0 -24893808.951896667 9234460.2780723572 0 9234460.2780723572 26228995.835847378 0 0 0 0 -27525893.220703125 9996119.9233360291 0 9996119.9233360291 33676236.220344067 0 0 0 0 -136844803.37714767 37509251.911916256 0 37509251.911916256 27270079.012057304 0 0 0 0 -11635079.892562866 102862511.95868635 0 102862511.95868635 -28600502.304409981 0 0 0 0 51237976.361564636 27332188.956721306 0 27332188.956721306 -23627738.713356972 0 0 0 0 118379305.53501892 85116577.061579227 0 85116577.061579227 -61896283.188955307 0 0 0 0 14317227.978256226 49384474.989953995 0 49384474.989953995 -34831947.518899918 0 0 0 0 119427244.74292755 1348198.979496479 0 1348198.979496479 -52762298.539987326 0 0 0 0 34073737.050552368 5358985.80671978 0 5358985.80671978 -51708581.391853333 0 0 0 0 33375401.874481201 87356000.891453743 0 87356000.891453743 33601872.227546871 0 0 0 0 1200331.6069613919 -3723.4594696983695 0 -3723.4594696983695 -1435847.0464897361 0 0 0 0 93001592.009628296 1020653359.3902073 0 1020653359.3902073 -332221147.41742516 0 0 0 0 -12531065.169754028 -169822933.23525906 0 -169822933.23525906 453188890.58149719 0 0 0 0 -122845953.77537727 25018784.930976152 0 25018784.930976152 14472602.788217545 0 0 0 0 1497770.3081143349 2188298.9340176601 0 2188298.9340176601 -126148.57098383224 0 0 0 0 33221519.21099472 -83386014.959157467 0 -83386014.959157467 -88441643.263869286 0 0 0 0 -111547168.78455353 1273417.5107164383 0 1273417.5107164383 5734188.9931578636 0 0 0 0 2608267.4697384089 7802031.676773482 0 7802031.676773482 7104089.4477397893 0 0 0 0 -92684489.116134644 7084653.496860981 0 7084653.496860981 7501027.5169100761 0 0 0 0 -87478971.712348938 34692207.408166885 0 34692207.408166885 17044429.90096426 0 0 0 0 88109.421455383301 21228012.878424644 0 21228012.878424644 -10596090.427364349 0 0 0 0 -471997.0818157196 18899460.04297924 0 18899460.04297924 -11098023.786701202 0 0 0 0 4869770.1382734776 18763173.486434698 0 18763173.486434698 -15252823.91318512 0 0 0 0 6419526.3561553955 59384013.992659569 0 59384013.992659569 35784829.870372295 0 0 0 0 -23747451.775772095 -11133077.024766922 0 -11133077.024766922 78528876.113264084 0 0 0 0 -27742373.571861267 14681215.624997616 0 14681215.624997616 -33993839.508707523 0 0 0 0 -97173665.28855896 53060496.787744999 0 53060496.787744999 20166190.178861141 0 0 0 0 -79144870.233436584 53761596.297380447 0 53761596.297380447 25106679.072161436 0 0 0 0 -19821433.932430267 23667332.380746126 0 23667332.380746126 6357210.4853811264 0 0 0 0 -68151123.262947083 52822579.117307305 0 52822579.117307305 -41289346.049805641 0 0 0 0 27576998.660903931 72265226.130195141 0 72265226.130195141 27556102.638639212 0 0 0 0 83320095.428985596 -16101636.837157488 0 -16101636.837157488 46816182.376600266 0 0 0 0 4088891.3523483276 31819185.960290432 0 31819185.960290432 -39496788.970192909 0 0 0 0 -21005527.835906982 123381011.0271101 0 123381011.0271101 -48641240.036694705 0 0 0 0 324929.95540054888 14380.45682890527 0 14380.45682890527 -203470.67309982283 0 0 0 0 -67754489.205738902 148152476.25167209 0 148152476.25167209 2726312.8201522827 0 0 0 0 2153030.0025049299 6125821.5597394165 0 6125821.5597394165 7415535.0551634971 0 0 0 0 -19618163.479187012 41385554.901329041 0 41385554.901329041 -28183783.469587326 0 0 0 0 -41258357.979785919 32422498.361577988 0 32422498.361577988 -21298319.740671158 0 0 0 0 -14910597.859844208 27534880.166124344 0 27534880.166124344 -34039912.821037292 0 0 0 0 -80478053.539081693 -79731971.752682135 0 -79731971.752682135 -31255568.67686224 0 0 0 0 -95421891.183620453 196813470.31005812 0 196813470.31005812 9511916.0376303196 0 0 0 0 5720283.7451324463 19363899.02048111 0 19363899.02048111 -15636697.736366272 0 0 0 0 7923643.5258789062 20400545.135961533 0 20400545.135961533 -22028249.268879414 0 0 0 0 545861.69799804688 25284974.729088783 0 25284974.729088783 -20645707.858680725 0 0 0 0 -22461980.608852386 32406873.344076157 0 32406873.344076157 -16382175.467845917 0 0 0 0 -8659843.8790016174 20071115.638968468 0 20071115.638968468 -11163693.250610352 0 0 0 0 2423682.2567749023 26806733.469652176 0 26806733.469652176 -31721739.522405624 0 0 0 0 -13612816.076457977 31339441.427092075 0 31339441.427092075 -22931909.122966766 0 0 0 0 -2336233.36967659 24946835.116300106 0 24946835.116300106 -21206137.078018188 0 0 0 0 -663665.18403625488 26359278.140823364 0 26359278.140823364 -27058214.4099617 0 0 0 0 12371009.348709106 20721865.122900963 0 20721865.122900963 -24916581.71843338 0 0 0 0 9799773.8536758423 16048239.713769913 0 16048239.713769913 -17402390.16047287 0 0 0 0 6926654.778175354 19805938.524465561 0 19805938.524465561 -19576612.825666428 0 0 0 0 14095578.765529633 18317408.463366628 0 18317408.463366628 -21798141.015533447 0 0 0 0 21198798.484348774 19485657.684545934 0 19485657.684545934 -17084300.338207245 0 0 0 0 9297907.6581459045 14278709.441417694 0 14278709.441417694 -264650.8779592514 0 0 0 0 13723253.786903381 13160210.123913765 0 13160210.123913765 -20341064.94731617 0 0 0 0 761994.06031036377 22257587.75576973 0 22257587.75576973 -16934473.173330307 0 0 0 0 -4770502.0047149658 19324934.755002975 0 19324934.755002975 -20190272.70638752 0 0 0 0 4335720.1188316345 24126845.43238163 0 24126845.43238163 -19484281.38548851 0 0 0 0 21617342.231754303 18403131.709988594 0 18403131.709988594 -6816157.7418432236 0 0 0 0 10391310.806850433 9389115.0492229462 0 9389115.0492229462 -13025118.968097687 0 0 0 0 16986124.343515825 10143188.049097305 0 10143188.049097305 -879397.45899275877 0 0 0 0 24660039.666309357 -1219598.1635637283 0 -1219598.1635637283 -5769902.4689826965 0 0 0 0 -3403370.8739674091 30034341.773374796 0 30034341.773374796 64481413.705384254 0 0 0 0 1949311.7207804807 4711662.8542609848 0 4711662.8542609848 5952028.4629631713 0 0 0 0 -41919905.306365967 64236833.502041817 0 64236833.502041817 -40976604.403341293 0 0 0 0 -9979819.3660888672 38924231.528779984 0 38924231.528779984 -52896721.371551514 0 0 0 0 -7754908.0119400024 35900077.526510239 0 35900077.526510239 -33614207.451761246 0 0 0 0 -19041612.933792114 23027684.125546455 0 23027684.125546455 -16743548.158430099 0 0 0 0 5919687.5628471375 17520792.7623353 0 17520792.7623353 -7182973.1217041016 0 0 0 0 1380479.504981041 30374255.089224815 0 30374255.089224815 -14818743.691614151 0 0 0 0 -52624501.348220825 18973522.429427147 0 18973522.429427147 -1459603.7172756195 0 0 0 0 -10616586.879058838 46641900.945040703 0 46641900.945040703 -8361614.4132652283 0 0 0 0 -651982.27290725708 61710511.962992668 0 61710511.962992668 14372993.242284775 0 0 0 0 -51385999.009536743 101375796.51081085 0 101375796.51081085 -15686679.607375741 0 0 0 0 1727284.4642987996 2873494.0811881926 0 2873494.0811881926 2826426.1009172099 0 0 0 0 -104902379.58898163 163394503.77474022 0 163394503.77474022 250983182.2602663 0 0 0 0 -52184101.7735672 26739747.060136795 0 26739747.060136795 131572600.49451256 0 0 0 0 -442399656.48027039 203429335.69341612 0 203429335.69341612 44711274.893140793 0 0 0 0 44843868.396385193 237623471.5522213 0 237623471.5522213 -41416730.752228022 0 0 0 0 1387782.5288768038 110523.58163948171 0 110523.58163948171 -702287.34077358805 0 0 0 0 -60165105.342242002 -156614490.2836448 0 -156614490.2836448 7389084.6193609238 0 0 0 0 1252495046.5767212 -413916565.17037106 0 -413916565.17037106 -230741556.91031837 0 0 0 0 452431067.73539734 -477208929.92980289 0 -477208929.92980289 -172580951.61660719 0 0 0 0 1827496043.8669434 798410625.87252235 0 798410625.87252235 1319808041.0249596 0 0 0 0 1443849.7740072869 41749.171224486083 0 41749.171224486083 -809015.77659622859 0 0 0 0 70463375.482025385 -294538916.09149528 0 -294538916.09149528 -71563960.688388824 0 0 0 0 106507184.18166733 -180089736.63306785 0 -180089736.63306785 270402890.92494202 0 0 0 0 -165399427.35375977 -250679201.82432318 0 -250679201.82432318 170720626.11433029 0 0 0 0 -214638515.16772461 -365140477.66189766 0 -365140477.66189766 -82413405.464199066 0 0 0 0 297239643.95578766 125167778.37725353 0 125167778.37725353 -198581073.40044022 0 0 0 0 318052481.31733704 236456954.64466286 0 236456954.64466286 137813016.74592876 0 0 0 0 6754334.613319397 -1275774268.2268867 0 -1275774268.2268867 -337273714.21566772 0 0 0 0 625283517.6348114 489973689.28289509 0 489973689.28289509 346250213.59763336 0 0 0 0 1166914493.8835754 -354418423.71262431 0 -354418423.71262431 33625185.803211212 0 0 0 0 4803610.6007198095 -1774018.0860239964 0 -1774018.0860239964 506861.79013814044 0 0 0 0 364895468.73902893 363926733.30506706 0 363926733.30506706 674793091.64626789 0 0 0 0 230005473.83818054 -446074852.58544731 0 -446074852.58544731 498971951.76574397 0 0 0 0 116681922.0814743 -112891320.99664831 0 -112891320.99664831 146651334.75325012 0 0 0 0 618950995.86694336 145846245.37789607 0 145846245.37789607 -58851182.801621437 0 0 0 0 30125601.363716125 31399205.893578202 0 31399205.893578202 344602097.91064167 0 0 0 0 298547576.63503265 250562790.90890694 0 250562790.90890694 250205705.71754599 0 0 0 0 1318191421.1825714 426966475.03663874 0 426966475.03663874 49340276.47678709 0 0 0 0 589769611.43013763 74375523.056092262 0 74375523.056092262 -106160373.04154038 0 0 0 0 568280409.85968781 -71202501.713603973 0 -71202501.713603973 -222929391.86711073 0 0 0 0 847770952.14450073 -5635889.224676609 0 -5635889.224676609 -248625224.3441515 0 0 0 0 580694107.95968628 -63300500.892813683 0 -63300500.892813683 -247156507.84299183 0 0 0 0 351080913.69664001 82615232.916893005 0 82615232.916893005 -95632988.884780884 0 0 0 0 338104834.26019287 28090841.752718925 0 28090841.752718925 -103317898.3924284 0 0 0 0 294970682.83235168 19893859.236584663 0 19893859.236584663 -99460971.077507734 0 0 0 0 301951820.71710205 72469684.098780632 0 72469684.098780632 -93807018.189348578 0 0 0 0 324078819.36593628 -181351609.30285311 0 -181351609.30285311 -123052334.23734665 0 0 0 0 587239924.47747803 -48016131.428977489 0 -48016131.428977489 -214682652.66139698 0 0 0 0 535767711.78565216 101058569.41461372 0 101058569.41461372 53132030.434129968 0 0 0 0 377950266.80902767 -15443159.314175516 0 -15443159.314175516 -69044192.364032745 0 0 0 0 371307623.15131378 -62274166.390319824 0 -62274166.390319824 -109077630.84673023 0 0 0 0 133812491.93520355 -32637836.07576704 0 -32637836.07576704 -51661448.753953934 0 0 0 0 -42196073.059924126 34884073.611212909 0 34884073.611212909 17586791.12125206 0 0 0 0 139242956.48919678 6880076.8733875751 0 6880076.8733875751 -16036174.403542519 0 0 0 0 18317239.809089661 39563764.448375225 0 39563764.448375225 -81975194.365207672 0 0 0 0 129191338.4335289 -41902018.650921822 0 -41902018.650921822 -69370834.228411674 0 0 0 0 -28881089.327259064 -174390795.32343721 0 -174390795.32343721 -35681852.112615585 0 0 0 0 383125276.86220169 -167926931.96686864 0 -167926931.96686864 -79491153.257025719 0 0 0 0 489005848.75315094 -35655971.227701664 0 -35655971.227701664 -114521719.4493736 0 0 0 0 
</DataArray>
<DataArray type="Float64" Name="cross_section_updated" format="ascii">
1 1 1 1 1 0.051166179454856416 1 1 1 1 1 1 1 0.050036265450320375 1 1 1 1 0.049918474331480486 1 1 0.052110847439649402 1 1 1 1 0.050669216560020762 1 1 1 1 0.052839460056607675 1 1 1 1 1 1 1 1 1 1 1 1 1 0.049969915229743186 1 1 0.049938314220986879 1 1 1 1 1 0.050180615683797454 1 1 1 1 1 1 1 0.051399949529091757 1 1 1 1 0.05112473261268919 1 1 1 1 1 1 1 1 1 0.051084769412147478 1 1 0.05247439649853522 1 1 0.055760622611257131 1 1 1 1 0.049824413895651162 1 1 1 1 1 1 1 0.055796541181848416 0.049977094086946332 0.046819925369342395 1 1 0.047586494316734888 1 1 1 1 1 0.052153716652067 1 1 1 1 1 1 1 1 1 1 1 1 1 0.049729357667433222 1 1 1 0.048782106523284595 1 1 1 1 1 1 0.049732263390132841 1 1 1 1 1 1 1 1 1 1 1 1 1 1 1 1 1 1 1 1 1 1 1 1 1 0.049997499477164281 1 1 1 0.050520657446036427 1 1 0.049590380273650599 1 1 1 1 1 1 1 1 1 1 1 0.050218089439397977 1 1 1 1 1 1 1 1 0.0508488973136072 1 1 1 1 1 1 1 1 0.051583377801112738 1 1 1 1 1 1 1 1 1 0.050167554321874849 1 1 1 1 1 1 1 1 1 1 1 1 1 1 1 1 1 1 1 1 1 1 1 0.050008644308848722 1 1 1 0.052123660692636353 1 0.050034769576230376 1 0.050622309431848221 1 1 0.05461359306357931 1 1 1 0.050370368241624067 1 0.051003503762839228 1 0.051600595209037078 1 0.050822516633876665 0.053910710742506814 1 0.051732912668998099 1 1 0.053028424059545776 1 0.051270940096282004 1 1 1 0.050613809001472006 1 0.050353377608916748 0.051424492495757659 1 1 0.051300769560002166 1 1 1 0.050175575724050965 1 0.050742571127985324 0.050806950414409975 0.049875916544798032 1 0.050836496316041785 1 1 1 0.049969397864994401 1 0.050710931163497092 0.05155041783281096 0.04999819312536747 1 1 0.05344656251402357 0.054042003794154594 1 1 1 1 0.055178190096874691 1 0.049958630885580189 1 1 0.050414325430205978 1 1 1 0.050394731817195761 1 0.049911963095607005 0.050596986228860288 0.049618536635028701 1 1 1 0.050811801201704074 1 0.050307710421929663 0.05141396471537793 0.050980335831443221 0.051487454221804868 1 1 1 0.050488043035985988 0.049999792084840948 1 1 0.049864485467782042 0.050869767185530247 0.050905700194962392 1 0.050798504171945591 1 1 1 1 0.049998833630350153 1 1 1 1 1 1 1 0.052020866184840281 1 1 1 1 1 1 0.050201749641626416 0.049999211263875659 1 1 1 0.052101674168374482 1 1 1 0.050016175004005139 1 0.05100107609073741 1 0.049521822415746125 0.05316453979236381 1 1 1 1 0.050315638897063211 1 1 0.053412836209040679 1 1 1 1 0.050019061733898341 1 0.049973681616984178 1 1 1 1 1 0.049085153037811358 0.055444696512943245 1 1 1 1 1 1 1 1 0.050018174508282373 1 1 1 0.049529886780608746 1 1 0.05215154832678344 1 0.049996092760629524 1 1 1 1 1 1 1 1 1 1 1 0.053292762273535306 1 0.050145239857336814 1 0.05287342719330769 1 1 1 0.049663967227139907 1 0.050005881988208774 1 0.050298071099049456 1 1 1 1 1 1 0.051176098561366026 1 0.051489280004645761 1 1 1 0.051189789570746443 1 1 1 0.051331352827069722 1 0.050811438929751297 0.050630563570877578 1 1 1 1 0.053135250249576611 1 1 1 1 0.053367106298228772 0.049966038131860041 1 1 0.049863292175143473 1 0.050491146158099687 1 0.05370398228704848 0.053368394718770723 1 1 1 0.050036129403549776 1 1 1 1 0.051677159703729186 1 1 1 1 1 1 1 1 1 1 1 0.050004571944950879 1 1 1 1 0.053415900703448906 1 1 1 0.050984010738208949 1 0.049865511952144899 0.049905047309601269 0.049999686094687829 1 1 1 0.052044812430994486 0.053885947197625975 1 0.054700112118273622 1 1 0.050777944639803271 1 1 1 1 0.054798223066490181 1 1 1 1 1 1 1 1 1 1 1 0.05549378903902448 0.048745403996345762 1 1 0.053105383916427225 1 1 1 0.04999535206945506 1 1 1 1 1 1 0.052493930397977361 1 1 1 0.048277688500268479 1 1 1 0.052128117889998063 1 1 1 1 1 1 1 1 1 1 1 0.051419716372189221 1 1 1 0.05028449792019446 1 1 1 1 1 1 1 0.050251099297100983 1 1 1 1 1 0.050546787602353649 1 1 1 1 1 1 1 1 1 1 1 1 1 1 1 1 1 1 1 0.058650156209615209 1 1 1 1 0.056891670846540628 1 1 0.052862804921318743 1 1 1 1 1 1 1 0.050051113874696747 1 1 1 1 1 1 1 1 0.049790278345837588 1 0.049854555261975131 1 1 0.057629250111217493 1 1 1 0.05724869691565123 1 1 0.059616226324034918 1 1 1 0.0502811614047938 1 0.051000322747661572 1 1 0.049990890652414431 1 0.059708909560474553 1 1 1 1 1 1 1 1 1 1 1 1 1 1 1 1 1 1 1 1 1 1 0.050553036377317916 1 0.050571085715234478 1 0.050227558506593807 1 1 1 1 1 1 1 1 1 1 1 1 1 1 1 0.050243022828843797 1 1 1 1 1 1 1 1 1 0.050310013548474121 1 1 1 1 1 1 1 1 1 1 1 1 1 1 1 1 1 1 1 1 1 1 1 1 1 1 1 1 1 0.050930639974020982 1 1 0.050865706255371124 1 1 1 0.054210287855355692 0.049935667603534822 1 0.051823565077875999 1 1 1 1 1 0.054430196498000454 1 1 1 1 1 0.053833376239740646 1 1 1 1 1 1 1 1 1 1 1 1 1 1 1 1 1 1 1 1 1 1 1 1 1 1 1 1 1 1 1 1 1 1 1 1 1 1 1 1 1 1 1 1 1 1 1 1 1 0.050997141086889138 1 1 1 1 1 1 1 1 1 1 1 1 1 1 1 0.052569390202564591 1 1 1 1 0.051306859401062374 1 1 1 1 1 1 1 1 1 1 1 1 1 1 1 1 1 1 1 1 1 1 1 1 1 1 1 0.051934373107530504 1 1 0.050180373102043666 1 0.05273147123464425 0.050425920556361192 0.04896250495181443 0.049751085637630345 1 1 0.049964933862286315 1 1 1 1 1 1 1 1 1 1 1 1 1 1 1 1 1 0.053430917894305485 1 1 0.05431433640667626 1 0.051883846711585746 1 1 1 1 0.054937999343642296 1 0.050090757266848675 1 1 1 1 0.050040934486854184 1 1 1 0.050673309638642944 1 1 1 1 1 0.050396960343980182 1 0.052345455829073101 1 1 0.0501564482884162 0.052307170611472796 1 0.051502878335719079 1 1 1 1 1 1 1 1 1 1 1 0.055636638445606817 1 1 1 0.054371360456310913 1 1 1 0.052799372555142499 1 1 0.054517370527727843 0.049734841135507787 0.049924690655440411 1 1 1 1 1 1 1 1 1 1 1 0.049996051539735492 1 1 1 1 1 1 1 1 0.053936248643382194 0.05767854367525066 0.053324941592733904 1 1 1 1 1 1 1 1 0.056550183567650764 0.050067963262554374 1 1 1 0.048729827674875652 1 1 0.05022070064584918 1 1 1 1 1 1 1 1 1 1 1 0.050092444814491599 1 1 1 1 1 1 1 1 0.050053318522221654 1 1 1 1 1 1 1 1 1 1 0.049978229177640096 1 0.05143191441840516 0.056958952857058487 0.049812616728192489 1 1 1 1 1 1 1 0.053972241699589328 0.059008258163905272 1 0.049519274044671983 1 1 1 1 1 0.051484250379593699 1 0.049840043401379916 0.051154659685430343 1 1 1 0.05272512813073759 1 0.053868234378506019 1 1 1 1 0.050008573157660358 1 1 1 1 1 1 1 1 1 1 1 1 1 1 1 1 1 0.052848009035496531 1 1 1 0.055257387292092175 1 1 1 1 1 0.051186707273267296 1 1 1 1 1 1 0.053912698588282543 1 0.051532799945794121 1 1 1 1 1 1 1 1 0.049927930157042333 1 1 1 0.050819790895089499 1 1 1 1 1 1 1 1 1 1 1 1 1 1 1 1 1 1 1 1 1 1 1 1 1 0.04944978096189117 0.049771651305908604 0.055761381106362182 1 1 1 1 0.048393496410672483 1 1 1 1 0.047361400630868564 1 1 1 1 1 1 1 0.051336295093439122 1 1 1 1 1 1 1 1 0.052393856226604668 1 1 1 1 1 1 1 1 1 1 1 1 0.051482367060206834 1 1 1 1 1 1 0.050282831549610649 1 1 1 1 1 1 1 1 0.048682295224454115 1 1 1 0.054142471570310158 1 1 1 1 1 1 1 1 1 1 1 1 0.051057561133165549 1 1 1 1 1 1 1 1 1 1 1 1 1 1 1 1 1 1 1 1 1 1 1 1 1 1 1 1 1 1 1 1 1 1 1 1 1 1 1 1 1 1 1 1 1 1 1 0.050044823318644453 1 1 1 1 1 1 1 1 1 1 1 1 1 1 1 1 1 1 1 1 1 1 1 1 0.051141503362063682 1 1 1 1 1 1 1 1 1 1 0.051343983060039601 1 1 0.052463827343124408 1 1 1 1 1 1 1 1 1 0.052897254445606279 1 0.053255598945526922 1 1 1 1 0.052749032670800652 1 1 0.055913518793424995 1 0.050455446107038532 1 1 1 1 1 0.05293722766079248 1 1 1 1 1 1 1 1 0.053495522972066868 1 1 1 1 1 1 1 1 1 1 1 1 1 1 0.056179783686684928 1 0.054263804720623809 0.049180832382655783 1 1 1 1 1 0.049703602226687058 1 1 1 1 1 1 1 1 1 1 1 1 1 1 1 0.052520929231393135 1 1 1 1 1 1 1 1 1 1 1 1 1 1 1 1 0.049954474667845292 1 1 1 1 1 0.058222893380256428 0.050773954023031184 1 1 0.056324982086120752 1 1 1 1 1 1 1 1 1 1 0.049811582609747017 1 1 1 1 1 1 1 1 1 0.050653224594663197 1 0.062464892590591473 1 1 1 1 1 0.049989217395138119 1 1 1 1 0.063241053259943045 1 1 1 0.049752136040371105 1 1 1 0.063091346655375358 1 1 0.048585391396459322 1 1 1 1 1 1 1 1 1 1 1 1 1 1 1 1 0.050383017711330656 1 1 1 1 1 1 1 0.049032286098994696 1 1 1 1 1 1 1 1 1 1 1 1 1 1 1 1 1 1 1 1 1 1 1 1 1 1 1 0.064751441996700021 1 1 1 1 0.049563745678513182 1 1 1 0.040741586880299628 1 1 1 1 1 1 1 1 1 0.041394630969349672 1 0.050004451454389837 1 1 1 1 1 1 1 1 1 1 1 1 1 1 1 1 1 1 0.0500205493161772 0.059826494339085518 1 1 1 0.047981416547034736 1 1 0.055420993667740184 1 1 0.053876683344776827 1 1 1 0.050267578253189719 1 1 0.05144432325187237 1 1 1 1 1 1 1 1 1 1 1 1 1 1 1 1 1 1 1 1 0.050222052921035008 1 0.050714160195599871 1 1 1 1 1 1 1 1 1 1 1 0.051131137119665555 1 0.050208899806491902 1 1 1 0.053514929561418768 1 1 1 1 1 0.050202899365533647 1 1 1 1 1 1 0.053489103909688362 1 1 1 1 1 1 1 1 1 1 1 0.055738830320372537 1 1 1 1 1 1 1 1 0.050947908171858958 1 1 1 0.049110427381560719 1 1 0.057868365597650663 1 1 1 1 1 0.050301178271322626 1 1 1 1 1 1 1 1 1 0.050057244213606994 1 1 0.052599733905464838 1 0.052079876773954981 1 0.050196413836903979 0.050637582022802378 0.050253758844626864 1 0.050041971687069191 1 1 1 1 1 1 0.04846354987623145 1 1 1 1 1 1 0.050197344232751559 1 1 1 1 1 1 1 0.047618038004634676 1 1 1 1 0.046555648735938981 1 1 1 1 1 0.051555164217546447 1 0.050035745976644064 1 1 1 1 1 1 1 1 1 1 0.050500068963721563 1 1 1 1 1 1 1 0.059357659540629645 1 1 1 1 1 1 1 0.049996300503233053 1 0.050724147290817395 1 1 1 1 1 1 1 1 0.058840146180141231 1 1 1 0.069190733026347678 0.050017669492328151 1 1 1 1 1 0.057709890277484799 0.04986354969160206 1 0.055191050524342547 1 1 0.051083248864468946 1 1 0.059702657462070235 1 1 1 1 1 1 1 1 0.059467510780809363 1 1 1 1 1 0.061811924549544844 1 1 1 1 0.075123949576821739 1 1 0.072547704619501691 1 1 1 1 1 1 1 1 1 1 1 1 1 1 1 1 1 1 1 1 1 1 1 1 1 1 1 1 1 1 1 1 1 1 1 1 1 1 1 1 1 0.049219120640596525 1 1 0.050113972602519812 1 1 1 1 1 0.051689013838290304 1 1 1 1 0.04959612323979349 1 1 1 1 1 1 1 1 1 1 1 1 1 1 1 1 1 1 1 1 1 1 1 1 0.051352205736697742 1 1 1 0.050573185457059903 1 1 1 1 1 1 0.050208450617140292 1 1 1 1 1 1 1 1 1 1 1 0.051981068113944706 1 0.048507174136174114 0.05239736109081955 1 1 0.051112518783136489 1 1 1 1 1 1 1 1 1 1 1 0.053647622716804101 1 1 0.051956319484777594 1 1 1 1 1 1 1 1 1 1 1 1 1 1 1 0.052540096914913244 1 1 1 1 1 1 1 0.050062820031778407 1 0.050969639949190994 1 1 1 1 0.048900238660888246 1 0.050270206883332544 1 1 1 1 1 1 1 1 1 0.051590756367027098 1 1 1 1 1 1 1 1 1 1 1 1 1 1 1 1 1 0.049451862136464492 1 1 1 1 1 1 1 1 1 1 1 1 1 1 1 1 1 1 1 1 1 1 1 1 1 0.050128767752767547 0.050167588932887877 1 1 1 1 1 1 1 1 1 1 1 0.050587052454652823 1 1 1 1 0.049784033490487885 1 1 1 1 0.050129138625538472 1 1 1 1 1 1 1 1 0.050985107985716947 1 1 1 1 1 1 1 1 1 0.05044934600702123 1 1 1 1 1 1 1 1 1 1 1 1 1 1 1 1 1 1 1 1 0.054891843859181035 1 1 1 1 1 1 1 1 1 1 1 1 1 1 0.049722150178749112 1 0.050179306434704099 1 1 1 1 1 1 1 1 0.050837099326839996 1 1 0.050387757051844395 1 1 1 1 1 1 1 1 1 1 1 1 1 1 1 1 1 1 1 1 1 1 1 1 1 1 1 1 1 1 1 1 1 1 1 1 0.050055776419754838 1 1 0.0501706855770482 1 1 1 1 0.047224674322906182 1 0.057540306480752618 1 1 0.055732263535495902 1 0.051609386324955188 1 1 1 1 1 0.050706666070688966 1 1 1 1 1 1 1 1 1 1 1 1 0.052197447317938989 1 1 1 0.044994074345548377 1 1 1 1 1 1 1 1 1 0.055198466982959729 1 1 1 1 0.054550197563528122 0.047607663315394975 1 1 1 1 1 1 1 1 0.050173576335756476 1 1 1 1 1 0.050783797984692708 1 1 1 0.050784120977158294 1 1 1 0.053862405020046508 1 1 1 1 0.048508384468083185 1 1 1 1 1 1 1 1 1 1 1 1 1 1 0.052100016998217154 1 1 1 1 1 1 0.047095717017323686 1 0.051458016710587418 0.050002884268567298 1 0.042050983692553709 1 0.053374292901846213 1 1 1 1 0.049995208086610718 1 1 1 1 0.049890171013340083 1 1 1 1 1 1 1 1 1 0.050774181821106136 1 1 1 1 1 1 1 1 1 1 1 1 1 1 0.051676902075372358 1 1 1 0.050113325281443369 1 1 1 0.050308911823266383 1 0.05003616420681567 1 1 1 1 1 1 1 1 1 1 1 1 1 1 1 1 0.051127650426689139 1 1 1 1 1 1 0.05365010734236865 1 1 1 1 1 1 1 1 1 1 1 1 1 1 1 1 1 1 0.058500912177861311 1 1 1 1 1 1 1 1 1 1 1 1 1 1 1 1 1 1 1 1 1 1 1 1 1 1 1 1 1 1 1 1 1 1 0.050104057995955201 1 1 1 1 0.050306426176540048 1 1 1 1 1 1 1 0.056880347072695944 1 1 1 1 1 1 1 1 1 0.051258922555465408 1 1 0.060514449179249655 1 1 1 1 1 0.050006923440342653 1 1 1 0.050515542883405734 1 1 0.051122002045586923 1 1 1 1 1 1 1 1 1 1 1 1 1 1 1 1 1 1 1 1 0.053909788267884035 1 1 1 1 1 1 1 1 1 1 0.050571150984620325 0.05615879043507474 1 0.066329300552142964 1 1 1 1 1 0.068597189362222824 1 1 1 1 0.050383011828394275 1 1 1 1 1 0.04987759178926375 1 0.049983473689621118 1 1 0.049167606406215314 1 1 1 1 1 1 1 1 0.049726643870816836 1 1 1 1 1 1 0.050401957231836894 1 1 1 1 1 1 0.050504585319493978 1 1 1 1 0.051362919149692737 1 1 0.049950649511499447 1 0.052016384630204082 1 1 0.05009995930135986 1 1 1 1 1 1 0.050162208526058093 1 1 1 1 0.050044742702851593 1 1 1 1 1 1 1 1 0.051298406005864078 0.052536547399242448 1 1 1 1 1 1 1 1 0.05039309335055759 1 1 1 1 1 1 0.050185304596529645 1 1 1 1 1 1 1 0.051501192374972762 1 1 1 0.053339449157239135 1 1 1 1 1 1 1 1 1 1 1 1 0.050252004021044655 1 1 1 1 0.051464321501604023 1 1 0.050371606142213199 1 1 1 1 0.049374990251013363 1 1 1 0.050030275294668435 0.048850326516961355 1 1 1 0.050634386264102021 1 1 1 0.050305754959746145 1 1 1 1 1 1 1 1 1 0.049098795690899602 1 1 1 0.050002491413849839 1 1 1 1 1 1 1 1 1 1 1 1 0.048670419283031577 1 0.050175969276265414 1 1 0.050896027069243628 1 1 0.050657263786456803 1 1 1 1 1 1 1 0.050015484246355026 1 1 1 1 1 0.049972533631060266 1 0.050565262486592849 1 1 1 0.046232478851380328 0.055428909962042847 1 0.051811249186233789 0.047474268757482667 1 0.049252920971634917 1 1 1 1 1 1 0.050256413608837647 1 0.055483589122049912 1 1 1 1 1 1 1 1 1 1 1 1 1 0.049925485410073051 1 1 0.053360096502926856 1 0.050816554062071639 1 1 0.054783872478899223 1 1 1 0.050817067514427869 0.050976726097744507 1 1 0.055193906152362214 1 1 1 1 1 1 1 1 1 1 1 1 1 1 1 1 1 1 1 1 1 1 1 0.050328293893931668 0.049974150098319077 1 0.050743898745800833 1 0.051746812573019614 1 1 0.050000136311178237 0.048280096224752198 1 1 0.049998161689341042 1 1 0.051491557623864891 1 1 0.049248408690296216 1 0.051894263710790207 1 1 1 1 0.049953092025859042 1 1 1 1 0.05041671610416433 1 0.050801259626761089 0.050894451311070135 1 0.049915006105934426 1 1 0.055299540163839547 0.050271725604674002 1 1 1 0.052078924287826761 1 1 1 1 0.053554258038125066 0.050294261310235636 1 1 1 1 1 0.049793639491200581 1 1 1 1 1 1 1 1 1 1 1 0.049585922808204536 1 0.050102750775154373 1 0.051863409885916083 1 1 0.049997664312784199 1 0.05280362612081356 1 1 1 1 1 1 1 1 0.051284703643119614 1 1 0.049446888994135185 1 1 1 1 0.049999613428619152 1 1 1 1 1 1 1 1 1 1 1 1 0.050944022318725066 1 1 1 1 1 1 1 1 1 1 1 0.050129916578125079 1 1 1 1 1 1 0.050031263157653064 1 0.049505250407319588 1 1 0.050365811660135519 1 1 1 1 1 1 1 1 1 1 1 1 1 1 1 1 1 0.050315759411150865 0.053858722486063229 1 1 1 0.049927085297435593 1 1 0.054344468078631421 1 1 1 1 1 1 1 1 1 1 1 1 1 1 1 1 1 1 1 1 1 1 1 1 1 0.050003401344311776 0.052298016588431938 1 1 1 1 1 1 1 1 1 1 1 0.052579202682843634 1 1 1 1 1 1 1 1 1 1 1 1 1 1 1 1 1 1 1 1 1 1 1 1 1 1 1 1 1 1 1 1 1 0.050092716669263057 1 1 1 1 1 0.050101753929984442 1 1 0.049720014672541613 1 1 0.052824049582447914 0.048348342671204608 1 1 1 1 1 1 1 1 1 1 1 1 1 0.048390788352270356 1 1 0.049907505575383621 1 1 1 1 1 1 0.049999050766893892 1 1 0.048476700425777335 1 1 1 1 1 1 1 1 1 1 1 1 1 0.050399288873407576 1 1 1 1 1 1 1 0.049998288418594952 1 1 1 1 1 1 1 1 1 1 1 1 0.050044401292717353 1 1 0.050013138135064292 1 1 1 1 1 1 1 1 1 1 1 1 1 1 1 1 1 1 1 1 0.050456756056486411 1 1 0.049989731943099622 1 0.049902768139757657 1 1 1 0.050003675109601221 1 1 0.051975119837344402 1 0.050668909386596947 1 1 1 0.051395073316963892 1 1 1 1 0.050040299809678099 1 1 1 1 1 1 1 0.050118921434491377 1 1 1 0.050479618176703885 1 1 1 1 1 1 1 1 1 1 1 1 0.050029806493135653 1 1 1 1 1 1 1 1 0.050560909880422542 1 1 1 1 1 1 1 1 1 1 1 0.050856530431268955 1 1 1 1 1 1 1 1 1 1 1 1 1 1 1 1 1 1 1 0.051279763596648216 0.05052588037185117 1 1 1 0.050198722930958561 1 1 1 1 1 1 1 1 1 1 1 1 0.050009642416617671 1 1 1 1 1 1 1 1 1 0.050037974516673765 1 1 1 1 1 1 1 1 1 1 1 1 1 1 1 1 0.056113760247149147 1 0.050420980577166055 1 1 1 1 1 0.054673265929412691 1 1 1 1 0.050468116136431387 1 1 1 0.049985207914721413 1 1 1 0.051183984234026134 1 1 1 1 1 1 1 1 1 0.051152824562017654 1 1 1 0.053113649541493134 1 1 0.050565229539127662 1 1 1 1 1 1 0.050281494055308969 1 1 1 1 1 1 1 1 0.051018211358891355 1 1 1 0.050489052427851927 1 1 1 1 1 1 1 1 1 1 1 1 1 1 1 1 1 1 1 1 1 1 1 1 1 1 1 0.050365568740335362 1 1 1 1 1 1 1 0.050229246257257248 1 1 1 1 1 1 1 1 1 1 1 1 1 1 1 1 1 1 1 1 1 1 1 1 1 0.050208464494716651 1 0.050112573316330324 1 1 1 1 1 1 0.050165345717051529 1 1 1 0.049974503351125972 1 1 0.049959489440900125 1 1 1 1 1 1 1 1 1 1 1 1 0.057035621470467007 1 1 1 1 1 0.055942149747001998 1 1 1 1 1 1 1 1 1 1 1 1 1 0.050069454538665202 1 1 1 0.049974110174502526 1 1 1 1 1 1 1 1 1 1 1 1 0.049905512569053623 0.051664369981904434 1 1 1 1 0.050620862740283101 1 1 1 1 1 1 1 1 1 0.049940822933285556 0.052748146371313864 1 1 1 1 1 0.053752017979863322 1 1 1 1 1 0.050258168006511977 1 1 1 1 1 0.049987901068721377 1 0.049806139772791837 1 1 1 1 0.051170344108491347 1 0.049498655755741805 1 0.050938479080617063 0.050008203493072063 1 1 1 1 1 1 1 0.049937632780228017 0.050860830540634658 1 1 1 1 1 1 0.049999368048430255 0.054523897601063007 0.05098699253757305 1 0.049783174309800823 0.049162407044236266 1 1 1 0.049923738150262922 1 1 1 1 1 0.054066003649274538 0.051060056665250653 0.049999228559090086 1 0.049559481593472045 1 1 1 0.050000116179492002 1 0.054295010722164763 0.050066980262874268 1 1 1 1 1 1 1 0.050983475507879586 0.04889067850229499 1 1 0.054918821687077166 0.057143811700414687 0.047756683935540889 1 1 1 1 1 1 1 1 1 1 1 1 1 1 1 1 1 1 1 1 1 1 1 1 1 1 1 1 1 1 1 1 1 1 1 1 1 1 1 1 0.050012572587734991 1 1 1 1 1 1 1 1 1 1 0.05003438792713092 1 1 1 1 1 1 0.050073066086987167 1 1 0.049734029336143355 1 1 1 1 1 1 1 1 1 1 1 1 1 0.049975689749292188 1 0.049653164656235545 1 1 1 1 0.051129664870250502 1 1 1 0.058192059599598861 1 1 0.057726625787063807 1 1 1 0.049996928716605674 1 1 0.050100759101223094 1 1 1 1 1 0.050053198032698865 1 1 1 1 1 1 1 0.050015819915234308 1 1 1 1 1 1 1 0.05703137582178975 1 1 0.056210174362866835 1 1 1 1 0.049892903044075523 1 0.05003541918365708 1 1 1 1 1 0.04966771604260567 1 1 1 1 0.050294593689372682 1 1 1 1 1 1 0.050928928660395834 0.049880628190302451 1 1 1 1 1 0.053812965529991617 1 1 0.05260768350951734 1 1 1 1 1 1 1 1 1 1 0.05251231651678695 1 1 1 1 1 1 1 1 1 1 1 1 1 1 1 1 1 1 0.050867340661110885 1 1 1 1 1 1 0.049885775764967652 1 1 1 1 1 1 1 0.047283193699846654 0.049610708027793111 1 1 1 1 0.04995129862585132 1 1 1 1 1 1 1 0.04880687007146526 1 1 0.050984755405932281 1 0.053288762326491532 0.048480245883072981 0.052585981185549878 1 1 1 1 1 1 0.050794413140518607 1 1 1 1 1 0.04999730452914268 1 1 1 1 0.051872070432599934 1 1 1 0.046554090773070954 1 1 1 0.051053415110495923 1 1 1 1 1 1 1 1 1 1 1 1 1 1 1 1 1 1 1 1 1 1 1 1 1 0.051877672965108819 1 1 1 1 1 1 1 0.05013857061101859 1 0.051177655977628161 1 1 1 1 1 1 0.055608626078402001 1 1 0.050462911897980932 1 1 1 0.050016499847102276 1 1 0.051322210785769491 1 1 1 1 1 0.049937842956582684 1 1 1 0.049976520365806347 0.05032832898858472 1 1 1 1 1 1 1 1 1 1 1 1 0.049488364832958466 1 1 1 1 1 1 1 1 1 0.04815608899230802 1 1 1 1 1 0.04997591774020723 0.051368685867850553 1 1 1 1 1 1 1 1 1 0.050233183979844054 1 1 1 1 1 1 1 1 0.050896239263158824 1 1 1 1 1 1 1 1 1 1 1 1 1 1 1 1 1 1 0.050350399896575117 1 1 1 1 0.050830018073279019 1 0.050315240320866733 1 0.050040751089939078 1 1 1 1 1 1 1 1 1 1 1 1 1 1 1 1 1 0.04990258198337115 1 1 1 1 1 0.052064507786282486 1 1 1 0.049396528739648456 0.05266363204553267 1 1 1 1 1 0.050733064501282094 1 1 1 1 0.049803571713406644 1 1 1 1 1 1 1 1 0.051944791021716709 1 1 1 1 1 1 1 0.051095105818855464 1 1 1 1 1 1 1 1 1 0.049803955437046417 1 1 1 1 1 1 1 1 1 1 1 1 1 1 1 1 1 1 0.049945634232625755 1 1 1 1 1 1 1 1 1 1 1 1 1 0.050113498976578727 1 1 1 1 1 1 0.050112119579871273 1 1 0.050529158931039431 1 1 0.050127023626430775 1 1 1 1 1 1 1 1 1 1 1 1 1 1 1 1 1 1 1 1 1 1 1 1 1 1 0.050050458256269387 1 0.050379385902184964 1 0.050000716974581791 0.049591660044535676 1 1 1 0.050568253549492653 1 1 1 1 1 1 1 1 1 0.049840273937206754 0.050307789979718784 1 0.052330931417266094 1 1 1 1 1 1 1 1 1 1 1 1 1 1 0.049999753369625019 1 0.049420270051319298 0.049162769640924309 1 0.050993702614702596 1 1 1 1 1 1 1 1 1 0.048283714027529553 0.049672699826701971 1 1 1 1 1 1 1 1 1 1 1 1 1 1 1 1 1 1 1 1 1 1 0.05095643851678653 1 1 1 1 1 0.049526207660478015 1 1 1 1 1 0.048379870002301352 1 1 1 0.052972191253139567 1 1 1 1 1 1 1 1 1 0.052084766933764223 1 1 1 1 0.053036445331477812 1 1 1 1 1 1 0.047563131419684754 1 1 1 1 1 1 1 0.050329638427112827 1 1 1 1 0.047645655158386944 1 1 1 1 1 1 1 1 1 1 0.050716714488141953 1 1 1 1 0.052308460927733925 1 1 1 0.053996424671740831 1 1 1 1 1 0.050255091214394032 1 1 1 1 1 1 1 1 1 1 1 1 1 1 0.049150003665233234 0.057028842692894904 1 1 0.055071068404231066 1 1 1 1 1 1 1 0.04967361488192621 1 1 1 1 1 1 0.050433975030908539 1 1 1 1 1 1 1 1 1 1 1 1 1 1 1 1 1 1 1 1 1 1 1 0.051534054529283772 1 1 1 1 1 1 1 1 0.050040041268343688 1 1 1 1 0.050062461684091411 1 1 1 1 1 0.05279191577413727 1 0.04997465505844393 1 0.05142034267880638 1 1 1 1 1 1 1 0.049887059759575476 1 1 1 0.056035599264107033 1 1 1 1 1 0.052686234000236871 1 1 1 1 1 0.049752358713020445 1 0.05057016116626295 1 1 0.050838246126831008 1 0.049442259603700731 1 1 1 1 1 0.050150422284927484 1 1 1 0.050377537950275095 1 1 1 1 1 1 1 1 1 1 0.049724814599074255 1 1 1 1 1 1 1 1 1 1 1 1 1 1 1 1 1 1 1 1 1 1 0.052646324010366029 1 1 1 1 1 1 1 1 1 1 1 1 1 1 1 1 1 1 0.056620255898945648 1 1 1 0.059096689152409385 1 1 1 1 1 1 0.067473206897015373 1 1 1 0.052210516640758507 0.053842083682789227 1 0.060098964981180579 1 0.050761100897538741 0.057166170993172484 1 0.056261560132632796 1 1 0.053633115217430652 1 1 0.048802283032394637 0.053879614716777026 1 1 1 1 1 1 1 1 0.051642258885496332 1 0.051554683246002972 1 1 1 1 1 1 1 1 1 1 1 1 1 1 1 1 1 1 1 1 1 1 0.05358629470340466 1 1 1 1 1 1 1 1 0.055337983808548902 1 1 0.0500788031614934 1 1 0.05640128410980029 0.050259078150991114 1 1 0.050074685949016463 1 1 1 1 1 1 1 1 1 1 1 1 1 1 1 1 1 1 1 1 1 1 1 1 1 1 1 1 1 1 1 1 1 1 1 1 1 1 1 0.077212989908152369 1 0.072662007815281593 1 1 1 1 1 1 1 1 1 1 1 1 1 1 1 1 1 1 1 1 1 1 1 1 1 1 1 1 1 1 1 1 1 1 1 1 1 1 1 1 0.052593800674389832 1 1 0.052717825474710309 1 1 1 1 1 0.049570044056735492 1 0.050197343864556071 1 1 0.049067006202887634 1 1 1 1 1 1 0.045500850011373481 1 1 1 1 1 1 1 1 1 1 1 0.050018165964184715 1 1 0.055736811069571485 0.075240450537138751 1 0.084095344050644935 1 1 0.043524855741804494 1 1 1 1 0.080939783993454029 1 1 1 1 1 1 1 1 1 0.050082468664595203 1 0.049389935808333327 1 1 1 1 1 1 1 0.050195416556940202 1 0.045413313152371147 1 1 1 1 1 1 1 1 1 0.049581351858294494 1 0.046836292058433072 1 1 1 1 1 1 1 1 1 1 0.048717678053976719 1 1 1 0.048683781597532998 1 1 0.050007708944290449 1 1 0.056756105998396651 1 1 1 1 0.0540326485964873 1 1 1 0.050014904046559512 1 1 1 1 1 1 1 1 1 1 1 1 1 1 0.051345182729329857 1 1 1 1 1 1 0.053117552465378942 1 0.049037833879543538 1 0.07621055365083565 1 1 1 0.052222099525147739 1 1 1 1 1 1 1 1 0.081401627138163957 1 1 1 1 1 0.050060716401682116 1 1 0.082491736252137293 1 1 1 1 1 1 1 1 1 0.055995922748684084 1 1 1 0.05214098237630841 1 1 1 1 1 1 0.059119816889270212 1 1 1 1 1 1 1 1 1 1 1 1 1 1 1 1 1 1 1 1 1 1 1 1 1 1 1 1 1 1 1 0.052354930815614556 1 1 1 1 1 0.050662873687376077 1 1 0.049899912748687249 0.051225800235030518 1 1 1 1 0.051733529116847685 1 1 1 1 1 0.051159128808510278 1 1 1 1 1 1 1 1 1 1 1 1 1 1 1 1 0.050947993290026375 1 1 1 1 1 1 1 1 0.051289662602840722 0.052955134346017944 1 1 1 1 1 1 0.052537792180952371 1 1 1 1 0.051812393332065151 1 1 1 1 1 1 1 1 1 1 1 1 1 1 1 1 1 1 1 1 1 1 1 1 0.052196390008873161 1 1 0.050789452483284973 1 1 1 1 1 1 1 1 1 1 1 1 1 1 1 1 1 1 1 1 1 1 1 1 1 1 1 0.051136668825347877 1 0.052277993612433814 1 1 1 1 1 0.054672685165346596 1 1 1 1 1 1 1 1 1 1 1 1 1 1 1 1 1 1 1 1 0.053079049751926469 0.051735277505686919 1 0.054103523039328298 1 1 1 1 1 1 1 1 1 1 1 1 1 1 1 1 0.054093473490601951 1 1 1 0.051888312642238602 1 1 1 1 1 1 1 1 1 1 1 1 1 0.052394691552912778 1 1 1 1 1 1 1 1 1 1 1 1 1 1 1 1 1 1 1 1 1 1 0.069275458804277434 1 1 1 1 1 1 1 1 1 1 1 1 1 0.069036861699345642 1 0.060567016665106999 1 1 0.065287316722544619 0.059791800212946077 1 1 1 1 1 1 1 1 1 1 1 1 1 1 1 1 1 1 1 1 0.049085258758740057 1 1 0.061385468039769284 1 1 1 0.050325652451475154 1 1 1 1 1 1 0.059944277089502014 1 1 1 0.050390779166799682 1 1 1 1 1 1 1 1 0.050027136634383934 1 1 0.051492268579695577 1 1 0.053739037628506195 1 0.053549981538475115 1 1 1 1 0.054225524927285204 0.062035565801272792 1 1 0.049541513514432547 0.061839185405107952 1 1 0.054380258418956759 1 1 1 1 0.049997911007157635 1 1 0.053921178662742868 0.050458415771947644 1 0.05001053039751658 1 1 1 1 1 1 1 1 1 1 1 1 1 1 1 1 1 1 1 1 0.050069800681643004 1 1 1 1 0.051484157707118457 1 1 1 1 0.049894708678788154 0.050408566575497998 1 1 1 1 1 1 1 1 1 1 1 1 0.050149675073834832 1 1 1 0.058205075323089245 1 1 1 1 1 1 1 0.059192758170083147 1 1 1 0.04998816105452783 1 1 0.049972333277294265 0.049709819654534998 1 1 1 0.060285186663211761 1 1 1 0.049908992622259056 1 1 1 1 1 1 1 1 1 1 1 1 1 1 1 1 1 1 0.050478607458999063 1 1 1 1 1 1 1 1 1 1 1 1 1 1 1 1 1 1 0.049942512383151075 0.051323697308615732 1 1 1 1 1 0.051995650632296969 0.049869249725993652 1 0.052579957866305232 1 1 1 1 1 1 1 1 1 0.074337050768108717 1 1 1 0.072357491571424196 1 1 1 1 1 1 1 1 1 1 1 1 1 1 0.061802634790925279 1 1 1 1 1 1 1 0.067813540857391677 1 1 0.070186567966405711 1 1 1 1 1 1 0.056024029697251364 1 1 1 1 0.057777785239059021 1 1 1 1 1 1 0.048089364317298808 1 1 1 1 1 1 1 1 0.049855116357723807 0.054358254854626566 1 1 1 0.052613390478703233 0.048361002629171951 1 1 1 1 1 0.050866300378700227 1 1 1 1 1 1 0.050275134040992174 1 1 1 1 0.050226558585950772 1 1 1 1 1 0.050163830848072216 1 1 1 1 0.046293211405844692 1 1 1 1 1 1 1 1 1 1 1 1 1 1 1 1 1 1 1 1 1 1 1 1 1 0.04992146415645158 1 1 1 1 0.060385360247569644 1 0.051650968787200068 1 0.06447306258594783 1 1 0.050308572043590474 1 1 0.049095511941879166 1 1 0.049842741428924288 1 1 1 1 1 1 0.046319021145673586 1 1 0.047727242830871867 1 0.051340094433479047 0.049400767042467826 0.048733318773502565 1 1 0.050885739885902462 1 0.05103479370977354 0.050955148692743965 1 1 1 0.04994154644174055 1 0.049992160095037062 1 1 1 1 1 1 0.052167890263548372 1 1 1 0.04997812323122372 1 1 1 1 1 1 1 0.052082925953018576 1 1 1 0.054231823712614237 1 0.042683194343358932 0.044514313588174613 1 1 1 1 1 1 1 0.050512768862465481 1 1 1 1 1 1 1 1 0.049657246246006675 0.053218534183324395 1 1 1 1 0.054690827088912999 1 1 0.054647213711355599 1 1 1 0.049998709881708833 1 1 1 0.053601567791096601 0.051579361197330822 1 1 1 1 0.049772077709332119 1 1 1 1 1 0.051687509882540283 0.053372140703598095 1 1 1 1 1 1 1 1 1 1 1 1 1 1 1 1 1 1 1 1 1 1 1 1 1 1 1 1 1 1 1 0.051268595579507664 1 1 1 0.050099526534091318 1 1 1 1 1 1 1 1 1 1 1 1 1 1 1 0.053157196613774396 1 0.049677136946573705 0.047937690977641535 1 1 0.053748040441680592 1 1 1 1 1 1 1 1 1 1 1 1 1 1 1 1 1 1 1 1 1 1 1 0.04942738941376304 1 1 0.052737716714448775 0.050047758453960173 1 1 1 1 1 1 1 0.051806939424301909 1 1 1 0.048385978816239551 1 1 1 1 0.049531548649074955 0.049844615473530043 1 1 1 1 1 1 1 0.053693434833382285 1 1 1 1 0.052446129301234254 1 1 1 1 0.050439071614589118 1 1 1 1 1 1 1 1 1 1 1 1 1 1 1 1 1 1 1 0.049432604179699385 1 1 1 1 1 1 1 1 1 1 1 1 1 1 1 1 0.049417391084436012 1 1 1 0.049791403816626376 1 1 1 1 1 1 1 1 1 0.050897572589430139 1 1 1 1 1 1 1 1 1 1 1 1 1 1 1 1 1 1 1 1 1 0.050738093440372514 1 1 1 1 1 1 1 1 1 1 1 1 1 1 1 1 1 0.051969987181042031 1 1 1 1 1 0.049891924942163393 1 1 1 1 1 1 1 1 1 1 1 1 1 1 1 1 1 1 1 1 1 1 1 1 1 1 1 0.049716999642998604 1 1 0.045134852692475302 1 1 1 0.044155144674055055 1 1 1 1 1 1 1 1 1 1 1 1 1 1 1 0.041333009368601875 1 0.052532452581675701 1 1 1 1 1 1 1 1 1 0.043574099550192154 1 1 1 1 1 1 1 1 1 0.049069418056584907 0.046231594760489415 1 1 1 1 1 1 1 1 1 1 1 1 1 1 1 1 1 1 1 1 1 1 1 1 1 1 1 1 1 1 1 1 1 1 1 1 1 1 1 1 1 1 1 1 1 1 1 1 1 1 1 1 1 1 1 1 1 1 1 1 1 1 1 1 1 1 1 1 1 1 1 0.049193557556393611 1 1 1 1 1 1 0.047673007707576306 1 1 1 1 1 1 1 1 1 0.048831872702175941 1 0.047548868207767617 1 1 1 1 1 1 1 1 1 1 1 1 1 1 1 1 1 1 1 1 1 1 1 1 1 1 1 1 1 1 1 1 1 1 0.051207352275462553 1 1 1 0.05133854630827521 0.049328560253457721 1 1 1 1 1 1 1 1 1 1 1 1 1 1 1 1 1 1 1 1 1 1 0.050580738469932336 0.05084017682059748 1 1 1 1 1 1 1 1 0.048872752743707185 1 1 1 1 1 1 0.04928544921388095 1 1 1 1 1 0.050602210800104505 1 1 1 1 0.050232989953349225 1 1 1 0.046227883584742446 1 1 1 0.047961883128455868 1 1 0.049394838292869378 1 1 1 1 1 1 1 1 1 1 1 1 1 0.050455012219617665 1 1 1 1 1 1 1 1 0.050996490667531202 1 1 1 1 1 1 1 1 1 1 1 0.050097605251802194 1 1 1 0.050041506983707254 1 1 1 1 0.051096143814599801 1 1 1 1 1 1 1 1 0.050677200919159913 1 0.049145163749872982 1 1 0.052712123647672471 1 1 1 1 1 0.050239288920895991 1 1 1 1 1 1 1 1 1 1 1 1 0.05049953717819633 1 1 1 1 1 1 1 1 1 0.050971192297770682 1 1 1 1 1 1 0.049993501155952053 1 1 1 1 1 1 1 0.050521347877853423 1 1 1 1 1 0.051020885056049736 1 1 1 1 1 1 1 1 1 1 1 1 1 1 1 1 1 1 1 1 1 1 1 1 1 1 1 1 1 1 1 1 1 1 1 1 1 1 1 1 1 1 1 1 1 1 1 0.050344411859811172 1 0.050675692766416848 1 1 1 1 1 1 1 1 1 1 1 1 1 1 0.049911213886462628 1 1 1 1 1 1 1 1 1 1 1 1 1 1 1 0.052354173680039903 1 1 0.05067421598511529 1 0.048590976921381215 1 1 1 1 1 0.050954793190925864 1 1 1 1 1 1 1 1 1 1 1 1 1 1 1 1 1 1 1 1 0.053169956015957254 1 1 1 1 1 1 1 1 1 1 1 0.052880589094152143 1 0.050211026398086445 1 1 0.052137797730015409 1 0.057822314547791395 1 1 1 1 1 1 1 0.049953034734503139 1 0.05416200300447091 1 1 1 1 0.053594706961602706 1 1 1 1 0.050661450588025132 0.050864447046232594 1 1 0.047665596254434735 1 1 1 1 1 1 1 1 1 1 1 1 1 1 1 1 0.049801427645898642 1 1 1 1 1 1 1 1 1 1 1 1 1 1 0.049417347084044126 1 0.050197318129771448 1 1 1 1 1 1 1 0.056757136738142706 1 0.056972768531929056 1 1 1 1 1 1 1 1 1 0.050097543949094644 0.055379333085635335 1 1 1 0.05589703728061754 1 1 1 1 0.05919381062683262 1 0.05474438130880023 1 1 0.049455176538688014 1 0.059850020686078434 0.059236108020864722 0.050233563306824741 1 1 0.050003176484372927 1 1 1 0.050790527664548724 0.05304503839135085 0.049399272544050167 1 1 1 1 1 1 1 1 1 1 1 0.049889925595482353 1 1 1 1 1 1 0.058519626673481651 1 1 1 0.050067892036044448 1 1 1 1 1 1 1 1 0.050085586467122203 1 1 1 0.050039798985587802 1 1 1 1 1 1 1 1 1 1 1 1 1 1 1 1 1 1 1 1 1 1 1 1 1 1 1 1 1 1 1 1 1 1 1 1 1 1 1 1 1 1 1 1 1 1 1 1 1 1 1 1 1 1 1 1 1 1 1 1 0.051275563912306726 1 1 1 1 1 0.053191761997601263 1 1 1 1 0.051235273955206939 1 1 1 0.055046045433669588 1 1 1 1 1 1 1 1 1 1 1 1 1 1 1 1 1 1 1 1 1 1 1 1 1 1 1 1 1 1 1 1 1 1 1 1 1 1 1 1 0.052251602373867542 1 1 0.055701757081190607 1 1 1 1 1 1 1 0.049653054900657752 1 1 1 1 1 1 1 1 1 1 1 0.048441983883064317 1 1 0.050084457004544405 1 0.05192821675706534 1 1 1 0.05761103937205584 1 1 1 1 1 1 1 1 0.049853658559085849 1 1 1 1 0.049522666226852176 1 1 1 1 0.05672367866900508 1 0.051610196436935624 1 1 1 1 1 1 1 1 1 1 1 1 0.052636073631311883 1 0.054845741528765125 1 1 1 1 1 1 1 1 1 1 1 1 1 0.050195745133560468 1 1 1 1 1 1 1 1 1 0.050462611621744979 1 1 1 0.050266866488184521 1 1 1 1 1 1 1 1 1 1 1 1 1 1 1 1 1 1 1 1 1 1 1 1 1 1 1 1 1 1 1 1 1 1 1 0.050661564673242662 1 1 0.049982655875080217 1 1 1 1 0.051211491056847719 1 1 1 1 1 1 1 1 1 1 1 1 1 1 1 0.05104438252041648 1 1 1 1 1 1 1 1 1 0.050483721805065732 1 0.050505863659669359 1 1 1 1 1 1 1 0.050625129148021905 1 1 1 1 1 1 1 1 1 1 1 1 1 1 0.051261952549114864 1 1 1 1 1 1 1 1 1 1 1 0.053116319838445322 1 1 1 1 1 1 1 1 1 1 1 1 1 1 1 1 1 1 1 1 1 1 1 0.049842959790097008 1 0.04967810092400303 1 1 1 1 1 1 0.052340420682742007 1 0.051728699900774923 1 1 1 0.052022397027804756 1 1 1 0.049646745721141472 1 1 1 0.051791450613751254 1 1 0.049328097163754574 1 1 1 1 1 1 1 0.049604824658116026 1 1 1 1 1 1 1 0.055877592022221409 1 1 1 1 1 1 1 1 1 1 1 1 1 0.051190364899295071 1 1 1 1 1 1 1 1 0.056051295640891743 1 1 1 1 1 1 1 1 1 1 1 1 1 1 1 1 1 1 1 1 0.054406761513666503 1 1 1 1 1 1 1 1 1 1 1 1 1 1 1 1 1 1 1 1 1 1 1 1 1 1 1 1 1 1 1 1 1 1 1 1 1 1 1 1 1 1 1 1 1 1 1 1 1 1 0.049369710280093113 1 0.052663676783780061 1 1 1 0.050313211860744486 1 1 0.049874382478023699 0.05320548124616397 1 0.048015853044870133 1 1 1 1 1 1 1 1 1 1 1 1 1 1 1 1 1 1 1 1 1 1 1 1 1 1 1 1 1 1 1 1 1 1 1 0.049789159257784495 1 1 1 1 0.048809566631547167 1 1 0.05139800025250299 1 1 1 0.050771928737062003 1 1 1 1 0.04751425061456635 1 0.05005678759052308 0.054940898613319827 1 1 1 1 0.054164128485438764 1 1 1 0.04702724207109079 1 1 1 0.051791187948472622 1 1 1 1 1 1 0.04997975382692478 1 1 1 1 1 1 1 1 1 1 1 1 1 1 1 1 1 1 1 1 0.049110195124278194 1 1 1 1 1 1 1 1 1 1 1 1 1 1 1 1 1 1 0.049763488009874589 1 1 0.049357203883420658 1 1 0.060074952785783842 1 1 1 1 1 1 1 1 1 1 1 0.048856299546979891 1 1 1 1 0.050243523555012368 1 1 1 1 0.051967470275987235 1 1 1 0.051368276656494245 1 1 1 1 1 1 1 1 1 1 1 1 1 1 1 1 1 1 1 1 1 1 1 1 1 0.050607077431411636 1 1 1 1 1 1 1 1 0.051365431445340615 1 1 1 0.059184735887766515 1 1 1 1 1 1 1 1 1 1 1 1 1 1 1 1 1 1 1 1 1 1 1 1 0.0485124327827436 1 1 1 0.051780034958803581 1 1 1 1 1 1 1 1 0.048633620856158501 1 1 0.051128268558614534 1 1 1 1 0.050325893539871859 1 1 1 1 1 1 1 0.058325625182439486 1 0.049108068654505801 1 1 0.048095692325777949 1 1 0.060174938440270623 0.050013418995980691 1 1 1 1 1 1 1 1 1 1 1 1 1 1 1 1 1 1 1 1 1 0.053925687945262729 1 1 1 1 0.056204152514010966 1 1 1 1 1 1 1 1 1 1 1 1 1 0.052370718485995435 1 1 0.050086426604347284 1 1 1 1 1 1 1 1 1 1 1 1 1 1 1 1 1 1 1 1 1 1 1 1 1 1 1 1 1 1 1 1 1 1 1 1 1 1 1 1 1 1 1 1 1 1 1 1 1 1 1 1 1 1 1 1 1 1 1 1 1 1 1 1 1 1 1 1 1 1 1 1 1 1 1 1 1 1 1 1 1 1 1 1 1 1 1 1 1 1 1 1 1 1 1 1 1 1 1 1 1 1 1 1 1 1 1 1 1 1 1 1 1 1 1 1 1 1 1 1 1 1 1 1 1 1 1 1 0.049744858410877862 1 1 1 1 1 1 1 0.049372460807790078 1 1 1 1 1 1 1 1 1 0.048406421062380786 1 0.054535302640254114 1 1 1 0.052003534101501006 1 1 0.052726097843006373 1 1 1 1 1 1 1 1 1 1 1 1 1 1 1 1 1 1 1 1 1 1 1 1 1 1 1 1 1 1 1 1 1 1 1 1 1 0.049205255452215067 1 1 0.052319745989847434 0.048038799071482736 1 1 0.049695970523627404 1 1 0.056584342144581898 1 1 1 0.05504930447298477 1 1 1 1 1 1 1 1 1 0.051817621150514769 1 1 1 1 1 1 0.049833300095455925 1 1 1 1 1 1 1 1 1 1 1 1 1 1 1 1 1 1 1 1 1 1 1 1 1 1 1 1 1 1 1 0.049523842131291809 1 1 1 1 1 1 1 1 1 1 1 1 1 1 1 1 1 1 1 1 1 1 1 1 1 1 1 1 1 1 1 1 1 1 1 1 1 1 1 1 1 1 1 1 1 1 0.055847597051842515 1 0.050391809704373125 1 1 1 1 0.050102290167554242 1 1 1 1 0.055242457270739384 1 1 1 1 0.049894578922505685 1 1 1 1 1 1 1 1 0.050515590834968704 1 1 0.050353486847271707 1 0.050147859258549782 1 1 1 1 0.05077035198008073 1 1 0.050636847926205944 0.052624825115180962 1 1 1 1 1 1 0.050051689326027028 1 1 1 1 1 1 1 1 1 1 0.050658673004825086 0.054883174363712497 1 1 1 1 1 0.055063453186771347 1 1 0.050393802806499452 1 1 1 1 0.050951673330499665 1 1 0.050002824476611113 1 1 1 1 1 1 1 1 1 1 1 1 1 1 1 1 1 1 1 1 1 1 1 1 1 1 1 1 1 0.050080397681784822 1 0.050023678129177407 1 1 1 1 1 1 1 1 1 1 1 1 1 0.049977957918520804 1 1 1 1 0.058990803982567598 0.059116593613210963 1 1 1 1 1 1 1 1 1 1 1 1 1 1 1 1 1 1 1 1 1 1 1 1 1 1 1 1 1 1 1 1 1 1 1 1 1 1 1 1 1 1 0.050025294317085009 1 1 1 0.050047336398564214 1 1 1 1 1 1 1 1 1 1 1 1 1 1 1 1 1 1 1 1 0.058814480546024381 1 1 0.058573732739023165 1 1 1 1 1 1 1 1 1 0.050001238337885973 1 1 1 1 1 0.05650717144355271 1 1 1 1 1 0.049945324188859143 1 0.049983254410510269 1 1 1 1 1 1 1 1 1 1 1 1 1 0.051748783219502735 1 1 1 0.053225415069369265 0.056031992157258202 1 1 1 1 1 1 1 1 0.050001017030811806 1 1 0.054501845101935148 1 1 0.050002750258241087 0.051946613530398186 1 1 1 1 1 0.04996887358660769 1 1 1 1 1 1 1 0.050519170649923728 1 1 0.051186465115855083 0.050342810314268939 1 1 1 1 1 1 0.053712109033081164 0.048797363629748458 1 1 1 0.051467707153669093 1 1 1 1 1 1 1 0.051221913178985085 1 1 1 1 1 1 1 1 1 1 1 1 1 1 1 1 1 1 1 1 1 1 1 1 1 1 0.055275434561339987 1 1 1 1 1 1 1 0.050081741660055884 1 1 1 1 1 1 1 1 1 1 1 0.05592323507810526 1 1 1 1 1 1 1 1 0.051564492039440663 1 1 1 1 1 1 1 1 1 1 1 1 1 1 1 1 0.051425163758772117 1 1 1 0.0509385475712828 1 1 1 1 1 0.053419908681745149 1 1 1 1 1 1 1 1 1 1 1 1 1 1 0.049717653130247175 1 1 1 1 0.048985895828606033 1 1 0.047973339233100827 1 1 1 1 1 0.050013324834611926 1 1 1 1 1 1 1 1 1 1 1 1 1 1 0.050165106561920046 1 0.048308717021038547 1 1 1 0.05062580066946766 1 0.050679488420078404 1 0.051530637370458952 1 1 1 1 1 1 0.050106035566372824 0.052329350894149862 1 1 1 1 1 1 0.052667718744668565 1 0.050410492701749229 1 1 1 1 1 1 1 1 1 1 1 1 1 1 1 1 1 0.053820351494152638 1 1 1 0.049886886410977049 0.053594987547803466 1 1 1 1 1 0.050974269957906201 1 1 0.050082231952802717 0.050397493274274438 1 1 1 1 1 1 1 1 1 1 1 1 1 1 1 1 1 1 1 1 1 1 1 1 1 1 1 1 1 1 1 1 1 1 1 1 1 1 1 1 1 1 1 1 0.048530789361993426 1 1 0.053245262369519902 0.052171878477922123 0.050043383782075249 1 1 1 1 1 1 0.049809559737138437 1 1 1 1 1 1 1 1 1 0.050127544439961244 1 1 1 0.050146447465762439 1 1 1 1 1 1 1 1 1 1 1 1 1 1 1 1 1 1 1 1 0.050934699077241186 1 1 1 1 0.050504556278509284 1 1 1 1 1 1 1 1 1 1 1 1 1 1 1 1 1 1 1 1 1 1 1 1 1 1 1 1 1 1 1 1 1 1 0.049599783433149136 1 0.050261924668897923 1 1 1 1 1 1 1 1 0.050552963090841459 1 1 1 0.049169338368473578 1 0.050291038421943553 1 1 1 1 1 1 1 1 0.055134862783093291 1 1 1 1 0.052112584593860853 1 1 1 1 0.049906545059308784 1 1 1 1 1 1 1 0.050754825410062182 1 1 1 1 0.050417835286077843 1 1 1 1 1 1 1 1 1 1 1 1 1 1 1 1 1 1 1 1 1 1 1 1 1 1 1 1 1 1 1 1 1 1 1 1 1 1 1 1 1 1 1 1 1 1 0.050657435913657164 1 1 1 1 0.05000482368876101 0.05029845396927704 1 1 0.050635847396969844 0.050722757053708517 1 1 1 1 1 1 1 1 1 1 1 1 1 1 1 1 1 1 1 0.050316517819768827 1 1 1 0.050079322401779668 0.050001999888088303 1 1 1 1 1 1 1 1 1 1 1 1 1 1 1 1 1 1 1 1 1 1 1 1 1 1 1 0.050213902388652365 1 1 1 1 1 1 1 0.049915906373420721 1 1 1 1 1 1 1 1 1 1 1 1 1 1 1 0.049462762992586701 1 1 1 1 1 1 1 1 0.050426620082768693 1 0.049667606034185893 0.051092642227997961 1 1 1 1 1 1 1 1 1 1 1 1 0.050625944468157852 1 1 1 1 1 1 1 1 1 1 1 1 1 1 1 1 1 1 0.055833323655098563 1 1 1 0.050981846549468794 1 1 1 1 1 1 1 1 0.050334003016750228 1 1 1 1 1 1 1 1 1 1 1 1 1 1 1 0.051224194660061478 1 1 1 0.050426383573151531 1 1 1 1 1 1 1 1 1 1 1 1 1 1 1 1 1 1 1 1 1 1 1 1 1 1 1 1 1 1 1 1 1 0.050391674454398419 1 0.050177988796617612 1 1 1 1 1 1 1 1 0.049987906876052715 1 1 1 1 1 1 1 1 1 0.049911323246182401 1 1 0.050011733320292469 1 1 1 1 1 0.049996493517521279 1 1 1 1 0.049987760194222179 1 1 1 1 0.049822104806194943 1 1 1 0.050147229141044018 1 0.049197463376797437 1 1 0.049641628088244558 1 1 1 1 1 1 1 1 1 1 1 1 1 1 0.049995347815811969 1 1 0.050005362339559163 1 0.049996098979718781 1 1 1 0.050011673075420593 1 1 0.048679361689933608 1 1 1 1 0.050467562813832412 1 0.050630836086374774 1 1 1 1 1 1 0.05023498599667002 1 0.050168437927786878 1 1 1 1 1 0.057846658536204937 1 1 1 1 0.050588376146325678 1 1 1 1 1 1 0.057495418251627628 1 1 1 1 1 1 1 1 1 1 1 1 1 1 1 1 1 1 1 1 1 1 1 1 1 1 1 1 1 1 1 1 1 0.050054106865856721 0.050006547990052108 1 1 1 1 1 1 1 1 1 1 0.057911649577007104 1 1 0.050678980640937052 0.056611449759309221 1 0.049977809260772756 1 1 1 1 1 1 1 0.05695678702161118 1 1 1 1 1 1 1 1 1 1 1 1 0.049821516083807853 1 1 1 1 0.049919352843204055 1 1 1 1 1 1 1 1 1 1 1 1 0.051269531091178724 1 1 1 1 1 1 1 1 1 1 1 1 1 1 1 1 1 0.051174141057962433 1 1 1 1 1 0.050371295840195576 1 1 1 0.052383539270882823 1 1 1 1 1 1 0.051566249355356725 1 0.051651166524633252 1 1 1 0.051016536423652864 1 1 1 1 1 1 1 1 1 0.052858934745610292 1 1 0.050011244765445911 1 1 1 1 1 1 1 0.050633067043771109 1 1 1 1 1 1 1 1 1 1 1 1 1 0.049178043222817824 1 1 0.050390532722986832 1 1 1 1 1 1 0.049961911027395549 1 1 1 1 1 1 0.053821965496629071 1 1 1 1 1 1 1 0.055498395412103163 1 1 1 1 1 1 1 1 1 1 1 1 1 1 1 1 1 1 1 1 1 1 0.050421209784312332 1 1 1 1 1 1 1 1 1 1 0.053274308897530612 1 1 1 1 0.053251993369165432 0.050788089629452804 1 1 1 1 0.050745808168566803 1 1 1 1 1 1 1 1 1 0.050640556095829327 1 1 1 1 1 1 1 1 1 1 1 0.053212155844020059 1 1 1 0.051615204665338171 1 1 1 0.051259441600428592 1 1 1 1 1 1 1 1 1 1 1 1 0.053249437243812037 1 1 1 1 1 0.049998242066190884 1 1 0.049967782122235405 1 1 1 1 1 1 1 1 1 1 1 1 1 1 0.052634980830101728 1 1 1 1 1 1 1 0.056976706428602523 1 1 1 0.05957581018094784 1 1 1 1 1 0.049930353486904139 1 1 1 1 1 1 1 1 1 0.049960813430859619 1 1 1 1 1 1 1 1 0.060765311561578689 1 1 1 1 1 0.051008860489152971 1 1 1 1 1 1 1 0.050351870733230324 1 1 1 1 1 1 1 1 1 1 1 1 1 1 1 1 1 1 1 1 1 1 1 1 1 1 1 1 1 1 1 1 1 1 1 1 1 1 1 1 1 1 1 1 1 1 1 1 0.051450356959297207 1 1 1 1 1 1 1 0.050607858598979663 1 1 1 1 1 1 1 1 1 1 1 1 1 1 1 1 1 1 1 1 1 1 0.049958743606139236 0.050276357005832641 1 1 0.051812975429822765 0.054515026734231364 1 1 1 1 1 1 1 0.056831209805368682 1 1 1 1 1 1 1 1 1 1 1 1 1 1 0.049922346991723821 1 1 1 1 1 1 1 1 0.0499522891330706 1 1 0.050080695881797206 1 1 1 0.050249069866891052 1 1 1 1 1 1 1 1 1 1 1 1 1 1 1 1 1 1 1 1 1 1 1 1 1 1 1 1 0.049925581505518415 1 1 1 1 1 1 1 1 0.049987317438004816 1 1 1 1 1 1 0.049656862851914299 0.049954085377278516 1 1 1 1 0.050026160032727515 1 1 0.049921822038171651 1 1 0.049394053440265852 1 1 1 1 1 1 0.050009985536237839 1 1 1 1 1 1 1 1 0.05000253240421984 1 1 1 1 1 1 1 1 1 1 1 0.05000855500712665 1 1 0.050006027199548622 1 1 1 1 1 1 1 0.050001389625830804 1 1 1 0.050041395061411913 1 0.050093214321249205 1 0.050014751809815114 1 1 1 1 1 1 1 1 1 1 1 1 1 1 1 1 1 0.050186691663408514 1 0.049999762903473001 1 1 1 1 1 1 1 1 1 1 0.050179889082453522 1 1 1 1 1 1 1 0.050169649096705668 1 1 1 0.049998918344757989 1 0.052210624624599571 0.051819189929036058 1 1 0.053871560881439212 1 1 1 1 0.051232381733318205 1 1 1 0.052050006580115937 1 1 1 0.052568925087029844 1 0.053984238054190468 0.049806339720197393 1 1 1 1 1 1 0.054447909192494391 1 1 1 1 1 1 1 1 0.047886414897481015 0.050001638286554531 0.04871377225322112 1 0.046669186475173451 1 1 0.055010854296923428 0.050000747530456364 1 1 0.061204201584556646 1 1 1 1 1 1 1 1 1 1 1 0.049979847458413551 1 1 1 1 1 1 1 1 1 1 1 1 1 0.04933014092230012 0.04819414305141094 1 1 1 1 0.04902584447396157 1 1 1 0.051509399769172792 1 1 1 1 1 0.048738107579255542 0.049998025682303326 1 1 1 0.051423443337981031 1 1 1 1 1 1 1 1 1 1 1 1 1 1 1 0.050620624833925251 1 1 1 0.050715330660197441 1 1 1 0.05030034793416488 1 1 1 1 1 1 0.052372370368336474 1 1 1 1 1 0.051905264914285869 1 1 1 1 1 1 1 1 0.050011052587724765 1 1 1 1 1 1 1 1 1 0.050032329022267022 1 1 1 1 0.050017415801012988 1 0.050021811997140696 1 1 0.049598160961528158 1 0.050840625493470425 1 1 1 1 1 1 0.050519110133525912 1 0.050022398583902034 0.050270854259488622 1 1 1 1 1 1 1 1 0.053102452297397643 1 0.050175632398619892 1 0.050037319100601739 1 0.049757243161145603 1 1 1 1 1 1 1 1 1 1 1 0.050364957819295536 1 1 1 0.0503684743647176 1 1 1 1 1 1 1 1 0.050003516545422053 1 1 1 1 1 1 1 1 1 0.050322821256463687 1 1 1 1 0.052914993162491493 1 1 0.057382871598856543 1 1 1 1 1 1 1 1 1 0.060663682777248373 1 1 1 0.059749657303584752 1 1 1 1 1 1 1 1 1 1 1 1 1 1 1 1 1 1 1 0.06064433450935288 1 1 1 1 1 1 1 1 1 1 0.049733286419721454 1 1 1 1 1 1 1 1 1 1 1 1 1 1 1 1 1 1 1 1 1 1 1 1 1 1 1 1 1 1 1 1 1 1 1 1 1 1 1 1 1 1 1 1 1 0.048119684293139259 0.050051071999650351 1 1 1 1 1 1 1 1 1 1 1 1 1 0.047759068250426209 0.055905120849108966 1 1 1 0.054519432848200634 1 1 0.049095063513668304 1 1 1 0.04721672075064489 1 1 1 0.047785426513919441 1 1 1 1 1 1 1 1 0.050330941919042263 1 1 0.049633256746724072 1 0.05192834471203038 0.049873783426644912 1 1 1 1 1 1 0.049710498064553202 1 0.051317578397333807 0.049830687656101401 0.049923876798448161 1 1 0.050537555199676822 1 1 0.049156249685806508 0.049237910252858008 1 1 1 1 1 1 1 1 1 1 1 1 1 1 1 1 1 1 1 1 1 0.060440160241610169 1 1 1 1 1 1 1 1 1 0.050212605968809408 1 1 1 1 1 1 1 0.05075169550209737 0.0599639025531363 1 1 1 1 1 1 1 1 1 1 1 1 1 1 1 1 1 1 1 1 1 1 1 0.049609290965451525 1 0.050013306498170637 1 1 1 1 1 1 1 0.049182106571221913 1 1 1 0.053321336257574153 0.059258933998849732 1 1 0.052226858028921352 1 1 1 1 0.052640937435375436 1 1 1 0.05814586431947795 1 1 1 0.049068260682319696 1 1 1 1 1 1 1 1 1 0.047243930899252252 0.052303356307813187 1 1 1 1 1 0.048268209616212837 1 1 0.052323081145562375 0.046959347081514058 0.048455430942057509 1 1 1 1 1 0.058927474876944171 1 1 1 1 1 1 1 1 1 0.050496829117606751 1 0.050211411552545479 1 1 1 1 1 1 1 1 1 1 1 1 1 1 1 1 1 1 1 1 1 1 1 1 0.051014271789303053 1 1 1 1 0.049539250691919674 0.053002527502261254 1 1 1 0.047850520205090175 1 1 1 1 1 1 1 1 1 1 1 1 1 1 1 1 0.055891949463193071 1 1 1 0.050043983806174717 1 1 0.057866704280475731 1 1 1 1 1 1 1 1 1 1 1 1 1 0.054849083766280407 1 1 0.052891841500390384 1 1 1 0.055754188295635061 1 0.050885908092350829 1 0.050280777695279527 1 0.048081482189013064 0.054324056421463346 0.050079960491795625 1 1 1 1 1 1 1 1 0.050727239139025951 1 1 1 1 1 1 1 1 0.056489960996882471 1 1 0.046730885555128096 1 1 1 1 1 1 1 1 1 1 1 1 1 1 1 1 1 1 1 1 1 0.05550609036834829 1 1 1 1 1 1 1 1 1 1 0.053445587473560194 1 0.050153880394650824 1 1 0.051376458429115583 1 0.054497170870594941 1 0.049952811566575238 1 1 0.049927350333525362 1 0.055648206245396299 1 1 0.050820090531489698 1 1 1 0.049371909026557359 1 1 1 1 1 1 1 1 1 1 1 1 1 1 1 1 1 1 1 1 1 1 1 1 1 1 1 1 1 1 1 1 1 1 1 1 1 1 1 1 1 1 1 1 1 1 1 1 1 1 1 1 1 1 1 1 1 1 1 1 1 0.052884055787688934 1 1 0.055137561989642654 1 1 1 1 1 1 0.048221311777679653 0.055098843869438148 1 1 1 1 1 1 1 1 1 1 1 1 1 1 1 1 1 1 0.05263486933085855 1 1 1 0.050100252914705642 1 1 1 1 1 1 1 1 1 1 1 1 1 1 1 1 0.050018795745336686 1 1 1 1 1 1 1 0.055962600757998943 1 1 1 1 1 1 1 1 0.054717202315235941 1 0.05018146649466685 1 1 1 1 1 1 1 1 1 1 1 1 1 1 1 1 0.052909235214532474 1 1 1 1 1 1 1 0.057305776721741017 1 1 1 1 0.049606328507083935 1 1 1 1 1 1 1 0.048219584890656884 1 1 0.05489274482122683 0.049662660283358868 1 1 0.057903474674658395 1 1 1 1 1 1 0.059913200627623391 1 1 1 1 1 1 1 1 1 0.047790217857595463 1 1 0.050103729674798189 1 1 0.049924066188528453 1 1 0.054361941577644859 1 1 1 1 1 0.053621306438741315 1 1 1 1 1 1 1 1 0.050190903057152819 1 1 1 1 1 1 1 0.0506249516472108 1 1 1 1 1 1 1 1 1 1 1 1 0.051203710373873584 1 1 1 1 1 1 1 0.049817243250265632 0.049901065995535406 1 0.040948527510228108 1 0.048135621919469192 1 1 1 1 1 1 1 1 1 1 1 1 1 1 1 0.050001526316693391 1 0.046874028740520324 1 1 1 1 1 1 1 1 0.05708761576279997 1 0.051947796511498952 1 0.046189537745039401 1 0.0606711905818859 1 0.049644461008055696 1 1 0.050034558606132255 1 1 1 1 1 0.0500159143107499 1 1 1 1 1 1 1 1 0.050098215592780576 1 1 1 1 1 0.050308192392080134 1 1 0.041238957061987658 1 0.050315300847879343 0.049241802434599032 1 1 1 1 1 1 1 1 0.049972543736794238 1 1 1 1 1 1 1 1 1 1 1 1 1 0.057405273075856598 1 1 1 1 1 1 1 0.05060606594318634 1 1 1 0.050605216503728803 1 1 1 1 1 1 1 1 1 1 1 1 1 1 1 1 1 0.049809953272971497 1 1 1 1 1 1 1 0.049882015841378108 1 1 0.052799329223594219 1 1 1 1 1 1 1 1 1 1 1 1 1 1 1 0.052134303268713919 1 1 1 1 0.04972646382440736 1 1 1 1 1 1 1 1 1 1 1 1 1 1 1 1 1 1 1 1 1 1 1 1 1 0.046621840459862347 1 1 1 1 1 1 0.049847973058753367 1 1 1 1 1 1 1 1 1 0.048028330384521568 0.05389243340366838 1 1 1 0.054419539590376813 1 0.049622493558635038 1 1 1 1 1 1 1 1 1 1 1 1 1 1 1 0.051071617197047038 1 1 1 1 1 1 1 1 1 1 1 1 0.050320212980083115 0.050835796484591238 1 1 1 1 1 1 1 1 0.052892221005850448 1 1 0.049895095422622833 1 1 0.054077643575086209 0.048327303160864837 1 1 1 1 1 1 1 0.051775928201136849 1 1 1 1 1 1 1 1 1 0.050515583504508126 1 1 1 0.050541364267165205 1 1 1 1 1 0.050200759700233508 1 1 1 1 1 1 1 1 1 1 1 1 0.049490234622605787 1 1 1 0.049736708519917662 1 1 1 0.051556154571116897 1 1 1 1 1 1 1 1 1 1 1 1 1 1 1 1 1 1 1 1 1 1 1 1 1 1 1 1 1 1 1 1 0.049422317654733122 1 1 1 1 1 1 1 1 1 1 1 1 1 1 1 1 1 1 1 1 1 1 1 1 0.050699344712626521 1 0.050039108301932138 1 1 0.046466115739171782 1 1 1 1 1 1 1 1 1 0.053280292517845836 1 1 1 1 1 1 1 1 1 1 1 1 1 1 0.047768158617088989 1 1 1 1 0.049016723777273119 1 1 1 0.049783455011489827 1 1 1 1 1 1 1 1 1 1 1 1 1 1 1 1 1 1 1 1 1 1 1 1 1 1 1 1 1 1 1 1 1 1 1 1 1 1 1 1 1 1 1 1 1 1 1 1 1 1 1 1 1 1 1 1 1 1 1 1 1 1 1 1 1 1 1 1 1 1 1 1 1 1 1 1 1 1 1 1 1 1 1 1 1 1 1 1 1 1 1 1 1 1 1 1 1 1 1 1 1 1 1 1 1 1 1 1 1 1 1 1 1 1 1 1 1 1 1 1 1 1 1 1 1 1 1 1 1 1 1 1 1 1 1 1 1 1 1 1 1 1 1 1 1 1 1 1 1 1 1 1 1 1 1 1 1 1 1 1 1 1 1 1 1 1 1 1 1 1 1 1 1 1 1 1 1 1 1 1 1 1 1 1 1 1 1 1 1 0.062962325875065658 1 1 1 1 1 1 1 1 1 1 1 1 1 1 1 1 0.050890610054707804 1 1 1 1 1 1 1 1 0.058787885275546604 1 1 1 1 0.049510483127907054 1 1 1 1 1 1 1 1 1 1 1 1 1 1 1 1 1 1 1 1 1 1 0.050692028265640551 1 1 1 1 1 1 1 1 1 1 1 1 1 0.048486203667197643 0.062258289056726215 1 1 1 1 1 0.058954845162490395 1 0.04654882802028066 1 1 1 1 1 1 1 1 1 1 1 0.053306700693413617 1 1 1 1 1 1 1 0.064702394731835131 1 1 1 1 1 1 1 1 1 1 1 1 1 1 1 0.05068298457096912 0.062857622143340369 1 1 1 1 1 1 1 1 1 1 1 1 0.048082561722191483 1 1 1 1 1 1 1 1 1 1 1 1 1 1 1 1 0.049408382509708457 1 1 1 1 1 1 1 0.060442857859672086 1 1 1 1 1 1 1 1 1 1 0.050095111847058914 0.056019297027651543 1 1 1 1 1 1 1 1 1 1 1 1 1 1 1 1 1 1 1 1 1 1 1 1 1 1 1 1 1 1 0.052027649023107699 1 1 1 1 1 0.053167053920610503 1 1 1 1 1 1 1 1 1 1 0.051407167401233494 1 1 1 1 0.049391313225271724 1 1 1 1 1 1 1 1 1 1 0.052840588950395714 1 0.051080702431018699 1 1 1 1 1 1 1 1 1 1 1 1 1 1 1 1 1 1 1 1 1 1 1 1 1 1 1 1 1 1 1 0.050389091208474332 1 1 1 1 1 0.051072075779443456 1 1 1 1 1 1 1 1 1 1 1 1 1 1 1 1 1 1 0.050822119454562095 1 1 0.0589511784531098 1 1 1 0.050289268981066219 1 1 1 1 1 0.063866604001163896 1 1 1 1 1 1 1 1 1 1 0.056093279575935524 1 1 1 1 1 1 0.049701758419421892 1 1 1 1 1 0.067179151037438142 0.049975499204109819 1 1 0.064344418338800988 1 1 0.050645204686801365 1 1 1 1 1 1 1 1 1 1 0.050721863935539957 1 1 0.051216967816446156 1 1 0.051734659355026004 1 1 0.051552746975064657 1 1 0.04923238207301632 1 1 0.051327892094546065 1 1 1 1 1 1 0.048780607919062455 1 1 1 1 1 1 1 1 1 1 1 0.063580646656761525 1 1 1 1 1 1 1 0.050720709126007194 1 1 1 1 0.050045051205310151 1 1 1 0.061443951699669028 1 1 1 1 1 1 1 1 1 1 1 0.050042186860694636 1 1 1 1 1 1 1 1 1 1 1 1 1 1 1 1 1 1 1 1 1 1 1 1 0.05001729237755112 1 1 1 1 1 0.050050061075906961 1 1 1 1 1 1 1 1 1 1 1 1 1 1 0.050762102686145047 1 1 0.049753364987966391 1 0.054911981311991875 1 1 1 1 0.056998101806833734 1 0.049790990150587432 0.04819359592959932 1 0.048844052021506511 1 1 1 1 1 1 1 0.050017025718930616 1 0.049597563893833643 1 1 1 1 1 1 0.050179141366044705 1 1 1 1 1 1 0.050245572512745945 1 1 1 1 0.050716570981162903 1 1 1 1 1 0.049979203404946666 1 1 0.050187839956859076 1 1 1 1 0.051096867362022319 1 1 1 1 0.04989143496346056 1 1 1 1 1 1 0.050117561931034831 1 1 1 1 1 1 1 1 1 0.050559911102673466 1 1 1 1 1 1 0.050272854237176631 1 1 1 1 0.050573146390336401 1 1 1 1 1 1 1 1 1 1 1 1 1 1 1 1 0.049844098888939106 1 1 1 0.049782516930090545 1 1 0.056149343932405088 1 1 1 1 1 1 1 1 1 1 1 1 1 1 1 1 0.050042641579388057 1 0.055355239992343347 1 1 1 1 1 1 1 1 1 1 1 1 1 1 1 1 1 1 1 1 1 1 1 1 1 1 0.057316918168881889 1 1 0.05424627597827289 1 1 1 1 1 1 1 1 1 1 0.052476631722687378 1 1 1 1 0.050242998424292327 1 1 1 1 0.050200356844904266 1 1 1 1 1 1 1 1 1 0.052149952439028993 1 1 1 1 1 1 1 1 1 1 1 1 1 1 1 1 1 1 1 1 1 1 1 1 1 1 1 1 
</DataArray>
</CellData>
</Piece>
</UnstructuredGrid>
</VTKFile>
