<?xml version="1.0"?>
<VTKFile type="UnstructuredGrid" version="0.1" byte_order="LittleEndian">
<UnstructuredGrid>
<Piece NumberOfPoints="30816" NumberOfCells="10804">
<Points>
<DataArray type="Float64" NumberOfComponents="3" format="ascii">
-0.5 -0.5 0 -0.47471034563105791 -0.47747015872590642 0 -0.45998489124376329 -0.50000000000000033 0 -0.5 -0.5 0 -0.47471034563105791 -0.47747015872590642 0 -0.49769057852298743 -0.46053966377710748 0 -0.5 -0.5 0 -0.49769057852298743 -0.46053966377710748 0 -0.5 -0.45646894012981981 0 -0.45998489124376329 -0.50000000000000033 0 -0.4550722297872688 -0.47888550797968582 0 -0.47471034563105791 -0.47747015872590642 0 -0.45998489124376329 -0.50000000000000033 0 -0.4550722297872688 -0.47888550797968582 0 -0.47471034563105791 -0.47747015872590642 0 -0.4550722297872688 -0.47888550797968582 0 -0.46346680429399562 -0.46832050563330052 0 -0.4550722297872688 -0.47888550797968582 0 -0.44312583798275268 -0.4802801459147667 0 -0.45078231763309828 -0.4687075906820542 0 -0.44312583798275268 -0.4802801459147667 0 -0.44245088192987608 -0.46581233330891858 0 -0.45078231763309828 -0.4687075906820542 0 -0.44312583798275268 -0.4802801459147667 0 -0.44245088192987608 -0.46581233330891858 0 -0.43386447216628049 -0.46782948563466581 0 -0.45998489124376329 -0.50000000000000033 0 -0.44312583798275268 -0.4802801459147667 0 -0.43207099442460623 -0.5 0 -0.45998489124376329 -0.50000000000000033 0 -0.4550722297872688 -0.47888550797968582 0 -0.44312583798275268 -0.4802801459147667 0 -0.446571938313159 -0.44235147483087711 0 -0.44537954972282778 -0.45749258324703529 0 -0.43586624444419769 -0.43774496661729029 0 -0.44537954972282778 -0.45749258324703529 0 -0.43586624444419769 -0.43774496661729029 0 -0.446571938313159 -0.44235147483087711 0 -0.45015956833077458 -0.45777101595937097 0 -0.45967521445728549 -0.44828555786557178 0 -0.446571938313159 -0.44235147483087711 0 -0.44537954972282778 -0.45749258324703529 0 -0.45015956833077458 -0.45777101595937097 0 -0.446571938313159 -0.44235147483087711 0 -0.45015956833077458 -0.45777101595937097 0 -0.4550722297872688 -0.47888550797968582 0 -0.45078231763309828 -0.4687075906820542 0 -0.45015956833077458 -0.45777101595937097 0 -0.44245088192987608 -0.46581233330891858 0 -0.44537954972282778 -0.45749258324703529 0 -0.42911583585128582 -0.45654523338562342 0 -0.4550722297872688 -0.47888550797968582 0 -0.45015956833077458 -0.45777101595937097 0 -0.45078231763309828 -0.4687075906820542 0 -0.44537954972282778 -0.45749258324703529 0 -0.44245088192987608 -0.46581233330891858 0 -0.45078231763309828 -0.4687075906820542 0 -0.44537954972282778 -0.45749258324703529 0 -0.45078231763309828 -0.4687075906820542 0 -0.44537954972282778 -0.45749258324703529 0 -0.45015956833077458 -0.45777101595937097 0 -0.44537954972282778 -0.45749258324703529 0 -0.45015956833077458 -0.45777101595937097 0 -0.45015956833077458 -0.45777101595937097 0 -0.45967521445728549 -0.44828555786557178 0 -0.47392507342688112 -0.45915533986823892 0 -0.45015956833077458 -0.45777101595937097 0 -0.46346680429399562 -0.46832050563330052 0 -0.47392507342688112 -0.45915533986823892 0 -0.4550722297872688 -0.47888550797968582 0 -0.45015956833077458 -0.45777101595937097 0 -0.46346680429399562 -0.46832050563330052 0 -0.45015956833077458 -0.45777101595937097 0 -0.47392507342688112 -0.45915533986823892 0 -0.45967521445728549 -0.44828555786557178 0 -0.47165554173517882 -0.44298462494799279 0 -0.47392507342688112 -0.45915533986823892 0 -0.446571938313159 -0.44235147483087711 0 -0.45967521445728549 -0.44828555786557178 0 -0.45743704300775773 -0.43736985703476983 0 -0.45967521445728549 -0.44828555786557178 0 -0.47165554173517882 -0.44298462494799279 0 -0.45743704300775773 -0.43736985703476983 0 -0.47165554173517882 -0.44298462494799279 0 -0.47392507342688112 -0.45915533986823892 0 -0.48630062073611768 -0.45138740347920542 0 -0.47165554173517882 -0.44298462494799279 0 -0.48630062073611768 -0.45138740347920542 0 -0.48477372456033452 -0.42890566365142319 0 -0.47471034563105791 -0.47747015872590642 0 -0.47392507342688112 -0.45915533986823892 0 -0.49769057852298743 -0.46053966377710748 0 -0.47471034563105791 -0.47747015872590642 0 -0.46346680429399562 -0.46832050563330052 0 -0.47392507342688112 -0.45915533986823892 0 -0.47392507342688112 -0.45915533986823892 0 -0.49769057852298743 -0.46053966377710748 0 -0.48630062073611768 -0.45138740347920542 0 -0.47392507342688112 -0.45915533986823892 0 -0.49769057852298743 -0.46053966377710748 0 -0.49769057852298743 -0.46053966377710748 0 -0.5 -0.45646894012981981 0 -0.48630062073611768 -0.45138740347920542 0 -0.5 -0.45646894012981981 0 -0.48630062073611768 -0.45138740347920542 0 -0.48477372456033452 -0.42890566365142319 0 -0.5 -0.45646894012981981 0 -0.48477372456033452 -0.42890566365142319 0 -0.50000000000000067 -0.39692421290156771 0 -0.48477372456033452 -0.42890566365142319 0 -0.50000000000000067 -0.39692421290156771 0 -0.47458788931168411 -0.3986926975706514 0 -0.48477372456033452 -0.42890566365142319 0 -0.47458788931168411 -0.3986926975706514 0 -0.46788108771348852 -0.42596982997719512 0 -0.47165554173517882 -0.44298462494799279 0 -0.48477372456033452 -0.42890566365142319 0 -0.46788108771348852 -0.42596982997719512 0 -0.50000000000000067 -0.39692421290156771 0 -0.47800489574480359 -0.37612330956376178 0 -0.5 -0.37001850843902512 0 -0.50000000000000067 -0.39692421290156771 0 -0.47458788931168411 -0.3986926975706514 0 -0.47458788931168411 -0.3986926975706514 0 -0.47800489574480359 -0.37612330956376178 0 -0.45496013337620372 -0.38140225525536031 0 -0.50000000000000067 -0.39692421290156771 0 -0.47458788931168411 -0.3986926975706514 0 -0.47800489574480359 -0.37612330956376178 0 -0.47458788931168411 -0.3986926975706514 0 -0.45496013337620372 -0.38140225525536031 0 -0.44917577862336733 -0.40046118223973509 0 -0.47458788931168411 -0.3986926975706514 0 -0.44917577862336733 -0.40046118223973509 0 -0.45803160228545919 -0.41468447945886511 0 -0.47458788931168411 -0.3986926975706514 0 -0.44917577862336733 -0.40046118223973509 0 -0.44917577862336733 -0.40046118223973509 0 -0.4420422539828569 -0.41502967504545579 0 -0.42376366793505071 -0.40222966690881889 0 -0.45496013337620372 -0.38140225525536031 0 -0.43693771217904881 -0.37934934035582529 0 -0.44775434509720963 -0.36471390681997762 0 -0.44917577862336733 -0.40046118223973509 0 -0.43693771217904881 -0.37934934035582529 0 -0.4289094671131623 -0.39037275673192118 0 -0.45496013337620372 -0.38140225525536031 0 -0.44917577862336733 -0.40046118223973509 0 -0.43693771217904881 -0.37934934035582529 0 -0.47165554173517882 -0.44298462494799279 0 -0.45743704300775773 -0.43736985703476983 0 -0.46788108771348852 -0.42596982997719512 0 -0.4534573956152449 -0.42414748900548871 0 -0.45743704300775773 -0.43736985703476983 0 -0.46788108771348852 -0.42596982997719512 0 -0.47458788931168411 -0.3986926975706514 0 -0.46788108771348852 -0.42596982997719512 0 -0.45803160228545919 -0.41468447945886511 0 -0.4534573956152449 -0.42414748900548871 0 -0.46788108771348852 -0.42596982997719512 0 -0.45803160228545919 -0.41468447945886511 0 -0.44917577862336733 -0.40046118223973509 0 -0.45803160228545919 -0.41468447945886511 0 -0.4420422539828569 -0.41502967504545579 0 -0.4534573956152449 -0.42414748900548871 0 -0.45803160228545919 -0.41468447945886511 0 -0.4420422539828569 -0.41502967504545579 0 -0.4534573956152449 -0.42414748900548871 0 -0.4420422539828569 -0.41502967504545579 0 -0.44189499108666191 -0.42768360351115792 0 -0.446571938313159 -0.44235147483087711 0 -0.45743704300775773 -0.43736985703476983 0 -0.44189499108666191 -0.42768360351115792 0 -0.45743704300775773 -0.43736985703476983 0 -0.44189499108666191 -0.42768360351115792 0 -0.4534573956152449 -0.42414748900548871 0 -0.45743704300775773 -0.43736985703476983 0 -0.44189499108666191 -0.42768360351115792 0 -0.446571938313159 -0.44235147483087711 0 -0.44189499108666191 -0.42768360351115792 0 -0.43586624444419769 -0.43774496661729029 0 -0.42635293916556599 -0.41799734998754617 0 -0.41861264983909641 -0.43158636256078448 0 -0.43586624444419769 -0.43774496661729029 0 -0.44189499108666191 -0.42768360351115792 0 -0.42635293916556599 -0.41799734998754617 0 -0.43586624444419769 -0.43774496661729029 0 -0.42635293916556599 -0.41799734998754617 0 -0.43586624444419769 -0.43774496661729029 0 -0.44189499108666191 -0.42768360351115792 0 -0.42635293916556599 -0.41799734998754617 0 -0.4420422539828569 -0.41502967504545579 0 -0.42635293916556599 -0.41799734998754617 0 -0.42376366793505071 -0.40222966690881889 0 -0.4420422539828569 -0.41502967504545579 0 -0.44189499108666191 -0.42768360351115792 0 -0.42635293916556599 -0.41799734998754617 0 -0.42635293916556599 -0.41799734998754617 0 -0.40810946382691132 -0.40662749173594381 0 -0.40810946382691132 -0.40662749173594381 0 -0.41861264983909641 -0.43158636256078448 0 -0.42635293916556599 -0.41799734998754617 0 -0.40810946382691132 -0.40662749173594381 0 -0.41861264983909641 -0.43158636256078448 0 -0.41861264983909641 -0.43158636256078448 0 -0.39445047591286631 -0.43085892970475032 0 -0.40669958431702952 -0.44166865093817831 0 -0.40810946382691132 -0.40662749173594381 0 -0.41861264983909641 -0.43158636256078448 0 -0.39445047591286631 -0.43085892970475032 0 -0.43693771217904881 -0.37934934035582529 0 -0.4289094671131623 -0.39037275673192118 0 -0.41987839064247068 -0.37582476099795431 0 -0.44917577862336733 -0.40046118223973509 0 -0.42376366793505071 -0.40222966690881889 0 -0.44917577862336733 -0.40046118223973509 0 -0.4289094671131623 -0.39037275673192118 0 -0.42376366793505071 -0.40222966690881889 0 -0.4289094671131623 -0.39037275673192118 0 -0.42376366793505071 -0.40222966690881889 0 -0.41479178618587381 -0.3939988331572723 0 -0.42635293916556599 -0.41799734998754617 0 -0.42376366793505071 -0.40222966690881889 0 -0.41479178618587381 -0.3939988331572723 0 -0.42635293916556599 -0.41799734998754617 0 -0.41479178618587381 -0.3939988331572723 0 -0.42635293916556599 -0.41799734998754617 0 -0.40810946382691132 -0.40662749173594381 0 -0.41479178618587381 -0.3939988331572723 0 -0.40810946382691132 -0.40662749173594381 0 -0.41479178618587381 -0.3939988331572723 0 -0.39998927986851979 -0.38733138270234541 0 -0.4289094671131623 -0.39037275673192118 0 -0.41479178618587381 -0.3939988331572723 0 -0.41987839064247068 -0.37582476099795431 0 -0.41479178618587381 -0.3939988331572723 0 -0.41987839064247068 -0.37582476099795431 0 -0.40323063320618169 -0.37000031632699809 0 -0.41479178618587381 -0.3939988331572723 0 -0.40323063320618169 -0.37000031632699809 0 -0.39998927986851979 -0.38733138270234541 0 -0.39186909591013119 -0.36803527366874572 0 -0.41479178618587381 -0.3939988331572723 0 -0.39998927986851979 -0.38733138270234541 0 -0.40323063320618169 -0.37000031632699809 0 -0.39998927986851979 -0.38733138270234541 0 -0.3872412918138054 -0.3801683841210336 0 -0.39186909591013119 -0.36803527366874572 0 -0.39998927986851979 -0.38733138270234541 0 -0.40323063320618169 -0.37000031632699809 0 -0.39186909591013119 -0.36803527366874572 0 -0.39998927986851979 -0.38733138270234541 0 -0.38847679860849937 -0.39439185041810182 0 -0.3872412918138054 -0.3801683841210336 0 -0.40810946382691132 -0.40662749173594381 0 -0.39998927986851979 -0.38733138270234541 0 -0.38847679860849937 -0.39439185041810182 0 -0.40810946382691132 -0.40662749173594381 0 -0.39998927986851979 -0.38733138270234541 0 -0.40810946382691132 -0.40662749173594381 0 -0.38847679860849937 -0.39439185041810182 0 -0.40810946382691132 -0.40662749173594381 0 -0.38847679860849937 -0.39439185041810182 0 -0.39043265964685281 -0.41087385717099861 0 -0.38847679860849937 -0.39439185041810182 0 -0.37069390023913701 -0.41161715682519712 0 -0.36884413339008543 -0.38215620910026299 0 -0.38847679860849937 -0.39439185041810182 0 -0.39043265964685281 -0.41087385717099861 0 -0.37069390023913701 -0.41161715682519712 0 -0.3872412918138054 -0.3801683841210336 0 -0.37955675302891229 -0.36539165484471492 0 -0.36884413339008543 -0.38215620910026299 0 -0.38847679860849937 -0.39439185041810182 0 -0.36884413339008543 -0.38215620910026299 0 -0.38847679860849937 -0.39439185041810182 0 -0.3872412918138054 -0.3801683841210336 0 -0.36884413339008543 -0.38215620910026299 0 -0.40810946382691132 -0.40662749173594381 0 -0.39445047591286631 -0.43085892970475032 0 -0.39043265964685281 -0.41087385717099861 0 -0.39445047591286631 -0.43085892970475032 0 -0.39043265964685281 -0.41087385717099861 0 -0.37069390023913701 -0.41161715682519712 0 -0.39445047591286631 -0.43085892970475032 0 -0.37254366708818859 -0.44107810455013119 0 -0.37069390023913701 -0.41161715682519712 0 -0.39445047591286631 -0.43085892970475032 0 -0.39817707450171802 -0.45474307235963729 0 -0.37254366708818859 -0.44107810455013119 0 -0.39445047591286631 -0.43085892970475032 0 -0.39817707450171802 -0.45474307235963729 0 -0.40669958431702952 -0.44166865093817831 0 -0.39817707450171802 -0.45474307235963729 0 -0.40669958431702952 -0.44166865093817831 0 -0.41364645517650189 -0.45564415287262849 0 -0.39817707450171802 -0.45474307235963729 0 -0.39534551378676869 -0.47764440992120338 0 -0.40853754187974461 -0.46754936452618567 0 -0.39817707450171802 -0.45474307235963729 0 -0.41364645517650189 -0.45564415287262849 0 -0.39817707450171802 -0.45474307235963729 0 -0.39534551378676869 -0.47764440992120338 0 -0.37439343393724039 -0.47053905227506532 0 -0.39817707450171802 -0.45474307235963729 0 -0.37439343393724039 -0.47053905227506532 0 -0.37254366708818859 -0.44107810455013119 0 -0.37624320078629198 -0.49999999999999928 0 -0.39534551378676869 -0.47764440992120338 0 -0.37439343393724039 -0.47053905227506532 0 -0.37624320078629198 -0.49999999999999928 0 -0.37439343393724039 -0.47053905227506532 0 -0.37624320078629198 -0.49999999999999928 0 -0.40415709760544921 -0.5 0 -0.39534551378676869 -0.47764440992120338 0 -0.40415709760544921 -0.5 0 -0.39534551378676869 -0.47764440992120338 0 -0.41442243173390347 -0.48148101594168952 0 -0.39534551378676869 -0.47764440992120338 0 -0.41442243173390347 -0.48148101594168952 0 -0.40853754187974461 -0.46754936452618567 0 -0.41442243173390347 -0.48148101594168952 0 -0.40853754187974461 -0.46754936452618567 0 -0.42109623419983061 -0.46823417153576968 0 -0.41442243173390347 -0.48148101594168952 0 -0.42891599410147468 -0.47956496380537827 0 -0.42109623419983061 -0.46823417153576968 0 -0.40415709760544921 -0.5 0 -0.41442243173390347 -0.48148101594168952 0 -0.43207099442460623 -0.5 0 -0.44312583798275268 -0.4802801459147667 0 -0.43207099442460623 -0.5 0 -0.42891599410147468 -0.47956496380537827 0 -0.41442243173390347 -0.48148101594168952 0 -0.43207099442460623 -0.5 0 -0.42891599410147468 -0.47956496380537827 0 -0.42891599410147468 -0.47956496380537827 0 -0.43386447216628049 -0.46782948563466581 0 -0.42109623419983061 -0.46823417153576968 0 -0.44312583798275268 -0.4802801459147667 0 -0.42891599410147468 -0.47956496380537827 0 -0.43386447216628049 -0.46782948563466581 0 -0.44537954972282778 -0.45749258324703529 0 -0.42911583585128582 -0.45654523338562342 0 -0.44245088192987608 -0.46581233330891858 0 -0.43386447216628049 -0.46782948563466581 0 -0.42911583585128582 -0.45654523338562342 0 -0.43386447216628049 -0.46782948563466581 0 -0.42911583585128582 -0.45654523338562342 0 -0.43386447216628049 -0.46782948563466581 0 -0.42911583585128582 -0.45654523338562342 0 -0.42109623419983061 -0.46823417153576968 0 -0.41861264983909641 -0.43158636256078448 0 -0.42911583585128582 -0.45654523338562342 0 -0.41861264983909641 -0.43158636256078448 0 -0.42911583585128582 -0.45654523338562342 0 -0.43586624444419769 -0.43774496661729029 0 -0.44537954972282778 -0.45749258324703529 0 -0.42911583585128582 -0.45654523338562342 0 -0.43586624444419769 -0.43774496661729029 0 -0.41861264983909641 -0.43158636256078448 0 -0.40669958431702952 -0.44166865093817831 0 -0.41364645517650189 -0.45564415287262849 0 -0.41861264983909641 -0.43158636256078448 0 -0.42911583585128582 -0.45654523338562342 0 -0.41364645517650189 -0.45564415287262849 0 -0.39817707450171802 -0.45474307235963729 0 -0.41364645517650189 -0.45564415287262849 0 -0.40853754187974461 -0.46754936452618567 0 -0.41364645517650189 -0.45564415287262849 0 -0.40853754187974461 -0.46754936452618567 0 -0.42109623419983061 -0.46823417153576968 0 -0.42911583585128582 -0.45654523338562342 0 -0.41364645517650189 -0.45564415287262849 0 -0.42911583585128582 -0.45654523338562342 0 -0.41364645517650189 -0.45564415287262849 0 -0.42109623419983061 -0.46823417153576968 0 -0.44701577414158072 -0.26596321682089741 0 -0.46155496001558122 -0.25106985871628329 0 -0.44435151036965598 -0.248053572262112 0 -0.44701577414158072 -0.26596321682089741 0 -0.42826808125808091 -0.2548638565224382 0 -0.44701577414158072 -0.26596321682089741 0 -0.42826808125808091 -0.2548638565224382 0 -0.44435151036965598 -0.248053572262112 0 -0.44701577414158072 -0.26596321682089741 0 -0.45247994435938171 -0.28574260618163733 0 -0.43658074644870221 -0.27748430540138491 0 -0.44701577414158072 -0.26596321682089741 0 -0.46576346702507959 -0.27706257711935789 0 -0.45247994435938171 -0.28574260618163733 0 -0.44701577414158072 -0.26596321682089741 0 -0.46576346702507959 -0.27706257711935789 0 -0.44701577414158072 -0.26596321682089741 0 -0.46576346702507959 -0.27706257711935789 0 -0.46155496001558122 -0.25106985871628329 0 -0.46576346702507959 -0.27706257711935789 0 -0.46155496001558122 -0.25106985871628329 0 -0.46155496001558122 -0.25106985871628329 0 -0.4813702305766886 -0.26772570285438702 0 -0.47943200823935822 -0.2401626813254204 0 -0.46576346702507959 -0.27706257711935789 0 -0.46155496001558122 -0.25106985871628329 0 -0.4813702305766886 -0.26772570285438702 0 -0.5 -0.26239569058885548 0 -0.4813702305766886 -0.26772570285438702 0 -0.47943200823935822 -0.2401626813254204 0 -0.4813702305766886 -0.26772570285438702 0 -0.48147094818011232 -0.28636201432500868 0 -0.5 -0.28930139505139779 0 -0.5 -0.26239569058885548 0 -0.4813702305766886 -0.26772570285438702 0 -0.5 -0.28930139505139779 0 -0.46576346702507959 -0.27706257711935789 0 -0.4813702305766886 -0.26772570285438702 0 -0.48147094818011232 -0.28636201432500868 0 -0.48147094818011232 -0.28636201432500868 0 -0.48591238160248218 -0.30135210026516562 0 -0.46870433894606067 -0.29522608629948882 0 -0.46576346702507959 -0.27706257711935789 0 -0.48147094818011232 -0.28636201432500868 0 -0.46576346702507959 -0.27706257711935789 0 -0.48147094818011232 -0.28636201432500868 0 -0.46870433894606067 -0.29522608629948882 0 -0.48147094818011232 -0.28636201432500868 0 -0.5 -0.28930139505139779 0 -0.48591238160248218 -0.30135210026516562 0 -0.5 -0.28930139505139779 0 -0.48591238160248218 -0.30135210026516562 0 -0.5 -0.31620709951394022 0 -0.48591238160248218 -0.30135210026516562 0 -0.48133047875385482 -0.31501476887840818 0 -0.5 -0.31620709951394022 0 -0.48591238160248218 -0.30135210026516562 0 -0.46796790191759191 -0.309618355116417 0 -0.48133047875385482 -0.31501476887840818 0 -0.48591238160248218 -0.30135210026516562 0 -0.46796790191759191 -0.309618355116417 0 -0.46870433894606067 -0.29522608629948882 0 -0.46796790191759191 -0.309618355116417 0 -0.45470473807335582 -0.30439574108693918 0 -0.45891522912201371 -0.32276152653298851 0 -0.46796790191759191 -0.309618355116417 0 -0.45470473807335582 -0.30439574108693918 0 -0.46870433894606067 -0.29522608629948882 0 -0.46576346702507959 -0.27706257711935789 0 -0.46870433894606067 -0.29522608629948882 0 -0.46576346702507959 -0.27706257711935789 0 -0.46870433894606067 -0.29522608629948882 0 -0.45247994435938171 -0.28574260618163733 0 -0.45470473807335582 -0.30439574108693918 0 -0.46870433894606067 -0.29522608629948882 0 -0.45247994435938171 -0.28574260618163733 0 -0.45247994435938171 -0.28574260618163733 0 -0.44242625881707331 -0.2943797863321313 0 -0.43658074644870221 -0.27748430540138491 0 -0.45470473807335582 -0.30439574108693918 0 -0.45247994435938171 -0.28574260618163733 0 -0.44242625881707331 -0.2943797863321313 0 -0.45470473807335582 -0.30439574108693918 0 -0.44242625881707331 -0.2943797863321313 0 -0.43687724556247193 -0.30983412669530003 0 -0.45470473807335582 -0.30439574108693918 0 -0.45891522912201371 -0.32276152653298851 0 -0.43687724556247193 -0.30983412669530003 0 -0.45891522912201371 -0.32276152653298851 0 -0.43649997949017261 -0.33050828418756872 0 -0.43687724556247193 -0.30983412669530003 0 -0.45891522912201371 -0.32276152653298851 0 -0.43649997949017261 -0.33050828418756872 0 -0.45891522912201371 -0.32276152653298851 0 -0.45191638995656358 -0.34594676102307598 0 -0.43649997949017261 -0.33050828418756872 0 -0.45891522912201371 -0.32276152653298851 0 -0.47681910141710881 -0.33826374528277492 0 -0.45191638995656358 -0.34594676102307598 0 -0.45891522912201371 -0.32276152653298851 0 -0.48133047875385482 -0.31501476887840818 0 -0.45891522912201371 -0.32276152653298851 0 -0.48133047875385482 -0.31501476887840818 0 -0.47681910141710881 -0.33826374528277492 0 -0.48133047875385482 -0.31501476887840818 0 -0.48982765661521949 -0.32872581080767099 0 -0.47681910141710881 -0.33826374528277492 0 -0.46796790191759191 -0.309618355116417 0 -0.45891522912201371 -0.32276152653298851 0 -0.48133047875385482 -0.31501476887840818 0 -0.48133047875385482 -0.31501476887840818 0 -0.5 -0.31620709951394022 0 -0.48982765661521949 -0.32872581080767099 0 -0.5 -0.34311280397648258 0 -0.48982765661521949 -0.32872581080767099 0 -0.47681910141710881 -0.33826374528277492 0 -0.5 -0.31620709951394022 0 -0.5 -0.34311280397648258 0 -0.48982765661521949 -0.32872581080767099 0 -0.47681910141710881 -0.33826374528277492 0 -0.48372169562577921 -0.35768818080428683 0 -0.46378448096698349 -0.36092253675938968 0 -0.5 -0.34311280397648258 0 -0.48372169562577921 -0.35768818080428683 0 -0.5 -0.37001850843902512 0 -0.5 -0.34311280397648258 0 -0.47681910141710881 -0.33826374528277492 0 -0.48372169562577921 -0.35768818080428683 0 -0.47800489574480359 -0.37612330956376178 0 -0.48372169562577921 -0.35768818080428683 0 -0.5 -0.37001850843902512 0 -0.47800489574480359 -0.37612330956376178 0 -0.48372169562577921 -0.35768818080428683 0 -0.46378448096698349 -0.36092253675938968 0 -0.47800489574480359 -0.37612330956376178 0 -0.45496013337620372 -0.38140225525536031 0 -0.46378448096698349 -0.36092253675938968 0 -0.45496013337620372 -0.38140225525536031 0 -0.46378448096698349 -0.36092253675938968 0 -0.44775434509720963 -0.36471390681997762 0 -0.47681910141710881 -0.33826374528277492 0 -0.46378448096698349 -0.36092253675938968 0 -0.45191638995656358 -0.34594676102307598 0 -0.46378448096698349 -0.36092253675938968 0 -0.45191638995656358 -0.34594676102307598 0 -0.44775434509720963 -0.36471390681997762 0 -0.45191638995656358 -0.34594676102307598 0 -0.4311730090072482 -0.35594864070623677 0 -0.43649997949017261 -0.33050828418756872 0 -0.45191638995656358 -0.34594676102307598 0 -0.44775434509720963 -0.36471390681997762 0 -0.4311730090072482 -0.35594864070623677 0 -0.43693771217904881 -0.37934934035582529 0 -0.44775434509720963 -0.36471390681997762 0 -0.4311730090072482 -0.35594864070623677 0 -0.43693771217904881 -0.37934934035582529 0 -0.41987839064247068 -0.37582476099795431 0 -0.4311730090072482 -0.35594864070623677 0 -0.41987839064247068 -0.37582476099795431 0 -0.4311730090072482 -0.35594864070623677 0 -0.41469570927405369 -0.35619215443598712 0 -0.4311730090072482 -0.35594864070623677 0 -0.41469570927405369 -0.35619215443598712 0 -0.41408472985833172 -0.33825504184214877 0 -0.41469570927405369 -0.35619215443598712 0 -0.39166948022648912 -0.34600179949672438 0 -0.41408472985833172 -0.33825504184214877 0 -0.41987839064247068 -0.37582476099795431 0 -0.41469570927405369 -0.35619215443598712 0 -0.40323063320618169 -0.37000031632699809 0 -0.40323063320618169 -0.37000031632699809 0 -0.39186909591013119 -0.36803527366874572 0 -0.39166948022648912 -0.34600179949672438 0 -0.3872412918138054 -0.3801683841210336 0 -0.39186909591013119 -0.36803527366874572 0 -0.37955675302891229 -0.36539165484471492 0 -0.39186909591013119 -0.36803527366874572 0 -0.37955675302891229 -0.36539165484471492 0 -0.38374891195174282 -0.34873916463514598 0 -0.37955675302891229 -0.36539165484471492 0 -0.38374891195174282 -0.34873916463514598 0 -0.36710709142432402 -0.3544906129872426 0 -0.39186909591013119 -0.36803527366874572 0 -0.38374891195174282 -0.34873916463514598 0 -0.39166948022648912 -0.34600179949672438 0 -0.38374891195174282 -0.34873916463514598 0 -0.36710709142432402 -0.3544906129872426 0 -0.39186909591013119 -0.36803527366874572 0 -0.38374891195174282 -0.34873916463514598 0 -0.38374891195174282 -0.34873916463514598 0 -0.39166948022648912 -0.34600179949672438 0 -0.40323063320618169 -0.37000031632699809 0 -0.39166948022648912 -0.34600179949672438 0 -0.41469570927405369 -0.35619215443598712 0 -0.40323063320618169 -0.37000031632699809 0 -0.39166948022648912 -0.34600179949672438 0 -0.39166948022648912 -0.34600179949672438 0 -0.41408472985833172 -0.33825504184214877 0 -0.39166948022648912 -0.34600179949672438 0 -0.3815298751654605 -0.32495411652454359 0 -0.4026902281245795 -0.31739644688041602 0 -0.39166948022648912 -0.34600179949672438 0 -0.4026902281245795 -0.31739644688041602 0 -0.41408472985833172 -0.33825504184214877 0 -0.38374891195174282 -0.34873916463514598 0 -0.37358600729011487 -0.32458890924022271 0 -0.38374891195174282 -0.34873916463514598 0 -0.39166948022648912 -0.34600179949672438 0 -0.3815298751654605 -0.32495411652454359 0 -0.38374891195174282 -0.34873916463514598 0 -0.37358600729011487 -0.32458890924022271 0 -0.37242091735416799 -0.34205088954929769 0 -0.39166948022648912 -0.34600179949672438 0 -0.3815298751654605 -0.32495411652454359 0 -0.38374891195174282 -0.34873916463514598 0 -0.3815298751654605 -0.32495411652454359 0 -0.37358600729011487 -0.32458890924022271 0 -0.3815298751654605 -0.32495411652454359 0 -0.4026902281245795 -0.31739644688041602 0 -0.38556399442722611 -0.30285096554950341 0 -0.3815298751654605 -0.32495411652454359 0 -0.37139027010443137 -0.30390643355236302 0 -0.3815298751654605 -0.32495411652454359 0 -0.37139027010443137 -0.30390643355236302 0 -0.37358600729011487 -0.32458890924022271 0 -0.4026902281245795 -0.31739644688041602 0 -0.42134699409857862 -0.31975069606866091 0 -0.41408472985833172 -0.33825504184214877 0 -0.4026902281245795 -0.31739644688041602 0 -0.42134699409857862 -0.31975069606866091 0 -0.41658278745733718 -0.3027595807378709 0 -0.41408472985833172 -0.33825504184214877 0 -0.43649997949017261 -0.33050828418756872 0 -0.4311730090072482 -0.35594864070623677 0 -0.41408472985833172 -0.33825504184214877 0 -0.43649997949017261 -0.33050828418756872 0 -0.42134699409857862 -0.31975069606866091 0 -0.41408472985833172 -0.33825504184214877 0 -0.43649997949017261 -0.33050828418756872 0 -0.42134699409857862 -0.31975069606866091 0 -0.43649997949017261 -0.33050828418756872 0 -0.43687724556247193 -0.30983412669530003 0 -0.43687724556247193 -0.30983412669530003 0 -0.42765124393553139 -0.29030790193235662 0 -0.41658278745733718 -0.3027595807378709 0 -0.44242625881707331 -0.2943797863321313 0 -0.43687724556247193 -0.30983412669530003 0 -0.42765124393553139 -0.29030790193235662 0 -0.42134699409857862 -0.31975069606866091 0 -0.43687724556247193 -0.30983412669530003 0 -0.41658278745733718 -0.3027595807378709 0 -0.44242625881707331 -0.2943797863321313 0 -0.42765124393553139 -0.29030790193235662 0 -0.43658074644870221 -0.27748430540138491 0 -0.40988762231387948 -0.2835325795888336 0 -0.41658278745733718 -0.3027595807378709 0 -0.40009404130297738 -0.29524867372486552 0 -0.42765124393553139 -0.29030790193235662 0 -0.40988762231387948 -0.2835325795888336 0 -0.42183492114453891 -0.27367113886851779 0 -0.42765124393553139 -0.29030790193235662 0 -0.40988762231387948 -0.2835325795888336 0 -0.41658278745733718 -0.3027595807378709 0 -0.4026902281245795 -0.31739644688041602 0 -0.41658278745733718 -0.3027595807378709 0 -0.40009404130297738 -0.29524867372486552 0 -0.4026902281245795 -0.31739644688041602 0 -0.38556399442722611 -0.30285096554950341 0 -0.40009404130297738 -0.29524867372486552 0 -0.3815298751654605 -0.32495411652454359 0 -0.38556399442722611 -0.30285096554950341 0 -0.37139027010443137 -0.30390643355236302 0 -0.38556399442722611 -0.30285096554950341 0 -0.37340732973531587 -0.29285485806484163 0 -0.37139027010443137 -0.30390643355236302 0 -0.38556399442722611 -0.30285096554950341 0 -0.37340732973531587 -0.29285485806484163 0 -0.38682775456600388 -0.2886349895216842 0 -0.37798357358160373 -0.27489934959302492 0 -0.37340732973531587 -0.29285485806484163 0 -0.38556399442722611 -0.30285096554950341 0 -0.38682775456600388 -0.2886349895216842 0 -0.37340732973531587 -0.29285485806484163 0 -0.38682775456600388 -0.2886349895216842 0 -0.40009404130297738 -0.29524867372486552 0 -0.39540887943930342 -0.27797860341287789 0 -0.40988762231387948 -0.2835325795888336 0 -0.40009404130297738 -0.29524867372486552 0 -0.39540887943930342 -0.27797860341287789 0 -0.38556399442722611 -0.30285096554950341 0 -0.38682775456600388 -0.2886349895216842 0 -0.40009404130297738 -0.29524867372486552 0 -0.39540887943930342 -0.27797860341287789 0 -0.39069108186180002 -0.26458714672857819 0 -0.4066318268945931 -0.2638716710781821 0 -0.40988762231387948 -0.2835325795888336 0 -0.39540887943930342 -0.27797860341287789 0 -0.4066318268945931 -0.2638716710781821 0 -0.37798357358160373 -0.27489934959302492 0 -0.37898300649656441 -0.25861482375672279 0 -0.39069108186180002 -0.26458714672857819 0 -0.39540887943930342 -0.27797860341287789 0 -0.37798357358160373 -0.27489934959302492 0 -0.39069108186180002 -0.26458714672857819 0 -0.38682775456600388 -0.2886349895216842 0 -0.39540887943930342 -0.27797860341287789 0 -0.37798357358160373 -0.27489934959302492 0 -0.37898300649656441 -0.25861482375672279 0 -0.39426839989926149 -0.24972399423372421 0 -0.37759104703002849 -0.24418835058047919 0 -0.37898300649656441 -0.25861482375672279 0 -0.39069108186180002 -0.26458714672857819 0 -0.39426839989926149 -0.24972399423372421 0 -0.39069108186180002 -0.26458714672857819 0 -0.4066318268945931 -0.2638716710781821 0 -0.39426839989926149 -0.24972399423372421 0 -0.4066318268945931 -0.2638716710781821 0 -0.40952038837458071 -0.24376449622397969 0 -0.39426839989926149 -0.24972399423372421 0 -0.4066318268945931 -0.2638716710781821 0 -0.42826808125808091 -0.2548638565224382 0 -0.40952038837458071 -0.24376449622397969 0 -0.4066318268945931 -0.2638716710781821 0 -0.42183492114453891 -0.27367113886851779 0 -0.42826808125808091 -0.2548638565224382 0 -0.40988762231387948 -0.2835325795888336 0 -0.4066318268945931 -0.2638716710781821 0 -0.42183492114453891 -0.27367113886851779 0 -0.42765124393553139 -0.29030790193235662 0 -0.42183492114453891 -0.27367113886851779 0 -0.43658074644870221 -0.27748430540138491 0 -0.42183492114453891 -0.27367113886851779 0 -0.43658074644870221 -0.27748430540138491 0 -0.42826808125808091 -0.2548638565224382 0 -0.44701577414158072 -0.26596321682089741 0 -0.43658074644870221 -0.27748430540138491 0 -0.42826808125808091 -0.2548638565224382 0 -0.32801195521701909 -0.25552742866774869 0 -0.30116663146637529 -0.25516913772278899 0 -0.31466199868990208 -0.26374572750250153 0 -0.32801195521701909 -0.25552742866774869 0 -0.30116663146637529 -0.25516913772278899 0 -0.31466199868990208 -0.26374572750250153 0 -0.32801195521701909 -0.25552742866774869 0 -0.32468413321718043 -0.27440289265382373 0 -0.32801195521701909 -0.25552742866774869 0 -0.30116663146637529 -0.25516913772278899 0 -0.30910312244255 -0.23997918993506109 0 -0.31466199868990208 -0.26374572750250153 0 -0.32468413321718043 -0.27440289265382373 0 -0.30637838637130771 -0.27166390062685752 0 -0.32468413321718043 -0.27440289265382373 0 -0.309839761830833 -0.28516012695413617 0 -0.30637838637130771 -0.27166390062685752 0 -0.32468413321718043 -0.27440289265382373 0 -0.33625654271550182 -0.26230673737537591 0 -0.33686677836075862 -0.27850534789407622 0 -0.33625654271550182 -0.26230673737537591 0 -0.35326019796685959 -0.27628839845037589 0 -0.32468413321718043 -0.27440289265382373 0 -0.33686677836075862 -0.27850534789407622 0 -0.33625654271550182 -0.26230673737537591 0 -0.32468413321718043 -0.27440289265382373 0 -0.33686677836075862 -0.27850534789407622 0 -0.32524885960427491 -0.29012168281108752 0 -0.32801195521701909 -0.25552742866774869 0 -0.34255660237153268 -0.25572154870971292 0 -0.34397941523184239 -0.25423434197952571 0 -0.32801195521701909 -0.25552742866774869 0 -0.32468413321718043 -0.27440289265382373 0 -0.33625654271550182 -0.26230673737537591 0 -0.33625654271550182 -0.26230673737537591 0 -0.34255660237153268 -0.25572154870971292 0 -0.34461683242676949 -0.25574904555720868 0 -0.33625654271550182 -0.26230673737537591 0 -0.34255660237153268 -0.25572154870971292 0 -0.32801195521701909 -0.25552742866774869 0 -0.33625654271550182 -0.26230673737537591 0 -0.32801195521701909 -0.25552742866774869 0 -0.33625654271550182 -0.26230673737537591 0 -0.34255660237153268 -0.25572154870971292 0 -0.32801195521701909 -0.25552742866774869 0 -0.34255660237153268 -0.25572154870971292 0 -0.34255660237153268 -0.25572154870971292 0 -0.34461683242676949 -0.25574904555720868 0 -0.34255660237153268 -0.25572154870971292 0 -0.34397941523184239 -0.25423434197952571 0 -0.34461683242676949 -0.25574904555720868 0 -0.34255660237153268 -0.25572154870971292 0 -0.34397941523184239 -0.25423434197952571 0 -0.33625654271550182 -0.26230673737537591 0 -0.34461683242676949 -0.25574904555720868 0 -0.35326019796685959 -0.27628839845037589 0 -0.34821384165905478 -0.25579705301835182 0 -0.36693787197232891 -0.25604695317142417 0 -0.35899198930215143 -0.2462111737376852 0 -0.34629500511727829 -0.25181395279267971 0 -0.34821384165905478 -0.25579705301835182 0 -0.34821384165905478 -0.25579705301835182 0 -0.36693787197232891 -0.25604695317142417 0 -0.34629500511727829 -0.25181395279267971 0 -0.34821384165905478 -0.25579705301835182 0 -0.35899198930215143 -0.2462111737376852 0 -0.34461683242676949 -0.25574904555720868 0 -0.34821384165905478 -0.25579705301835182 0 -0.35326019796685959 -0.27628839845037589 0 -0.34629500511727829 -0.25181395279267971 0 -0.34397941523184239 -0.25423434197952571 0 -0.34629500511727829 -0.25181395279267971 0 -0.34397941523184239 -0.25423434197952571 0 -0.34461683242676949 -0.25574904555720868 0 -0.34629500511727829 -0.25181395279267971 0 -0.34461683242676949 -0.25574904555720868 0 -0.34821384165905478 -0.25579705301835182 0 -0.34397941523184239 -0.25423434197952571 0 -0.34461683242676949 -0.25574904555720868 0 -0.34461683242676949 -0.25574904555720868 0 -0.34821384165905478 -0.25579705301835182 0 -0.34821384165905478 -0.25579705301835182 0 -0.36693787197232891 -0.25604695317142417 0 -0.36599472943994621 -0.26740964846904419 0 -0.37898300649656441 -0.25861482375672279 0 -0.36693787197232891 -0.25604695317142417 0 -0.36599472943994621 -0.26740964846904419 0 -0.37898300649656441 -0.25861482375672279 0 -0.36693787197232891 -0.25604695317142417 0 -0.37759104703002849 -0.24418835058047919 0 -0.37798357358160373 -0.27489934959302492 0 -0.37898300649656441 -0.25861482375672279 0 -0.36599472943994621 -0.26740964846904419 0 -0.37798357358160373 -0.27489934959302492 0 -0.36599472943994621 -0.26740964846904419 0 -0.36125066504340408 -0.28285875058018151 0 -0.34821384165905478 -0.25579705301835182 0 -0.35326019796685959 -0.27628839845037589 0 -0.36125066504340408 -0.28285875058018151 0 -0.34821384165905478 -0.25579705301835182 0 -0.36125066504340408 -0.28285875058018151 0 -0.34461683242676949 -0.25574904555720868 0 -0.35326019796685959 -0.27628839845037589 0 -0.34821384165905478 -0.25579705301835182 0 -0.36599472943994621 -0.26740964846904419 0 -0.36125066504340408 -0.28285875058018151 0 -0.33625654271550182 -0.26230673737537591 0 -0.35326019796685959 -0.27628839845037589 0 -0.35326019796685959 -0.27628839845037589 0 -0.36125066504340408 -0.28285875058018151 0 -0.35326019796685959 -0.27628839845037589 0 -0.36125066504340408 -0.28285875058018151 0 -0.3634231026284872 -0.30043865384529927 0 -0.35326019796685959 -0.27628839845037589 0 -0.3634231026284872 -0.30043865384529927 0 -0.33686677836075862 -0.27850534789407622 0 -0.35326019796685959 -0.27628839845037589 0 -0.34241895633701602 -0.2943282288731866 0 -0.35326019796685959 -0.27628839845037589 0 -0.3634231026284872 -0.30043865384529927 0 -0.34241895633701602 -0.2943282288731866 0 -0.36125066504340408 -0.28285875058018151 0 -0.37340732973531587 -0.29285485806484163 0 -0.37139027010443137 -0.30390643355236302 0 -0.36125066504340408 -0.28285875058018151 0 -0.3634231026284872 -0.30043865384529927 0 -0.37139027010443137 -0.30390643355236302 0 -0.36125066504340408 -0.28285875058018151 0 -0.37139027010443137 -0.30390643355236302 0 -0.37798357358160373 -0.27489934959302492 0 -0.36125066504340408 -0.28285875058018151 0 -0.37340732973531587 -0.29285485806484163 0 -0.36125066504340408 -0.28285875058018151 0 -0.37340732973531587 -0.29285485806484163 0 -0.3634231026284872 -0.30043865384529927 0 -0.37139027010443137 -0.30390643355236302 0 -0.37358600729011487 -0.32458890924022271 0 -0.3634231026284872 -0.30043865384529927 0 -0.34710119732333627 -0.31404196827880099 0 -0.36062397765957488 -0.32063264455193502 0 -0.3634231026284872 -0.30043865384529927 0 -0.34241895633701602 -0.2943282288731866 0 -0.34710119732333627 -0.31404196827880099 0 -0.3290343674530557 -0.3098098771745143 0 -0.34241895633701602 -0.2943282288731866 0 -0.34710119732333627 -0.31404196827880099 0 -0.3290343674530557 -0.3098098771745143 0 -0.34241895633701602 -0.2943282288731866 0 -0.32524885960427491 -0.29012168281108752 0 -0.33686677836075862 -0.27850534789407622 0 -0.34241895633701602 -0.2943282288731866 0 -0.32524885960427491 -0.29012168281108752 0 -0.32468413321718043 -0.27440289265382373 0 -0.32524885960427491 -0.29012168281108752 0 -0.309839761830833 -0.28516012695413617 0 -0.32524885960427491 -0.29012168281108752 0 -0.3124980610780807 -0.30032802841898781 0 -0.309839761830833 -0.28516012695413617 0 -0.3290343674530557 -0.3098098771745143 0 -0.32524885960427491 -0.29012168281108752 0 -0.3124980610780807 -0.30032802841898781 0 -0.3290343674530557 -0.3098098771745143 0 -0.31434627617258382 -0.31726819017462449 0 -0.3124980610780807 -0.30032802841898781 0 -0.3290343674530557 -0.3098098771745143 0 -0.32517889254915378 -0.32604754651738183 0 -0.31434627617258382 -0.31726819017462449 0 -0.32517889254915378 -0.32604754651738183 0 -0.31434627617258382 -0.31726819017462449 0 -0.31631812860214742 -0.33521300642344098 0 -0.32517889254915378 -0.32604754651738183 0 -0.31631812860214742 -0.33521300642344098 0 -0.32967230166922179 -0.34312065994328622 0 -0.31631812860214742 -0.33521300642344098 0 -0.32967230166922179 -0.34312065994328622 0 -0.31631763237412458 -0.34810691519440018 0 -0.32517889254915378 -0.32604754651738183 0 -0.32967230166922179 -0.34312065994328622 0 -0.33913785200337709 -0.3280662037464534 0 -0.32967230166922179 -0.34312065994328622 0 -0.33913785200337709 -0.3280662037464534 0 -0.34414342114998708 -0.34052065211150417 0 -0.3290343674530557 -0.3098098771745143 0 -0.32517889254915378 -0.32604754651738183 0 -0.33913785200337709 -0.3280662037464534 0 -0.3290343674530557 -0.3098098771745143 0 -0.33913785200337709 -0.3280662037464534 0 -0.34710119732333627 -0.31404196827880099 0 -0.34710119732333627 -0.31404196827880099 0 -0.36062397765957488 -0.32063264455193502 0 -0.35227806280279961 -0.32984072341411808 0 -0.33913785200337709 -0.3280662037464534 0 -0.34710119732333627 -0.31404196827880099 0 -0.35227806280279961 -0.32984072341411808 0 -0.3634231026284872 -0.30043865384529927 0 -0.36062397765957488 -0.32063264455193502 0 -0.37358600729011487 -0.32458890924022271 0 -0.3634231026284872 -0.30043865384529927 0 -0.37358600729011487 -0.32458890924022271 0 -0.36062397765957488 -0.32063264455193502 0 -0.36568632821365071 -0.33186233921273622 0 -0.35227806280279961 -0.32984072341411808 0 -0.36062397765957488 -0.32063264455193502 0 -0.37358600729011487 -0.32458890924022271 0 -0.36568632821365071 -0.33186233921273622 0 -0.36568632821365071 -0.33186233921273622 0 -0.35697560046687121 -0.34392053258327882 0 -0.36710709142432402 -0.3544906129872426 0 -0.37242091735416799 -0.34205088954929769 0 -0.36568632821365071 -0.33186233921273622 0 -0.36710709142432402 -0.3544906129872426 0 -0.37358600729011487 -0.32458890924022271 0 -0.37242091735416799 -0.34205088954929769 0 -0.36568632821365071 -0.33186233921273622 0 -0.36568632821365071 -0.33186233921273622 0 -0.36710709142432402 -0.3544906129872426 0 -0.36568632821365071 -0.33186233921273622 0 -0.35227806280279961 -0.32984072341411808 0 -0.35697560046687121 -0.34392053258327882 0 -0.33913785200337709 -0.3280662037464534 0 -0.35227806280279961 -0.32984072341411808 0 -0.34414342114998708 -0.34052065211150417 0 -0.35227806280279961 -0.32984072341411808 0 -0.34414342114998708 -0.34052065211150417 0 -0.35697560046687121 -0.34392053258327882 0 -0.36710709142432402 -0.3544906129872426 0 -0.34097652673902218 -0.36352139137780642 0 -0.34414342114998708 -0.34052065211150417 0 -0.35697560046687121 -0.34392053258327882 0 -0.34097652673902218 -0.36352139137780642 0 -0.35697560046687121 -0.34392053258327882 0 -0.36710709142432402 -0.3544906129872426 0 -0.34097652673902218 -0.36352139137780642 0 -0.38374891195174282 -0.34873916463514598 0 -0.37242091735416799 -0.34205088954929769 0 -0.36710709142432402 -0.3544906129872426 0 -0.36710709142432402 -0.3544906129872426 0 -0.36646100682439292 -0.38067097612000123 0 -0.36884413339008543 -0.38215620910026299 0 -0.37955675302891229 -0.36539165484471492 0 -0.36710709142432402 -0.3544906129872426 0 -0.36884413339008543 -0.38215620910026299 0 -0.36710709142432402 -0.3544906129872426 0 -0.36884413339008543 -0.38215620910026299 0 -0.36710709142432402 -0.3544906129872426 0 -0.35692115638830579 -0.36733739597755038 0 -0.36646100682439292 -0.38067097612000123 0 -0.35692115638830579 -0.36733739597755038 0 -0.36646100682439292 -0.38067097612000123 0 -0.35772216611639451 -0.376843847997265 0 -0.36710709142432402 -0.3544906129872426 0 -0.35692115638830579 -0.36733739597755038 0 -0.34097652673902218 -0.36352139137780642 0 -0.35692115638830579 -0.36733739597755038 0 -0.34097652673902218 -0.36352139137780642 0 -0.34915418451874031 -0.38096734381817088 0 -0.32967230166922179 -0.34312065994328622 0 -0.34414342114998708 -0.34052065211150417 0 -0.34097652673902218 -0.36352139137780642 0 -0.32967230166922179 -0.34312065994328622 0 -0.34097652673902218 -0.36352139137780642 0 -0.32216018085006137 -0.35713709816734079 0 -0.32967230166922179 -0.34312065994328622 0 -0.32216018085006137 -0.35713709816734079 0 -0.31631763237412458 -0.34810691519440018 0 -0.32216018085006137 -0.35713709816734079 0 -0.31631763237412458 -0.34810691519440018 0 -0.30898848141421731 -0.35838435455283929 0 -0.34097652673902218 -0.36352139137780642 0 -0.31484596205372128 -0.3725521697683718 0 -0.32844937108413708 -0.38271277456020131 0 -0.32216018085006137 -0.35713709816734079 0 -0.31484596205372128 -0.3725521697683718 0 -0.30898848141421731 -0.35838435455283929 0 -0.34097652673902218 -0.36352139137780642 0 -0.31484596205372128 -0.3725521697683718 0 -0.34097652673902218 -0.36352139137780642 0 -0.32216018085006137 -0.35713709816734079 0 -0.31484596205372128 -0.3725521697683718 0 -0.31484596205372128 -0.3725521697683718 0 -0.29692083018200199 -0.36541739196777151 0 -0.28871539736842028 -0.38158294815893717 0 -0.31484596205372128 -0.3725521697683718 0 -0.29692083018200199 -0.36541739196777151 0 -0.30898848141421731 -0.35838435455283929 0 -0.31631763237412458 -0.34810691519440018 0 -0.30898848141421731 -0.35838435455283929 0 -0.30380848509358399 -0.34251067769949289 0 -0.29692083018200199 -0.36541739196777151 0 -0.30898848141421731 -0.35838435455283929 0 -0.29076947499341932 -0.3503766841736089 0 -0.30898848141421731 -0.35838435455283929 0 -0.29076947499341932 -0.3503766841736089 0 -0.30380848509358399 -0.34251067769949289 0 -0.29692083018200199 -0.36541739196777151 0 -0.28001194112433953 -0.36575227736040772 0 -0.28871539736842028 -0.38158294815893717 0 -0.29692083018200199 -0.36541739196777151 0 -0.29076947499341932 -0.3503766841736089 0 -0.28001194112433953 -0.36575227736040772 0 -0.28001194112433953 -0.36575227736040772 0 -0.25849156154559488 -0.37316041313177473 0 -0.26854583492936251 -0.34085588895911673 0 -0.25849156154559488 -0.37316041313177473 0 -0.26854583492936251 -0.34085588895911673 0 -0.24670006397727429 -0.34592625245120229 0 -0.28001194112433953 -0.36575227736040772 0 -0.25849156154559488 -0.37316041313177473 0 -0.27662854772723833 -0.3831203377712375 0 -0.25849156154559488 -0.37316041313177473 0 -0.24670006397727429 -0.34592625245120229 0 -0.29076947499341932 -0.3503766841736089 0 -0.28001194112433953 -0.36575227736040772 0 -0.26854583492936251 -0.34085588895911673 0 -0.26854583492936251 -0.34085588895911673 0 -0.27613234239270212 -0.32090854785599943 0 -0.28824514305409532 -0.33219800223007501 0 -0.26854583492936251 -0.34085588895911673 0 -0.25064537301554468 -0.32747361772722527 0 -0.26150021605212448 -0.3175514156972582 0 -0.26854583492936251 -0.34085588895911673 0 -0.25064537301554468 -0.32747361772722527 0 -0.24670006397727429 -0.34592625245120229 0 -0.25064537301554468 -0.32747361772722527 0 -0.26150021605212448 -0.3175514156972582 0 -0.2476878870041368 -0.31310218966409031 0 -0.26150021605212448 -0.3175514156972582 0 -0.27613234239270212 -0.32090854785599943 0 -0.27440577024841151 -0.30129492222885612 0 -0.26854583492936251 -0.34085588895911673 0 -0.26150021605212448 -0.3175514156972582 0 -0.27613234239270212 -0.32090854785599943 0 -0.2879647476795168 -0.31264251016469108 0 -0.28824514305409532 -0.33219800223007501 0 -0.30261021596271331 -0.32582155490673198 0 -0.27613234239270212 -0.32090854785599943 0 -0.2879647476795168 -0.31264251016469108 0 -0.28824514305409532 -0.33219800223007501 0 -0.29076947499341932 -0.3503766841736089 0 -0.26854583492936251 -0.34085588895911673 0 -0.28824514305409532 -0.33219800223007501 0 -0.29076947499341932 -0.3503766841736089 0 -0.28824514305409532 -0.33219800223007501 0 -0.30380848509358399 -0.34251067769949289 0 -0.28824514305409532 -0.33219800223007501 0 -0.30380848509358399 -0.34251067769949289 0 -0.30261021596271331 -0.32582155490673198 0 -0.31631812860214742 -0.33521300642344098 0 -0.30380848509358399 -0.34251067769949289 0 -0.30261021596271331 -0.32582155490673198 0 -0.31631812860214742 -0.33521300642344098 0 -0.31631763237412458 -0.34810691519440018 0 -0.30380848509358399 -0.34251067769949289 0 -0.31434627617258382 -0.31726819017462449 0 -0.31631812860214742 -0.33521300642344098 0 -0.30261021596271331 -0.32582155490673198 0 -0.31434627617258382 -0.31726819017462449 0 -0.30261021596271331 -0.32582155490673198 0 -0.30299489530815138 -0.3104411952643456 0 -0.2879647476795168 -0.31264251016469108 0 -0.30261021596271331 -0.32582155490673198 0 -0.30299489530815138 -0.3104411952643456 0 -0.31434627617258382 -0.31726819017462449 0 -0.30299489530815138 -0.3104411952643456 0 -0.3124980610780807 -0.30032802841898781 0 -0.30299489530815138 -0.3104411952643456 0 -0.3124980610780807 -0.30032802841898781 0 -0.29755517564786271 -0.29614569265669238 0 -0.3124980610780807 -0.30032802841898781 0 -0.309839761830833 -0.28516012695413617 0 -0.29755517564786271 -0.29614569265669238 0 -0.309839761830833 -0.28516012695413617 0 -0.29755517564786271 -0.29614569265669238 0 -0.29508426976599339 -0.28095675134303227 0 -0.29755517564786271 -0.29614569265669238 0 -0.28440513668567757 -0.2868786215481241 0 -0.27440577024841151 -0.30129492222885612 0 -0.29755517564786271 -0.29614569265669238 0 -0.28440513668567757 -0.2868786215481241 0 -0.29508426976599339 -0.28095675134303227 0 -0.2879647476795168 -0.31264251016469108 0 -0.30299489530815138 -0.3104411952643456 0 -0.29755517564786271 -0.29614569265669238 0 -0.2879647476795168 -0.31264251016469108 0 -0.29755517564786271 -0.29614569265669238 0 -0.27440577024841151 -0.30129492222885612 0 -0.27613234239270212 -0.32090854785599943 0 -0.2879647476795168 -0.31264251016469108 0 -0.27440577024841151 -0.30129492222885612 0 -0.25524594082628538 -0.30433178781545489 0 -0.25954553172362738 -0.29058371515516329 0 -0.24118374853074359 -0.30039206638318078 0 -0.26150021605212448 -0.3175514156972582 0 -0.27440577024841151 -0.30129492222885612 0 -0.25524594082628538 -0.30433178781545489 0 -0.27440577024841151 -0.30129492222885612 0 -0.25524594082628538 -0.30433178781545489 0 -0.25954553172362738 -0.29058371515516329 0 -0.26150021605212448 -0.3175514156972582 0 -0.25524594082628538 -0.30433178781545489 0 -0.2476878870041368 -0.31310218966409031 0 -0.25954553172362738 -0.29058371515516329 0 -0.25704939831663282 -0.278495897273493 0 -0.24380045887504601 -0.28329151361009558 0 -0.25954553172362738 -0.29058371515516329 0 -0.27148996263953079 -0.28455967433901891 0 -0.25704939831663282 -0.278495897273493 0 -0.28440513668567757 -0.2868786215481241 0 -0.27440577024841151 -0.30129492222885612 0 -0.27148996263953079 -0.28455967433901891 0 -0.27440577024841151 -0.30129492222885612 0 -0.25954553172362738 -0.29058371515516329 0 -0.27148996263953079 -0.28455967433901891 0 -0.28440513668567757 -0.2868786215481241 0 -0.27148996263953079 -0.28455967433901891 0 -0.27966463928741458 -0.27397037977507832 0 -0.27966463928741458 -0.27397037977507832 0 -0.26955876874768259 -0.26370778376115728 0 -0.27908455380714259 -0.26037661518115468 0 -0.27966463928741458 -0.27397037977507832 0 -0.26721082782642391 -0.27326549201524652 0 -0.26955876874768259 -0.26370778376115728 0 -0.27148996263953079 -0.28455967433901891 0 -0.27966463928741458 -0.27397037977507832 0 -0.26721082782642391 -0.27326549201524652 0 -0.27148996263953079 -0.28455967433901891 0 -0.26721082782642391 -0.27326549201524652 0 -0.25704939831663282 -0.278495897273493 0 -0.26721082782642391 -0.27326549201524652 0 -0.2600835172819827 -0.26664629484482372 0 -0.25704939831663282 -0.278495897273493 0 -0.26721082782642391 -0.27326549201524652 0 -0.2600835172819827 -0.26664629484482372 0 -0.26955876874768259 -0.26370778376115728 0 -0.2600835172819827 -0.26664629484482372 0 -0.25704939831663282 -0.278495897273493 0 -0.24800497626981641 -0.26633030052812379 0 -0.26081699204607939 -0.25463061151349869 0 -0.24800497626981641 -0.26633030052812379 0 -0.24202555347879451 -0.2494207751729384 0 -0.2600835172819827 -0.26664629484482372 0 -0.26081699204607939 -0.25463061151349869 0 -0.24800497626981641 -0.26633030052812379 0 -0.2600835172819827 -0.26664629484482372 0 -0.26081699204607939 -0.25463061151349869 0 -0.26955876874768259 -0.26370778376115728 0 -0.26081699204607939 -0.25463061151349869 0 -0.26955876874768259 -0.26370778376115728 0 -0.2743213077157316 -0.25481084677783239 0 -0.26081699204607939 -0.25463061151349869 0 -0.2743213077157316 -0.25481084677783239 0 -0.26955876874768259 -0.26370778376115728 0 -0.27908455380714259 -0.26037661518115468 0 -0.2743213077157316 -0.25481084677783239 0 -0.27908455380714259 -0.26037661518115468 0 -0.2743213077157316 -0.25481084677783239 0 -0.27908455380714259 -0.26037661518115468 0 -0.2743213077157316 -0.25481084677783239 0 -0.30116663146637529 -0.25516913772278899 0 -0.2743213077157316 -0.25481084677783239 0 -0.30116663146637529 -0.25516913772278899 0 -0.27908455380714259 -0.26037661518115468 0 -0.28818733695462367 -0.26501622506597122 0 -0.30116663146637529 -0.25516913772278899 0 -0.2743213077157316 -0.25481084677783239 0 -0.30116663146637529 -0.25516913772278899 0 -0.29399882208179162 -0.24933841023943501 0 -0.28818733695462367 -0.26501622506597122 0 -0.29283352325756229 -0.27054876758486279 0 -0.30116663146637529 -0.25516913772278899 0 -0.27966463928741458 -0.27397037977507832 0 -0.27908455380714259 -0.26037661518115468 0 -0.28818733695462367 -0.26501622506597122 0 -0.27966463928741458 -0.27397037977507832 0 -0.28818733695462367 -0.26501622506597122 0 -0.29283352325756229 -0.27054876758486279 0 -0.28440513668567757 -0.2868786215481241 0 -0.27966463928741458 -0.27397037977507832 0 -0.29508426976599339 -0.28095675134303227 0 -0.27966463928741458 -0.27397037977507832 0 -0.29508426976599339 -0.28095675134303227 0 -0.29283352325756229 -0.27054876758486279 0 -0.29283352325756229 -0.27054876758486279 0 -0.30637838637130771 -0.27166390062685752 0 -0.30116663146637529 -0.25516913772278899 0 -0.29508426976599339 -0.28095675134303227 0 -0.29283352325756229 -0.27054876758486279 0 -0.30637838637130771 -0.27166390062685752 0 -0.309839761830833 -0.28516012695413617 0 -0.29508426976599339 -0.28095675134303227 0 -0.30637838637130771 -0.27166390062685752 0 -0.31466199868990208 -0.26374572750250153 0 -0.30637838637130771 -0.27166390062685752 0 -0.30116663146637529 -0.25516913772278899 0 -0.33318996526905392 -0.45398993198087711 0 -0.32923039107102958 -0.47274934354860382 0 -0.35116745905401442 -0.46077968985392392 0 -0.33318996526905392 -0.45398993198087711 0 -0.31905374813856369 -0.44611098576798652 0 -0.33220644418542639 -0.43500348626445179 0 -0.33318996526905392 -0.45398993198087711 0 -0.34745313357060892 -0.4406210467287896 0 -0.33220644418542639 -0.43500348626445179 0 -0.31905374813856369 -0.44611098576798652 0 -0.31554668692835391 -0.42994598448692922 0 -0.30547210051016432 -0.43959780128239989 0 -0.33318996526905392 -0.45398993198087711 0 -0.31645055294319901 -0.46296804584764151 0 -0.32923039107102958 -0.47274934354860382 0 -0.31905374813856369 -0.44611098576798652 0 -0.31645055294319901 -0.46296804584764151 0 -0.3053393121022393 -0.45274615330596801 0 -0.33318996526905392 -0.45398993198087711 0 -0.31905374813856369 -0.44611098576798652 0 -0.31645055294319901 -0.46296804584764151 0 -0.31645055294319901 -0.46296804584764151 0 -0.32923039107102958 -0.47274934354860382 0 -0.31245715245868361 -0.47754277749111612 0 -0.32002080728983973 -0.5 0 -0.32923039107102958 -0.47274934354860382 0 -0.31245715245868361 -0.47754277749111612 0 -0.32002080728983973 -0.5 0 -0.34737772633542652 -0.4803425814477425 0 -0.34813200403806588 -0.5 0 -0.32923039107102958 -0.47274934354860382 0 -0.34737772633542652 -0.4803425814477425 0 -0.35116745905401442 -0.46077968985392392 0 -0.32002080728983973 -0.5 0 -0.32923039107102958 -0.47274934354860382 0 -0.34737772633542652 -0.4803425814477425 0 -0.34737772633542652 -0.4803425814477425 0 -0.37439343393724039 -0.47053905227506532 0 -0.35116745905401442 -0.46077968985392392 0 -0.37624320078629198 -0.49999999999999928 0 -0.34737772633542652 -0.4803425814477425 0 -0.34813200403806588 -0.5 0 -0.37624320078629198 -0.49999999999999928 0 -0.34737772633542652 -0.4803425814477425 0 -0.37439343393724039 -0.47053905227506532 0 -0.37439343393724039 -0.47053905227506532 0 -0.35116745905401442 -0.46077968985392392 0 -0.37254366708818859 -0.44107810455013119 0 -0.37439343393724039 -0.47053905227506532 0 -0.37254366708818859 -0.44107810455013119 0 -0.33318996526905392 -0.45398993198087711 0 -0.35116745905401442 -0.46077968985392392 0 -0.34745313357060892 -0.4406210467287896 0 -0.35116745905401442 -0.46077968985392392 0 -0.34745313357060892 -0.4406210467287896 0 -0.37254366708818859 -0.44107810455013119 0 -0.37254366708818859 -0.44107810455013119 0 -0.37069390023913701 -0.41161715682519712 0 -0.34785742285402249 -0.41938768269742599 0 -0.37254366708818859 -0.44107810455013119 0 -0.37069390023913701 -0.41161715682519712 0 -0.37069390023913701 -0.41161715682519712 0 -0.34785742285402249 -0.41938768269742599 0 -0.34839529433353078 -0.39910155027080618 0 -0.34745313357060892 -0.4406210467287896 0 -0.37254366708818859 -0.44107810455013119 0 -0.34785742285402249 -0.41938768269742599 0 -0.36646100682439292 -0.38067097612000123 0 -0.36021178090371342 -0.38855951402195049 0 -0.35772216611639451 -0.376843847997265 0 -0.36646100682439292 -0.38067097612000123 0 -0.36884413339008543 -0.38215620910026299 0 -0.36646100682439292 -0.38067097612000123 0 -0.36884413339008543 -0.38215620910026299 0 -0.36021178090371342 -0.38855951402195049 0 -0.37069390023913701 -0.41161715682519712 0 -0.36021178090371342 -0.38855951402195049 0 -0.34839529433353078 -0.39910155027080618 0 -0.37069390023913701 -0.41161715682519712 0 -0.36884413339008543 -0.38215620910026299 0 -0.37069390023913701 -0.41161715682519712 0 -0.36884413339008543 -0.38215620910026299 0 -0.36021178090371342 -0.38855951402195049 0 -0.36021178090371342 -0.38855951402195049 0 -0.34839529433353078 -0.39910155027080618 0 -0.34915418451874031 -0.38096734381817088 0 -0.36021178090371342 -0.38855951402195049 0 -0.34915418451874031 -0.38096734381817088 0 -0.35772216611639451 -0.376843847997265 0 -0.35692115638830579 -0.36733739597755038 0 -0.34915418451874031 -0.38096734381817088 0 -0.35772216611639451 -0.376843847997265 0 -0.34839529433353078 -0.39910155027080618 0 -0.34915418451874031 -0.38096734381817088 0 -0.32844937108413708 -0.38271277456020131 0 -0.34097652673902218 -0.36352139137780642 0 -0.34915418451874031 -0.38096734381817088 0 -0.32844937108413708 -0.38271277456020131 0 -0.34839529433353078 -0.39910155027080618 0 -0.32844937108413708 -0.38271277456020131 0 -0.3316812651901313 -0.40705078245521881 0 -0.32844937108413708 -0.38271277456020131 0 -0.31520133905871528 -0.40278962729577972 0 -0.32844937108413708 -0.38271277456020131 0 -0.31520133905871528 -0.40278962729577972 0 -0.3316812651901313 -0.40705078245521881 0 -0.32844937108413708 -0.38271277456020131 0 -0.31520133905871528 -0.40278962729577972 0 -0.31577654677481681 -0.38673243180589928 0 -0.31484596205372128 -0.3725521697683718 0 -0.32844937108413708 -0.38271277456020131 0 -0.31577654677481681 -0.38673243180589928 0 -0.34745313357060892 -0.4406210467287896 0 -0.34785742285402249 -0.41938768269742599 0 -0.33220644418542639 -0.43500348626445179 0 -0.34785742285402249 -0.41938768269742599 0 -0.33220644418542639 -0.43500348626445179 0 -0.32778869748425071 -0.42116483041773262 0 -0.34785742285402249 -0.41938768269742599 0 -0.3316812651901313 -0.40705078245521881 0 -0.32778869748425071 -0.42116483041773262 0 -0.34785742285402249 -0.41938768269742599 0 -0.34839529433353078 -0.39910155027080618 0 -0.3316812651901313 -0.40705078245521881 0 -0.3316812651901313 -0.40705078245521881 0 -0.32778869748425071 -0.42116483041773262 0 -0.31843425913894902 -0.4167635409374037 0 -0.31520133905871528 -0.40278962729577972 0 -0.3316812651901313 -0.40705078245521881 0 -0.31843425913894902 -0.4167635409374037 0 -0.31905374813856369 -0.44611098576798652 0 -0.33220644418542639 -0.43500348626445179 0 -0.31554668692835391 -0.42994598448692922 0 -0.33220644418542639 -0.43500348626445179 0 -0.32778869748425071 -0.42116483041773262 0 -0.31554668692835391 -0.42994598448692922 0 -0.32778869748425071 -0.42116483041773262 0 -0.31843425913894902 -0.4167635409374037 0 -0.31554668692835391 -0.42994598448692922 0 -0.30195330703329348 -0.42286648003135818 0 -0.28870527500786919 -0.44294333276693493 0 -0.30547210051016432 -0.43959780128239989 0 -0.31554668692835391 -0.42994598448692922 0 -0.30195330703329348 -0.42286648003135818 0 -0.30547210051016432 -0.43959780128239989 0 -0.31843425913894902 -0.4167635409374037 0 -0.31554668692835391 -0.42994598448692922 0 -0.30195330703329348 -0.42286648003135818 0 -0.31520133905871528 -0.40278962729577972 0 -0.30195330703329348 -0.42286648003135818 0 -0.30285079742046561 -0.41211727155332861 0 -0.31520133905871528 -0.40278962729577972 0 -0.31843425913894902 -0.4167635409374037 0 -0.30195330703329348 -0.42286648003135818 0 -0.31520133905871528 -0.40278962729577972 0 -0.30195330703329348 -0.42286648003135818 0 -0.30195330703329348 -0.42286648003135818 0 -0.29661145925683352 -0.41976495152264798 0 -0.29230419567530952 -0.4220964226573245 0 -0.30285079742046561 -0.41211727155332861 0 -0.29661145925683352 -0.41976495152264798 0 -0.29223942778441359 -0.41797117189552191 0 -0.30195330703329348 -0.42286648003135818 0 -0.30285079742046561 -0.41211727155332861 0 -0.29661145925683352 -0.41976495152264798 0 -0.29661145925683352 -0.41976495152264798 0 -0.29223942778441359 -0.41797117189552191 0 -0.29230419567530952 -0.4220964226573245 0 -0.30285079742046561 -0.41211727155332861 0 -0.29223942778441359 -0.41797117189552191 0 -0.28545305241377311 -0.41453834359239622 0 -0.30285079742046561 -0.41211727155332861 0 -0.27473975992792499 -0.41068796575605088 0 -0.30285079742046561 -0.41211727155332861 0 -0.28545305241377311 -0.41453834359239622 0 -0.27473975992792499 -0.41068796575605088 0 -0.29223942778441359 -0.41797117189552191 0 -0.28514132017468352 -0.4208026719845685 0 -0.29230419567530952 -0.4220964226573245 0 -0.28514132017468352 -0.4208026719845685 0 -0.28790283616531792 -0.42800444151783812 0 -0.27726612351944763 -0.41652296606796502 0 -0.28249870726352422 -0.4171306403259295 0 -0.28514132017468352 -0.4208026719845685 0 -0.27726612351944763 -0.41652296606796502 0 -0.29223942778441359 -0.41797117189552191 0 -0.28545305241377311 -0.41453834359239622 0 -0.28514132017468352 -0.4208026719845685 0 -0.28545305241377311 -0.41453834359239622 0 -0.28249870726352422 -0.4171306403259295 0 -0.28514132017468352 -0.4208026719845685 0 -0.28545305241377311 -0.41453834359239622 0 -0.28249870726352422 -0.4171306403259295 0 -0.27930182402410692 -0.4157636502854416 0 -0.30195330703329348 -0.42286648003135818 0 -0.28870527500786919 -0.44294333276693493 0 -0.28790283616531792 -0.42800444151783812 0 -0.27726612351944763 -0.41652296606796502 0 -0.28870527500786919 -0.44294333276693493 0 -0.30195330703329348 -0.42286648003135818 0 -0.28790283616531792 -0.42800444151783812 0 -0.28870527500786919 -0.44294333276693493 0 -0.27726612351944763 -0.41652296606796502 0 -0.28870527500786919 -0.44294333276693493 0 -0.28514132017468352 -0.4208026719845685 0 -0.28790283616531792 -0.42800444151783812 0 -0.29230419567530952 -0.4220964226573245 0 -0.30195330703329348 -0.42286648003135818 0 -0.28790283616531792 -0.42800444151783812 0 -0.29230419567530952 -0.4220964226573245 0 -0.31484596205372128 -0.3725521697683718 0 -0.28871539736842028 -0.38158294815893717 0 -0.31484596205372128 -0.3725521697683718 0 -0.31577654677481681 -0.38673243180589928 0 -0.30460951490269328 -0.38887515559924463 0 -0.31484596205372128 -0.3725521697683718 0 -0.30460951490269328 -0.38887515559924463 0 -0.28871539736842028 -0.38158294815893717 0 -0.31520133905871528 -0.40278962729577972 0 -0.31577654677481681 -0.38673243180589928 0 -0.30460951490269328 -0.38887515559924463 0 -0.30460951490269328 -0.38887515559924463 0 -0.3027967232316543 -0.3998799549405051 0 -0.28852524154474313 -0.39573776531366728 0 -0.30285079742046561 -0.41211727155332861 0 -0.3027967232316543 -0.3998799549405051 0 -0.28852524154474313 -0.39573776531366728 0 -0.31520133905871528 -0.40278962729577972 0 -0.30460951490269328 -0.38887515559924463 0 -0.3027967232316543 -0.3998799549405051 0 -0.31520133905871528 -0.40278962729577972 0 -0.30285079742046561 -0.41211727155332861 0 -0.3027967232316543 -0.3998799549405051 0 -0.30285079742046561 -0.41211727155332861 0 -0.28852524154474313 -0.39573776531366728 0 -0.27473975992792499 -0.41068796575605088 0 -0.30460951490269328 -0.38887515559924463 0 -0.28852524154474313 -0.39573776531366728 0 -0.28871539736842028 -0.38158294815893717 0 -0.28001194112433953 -0.36575227736040772 0 -0.28871539736842028 -0.38158294815893717 0 -0.27662854772723833 -0.3831203377712375 0 -0.28852524154474313 -0.39573776531366728 0 -0.28871539736842028 -0.38158294815893717 0 -0.27662854772723833 -0.3831203377712375 0 -0.25849156154559488 -0.37316041313177473 0 -0.27662854772723833 -0.3831203377712375 0 -0.27028305911391609 -0.40039457381234672 0 -0.28852524154474313 -0.39573776531366728 0 -0.27028305911391609 -0.40039457381234672 0 -0.28852524154474313 -0.39573776531366728 0 -0.27662854772723833 -0.3831203377712375 0 -0.27028305911391609 -0.40039457381234672 0 -0.28852524154474313 -0.39573776531366728 0 -0.27028305911391609 -0.40039457381234672 0 -0.27473975992792499 -0.41068796575605088 0 -0.27028305911391609 -0.40039457381234672 0 -0.27473975992792499 -0.41068796575605088 0 -0.27028305911391609 -0.40039457381234672 0 -0.25384060666587133 -0.40459195274929022 0 -0.27028305911391609 -0.40039457381234672 0 -0.25384060666587133 -0.40459195274929022 0 -0.25398560087977362 -0.39197285171146029 0 -0.27028305911391609 -0.40039457381234672 0 -0.25384060666587133 -0.40459195274929022 0 -0.25606895707287619 -0.40973864872114452 0 -0.25384060666587133 -0.40459195274929022 0 -0.25398560087977362 -0.39197285171146029 0 -0.244462850353515 -0.39679041020790268 0 -0.25849156154559488 -0.37316041313177473 0 -0.25398560087977362 -0.39197285171146029 0 -0.24284992671997099 -0.38492690865598722 0 -0.25849156154559488 -0.37316041313177473 0 -0.27028305911391609 -0.40039457381234672 0 -0.25398560087977362 -0.39197285171146029 0 -0.25849156154559488 -0.37316041313177473 0 -0.27028305911391609 -0.40039457381234672 0 -0.26959932292129801 -0.4275922230626758 0 -0.27712591423317129 -0.43668996750936978 0 -0.27726612351944763 -0.41652296606796502 0 -0.27712591423317129 -0.43668996750936978 0 -0.27726612351944763 -0.41652296606796502 0 -0.28870527500786919 -0.44294333276693493 0 -0.26959932292129801 -0.4275922230626758 0 -0.27726612351944763 -0.41652296606796502 0 -0.25856356312743201 -0.42349901644801491 0 -0.26959932292129801 -0.4275922230626758 0 -0.27712591423317129 -0.43668996750936978 0 -0.27046446101132238 -0.43794278821850191 0 -0.26959932292129801 -0.4275922230626758 0 -0.25944037765382738 -0.43626498554230331 0 -0.27046446101132238 -0.43794278821850191 0 -0.27726612351944763 -0.41652296606796502 0 -0.25856356312743201 -0.42349901644801491 0 -0.27028305911391609 -0.40039457381234672 0 -0.27473975992792499 -0.41068796575605088 0 -0.25606895707287619 -0.40973864872114452 0 -0.27726612351944763 -0.41652296606796502 0 -0.26554361715535563 -0.41517602178726259 0 -0.25856356312743201 -0.42349901644801491 0 -0.28249870726352422 -0.4171306403259295 0 -0.27930182402410692 -0.4157636502854416 0 -0.27726612351944763 -0.41652296606796502 0 -0.27930182402410692 -0.4157636502854416 0 -0.27726612351944763 -0.41652296606796502 0 -0.27930182402410692 -0.4157636502854416 0 -0.27726612351944763 -0.41652296606796502 0 -0.27473975992792499 -0.41068796575605088 0 -0.28545305241377311 -0.41453834359239622 0 -0.27930182402410692 -0.4157636502854416 0 -0.27473975992792499 -0.41068796575605088 0 -0.27726612351944763 -0.41652296606796502 0 -0.27473975992792499 -0.41068796575605088 0 -0.27726612351944763 -0.41652296606796502 0 -0.27473975992792499 -0.41068796575605088 0 -0.26554361715535563 -0.41517602178726259 0 -0.26554361715535563 -0.41517602178726259 0 -0.25606895707287619 -0.40973864872114452 0 -0.25856356312743201 -0.42349901644801491 0 -0.27473975992792499 -0.41068796575605088 0 -0.25606895707287619 -0.40973864872114452 0 -0.27473975992792499 -0.41068796575605088 0 -0.26554361715535563 -0.41517602178726259 0 -0.25606895707287619 -0.40973864872114452 0 -0.25606895707287619 -0.40973864872114452 0 -0.25856356312743201 -0.42349901644801491 0 -0.24401629042693121 -0.41672841644759251 0 -0.25856356312743201 -0.42349901644801491 0 -0.25944037765382738 -0.43626498554230331 0 -0.23986100273541561 -0.43047506682806258 0 -0.26959932292129801 -0.4275922230626758 0 -0.25856356312743201 -0.42349901644801491 0 -0.25944037765382738 -0.43626498554230331 0 -0.27417893817756323 -0.4544968981697749 0 -0.26869526391291881 -0.44306706383824479 0 -0.24718100836145099 -0.44260169695828211 0 -0.25944037765382738 -0.43626498554230331 0 -0.26869526391291881 -0.44306706383824479 0 -0.24718100836145099 -0.44260169695828211 0 -0.27417893817756323 -0.4544968981697749 0 -0.24718100836145099 -0.44260169695828211 0 -0.26133992455481558 -0.4660579548484457 0 -0.24718100836145099 -0.44260169695828211 0 -0.24241948918241379 -0.45955916871625457 0 -0.26133992455481558 -0.4660579548484457 0 -0.27417893817756323 -0.4544968981697749 0 -0.24718100836145099 -0.44260169695828211 0 -0.26133992455481558 -0.4660579548484457 0 -0.24718100836145099 -0.44260169695828211 0 -0.27417893817756323 -0.4544968981697749 0 -0.28306258603642181 -0.47222693115145098 0 -0.27352007237924519 -0.47057399922707022 0 -0.26133992455481558 -0.4660579548484457 0 -0.27417893817756323 -0.4544968981697749 0 -0.27352007237924519 -0.47057399922707022 0 -0.27712591423317129 -0.43668996750936978 0 -0.27046446101132238 -0.43794278821850191 0 -0.26869526391291881 -0.44306706383824479 0 -0.25944037765382738 -0.43626498554230331 0 -0.27046446101132238 -0.43794278821850191 0 -0.26869526391291881 -0.44306706383824479 0 -0.27417893817756323 -0.4544968981697749 0 -0.26869526391291881 -0.44306706383824479 0 -0.28378088404017732 -0.45040604663123729 0 -0.27712591423317129 -0.43668996750936978 0 -0.26869526391291881 -0.44306706383824479 0 -0.28378088404017732 -0.45040604663123729 0 -0.27712591423317129 -0.43668996750936978 0 -0.28870527500786919 -0.44294333276693493 0 -0.28378088404017732 -0.45040604663123729 0 -0.27417893817756323 -0.4544968981697749 0 -0.28378088404017732 -0.45040604663123729 0 -0.29333516118273179 -0.45363672122658039 0 -0.28870527500786919 -0.44294333276693493 0 -0.29333516118273179 -0.45363672122658039 0 -0.28870527500786919 -0.44294333276693493 0 -0.29333516118273179 -0.45363672122658039 0 -0.29821296220075122 -0.44723100214547079 0 -0.28870527500786919 -0.44294333276693493 0 -0.28378088404017732 -0.45040604663123729 0 -0.29333516118273179 -0.45363672122658039 0 -0.28870527500786919 -0.44294333276693493 0 -0.28378088404017732 -0.45040604663123729 0 -0.27417893817756323 -0.4544968981697749 0 -0.30117686799367549 -0.4663920993812678 0 -0.27417893817756323 -0.4544968981697749 0 -0.30117686799367549 -0.4663920993812678 0 -0.28306258603642181 -0.47222693115145098 0 -0.27417893817756323 -0.4544968981697749 0 -0.29333516118273179 -0.45363672122658039 0 -0.30117686799367549 -0.4663920993812678 0 -0.29333516118273179 -0.45363672122658039 0 -0.30117686799367549 -0.4663920993812678 0 -0.3053393121022393 -0.45274615330596801 0 -0.31645055294319901 -0.46296804584764151 0 -0.30117686799367549 -0.4663920993812678 0 -0.3053393121022393 -0.45274615330596801 0 -0.28870527500786919 -0.44294333276693493 0 -0.30547210051016432 -0.43959780128239989 0 -0.29821296220075122 -0.44723100214547079 0 -0.31905374813856369 -0.44611098576798652 0 -0.3053393121022393 -0.45274615330596801 0 -0.30547210051016432 -0.43959780128239989 0 -0.29333516118273179 -0.45363672122658039 0 -0.3053393121022393 -0.45274615330596801 0 -0.29821296220075122 -0.44723100214547079 0 -0.3053393121022393 -0.45274615330596801 0 -0.30547210051016432 -0.43959780128239989 0 -0.29821296220075122 -0.44723100214547079 0 -0.32002080728983973 -0.5 0 -0.2967550508340776 -0.48314645305476728 0 -0.29190961054161368 -0.5 0 -0.32002080728983973 -0.5 0 -0.31245715245868361 -0.47754277749111612 0 -0.2967550508340776 -0.48314645305476728 0 -0.30117686799367549 -0.4663920993812678 0 -0.31245715245868361 -0.47754277749111612 0 -0.2967550508340776 -0.48314645305476728 0 -0.31645055294319901 -0.46296804584764151 0 -0.30117686799367549 -0.4663920993812678 0 -0.31245715245868361 -0.47754277749111612 0 -0.30117686799367549 -0.4663920993812678 0 -0.2967550508340776 -0.48314645305476728 0 -0.28306258603642181 -0.47222693115145098 0 -0.28306258603642181 -0.47222693115145098 0 -0.28680652204007329 -0.4862218992362069 0 -0.27549884074818032 -0.48951421273860918 0 -0.2967550508340776 -0.48314645305476728 0 -0.28306258603642181 -0.47222693115145098 0 -0.28680652204007329 -0.4862218992362069 0 -0.28680652204007329 -0.4862218992362069 0 -0.29190961054161368 -0.5 0 -0.27549884074818032 -0.48951421273860918 0 -0.2967550508340776 -0.48314645305476728 0 -0.28680652204007329 -0.4862218992362069 0 -0.29190961054161368 -0.5 0 -0.27549884074818032 -0.48951421273860918 0 -0.25934716291449639 -0.48326235368898479 0 -0.26379841379338759 -0.5 0 -0.29190961054161368 -0.5 0 -0.27549884074818032 -0.48951421273860918 0 -0.26379841379338759 -0.5 0 -0.28306258603642181 -0.47222693115145098 0 -0.27549884074818032 -0.48951421273860918 0 -0.27352007237924519 -0.47057399922707022 0 -0.26133992455481558 -0.4660579548484457 0 -0.27549884074818032 -0.48951421273860918 0 -0.26133992455481558 -0.4660579548484457 0 -0.27549884074818032 -0.48951421273860918 0 -0.27352007237924519 -0.47057399922707022 0 -0.26133992455481558 -0.4660579548484457 0 -0.27549884074818032 -0.48951421273860918 0 -0.25934716291449639 -0.48326235368898479 0 -0.26133992455481558 -0.4660579548484457 0 -0.25934716291449639 -0.48326235368898479 0 -0.24105539127789621 -0.47729973537554532 0 -0.25934716291449639 -0.48326235368898479 0 -0.26379841379338759 -0.5 0 -0.23568721704516149 -0.5 0 -0.25934716291449639 -0.48326235368898479 0 -0.23568721704516149 -0.5 0 -0.24105539127789621 -0.47729973537554532 0 -0.24105539127789621 -0.47729973537554532 0 -0.2202779116146068 -0.47969825940819982 0 -0.2286825255923445 -0.46267748534164832 0 -0.23568721704516149 -0.5 0 -0.24105539127789621 -0.47729973537554532 0 -0.2202779116146068 -0.47969825940819982 0 -0.23568721704516149 -0.5 0 -0.2202779116146068 -0.47969825940819982 0 -0.20757602029693539 -0.5 0 -0.24718100836145099 -0.44260169695828211 0 -0.228920126397859 -0.43455601098399721 0 -0.24718100836145099 -0.44260169695828211 0 -0.24241948918241379 -0.45955916871625457 0 -0.23383859612556149 -0.44915897105735147 0 -0.24718100836145099 -0.44260169695828211 0 -0.23383859612556149 -0.44915897105735147 0 -0.228920126397859 -0.43455601098399721 0 -0.26133992455481558 -0.4660579548484457 0 -0.24105539127789621 -0.47729973537554532 0 -0.24241948918241379 -0.45955916871625457 0 -0.24105539127789621 -0.47729973537554532 0 -0.24241948918241379 -0.45955916871625457 0 -0.2286825255923445 -0.46267748534164832 0 -0.24241948918241379 -0.45955916871625457 0 -0.2286825255923445 -0.46267748534164832 0 -0.23383859612556149 -0.44915897105735147 0 -0.2202779116146068 -0.47969825940819982 0 -0.2286825255923445 -0.46267748534164832 0 -0.2107147051316659 -0.46106018644523927 0 -0.2286825255923445 -0.46267748534164832 0 -0.22134135476869959 -0.44992143286351038 0 -0.2107147051316659 -0.46106018644523927 0 -0.2286825255923445 -0.46267748534164832 0 -0.23383859612556149 -0.44915897105735147 0 -0.22134135476869959 -0.44992143286351038 0 -0.23383859612556149 -0.44915897105735147 0 -0.22134135476869959 -0.44992143286351038 0 -0.228920126397859 -0.43455601098399721 0 -0.22134135476869959 -0.44992143286351038 0 -0.20508807725346881 -0.443445359394397 0 -0.2107147051316659 -0.46106018644523927 0 -0.20508807725346881 -0.443445359394397 0 -0.228920126397859 -0.43455601098399721 0 -0.22134135476869959 -0.44992143286351038 0 -0.20508807725346881 -0.443445359394397 0 -0.228920126397859 -0.43455601098399721 0 -0.2107147051316659 -0.46106018644523927 0 -0.19204171313523391 -0.45593388897326442 0 -0.19848886700103921 -0.47844299819184838 0 -0.20508807725346881 -0.443445359394397 0 -0.2107147051316659 -0.46106018644523927 0 -0.19204171313523391 -0.45593388897326442 0 -0.19204171313523391 -0.45593388897326442 0 -0.19848886700103921 -0.47844299819184838 0 -0.18069282394912431 -0.47181507666421968 0 -0.20508807725346881 -0.443445359394397 0 -0.19059625528559221 -0.43978218243946698 0 -0.20967391335129659 -0.43059286617048792 0 -0.20508807725346881 -0.443445359394397 0 -0.19204171313523391 -0.45593388897326442 0 -0.19059625528559221 -0.43978218243946698 0 -0.2202779116146068 -0.47969825940819982 0 -0.20757602029693539 -0.5 0 -0.19848886700103921 -0.47844299819184838 0 -0.2202779116146068 -0.47969825940819982 0 -0.2107147051316659 -0.46106018644523927 0 -0.19848886700103921 -0.47844299819184838 0 -0.20757602029693539 -0.5 0 -0.19848886700103921 -0.47844299819184838 0 -0.1794648235487093 -0.5 0 -0.1794648235487093 -0.5 0 -0.16103669861803119 -0.47475016691492639 0 -0.15135362680048331 -0.5 0 -0.1794648235487093 -0.5 0 -0.16103669861803119 -0.47475016691492639 0 -0.18069282394912431 -0.47181507666421968 0 -0.19848886700103921 -0.47844299819184838 0 -0.1794648235487093 -0.5 0 -0.18069282394912431 -0.47181507666421968 0 -0.16103669861803119 -0.47475016691492639 0 -0.18069282394912431 -0.47181507666421968 0 -0.17467118275062099 -0.45440597799692761 0 -0.19204171313523391 -0.45593388897326442 0 -0.18069282394912431 -0.47181507666421968 0 -0.17467118275062099 -0.45440597799692761 0 -0.19059625528559221 -0.43978218243946698 0 -0.17467118275062099 -0.45440597799692761 0 -0.17128691734257681 -0.43363425119085292 0 -0.19204171313523391 -0.45593388897326442 0 -0.19059625528559221 -0.43978218243946698 0 -0.17467118275062099 -0.45440597799692761 0 -0.17467118275062099 -0.45440597799692761 0 -0.15466833997088589 -0.44958882726870858 0 -0.17128691734257681 -0.43363425119085292 0 -0.15466833997088589 -0.44958882726870858 0 -0.1515597711241867 -0.43001726301560739 0 -0.17128691734257681 -0.43363425119085292 0 -0.16103669861803119 -0.47475016691492639 0 -0.17467118275062099 -0.45440597799692761 0 -0.15466833997088589 -0.44958882726870858 0 -0.16103669861803119 -0.47475016691492639 0 -0.14241653025300011 -0.46516452905786282 0 -0.15466833997088589 -0.44958882726870858 0 -0.15466833997088589 -0.44958882726870858 0 -0.13899149449160539 -0.44429727101136379 0 -0.1515597711241867 -0.43001726301560739 0 -0.14241653025300011 -0.46516452905786282 0 -0.15466833997088589 -0.44958882726870858 0 -0.13899149449160539 -0.44429727101136379 0 -0.13899149449160539 -0.44429727101136379 0 -0.12730886471849501 -0.42894014723380652 0 -0.1230696054043576 -0.45253924385944672 0 -0.14241653025300011 -0.46516452905786282 0 -0.1230696054043576 -0.45253924385944672 0 -0.14241653025300011 -0.46516452905786282 0 -0.12465513040357 -0.47508540333902072 0 -0.1230696054043576 -0.45253924385944672 0 -0.14241653025300011 -0.46516452905786282 0 -0.13899149449160539 -0.44429727101136379 0 -0.1230696054043576 -0.45253924385944672 0 -0.14241653025300011 -0.46516452905786282 0 -0.14165950396844801 -0.48305870968480291 0 -0.12465513040357 -0.47508540333902072 0 -0.14165950396844801 -0.48305870968480291 0 -0.12465513040357 -0.47508540333902072 0 -0.1232424300522571 -0.50000000000000022 0 -0.15135362680048331 -0.5 0 -0.14165950396844801 -0.48305870968480291 0 -0.1232424300522571 -0.50000000000000022 0 -0.16103669861803119 -0.47475016691492639 0 -0.15135362680048331 -0.5 0 -0.14165950396844801 -0.48305870968480291 0 -0.16103669861803119 -0.47475016691492639 0 -0.14241653025300011 -0.46516452905786282 0 -0.14165950396844801 -0.48305870968480291 0 -0.14424697531025951 -0.39444406831429601 0 -0.14181395949014891 -0.41357484168593539 0 -0.16299618789390641 -0.41011909280015119 0 -0.14424697531025951 -0.39444406831429601 0 -0.164204048511322 -0.38349586659818968 0 -0.14424697531025951 -0.39444406831429601 0 -0.164204048511322 -0.38349586659818968 0 -0.1462847121623409 -0.36610047748339269 0 -0.14424697531025951 -0.39444406831429601 0 -0.1462847121623409 -0.36610047748339269 0 -0.123125967385699 -0.38326329564409112 0 -0.14424697531025951 -0.39444406831429601 0 -0.1242899021091972 -0.40539227003040212 0 -0.14424697531025951 -0.39444406831429601 0 -0.1242899021091972 -0.40539227003040212 0 -0.123125967385699 -0.38326329564409112 0 -0.14424697531025951 -0.39444406831429601 0 -0.14181395949014891 -0.41357484168593539 0 -0.1242899021091972 -0.40539227003040212 0 -0.12730886471849501 -0.42894014723380652 0 -0.14181395949014891 -0.41357484168593539 0 -0.1242899021091972 -0.40539227003040212 0 -0.12730886471849501 -0.42894014723380652 0 -0.1515597711241867 -0.43001726301560739 0 -0.14181395949014891 -0.41357484168593539 0 -0.13899149449160539 -0.44429727101136379 0 -0.12730886471849501 -0.42894014723380652 0 -0.1515597711241867 -0.43001726301560739 0 -0.1515597711241867 -0.43001726301560739 0 -0.14181395949014891 -0.41357484168593539 0 -0.16299618789390641 -0.41011909280015119 0 -0.1515597711241867 -0.43001726301560739 0 -0.16299618789390641 -0.41011909280015119 0 -0.17128691734257681 -0.43363425119085292 0 -0.19059625528559221 -0.43978218243946698 0 -0.17128691734257681 -0.43363425119085292 0 -0.19081572788035631 -0.42068075091087281 0 -0.16299618789390641 -0.41011909280015119 0 -0.17128691734257681 -0.43363425119085292 0 -0.19081572788035631 -0.42068075091087281 0 -0.16299618789390641 -0.41011909280015119 0 -0.17542943725061319 -0.39573726166530238 0 -0.19081572788035631 -0.42068075091087281 0 -0.17542943725061319 -0.39573726166530238 0 -0.19260045832561051 -0.3954502408211743 0 -0.19081572788035631 -0.42068075091087281 0 -0.16299618789390641 -0.41011909280015119 0 -0.17542943725061319 -0.39573726166530238 0 -0.164204048511322 -0.38349586659818968 0 -0.14424697531025951 -0.39444406831429601 0 -0.16299618789390641 -0.41011909280015119 0 -0.164204048511322 -0.38349586659818968 0 -0.17542943725061319 -0.39573726166530238 0 -0.164204048511322 -0.38349586659818968 0 -0.18016902843490201 -0.37059476799837471 0 -0.17542943725061319 -0.39573726166530238 0 -0.19205252884005911 -0.37937552110930589 0 -0.19260045832561051 -0.3954502408211743 0 -0.17542943725061319 -0.39573726166530238 0 -0.19205252884005911 -0.37937552110930589 0 -0.18016902843490201 -0.37059476799837471 0 -0.19205252884005911 -0.37937552110930589 0 -0.20228707778116939 -0.38877704895480808 0 -0.20334545334022361 -0.36998186721324711 0 -0.19205252884005911 -0.37937552110930589 0 -0.20228707778116939 -0.38877704895480808 0 -0.19260045832561051 -0.3954502408211743 0 -0.20228707778116939 -0.38877704895480808 0 -0.19260045832561051 -0.3954502408211743 0 -0.20486655660007921 -0.40387347306813742 0 -0.2185703917998757 -0.39520414256217551 0 -0.21766911789727261 -0.41382569969519789 0 -0.20486655660007921 -0.40387347306813742 0 -0.2185703917998757 -0.39520414256217551 0 -0.21766911789727261 -0.41382569969519789 0 -0.20228707778116939 -0.38877704895480808 0 -0.20486655660007921 -0.40387347306813742 0 -0.2185703917998757 -0.39520414256217551 0 -0.2185703917998757 -0.39520414256217551 0 -0.21766911789727261 -0.41382569969519789 0 -0.2198703475051704 -0.40789813029409422 0 -0.2185703917998757 -0.39520414256217551 0 -0.21999345830796271 -0.36580163328297932 0 -0.20334545334022361 -0.36998186721324711 0 -0.2185703917998757 -0.39520414256217551 0 -0.20334545334022361 -0.36998186721324711 0 -0.20228707778116939 -0.38877704895480808 0 -0.2185703917998757 -0.39520414256217551 0 -0.20334545334022361 -0.36998186721324711 0 -0.19059625528559221 -0.43978218243946698 0 -0.19081572788035631 -0.42068075091087281 0 -0.20967391335129659 -0.43059286617048792 0 -0.19260045832561051 -0.3954502408211743 0 -0.20486655660007921 -0.40387347306813742 0 -0.19081572788035631 -0.42068075091087281 0 -0.19081572788035631 -0.42068075091087281 0 -0.21766911789727261 -0.41382569969519789 0 -0.21741043143725369 -0.41917051738143468 0 -0.20486655660007921 -0.40387347306813742 0 -0.19081572788035631 -0.42068075091087281 0 -0.21766911789727261 -0.41382569969519789 0 -0.19081572788035631 -0.42068075091087281 0 -0.21766911789727261 -0.41382569969519789 0 -0.21766911789727261 -0.41382569969519789 0 -0.21741043143725369 -0.41917051738143468 0 -0.19081572788035631 -0.42068075091087281 0 -0.21741043143725369 -0.41917051738143468 0 -0.20967391335129659 -0.43059286617048792 0 -0.20508807725346881 -0.443445359394397 0 -0.20967391335129659 -0.43059286617048792 0 -0.22386479981428881 -0.4323286503192727 0 -0.21741043143725369 -0.41917051738143468 0 -0.20967391335129659 -0.43059286617048792 0 -0.22142244259203631 -0.42521958539908822 0 -0.20967391335129659 -0.43059286617048792 0 -0.22386479981428881 -0.4323286503192727 0 -0.22142244259203631 -0.42521958539908822 0 -0.20508807725346881 -0.443445359394397 0 -0.228920126397859 -0.43455601098399721 0 -0.22386479981428881 -0.4323286503192727 0 -0.228920126397859 -0.43455601098399721 0 -0.22841400947099499 -0.42894333112517841 0 -0.23986100273541561 -0.43047506682806258 0 -0.228920126397859 -0.43455601098399721 0 -0.22386479981428881 -0.4323286503192727 0 -0.22841400947099499 -0.42894333112517841 0 -0.228920126397859 -0.43455601098399721 0 -0.22386479981428881 -0.4323286503192727 0 -0.22386479981428881 -0.4323286503192727 0 -0.22142244259203631 -0.42521958539908822 0 -0.22841400947099499 -0.42894333112517841 0 -0.22142244259203631 -0.42521958539908822 0 -0.22800167581537409 -0.4221373420954706 0 -0.22253868854460809 -0.41829863262513878 0 -0.22142244259203631 -0.42521958539908822 0 -0.22800167581537409 -0.4221373420954706 0 -0.22841400947099499 -0.42894333112517841 0 -0.22800167581537409 -0.4221373420954706 0 -0.22841400947099499 -0.42894333112517841 0 -0.23986100273541561 -0.43047506682806258 0 -0.2281897749811044 -0.41114001855450238 0 -0.23986100273541561 -0.43047506682806258 0 -0.22800167581537409 -0.4221373420954706 0 -0.2281897749811044 -0.41114001855450238 0 -0.23986100273541561 -0.43047506682806258 0 -0.21766911789727261 -0.41382569969519789 0 -0.22253868854460809 -0.41829863262513878 0 -0.2281897749811044 -0.41114001855450238 0 -0.22800167581537409 -0.4221373420954706 0 -0.22253868854460809 -0.41829863262513878 0 -0.2281897749811044 -0.41114001855450238 0 -0.21741043143725369 -0.41917051738143468 0 -0.22142244259203631 -0.42521958539908822 0 -0.22253868854460809 -0.41829863262513878 0 -0.21766911789727261 -0.41382569969519789 0 -0.21741043143725369 -0.41917051738143468 0 -0.22253868854460809 -0.41829863262513878 0 -0.21766911789727261 -0.41382569969519789 0 -0.2198703475051704 -0.40789813029409422 0 -0.2281897749811044 -0.41114001855450238 0 -0.2198703475051704 -0.40789813029409422 0 -0.22643433103677649 -0.40823187605916689 0 -0.2281897749811044 -0.41114001855450238 0 -0.21766911789727261 -0.41382569969519789 0 -0.2281897749811044 -0.41114001855450238 0 -0.2198703475051704 -0.40789813029409422 0 -0.22643433103677649 -0.40823187605916689 0 -0.2281897749811044 -0.41114001855450238 0 -0.23739815421782759 -0.40878933168623799 0 -0.22643433103677649 -0.40823187605916689 0 -0.23739815421782759 -0.40878933168623799 0 -0.22643433103677649 -0.40823187605916689 0 -0.2281897749811044 -0.41114001855450238 0 -0.23739815421782759 -0.40878933168623799 0 -0.22643433103677649 -0.40823187605916689 0 -0.2281897749811044 -0.41114001855450238 0 -0.25606895707287619 -0.40973864872114452 0 -0.23739815421782759 -0.40878933168623799 0 -0.24401629042693121 -0.41672841644759251 0 -0.25384060666587133 -0.40459195274929022 0 -0.23739815421782759 -0.40878933168623799 0 -0.25606895707287619 -0.40973864872114452 0 -0.23739815421782759 -0.40878933168623799 0 -0.2281897749811044 -0.41114001855450238 0 -0.23739815421782759 -0.40878933168623799 0 -0.24401629042693121 -0.41672841644759251 0 -0.25384060666587133 -0.40459195274929022 0 -0.25606895707287619 -0.40973864872114452 0 -0.23739815421782759 -0.40878933168623799 0 -0.2281897749811044 -0.41114001855450238 0 -0.24401629042693121 -0.41672841644759251 0 -0.23986100273541561 -0.43047506682806258 0 -0.25944037765382738 -0.43626498554230331 0 -0.24718100836145099 -0.44260169695828211 0 -0.23986100273541561 -0.43047506682806258 0 -0.24718100836145099 -0.44260169695828211 0 -0.228920126397859 -0.43455601098399721 0 -0.23986100273541561 -0.43047506682806258 0 -0.25856356312743201 -0.42349901644801491 0 -0.23986100273541561 -0.43047506682806258 0 -0.25856356312743201 -0.42349901644801491 0 -0.24401629042693121 -0.41672841644759251 0 -0.23986100273541561 -0.43047506682806258 0 -0.24718100836145099 -0.44260169695828211 0 -0.23986100273541561 -0.43047506682806258 0 -0.228920126397859 -0.43455601098399721 0 -0.23986100273541561 -0.43047506682806258 0 -0.2185703917998757 -0.39520414256217551 0 -0.21999345830796271 -0.36580163328297932 0 -0.2185703917998757 -0.39520414256217551 0 -0.2302832504460553 -0.3821134196865219 0 -0.21999345830796271 -0.36580163328297932 0 -0.2185703917998757 -0.39520414256217551 0 -0.22643433103677649 -0.40823187605916689 0 -0.2185703917998757 -0.39520414256217551 0 -0.2198703475051704 -0.40789813029409422 0 -0.22643433103677649 -0.40823187605916689 0 -0.2185703917998757 -0.39520414256217551 0 -0.22643433103677649 -0.40823187605916689 0 -0.2325099229408486 -0.39683432747020569 0 -0.22643433103677649 -0.40823187605916689 0 -0.23739815421782759 -0.40878933168623799 0 -0.2325099229408486 -0.39683432747020569 0 -0.2185703917998757 -0.39520414256217551 0 -0.2302832504460553 -0.3821134196865219 0 -0.2325099229408486 -0.39683432747020569 0 -0.25384060666587133 -0.40459195274929022 0 -0.23739815421782759 -0.40878933168623799 0 -0.244462850353515 -0.39679041020790268 0 -0.2325099229408486 -0.39683432747020569 0 -0.244462850353515 -0.39679041020790268 0 -0.24284992671997099 -0.38492690865598722 0 -0.23739815421782759 -0.40878933168623799 0 -0.2325099229408486 -0.39683432747020569 0 -0.244462850353515 -0.39679041020790268 0 -0.25398560087977362 -0.39197285171146029 0 -0.244462850353515 -0.39679041020790268 0 -0.24284992671997099 -0.38492690865598722 0 -0.25849156154559488 -0.37316041313177473 0 -0.24284992671997099 -0.38492690865598722 0 -0.23749255246161941 -0.36780008646126128 0 -0.2302832504460553 -0.3821134196865219 0 -0.24284992671997099 -0.38492690865598722 0 -0.23749255246161941 -0.36780008646126128 0 -0.2302832504460553 -0.3821134196865219 0 -0.2325099229408486 -0.39683432747020569 0 -0.24284992671997099 -0.38492690865598722 0 -0.25849156154559488 -0.37316041313177473 0 -0.23749255246161941 -0.36780008646126128 0 -0.24670006397727429 -0.34592625245120229 0 -0.2302832504460553 -0.3821134196865219 0 -0.23749255246161941 -0.36780008646126128 0 -0.21999345830796271 -0.36580163328297932 0 -0.23749255246161941 -0.36780008646126128 0 -0.21999345830796271 -0.36580163328297932 0 -0.23014155905156591 -0.35155710371463877 0 -0.21999345830796271 -0.36580163328297932 0 -0.2214165248160487 -0.33639912400378319 0 -0.23014155905156591 -0.35155710371463877 0 -0.24670006397727429 -0.34592625245120229 0 -0.2214165248160487 -0.33639912400378319 0 -0.21999345830796271 -0.36580163328297932 0 -0.23014155905156591 -0.35155710371463877 0 -0.2214165248160487 -0.33639912400378319 0 -0.23749255246161941 -0.36780008646126128 0 -0.23014155905156591 -0.35155710371463877 0 -0.24670006397727429 -0.34592625245120229 0 -0.24670006397727429 -0.34592625245120229 0 -0.23490856640895369 -0.31869209177063001 0 -0.25064537301554468 -0.32747361772722527 0 -0.24670006397727429 -0.34592625245120229 0 -0.23490856640895369 -0.31869209177063001 0 -0.25064537301554468 -0.32747361772722527 0 -0.23490856640895369 -0.31869209177063001 0 -0.2476878870041368 -0.31310218966409031 0 -0.23490856640895369 -0.31869209177063001 0 -0.2214165248160487 -0.33639912400378319 0 -0.22283959132413461 -0.306996614724587 0 -0.2214165248160487 -0.33639912400378319 0 -0.22283959132413461 -0.306996614724587 0 -0.24670006397727429 -0.34592625245120229 0 -0.23490856640895369 -0.31869209177063001 0 -0.2214165248160487 -0.33639912400378319 0 -0.2214165248160487 -0.33639912400378319 0 -0.1979334948067171 -0.33554655707476488 0 -0.2036675015548374 -0.3528794821820061 0 -0.2214165248160487 -0.33639912400378319 0 -0.2081010620490126 -0.32087677997441549 0 -0.1979334948067171 -0.33554655707476488 0 -0.2214165248160487 -0.33639912400378319 0 -0.2081010620490126 -0.32087677997441549 0 -0.22283959132413461 -0.306996614724587 0 -0.2081010620490126 -0.32087677997441549 0 -0.18894883059232251 -0.32007481457848169 0 -0.1979334948067171 -0.33554655707476488 0 -0.2081010620490126 -0.32087677997441549 0 -0.18894883059232251 -0.32007481457848169 0 -0.20466298634224361 -0.30479378693409048 0 -0.1979334948067171 -0.33554655707476488 0 -0.2036675015548374 -0.3528794821820061 0 -0.18626450954458629 -0.34905422327684238 0 -0.19281814419530799 -0.36257794483594269 0 -0.2036675015548374 -0.3528794821820061 0 -0.18626450954458629 -0.34905422327684238 0 -0.19205252884005911 -0.37937552110930589 0 -0.19281814419530799 -0.36257794483594269 0 -0.20334545334022361 -0.36998186721324711 0 -0.19205252884005911 -0.37937552110930589 0 -0.19281814419530799 -0.36257794483594269 0 -0.18016902843490201 -0.37059476799837471 0 -0.19281814419530799 -0.36257794483594269 0 -0.20334545334022361 -0.36998186721324711 0 -0.2036675015548374 -0.3528794821820061 0 -0.21999345830796271 -0.36580163328297932 0 -0.20334545334022361 -0.36998186721324711 0 -0.2036675015548374 -0.3528794821820061 0 -0.21999345830796271 -0.36580163328297932 0 -0.2214165248160487 -0.33639912400378319 0 -0.2036675015548374 -0.3528794821820061 0 -0.22494821621858521 -0.26585539440755668 0 -0.21446315600452931 -0.23827379353440931 0 -0.22494821621858521 -0.26585539440755668 0 -0.24202555347879451 -0.2494207751729384 0 -0.22944725721767151 -0.24385842148500761 0 -0.24800497626981641 -0.26633030052812379 0 -0.22494821621858521 -0.26585539440755668 0 -0.24202555347879451 -0.2494207751729384 0 -0.25704939831663282 -0.278495897273493 0 -0.24800497626981641 -0.26633030052812379 0 -0.24380045887504601 -0.28329151361009558 0 -0.24800497626981641 -0.26633030052812379 0 -0.22494821621858521 -0.26585539440755668 0 -0.24380045887504601 -0.28329151361009558 0 -0.22494821621858521 -0.26585539440755668 0 -0.22194370324347509 -0.28973741101723821 0 -0.24380045887504601 -0.28329151361009558 0 -0.22194370324347509 -0.28973741101723821 0 -0.24380045887504601 -0.28329151361009558 0 -0.24118374853074359 -0.30039206638318078 0 -0.25954553172362738 -0.29058371515516329 0 -0.24380045887504601 -0.28329151361009558 0 -0.24118374853074359 -0.30039206638318078 0 -0.23490856640895369 -0.31869209177063001 0 -0.2476878870041368 -0.31310218966409031 0 -0.24118374853074359 -0.30039206638318078 0 -0.25524594082628538 -0.30433178781545489 0 -0.2476878870041368 -0.31310218966409031 0 -0.24118374853074359 -0.30039206638318078 0 -0.23490856640895369 -0.31869209177063001 0 -0.24118374853074359 -0.30039206638318078 0 -0.22283959132413461 -0.306996614724587 0 -0.22194370324347509 -0.28973741101723821 0 -0.24118374853074359 -0.30039206638318078 0 -0.22283959132413461 -0.306996614724587 0 -0.2081010620490126 -0.32087677997441549 0 -0.22283959132413461 -0.306996614724587 0 -0.20466298634224361 -0.30479378693409048 0 -0.22194370324347509 -0.28973741101723821 0 -0.22283959132413461 -0.306996614724587 0 -0.20466298634224361 -0.30479378693409048 0 -0.18894883059232251 -0.32007481457848169 0 -0.20466298634224361 -0.30479378693409048 0 -0.18629155412667681 -0.29956565340632052 0 -0.20466298634224361 -0.30479378693409048 0 -0.2024062808404678 -0.28943972578708799 0 -0.18629155412667681 -0.29956565340632052 0 -0.2024062808404678 -0.28943972578708799 0 -0.1888807615499975 -0.27986245047536462 0 -0.18629155412667681 -0.29956565340632052 0 -0.2024062808404678 -0.28943972578708799 0 -0.2077898733867784 -0.27711280181963288 0 -0.1888807615499975 -0.27986245047536462 0 -0.22194370324347509 -0.28973741101723821 0 -0.20466298634224361 -0.30479378693409048 0 -0.2024062808404678 -0.28943972578708799 0 -0.22194370324347509 -0.28973741101723821 0 -0.2024062808404678 -0.28943972578708799 0 -0.2077898733867784 -0.27711280181963288 0 -0.22494821621858521 -0.26585539440755668 0 -0.2077898733867784 -0.27711280181963288 0 -0.19492898730145 -0.26148337934621552 0 -0.22494821621858521 -0.26585539440755668 0 -0.22194370324347509 -0.28973741101723821 0 -0.2077898733867784 -0.27711280181963288 0 -0.2077898733867784 -0.27711280181963288 0 -0.1888807615499975 -0.27986245047536462 0 -0.19492898730145 -0.26148337934621552 0 -0.22494821621858521 -0.26585539440755668 0 -0.19492898730145 -0.26148337934621552 0 -0.20163417156410271 -0.24719184903735991 0 -0.22494821621858521 -0.26585539440755668 0 -0.21446315600452931 -0.23827379353440931 0 -0.20163417156410271 -0.24719184903735991 0 -0.19492898730145 -0.26148337934621552 0 -0.16893529208760449 -0.26356099791696957 0 -0.17999285027296691 -0.23991434859502619 0 -0.1888807615499975 -0.27986245047536462 0 -0.19492898730145 -0.26148337934621552 0 -0.16893529208760449 -0.26356099791696957 0 -0.1888807615499975 -0.27986245047536462 0 -0.16893529208760449 -0.26356099791696957 0 -0.1700118726670494 -0.28841932054361069 0 -0.16893529208760449 -0.26356099791696957 0 -0.1700118726670494 -0.28841932054361069 0 -0.14605696198742221 -0.28120560432245922 0 -0.1888807615499975 -0.27986245047536462 0 -0.1700118726670494 -0.28841932054361069 0 -0.18629155412667681 -0.29956565340632052 0 -0.18894883059232251 -0.32007481457848169 0 -0.18629155412667681 -0.29956565340632052 0 -0.16643875840873859 -0.31711537634164833 0 -0.1700118726670494 -0.28841932054361069 0 -0.18629155412667681 -0.29956565340632052 0 -0.16643875840873859 -0.31711537634164833 0 -0.1700118726670494 -0.28841932054361069 0 -0.14702079572477261 -0.30578558299045838 0 -0.1700118726670494 -0.28841932054361069 0 -0.14702079572477261 -0.30578558299045838 0 -0.16643875840873859 -0.31711537634164833 0 -0.14702079572477261 -0.30578558299045838 0 -0.13226613794771841 -0.29419782255161098 0 -0.1178242950353891 -0.30872606567534627 0 -0.14702079572477261 -0.30578558299045838 0 -0.12674518894549711 -0.32090365226761008 0 -0.1178242950353891 -0.30872606567534627 0 -0.14702079572477261 -0.30578558299045838 0 -0.1178242950353891 -0.30872606567534627 0 -0.13226613794771841 -0.29419782255161098 0 -0.13145428368219911 -0.28284560555290722 0 -0.1189743533088093 -0.29242625421688412 0 -0.13226613794771841 -0.29419782255161098 0 -0.13145428368219911 -0.28284560555290722 0 -0.14605696198742221 -0.28120560432245922 0 -0.14702079572477261 -0.30578558299045838 0 -0.13226613794771841 -0.29419782255161098 0 -0.14605696198742221 -0.28120560432245922 0 -0.1700118726670494 -0.28841932054361069 0 -0.14702079572477261 -0.30578558299045838 0 -0.14605696198742221 -0.28120560432245922 0 -0.16893529208760449 -0.26356099791696957 0 -0.14605696198742221 -0.28120560432245922 0 -0.14138071420385931 -0.2604994431051475 0 -0.13145428368219911 -0.28284560555290722 0 -0.14605696198742221 -0.28120560432245922 0 -0.1307757393353379 -0.27031047453371942 0 -0.14605696198742221 -0.28120560432245922 0 -0.1307757393353379 -0.27031047453371942 0 -0.14138071420385931 -0.2604994431051475 0 -0.13145428368219911 -0.28284560555290722 0 -0.1307757393353379 -0.27031047453371942 0 -0.11659413005798309 -0.27395698966979382 0 -0.1307757393353379 -0.27031047453371942 0 -0.14138071420385931 -0.2604994431051475 0 -0.12246935957181899 -0.25821058833430971 0 -0.14138071420385931 -0.2604994431051475 0 -0.12246935957181899 -0.25821058833430971 0 -0.1383286968505178 -0.24488046723053811 0 -0.16893529208760449 -0.26356099791696957 0 -0.14138071420385931 -0.2604994431051475 0 -0.1574300568723051 -0.24443947626063381 0 -0.1667955043636665 -0.35914774336245159 0 -0.15610454260108431 -0.34271778181901158 0 -0.1462847121623409 -0.36610047748339269 0 -0.1667955043636665 -0.35914774336245159 0 -0.17457261008195879 -0.3364764829670972 0 -0.15610454260108431 -0.34271778181901158 0 -0.164204048511322 -0.38349586659818968 0 -0.1667955043636665 -0.35914774336245159 0 -0.1462847121623409 -0.36610047748339269 0 -0.164204048511322 -0.38349586659818968 0 -0.1667955043636665 -0.35914774336245159 0 -0.18016902843490201 -0.37059476799837471 0 -0.1667955043636665 -0.35914774336245159 0 -0.18016902843490201 -0.37059476799837471 0 -0.18626450954458629 -0.34905422327684238 0 -0.19281814419530799 -0.36257794483594269 0 -0.18016902843490201 -0.37059476799837471 0 -0.18626450954458629 -0.34905422327684238 0 -0.1667955043636665 -0.35914774336245159 0 -0.18626450954458629 -0.34905422327684238 0 -0.17457261008195879 -0.3364764829670972 0 -0.18894883059232251 -0.32007481457848169 0 -0.1979334948067171 -0.33554655707476488 0 -0.17457261008195879 -0.3364764829670972 0 -0.1979334948067171 -0.33554655707476488 0 -0.18626450954458629 -0.34905422327684238 0 -0.17457261008195879 -0.3364764829670972 0 -0.18894883059232251 -0.32007481457848169 0 -0.17457261008195879 -0.3364764829670972 0 -0.16643875840873859 -0.31711537634164833 0 -0.17457261008195879 -0.3364764829670972 0 -0.16643875840873859 -0.31711537634164833 0 -0.15610454260108431 -0.34271778181901158 0 -0.15610454260108431 -0.34271778181901158 0 -0.1455569246627986 -0.32497766665676658 0 -0.13645469909660521 -0.34165400366479759 0 -0.16643875840873859 -0.31711537634164833 0 -0.15610454260108431 -0.34271778181901158 0 -0.1455569246627986 -0.32497766665676658 0 -0.14702079572477261 -0.30578558299045838 0 -0.16643875840873859 -0.31711537634164833 0 -0.1455569246627986 -0.32497766665676658 0 -0.14702079572477261 -0.30578558299045838 0 -0.1455569246627986 -0.32497766665676658 0 -0.12674518894549711 -0.32090365226761008 0 -0.14702079572477261 -0.30578558299045838 0 -0.12674518894549711 -0.32090365226761008 0 -0.12674518894549711 -0.32090365226761008 0 -0.13645469909660521 -0.34165400366479759 0 -0.1207356928687144 -0.34158532214888832 0 -0.1455569246627986 -0.32497766665676658 0 -0.12674518894549711 -0.32090365226761008 0 -0.13645469909660521 -0.34165400366479759 0 -0.13645469909660521 -0.34165400366479759 0 -0.1462847121623409 -0.36610047748339269 0 -0.1221402845795205 -0.35971699925118478 0 -0.13645469909660521 -0.34165400366479759 0 -0.1221402845795205 -0.35971699925118478 0 -0.1207356928687144 -0.34158532214888832 0 -0.15610454260108431 -0.34271778181901158 0 -0.13645469909660521 -0.34165400366479759 0 -0.1462847121623409 -0.36610047748339269 0 -0.1462847121623409 -0.36610047748339269 0 -0.1221402845795205 -0.35971699925118478 0 -0.123125967385699 -0.38326329564409112 0 -0.1101251158064306 -0.37172048552693032 0 -0.1221402845795205 -0.35971699925118478 0 -0.123125967385699 -0.38326329564409112 0 -0.1101251158064306 -0.37172048552693032 0 -0.1221402845795205 -0.35971699925118478 0 -0.1007679418873316 -0.3589187830063213 0 -0.1101251158064306 -0.37172048552693032 0 -0.1007679418873316 -0.3589187830063213 0 -0.092091339189035962 -0.37487227829647968 0 -0.1007679418873316 -0.3589187830063213 0 -0.1125409452876861 -0.34907744866435209 0 -0.1065198618151779 -0.33608869025101401 0 -0.1007679418873316 -0.3589187830063213 0 -0.1065198618151779 -0.33608869025101401 0 -0.086294534684858759 -0.35127372823441783 0 -0.1221402845795205 -0.35971699925118478 0 -0.1125409452876861 -0.34907744866435209 0 -0.1207356928687144 -0.34158532214888832 0 -0.1221402845795205 -0.35971699925118478 0 -0.1007679418873316 -0.3589187830063213 0 -0.1221402845795205 -0.35971699925118478 0 -0.1007679418873316 -0.3589187830063213 0 -0.1125409452876861 -0.34907744866435209 0 -0.12674518894549711 -0.32090365226761008 0 -0.1207356928687144 -0.34158532214888832 0 -0.1065198618151779 -0.33608869025101401 0 -0.12674518894549711 -0.32090365226761008 0 -0.1065198618151779 -0.33608869025101401 0 -0.1125409452876861 -0.34907744866435209 0 -0.1207356928687144 -0.34158532214888832 0 -0.1065198618151779 -0.33608869025101401 0 -0.12674518894549711 -0.32090365226761008 0 -0.1044396944413168 -0.32080285993706842 0 -0.1065198618151779 -0.33608869025101401 0 -0.12674518894549711 -0.32090365226761008 0 -0.1044396944413168 -0.32080285993706842 0 -0.1178242950353891 -0.30872606567534627 0 -0.1044396944413168 -0.32080285993706842 0 -0.1178242950353891 -0.30872606567534627 0 -0.088627794346005678 -0.31166654836023339 0 -0.1065198618151779 -0.33608869025101401 0 -0.086294534684858759 -0.35127372823441783 0 -0.1044396944413168 -0.32080285993706842 0 -0.1065198618151779 -0.33608869025101401 0 -0.084011696770572464 -0.33489355756084532 0 -0.1065198618151779 -0.33608869025101401 0 -0.084011696770572464 -0.33489355756084532 0 -0.086294534684858759 -0.35127372823441783 0 -0.084011696770572464 -0.33489355756084532 0 -0.088627794346005678 -0.31166654836023339 0 -0.084011696770572464 -0.33489355756084532 0 -0.070375612929480302 -0.32933366847201812 0 -0.088627794346005678 -0.31166654836023339 0 -0.1044396944413168 -0.32080285993706842 0 -0.084011696770572464 -0.33489355756084532 0 -0.088627794346005678 -0.31166654836023339 0 -0.065705104597100758 -0.31397517339084358 0 -0.070375612929480302 -0.32933366847201812 0 -0.088627794346005678 -0.31166654836023339 0 -0.065705104597100758 -0.31397517339084358 0 -0.088627794346005678 -0.31166654836023339 0 -0.065705104597100758 -0.31397517339084358 0 -0.070375612929480302 -0.32933366847201812 0 -0.058307566256873347 -0.33599912769344631 0 -0.084011696770572464 -0.33489355756084532 0 -0.070375612929480302 -0.32933366847201812 0 -0.069118538638617028 -0.34400591824594889 0 -0.070375612929480302 -0.32933366847201812 0 -0.069118538638617028 -0.34400591824594889 0 -0.058307566256873347 -0.33599912769344631 0 -0.079395599195142802 -0.35812056676145781 0 -0.055042071634534583 -0.35721100894654811 0 -0.084011696770572464 -0.33489355756084532 0 -0.069118538638617028 -0.34400591824594889 0 -0.079395599195142802 -0.35812056676145781 0 -0.069118538638617028 -0.34400591824594889 0 -0.079395599195142802 -0.35812056676145781 0 -0.055042071634534583 -0.35721100894654811 0 -0.079395599195142802 -0.35812056676145781 0 -0.060868110751519211 -0.37281395221694702 0 -0.055042071634534583 -0.35721100894654811 0 -0.079395599195142802 -0.35812056676145781 0 -0.060868110751519211 -0.37281395221694702 0 -0.073597346072557829 -0.38729587695043299 0 -0.079395599195142802 -0.35812056676145781 0 -0.073597346072557829 -0.38729587695043299 0 -0.1007679418873316 -0.3589187830063213 0 -0.092091339189035962 -0.37487227829647968 0 -0.079395599195142802 -0.35812056676145781 0 -0.092091339189035962 -0.37487227829647968 0 -0.079395599195142802 -0.35812056676145781 0 -0.073597346072557829 -0.38729587695043299 0 -0.1007679418873316 -0.3589187830063213 0 -0.086294534684858759 -0.35127372823441783 0 -0.079395599195142802 -0.35812056676145781 0 -0.1007679418873316 -0.3589187830063213 0 -0.079395599195142802 -0.35812056676145781 0 -0.084011696770572464 -0.33489355756084532 0 -0.079395599195142802 -0.35812056676145781 0 -0.084011696770572464 -0.33489355756084532 0 -0.086294534684858759 -0.35127372823441783 0 -0.079395599195142802 -0.35812056676145781 0 -0.1089102084313176 -0.25961348443480098 0 -0.1123681871151046 -0.2427582923822772 0 -0.10124283389978971 -0.24819093178282539 0 -0.096853349600586613 -0.27027768158339333 0 -0.10124283389978971 -0.24819093178282539 0 -0.1089102084313176 -0.25961348443480098 0 -0.096853349600586613 -0.27027768158339333 0 -0.10124283389978971 -0.24819093178282539 0 -0.1089102084313176 -0.25961348443480098 0 -0.12246935957181899 -0.25821058833430971 0 -0.1123681871151046 -0.2427582923822772 0 -0.1089102084313176 -0.25961348443480098 0 -0.12246935957181899 -0.25821058833430971 0 -0.11659413005798309 -0.27395698966979382 0 -0.1307757393353379 -0.27031047453371942 0 -0.12246935957181899 -0.25821058833430971 0 -0.11659413005798309 -0.27395698966979382 0 -0.1089102084313176 -0.25961348443480098 0 -0.11659413005798309 -0.27395698966979382 0 -0.096853349600586613 -0.27027768158339333 0 -0.11659413005798309 -0.27395698966979382 0 -0.096853349600586613 -0.27027768158339333 0 -0.1075709399813526 -0.28509105951504682 0 -0.096853349600586613 -0.27027768158339333 0 -0.1075709399813526 -0.28509105951504682 0 -0.092463865301382592 -0.29236443138396101 0 -0.096853349600586613 -0.27027768158339333 0 -0.092463865301382592 -0.29236443138396101 0 -0.1075709399813526 -0.28509105951504682 0 -0.092463865301382592 -0.29236443138396101 0 -0.1075709399813526 -0.28509105951504682 0 -0.1050450507421975 -0.29842721375440118 0 -0.092463865301382592 -0.29236443138396101 0 -0.13145428368219911 -0.28284560555290722 0 -0.11659413005798309 -0.27395698966979382 0 -0.1189743533088093 -0.29242625421688412 0 -0.11659413005798309 -0.27395698966979382 0 -0.1075709399813526 -0.28509105951504682 0 -0.1189743533088093 -0.29242625421688412 0 -0.1075709399813526 -0.28509105951504682 0 -0.1189743533088093 -0.29242625421688412 0 -0.1050450507421975 -0.29842721375440118 0 -0.13226613794771841 -0.29419782255161098 0 -0.1189743533088093 -0.29242625421688412 0 -0.1178242950353891 -0.30872606567534627 0 -0.1189743533088093 -0.29242625421688412 0 -0.1178242950353891 -0.30872606567534627 0 -0.1050450507421975 -0.29842721375440118 0 -0.1050450507421975 -0.29842721375440118 0 -0.088627794346005678 -0.31166654836023339 0 -0.092463865301382592 -0.29236443138396101 0 -0.1178242950353891 -0.30872606567534627 0 -0.1050450507421975 -0.29842721375440118 0 -0.088627794346005678 -0.31166654836023339 0 -0.1178242950353891 -0.30872606567534627 0 -0.088627794346005678 -0.31166654836023339 0 -0.088627794346005678 -0.31166654836023339 0 -0.067623140074789201 -0.30432411490270728 0 -0.092463865301382592 -0.29236443138396101 0 -0.088627794346005678 -0.31166654836023339 0 -0.092463865301382592 -0.29236443138396101 0 -0.067623140074789201 -0.30432411490270728 0 -0.092463865301382592 -0.29236443138396101 0 -0.065705104597100758 -0.31397517339084358 0 -0.088627794346005678 -0.31166654836023339 0 -0.067623140074789201 -0.30432411490270728 0 -0.067623140074789201 -0.30432411490270728 0 -0.066687506541918726 -0.28747831928156459 0 -0.092463865301382592 -0.29236443138396101 0 -0.066687506541918726 -0.28747831928156459 0 -0.092463865301382592 -0.29236443138396101 0 -0.079267914110640658 -0.27583174682938161 0 -0.096853349600586613 -0.27027768158339333 0 -0.079267914110640658 -0.27583174682938161 0 -0.080425574216372558 -0.25474488374953258 0 -0.096853349600586613 -0.27027768158339333 0 -0.092463865301382592 -0.29236443138396101 0 -0.079267914110640658 -0.27583174682938161 0 -0.066687506541918726 -0.28747831928156459 0 -0.079267914110640658 -0.27583174682938161 0 -0.06011625814720184 -0.27349697044117571 0 -0.079267914110640658 -0.27583174682938161 0 -0.080425574216372558 -0.25474488374953258 0 -0.06011625814720184 -0.27349697044117571 0 -0.062520597588523519 -0.25670147966669649 0 -0.080425574216372558 -0.25474488374953258 0 -0.068576896754689823 -0.24364005220113941 0 -0.062520597588523519 -0.25670147966669649 0 -0.080425574216372558 -0.25474488374953258 0 -0.06011625814720184 -0.27349697044117571 0 -0.080425574216372558 -0.25474488374953258 0 -0.06011625814720184 -0.27349697044117571 0 -0.096853349600586613 -0.27027768158339333 0 -0.080425574216372558 -0.25474488374953258 0 -0.10124283389978971 -0.24819093178282539 0 -0.03831100997152663 -0.2553961931738869 0 -0.049839641606894892 -0.26694527578189142 0 -0.031350874834461827 -0.26898120254569341 0 -0.03831100997152663 -0.2553961931738869 0 -0.051806823746124248 -0.25611951672035888 0 -0.049839641606894892 -0.26694527578189142 0 -0.03831100997152663 -0.2553961931738869 0 -0.051806823746124248 -0.25611951672035888 0 -0.051992409625708662 -0.24503076948762001 0 -0.062520597588523519 -0.25670147966669649 0 -0.051806823746124248 -0.25611951672035888 0 -0.051992409625708662 -0.24503076948762001 0 -0.062520597588523519 -0.25670147966669649 0 -0.051806823746124248 -0.25611951672035888 0 -0.049839641606894892 -0.26694527578189142 0 -0.062520597588523519 -0.25670147966669649 0 -0.049839641606894892 -0.26694527578189142 0 -0.06011625814720184 -0.27349697044117571 0 -0.066687506541918726 -0.28747831928156459 0 -0.06011625814720184 -0.27349697044117571 0 -0.051884635247863402 -0.28204959237917487 0 -0.049839641606894892 -0.26694527578189142 0 -0.06011625814720184 -0.27349697044117571 0 -0.051884635247863402 -0.28204959237917487 0 -0.049839641606894892 -0.26694527578189142 0 -0.034217526827925393 -0.28472788893097301 0 -0.051884635247863402 -0.28204959237917487 0 -0.049839641606894892 -0.26694527578189142 0 -0.031350874834461827 -0.26898120254569341 0 -0.034217526827925393 -0.28472788893097301 0 -0.049839641606894892 -0.26694527578189142 0 -0.034217526827925393 -0.28472788893097301 0 -0.034217526827925393 -0.28472788893097301 0 -0.04876922636963494 -0.29680305975298832 0 -0.051884635247863402 -0.28204959237917487 0 -0.034217526827925393 -0.28472788893097301 0 -0.04876922636963494 -0.29680305975298832 0 -0.033450718379644452 -0.30390523724443291 0 -0.067623140074789201 -0.30432411490270728 0 -0.066687506541918726 -0.28747831928156459 0 -0.04876922636963494 -0.29680305975298832 0 -0.066687506541918726 -0.28747831928156459 0 -0.04876922636963494 -0.29680305975298832 0 -0.051884635247863402 -0.28204959237917487 0 -0.065705104597100758 -0.31397517339084358 0 -0.067623140074789201 -0.30432411490270728 0 -0.042782414848195727 -0.31628379842145349 0 -0.067623140074789201 -0.30432411490270728 0 -0.04876922636963494 -0.29680305975298832 0 -0.042782414848195727 -0.31628379842145349 0 -0.067623140074789201 -0.30432411490270728 0 -0.042782414848195727 -0.31628379842145349 0 -0.04876922636963494 -0.29680305975298832 0 -0.033450718379644452 -0.30390523724443291 0 -0.042782414848195727 -0.31628379842145349 0 -0.033450718379644452 -0.30390523724443291 0 -0.0185954120489559 -0.30251050208005448 0 -0.022877856059090311 -0.31828845682529322 0 -0.034217526827925393 -0.28472788893097301 0 -0.033450718379644452 -0.30390523724443291 0 -0.0185954120489559 -0.30251050208005448 0 -0.0185954120489559 -0.30251050208005448 0 -0.0024297493602513272 -0.30423326012381352 0 -0.0029732972699850549 -0.32029311522913467 0 -0.0185954120489559 -0.30251050208005448 0 -0.0029732972699850549 -0.32029311522913467 0 -0.0185954120489559 -0.30251050208005448 0 -0.0024297493602513272 -0.30423326012381352 0 -0.0098515494933118612 -0.29073103106618531 0 -0.0024297493602513272 -0.30423326012381352 0 -0.0098515494933118612 -0.29073103106618531 0 0.0084259895826347183 -0.2955299687392306 0 -0.0098515494933118612 -0.29073103106618531 0 -0.01403747464265869 -0.27653985298523182 0 0.001744876337285421 -0.28084471353780871 0 -0.034217526827925393 -0.28472788893097301 0 -0.0185954120489559 -0.30251050208005448 0 -0.034217526827925393 -0.28472788893097301 0 -0.0185954120489559 -0.30251050208005448 0 -0.0098515494933118612 -0.29073103106618531 0 -0.034217526827925393 -0.28472788893097301 0 -0.0098515494933118612 -0.29073103106618531 0 -0.01403747464265869 -0.27653985298523182 0 -0.031350874834461827 -0.26898120254569341 0 -0.034217526827925393 -0.28472788893097301 0 -0.01403747464265869 -0.27653985298523182 0 -0.031350874834461827 -0.26898120254569341 0 -0.01403747464265869 -0.27653985298523182 0 -0.020348721123303541 -0.26129680185648407 0 -0.01403747464265869 -0.27653985298523182 0 -0.020348721123303541 -0.26129680185648407 0 0.002528124606417811 -0.25939633599466022 0 -0.01403747464265869 -0.27653985298523182 0 0.001744876337285421 -0.28084471353780871 0 0.002528124606417811 -0.25939633599466022 0 -0.020348721123303541 -0.26129680185648407 0 -0.019416911990818391 -0.24326809351042239 0 0.002528124606417811 -0.25939633599466022 0 -0.03831100997152663 -0.2553961931738869 0 -0.020348721123303541 -0.26129680185648407 0 -0.019416911990818391 -0.24326809351042239 0 -0.03831100997152663 -0.2553961931738869 0 -0.031350874834461827 -0.26898120254569341 0 -0.020348721123303541 -0.26129680185648407 0 -0.043321169325760488 -0.34455048046630887 0 -0.055042071634534583 -0.35721100894654811 0 -0.030688544073926349 -0.35630145113164102 0 -0.055042071634534583 -0.35721100894654811 0 -0.030688544073926349 -0.35630145113164102 0 -0.043897118480875241 -0.37254923778646809 0 -0.030688544073926349 -0.35630145113164102 0 -0.026925259598005701 -0.37820991559438583 0 -0.043897118480875241 -0.37254923778646809 0 -0.055042071634534583 -0.35721100894654811 0 -0.030688544073926349 -0.35630145113164102 0 -0.043897118480875241 -0.37254923778646809 0 -0.060868110751519211 -0.37281395221694702 0 -0.055042071634534583 -0.35721100894654811 0 -0.069118538638617028 -0.34400591824594889 0 -0.055042071634534583 -0.35721100894654811 0 -0.058307566256873347 -0.33599912769344631 0 -0.043321169325760488 -0.34455048046630887 0 -0.055042071634534583 -0.35721100894654811 0 -0.058307566256873347 -0.33599912769344631 0 -0.043321169325760488 -0.34455048046630887 0 -0.058307566256873347 -0.33599912769344631 0 -0.04828800138527891 -0.32770045563489869 0 -0.065705104597100758 -0.31397517339084358 0 -0.042782414848195727 -0.31628379842145349 0 -0.065705104597100758 -0.31397517339084358 0 -0.04828800138527891 -0.32770045563489869 0 -0.042782414848195727 -0.31628379842145349 0 -0.065705104597100758 -0.31397517339084358 0 -0.058307566256873347 -0.33599912769344631 0 -0.04828800138527891 -0.32770045563489869 0 -0.042782414848195727 -0.31628379842145349 0 -0.022877856059090311 -0.31828845682529322 0 -0.042782414848195727 -0.31628379842145349 0 -0.0282555716159207 -0.32327781514196707 0 -0.022877856059090311 -0.31828845682529322 0 -0.033450718379644452 -0.30390523724443291 0 -0.042782414848195727 -0.31628379842145349 0 -0.022877856059090311 -0.31828845682529322 0 -0.04828800138527891 -0.32770045563489869 0 -0.042782414848195727 -0.31628379842145349 0 -0.035333953837528263 -0.32925757619421819 0 -0.042782414848195727 -0.31628379842145349 0 -0.035333953837528263 -0.32925757619421819 0 -0.0282555716159207 -0.32327781514196707 0 -0.042782414848195727 -0.31628379842145349 0 -0.0282555716159207 -0.32327781514196707 0 -0.043321169325760488 -0.34455048046630887 0 -0.04828800138527891 -0.32770045563489869 0 -0.035333953837528263 -0.32925757619421819 0 -0.035333953837528263 -0.32925757619421819 0 -0.030688544073926349 -0.35630145113164102 0 -0.043321169325760488 -0.34455048046630887 0 -0.035333953837528263 -0.32925757619421819 0 -0.030688544073926349 -0.35630145113164102 0 -0.027545244489340301 -0.34184060122620252 0 -0.024768643441544402 -0.33254050080835501 0 -0.019141828600650029 -0.33823359898576322 0 -0.035333953837528263 -0.32925757619421819 0 -0.027545244489340301 -0.34184060122620252 0 -0.030688544073926349 -0.35630145113164102 0 -0.035333953837528263 -0.32925757619421819 0 -0.024768643441544402 -0.33254050080835501 0 -0.0282555716159207 -0.32327781514196707 0 -0.035333953837528263 -0.32925757619421819 0 -0.027545244489340301 -0.34184060122620252 0 -0.024768643441544402 -0.33254050080835501 0 -0.024768643441544402 -0.33254050080835501 0 -0.019141828600650029 -0.33823359898576322 0 -0.01372872838364545 -0.33027183186247999 0 -0.024768643441544402 -0.33254050080835501 0 -0.0282555716159207 -0.32327781514196707 0 -0.01372872838364545 -0.33027183186247999 0 -0.019141828600650029 -0.33823359898576322 0 -0.01112286006587394 -0.34364437998047082 0 -0.02008788543460251 -0.3470474911974023 0 -0.027545244489340301 -0.34184060122620252 0 -0.019141828600650029 -0.33823359898576322 0 -0.02008788543460251 -0.3470474911974023 0 -0.0282555716159207 -0.32327781514196707 0 -0.022877856059090311 -0.31828845682529322 0 -0.01372872838364545 -0.33027183186247999 0 -0.0282555716159207 -0.32327781514196707 0 -0.01372872838364545 -0.33027183186247999 0 -0.0185954120489559 -0.30251050208005448 0 -0.022877856059090311 -0.31828845682529322 0 -0.0029732972699850549 -0.32029311522913467 0 -0.022877856059090311 -0.31828845682529322 0 -0.0029732972699850549 -0.32029311522913467 0 -0.01372872838364545 -0.33027183186247999 0 -0.022877856059090311 -0.31828845682529322 0 -0.0029732972699850549 -0.32029311522913467 0 -0.0029732972699850549 -0.32029311522913467 0 -0.01372872838364545 -0.33027183186247999 0 -0.002183485025459596 -0.33753000442901321 0 -0.01112286006587394 -0.34364437998047082 0 -0.01372872838364545 -0.33027183186247999 0 -0.002183485025459596 -0.33753000442901321 0 -0.019141828600650029 -0.33823359898576322 0 -0.01112286006587394 -0.34364437998047082 0 -0.01372872838364545 -0.33027183186247999 0 -0.01112286006587394 -0.34364437998047082 0 -0.002183485025459596 -0.33753000442901321 0 -0.00077016848765817068 -0.35447424189181498 0 -0.01112286006587394 -0.34364437998047082 0 -0.00077016848765817068 -0.35447424189181498 0 -0.0119604703206658 -0.35656762457009461 0 -0.01112286006587394 -0.34364437998047082 0 -0.0119604703206658 -0.35656762457009461 0 -0.02008788543460251 -0.3470474911974023 0 -0.02008788543460251 -0.3470474911974023 0 -0.023332036013680859 -0.35602669958363409 0 -0.025603186523124918 -0.3498953798463737 0 -0.0119604703206658 -0.35656762457009461 0 -0.02008788543460251 -0.3470474911974023 0 -0.023332036013680859 -0.35602669958363409 0 -0.023332036013680859 -0.35602669958363409 0 -0.030688544073926349 -0.35630145113164102 0 -0.025603186523124918 -0.3498953798463737 0 -0.023332036013680859 -0.35602669958363409 0 -0.030688544073926349 -0.35630145113164102 0 -0.027545244489340301 -0.34184060122620252 0 -0.02008788543460251 -0.3470474911974023 0 -0.025603186523124918 -0.3498953798463737 0 -0.027545244489340301 -0.34184060122620252 0 -0.030688544073926349 -0.35630145113164102 0 -0.025603186523124918 -0.3498953798463737 0 -0.023332036013680859 -0.35602669958363409 0 -0.030688544073926349 -0.35630145113164102 0 -0.026925259598005701 -0.37820991559438583 0 -0.023332036013680859 -0.35602669958363409 0 -0.01129080367017328 -0.368451231688878 0 -0.026925259598005701 -0.37820991559438583 0 -0.030688544073926349 -0.35630145113164102 0 -0.026925259598005701 -0.37820991559438583 0 -0.00077016848765817068 -0.35447424189181498 0 -0.01129080367017328 -0.368451231688878 0 0.0035087631850650078 -0.38357939351345249 0 -0.0119604703206658 -0.35656762457009461 0 -0.023332036013680859 -0.35602669958363409 0 -0.01129080367017328 -0.368451231688878 0 -0.00077016848765817068 -0.35447424189181498 0 -0.0119604703206658 -0.35656762457009461 0 -0.01129080367017328 -0.368451231688878 0 -0.01129080367017328 -0.368451231688878 0 -0.026925259598005701 -0.37820991559438583 0 0.0035087631850650078 -0.38357939351345249 0 -0.023161975122084712 -0.40011838005713052 0 -0.026925259598005701 -0.37820991559438583 0 0.0035087631850650078 -0.38357939351345249 0 -0.023161975122084712 -0.40011838005713052 0 0.0035087631850650078 -0.38357939351345249 0 0.0077876948577881864 -0.41268454513509001 0 -0.023161975122084712 -0.40011838005713052 0 -0.026925259598005701 -0.37820991559438583 0 -0.023161975122084712 -0.40011838005713052 0 -0.026925259598005701 -0.37820991559438583 0 -0.035804147321829509 -0.39053066759090121 0 -0.043897118480875241 -0.37254923778646809 0 -0.035804147321829509 -0.39053066759090121 0 -0.052408418374485621 -0.38889307063982792 0 -0.043897118480875241 -0.37254923778646809 0 -0.026925259598005701 -0.37820991559438583 0 -0.035804147321829509 -0.39053066759090121 0 -0.023161975122084712 -0.40011838005713052 0 -0.035804147321829509 -0.39053066759090121 0 -0.040992333895358009 -0.40594058393351362 0 -0.035804147321829509 -0.39053066759090121 0 -0.040992333895358009 -0.40594058393351362 0 -0.052408418374485621 -0.38889307063982792 0 -0.052408418374485621 -0.38889307063982792 0 -0.056759602522948559 -0.40926711123707182 0 -0.073597346072557829 -0.38729587695043299 0 -0.040992333895358009 -0.40594058393351362 0 -0.052408418374485621 -0.38889307063982792 0 -0.056759602522948559 -0.40926711123707182 0 -0.043897118480875241 -0.37254923778646809 0 -0.060868110751519211 -0.37281395221694702 0 -0.052408418374485621 -0.38889307063982792 0 -0.060868110751519211 -0.37281395221694702 0 -0.052408418374485621 -0.38889307063982792 0 -0.073597346072557829 -0.38729587695043299 0 -0.05509397236452665 -0.42374155569818089 0 -0.063063931953010244 -0.4402972926854104 0 -0.067799092949976214 -0.416471187139409 0 -0.05509397236452665 -0.42374155569818089 0 -0.05558672855584941 -0.43768512660983572 0 -0.063063931953010244 -0.4402972926854104 0 -0.05509397236452665 -0.42374155569818089 0 -0.043598659788486677 -0.43452023941083012 0 -0.05558672855584941 -0.43768512660983572 0 -0.05509397236452665 -0.42374155569818089 0 -0.056759602522948559 -0.40926711123707182 0 -0.067799092949976214 -0.416471187139409 0 -0.040992333895358009 -0.40594058393351362 0 -0.056759602522948559 -0.40926711123707182 0 -0.048428763557500143 -0.41526934687791828 0 -0.056759602522948559 -0.40926711123707182 0 -0.067799092949976214 -0.416471187139409 0 -0.05509397236452665 -0.42374155569818089 0 -0.048428763557500143 -0.41526934687791828 0 -0.040869145447167327 -0.42212813664290721 0 -0.05509397236452665 -0.42374155569818089 0 -0.056759602522948559 -0.40926711123707182 0 -0.048428763557500143 -0.41526934687791828 0 -0.040992333895358009 -0.40594058393351362 0 -0.048428763557500143 -0.41526934687791828 0 -0.040869145447167327 -0.42212813664290721 0 -0.023161975122084712 -0.40011838005713052 0 -0.040992333895358009 -0.40594058393351362 0 -0.03026476882843239 -0.41456278682188857 0 -0.040992333895358009 -0.40594058393351362 0 -0.040869145447167327 -0.42212813664290721 0 -0.03026476882843239 -0.41456278682188857 0 -0.040869145447167327 -0.42212813664290721 0 -0.029636164313535881 -0.43109132164392139 0 -0.03026476882843239 -0.41456278682188857 0 -0.040869145447167327 -0.42212813664290721 0 -0.043598659788486677 -0.43452023941083012 0 -0.029636164313535881 -0.43109132164392139 0 -0.05509397236452665 -0.42374155569818089 0 -0.040869145447167327 -0.42212813664290721 0 -0.043598659788486677 -0.43452023941083012 0 -0.043598659788486677 -0.43452023941083012 0 -0.029636164313535881 -0.43109132164392139 0 -0.033553950681538783 -0.44590570272763291 0 -0.019398690646163709 -0.42202684451987521 0 -0.029636164313535881 -0.43109132164392139 0 -0.01042190342360174 -0.4426645943096662 0 -0.019398690646163709 -0.42202684451987521 0 -0.029636164313535881 -0.43109132164392139 0 -0.03026476882843239 -0.41456278682188857 0 -0.023161975122084712 -0.40011838005713052 0 -0.019398690646163709 -0.42202684451987521 0 -0.023161975122084712 -0.40011838005713052 0 -0.019398690646163709 -0.42202684451987521 0 -0.03026476882843239 -0.41456278682188857 0 -0.023161975122084712 -0.40011838005713052 0 -0.019398690646163709 -0.42202684451987521 0 0.0077876948577881864 -0.41268454513509001 0 -0.019398690646163709 -0.42202684451987521 0 -0.001797328619806037 -0.43308705460344787 0 0.0077876948577881864 -0.41268454513509001 0 -0.019398690646163709 -0.42202684451987521 0 -0.001797328619806037 -0.43308705460344787 0 -0.01042190342360174 -0.4426645943096662 0 -0.001797328619806037 -0.43308705460344787 0 -0.01042190342360174 -0.4426645943096662 0 0.00097962958243571693 -0.44626959229588059 0 -0.01042190342360174 -0.4426645943096662 0 0.00097962958243571693 -0.44626959229588059 0 0.0014444894161211681 -0.45821843620244318 0 -0.021708748088769741 -0.46087164512248852 0 -0.0043742609926308721 -0.47814885755577552 0 0.0014444894161211681 -0.45821843620244318 0 -0.01042190342360174 -0.4426645943096662 0 -0.021708748088769741 -0.46087164512248852 0 0.0014444894161211681 -0.45821843620244318 0 -0.01042190342360174 -0.4426645943096662 0 -0.021708748088769741 -0.46087164512248852 0 -0.033553950681538783 -0.44590570272763291 0 -0.029636164313535881 -0.43109132164392139 0 -0.01042190342360174 -0.4426645943096662 0 -0.033553950681538783 -0.44590570272763291 0 -0.0081488941096850565 -0.5 0 -0.0043742609926308721 -0.47814885755577552 0 -0.028026973612975421 -0.48159095686511272 0 -0.021708748088769741 -0.46087164512248852 0 -0.0043742609926308721 -0.47814885755577552 0 -0.028026973612975421 -0.48159095686511272 0 -0.0081488941096850565 -0.5 0 -0.028026973612975421 -0.48159095686511272 0 -0.036922278095328158 -0.5 0 -0.028026973612975421 -0.48159095686511272 0 -0.036922278095328158 -0.5 0 -0.048438040278121541 -0.48361512311735783 0 -0.028026973612975421 -0.48159095686511272 0 -0.048438040278121541 -0.48361512311735783 0 -0.045060423072617962 -0.46355845374832932 0 -0.048438040278121541 -0.48361512311735783 0 -0.045060423072617962 -0.46355845374832932 0 -0.066484864528714924 -0.47292620497334681 0 -0.048438040278121541 -0.48361512311735783 0 -0.065695662080971218 -0.5 0 -0.066484864528714924 -0.47292620497334681 0 -0.036922278095328158 -0.5 0 -0.048438040278121541 -0.48361512311735783 0 -0.065695662080971218 -0.5 0 -0.033553950681538783 -0.44590570272763291 0 -0.045060423072617962 -0.46355845374832932 0 -0.047065247264435658 -0.44712983886383362 0 -0.043598659788486677 -0.43452023941083012 0 -0.033553950681538783 -0.44590570272763291 0 -0.047065247264435658 -0.44712983886383362 0 -0.021708748088769741 -0.46087164512248852 0 -0.033553950681538783 -0.44590570272763291 0 -0.045060423072617962 -0.46355845374832932 0 -0.021708748088769741 -0.46087164512248852 0 -0.028026973612975421 -0.48159095686511272 0 -0.045060423072617962 -0.46355845374832932 0 -0.045060423072617962 -0.46355845374832932 0 -0.057526474223685467 -0.45397967182254001 0 -0.047065247264435658 -0.44712983886383362 0 -0.045060423072617962 -0.46355845374832932 0 -0.057526474223685467 -0.45397967182254001 0 -0.066484864528714924 -0.47292620497334681 0 -0.057526474223685467 -0.45397967182254001 0 -0.047065247264435658 -0.44712983886383362 0 -0.05558672855584941 -0.43768512660983572 0 -0.057526474223685467 -0.45397967182254001 0 -0.05558672855584941 -0.43768512660983572 0 -0.072500653929951281 -0.45326384495737682 0 -0.043598659788486677 -0.43452023941083012 0 -0.047065247264435658 -0.44712983886383362 0 -0.05558672855584941 -0.43768512660983572 0 -0.05558672855584941 -0.43768512660983572 0 -0.072500653929951281 -0.45326384495737682 0 -0.063063931953010244 -0.4402972926854104 0 -0.073777433285392879 -0.44066710727023628 0 -0.070555815465139907 -0.43211269735292612 0 -0.063063931953010244 -0.4402972926854104 0 -0.073777433285392879 -0.44066710727023628 0 -0.072500653929951281 -0.45326384495737682 0 -0.05558672855584941 -0.43768512660983572 0 -0.063063931953010244 -0.4402972926854104 0 -0.072500653929951281 -0.45326384495737682 0 -0.073777433285392879 -0.44066710727023628 0 -0.072500653929951281 -0.45326384495737682 0 -0.084868943220896012 -0.44146276372930499 0 -0.057526474223685467 -0.45397967182254001 0 -0.072500653929951281 -0.45326384495737682 0 -0.066484864528714924 -0.47292620497334681 0 -0.072500653929951281 -0.45326384495737682 0 -0.066484864528714924 -0.47292620497334681 0 -0.089414579304053193 -0.46884256330491791 0 -0.072500653929951281 -0.45326384495737682 0 -0.091784902643673755 -0.45373301237521613 0 -0.089414579304053193 -0.46884256330491791 0 -0.072500653929951281 -0.45326384495737682 0 -0.089414579304053193 -0.46884256330491791 0 -0.072500653929951281 -0.45326384495737682 0 -0.091784902643673755 -0.45373301237521613 0 -0.084868943220896012 -0.44146276372930499 0 -0.091784902643673755 -0.45373301237521613 0 -0.084868943220896012 -0.44146276372930499 0 -0.1037226805557151 -0.43991395866103072 0 -0.073777433285392879 -0.44066710727023628 0 -0.084868943220896012 -0.44146276372930499 0 -0.077582803672180289 -0.4310152023166488 0 -0.065695662080971218 -0.5 0 -0.066484864528714924 -0.47292620497334681 0 -0.082675169939408683 -0.48592454837552651 0 -0.089414579304053193 -0.46884256330491791 0 -0.082675169939408683 -0.48592454837552651 0 -0.10632850467815511 -0.48442128165245912 0 -0.066484864528714924 -0.47292620497334681 0 -0.089414579304053193 -0.46884256330491791 0 -0.082675169939408683 -0.48592454837552651 0 -0.065695662080971218 -0.5 0 -0.082675169939408683 -0.48592454837552651 0 -0.09446904606661416 -0.5 0 -0.082675169939408683 -0.48592454837552651 0 -0.09446904606661416 -0.5 0 -0.10632850467815511 -0.48442128165245912 0 -0.09446904606661416 -0.5 0 -0.10632850467815511 -0.48442128165245912 0 -0.1232424300522571 -0.50000000000000022 0 -0.089414579304053193 -0.46884256330491791 0 -0.10632850467815511 -0.48442128165245912 0 -0.089414579304053193 -0.46884256330491791 0 -0.10632850467815511 -0.48442128165245912 0 -0.1084176562077532 -0.46518193122345031 0 -0.10632850467815511 -0.48442128165245912 0 -0.12465513040357 -0.47508540333902072 0 -0.1084176562077532 -0.46518193122345031 0 -0.10632850467815511 -0.48442128165245912 0 -0.1232424300522571 -0.50000000000000022 0 -0.10632850467815511 -0.48442128165245912 0 -0.12465513040357 -0.47508540333902072 0 -0.1232424300522571 -0.50000000000000022 0 -0.091784902643673755 -0.45373301237521613 0 -0.1037226805557151 -0.43991395866103072 0 -0.1084176562077532 -0.46518193122345031 0 -0.091784902643673755 -0.45373301237521613 0 -0.089414579304053193 -0.46884256330491791 0 -0.1084176562077532 -0.46518193122345031 0 -0.12465513040357 -0.47508540333902072 0 -0.1084176562077532 -0.46518193122345031 0 -0.1230696054043576 -0.45253924385944672 0 -0.1037226805557151 -0.43991395866103072 0 -0.1084176562077532 -0.46518193122345031 0 -0.1230696054043576 -0.45253924385944672 0 -0.1037226805557151 -0.43991395866103072 0 -0.1230696054043576 -0.45253924385944672 0 -0.12730886471849501 -0.42894014723380652 0 -0.1037226805557151 -0.43991395866103072 0 -0.1230696054043576 -0.45253924385944672 0 -0.12730886471849501 -0.42894014723380652 0 -0.1037226805557151 -0.43991395866103072 0 -0.1043328289081349 -0.41634047174650829 0 -0.1037226805557151 -0.43991395866103072 0 -0.084375755707072564 -0.42728867346261451 0 -0.1037226805557151 -0.43991395866103072 0 -0.1043328289081349 -0.41634047174650829 0 -0.084375755707072564 -0.42728867346261451 0 -0.1043328289081349 -0.41634047174650829 0 -0.1082086173480085 -0.4003841668836291 0 -0.086769689372517667 -0.40658557449925042 0 -0.1043328289081349 -0.41634047174650829 0 -0.084375755707072564 -0.42728867346261451 0 -0.1043328289081349 -0.41634047174650829 0 -0.1242899021091972 -0.40539227003040212 0 -0.1082086173480085 -0.4003841668836291 0 -0.12730886471849501 -0.42894014723380652 0 -0.1043328289081349 -0.41634047174650829 0 -0.1242899021091972 -0.40539227003040212 0 -0.1043328289081349 -0.41634047174650829 0 -0.1242899021091972 -0.40539227003040212 0 -0.1242899021091972 -0.40539227003040212 0 -0.123125967385699 -0.38326329564409112 0 -0.1082086173480085 -0.4003841668836291 0 -0.1101251158064306 -0.37172048552693032 0 -0.123125967385699 -0.38326329564409112 0 -0.1048519717892928 -0.38446671286167061 0 -0.123125967385699 -0.38326329564409112 0 -0.1048519717892928 -0.38446671286167061 0 -0.1082086173480085 -0.4003841668836291 0 -0.092091339189035962 -0.37487227829647968 0 -0.1048519717892928 -0.38446671286167061 0 -0.09126779366712813 -0.39056863005542691 0 -0.1101251158064306 -0.37172048552693032 0 -0.092091339189035962 -0.37487227829647968 0 -0.1048519717892928 -0.38446671286167061 0 -0.1048519717892928 -0.38446671286167061 0 -0.1082086173480085 -0.4003841668836291 0 -0.09126779366712813 -0.39056863005542691 0 -0.1082086173480085 -0.4003841668836291 0 -0.09126779366712813 -0.39056863005542691 0 -0.086769689372517667 -0.40658557449925042 0 -0.09126779366712813 -0.39056863005542691 0 -0.073597346072557829 -0.38729587695043299 0 -0.086769689372517667 -0.40658557449925042 0 -0.092091339189035962 -0.37487227829647968 0 -0.09126779366712813 -0.39056863005542691 0 -0.073597346072557829 -0.38729587695043299 0 -0.056759602522948559 -0.40926711123707182 0 -0.073597346072557829 -0.38729587695043299 0 -0.067799092949976214 -0.416471187139409 0 -0.073597346072557829 -0.38729587695043299 0 -0.067799092949976214 -0.416471187139409 0 -0.086769689372517667 -0.40658557449925042 0 -0.073597346072557829 -0.38729587695043299 0 -0.067799092949976214 -0.416471187139409 0 -0.067799092949976214 -0.416471187139409 0 -0.084375755707072564 -0.42728867346261451 0 -0.063063931953010244 -0.4402972926854104 0 -0.067799092949976214 -0.416471187139409 0 -0.067799092949976214 -0.416471187139409 0 -0.070555815465139907 -0.43211269735292612 0 -0.077582803672180289 -0.4310152023166488 0 -0.067799092949976214 -0.416471187139409 0 -0.077582803672180289 -0.4310152023166488 0 -0.084375755707072564 -0.42728867346261451 0 -0.063063931953010244 -0.4402972926854104 0 -0.067799092949976214 -0.416471187139409 0 -0.070555815465139907 -0.43211269735292612 0 -0.073777433285392879 -0.44066710727023628 0 -0.070555815465139907 -0.43211269735292612 0 -0.077582803672180289 -0.4310152023166488 0 -0.084868943220896012 -0.44146276372930499 0 -0.1037226805557151 -0.43991395866103072 0 -0.084375755707072564 -0.42728867346261451 0 -0.077582803672180289 -0.4310152023166488 0 -0.084375755707072564 -0.42728867346261451 0 -0.084868943220896012 -0.44146276372930499 0 -0.077582803672180289 -0.4310152023166488 0 -0.084375755707072564 -0.42728867346261451 0 -0.067799092949976214 -0.416471187139409 0 -0.084375755707072564 -0.42728867346261451 0 -0.086769689372517667 -0.40658557449925042 0 -0.1043328289081349 -0.41634047174650829 0 -0.084375755707072564 -0.42728867346261451 0 -0.086769689372517667 -0.40658557449925042 0 -0.087974354719905917 -0.088843024495116774 0 -0.087577342815421011 -0.09054745959757797 0 -0.06350288025406832 -0.081700090072036435 0 -0.082732400265469117 -0.082887985106693096 0 -0.087974354719905917 -0.088843024495116774 0 -0.075722812235163639 -0.082550968605180602 0 -0.082732400265469117 -0.082887985106693096 0 -0.087974354719905917 -0.088843024495116774 0 -0.086357032898493405 -0.083477571540117174 0 -0.082732400265469117 -0.082887985106693096 0 -0.083213985729896467 -0.08034156245175926 0 -0.086357032898493405 -0.083477571540117174 0 -0.083213985729896467 -0.08034156245175926 0 -0.086357032898493405 -0.083477571540117174 0 -0.086577557782174408 -0.07958563017700522 0 -0.083213985729896467 -0.08034156245175926 0 -0.086577557782174408 -0.07958563017700522 0 -0.082930353531260423 -0.076569789635785188 0 -0.083213985729896467 -0.08034156245175926 0 -0.080393815743885974 -0.079226798441291518 0 -0.082930353531260423 -0.076569789635785188 0 -0.082732400265469117 -0.082887985106693096 0 -0.083213985729896467 -0.08034156245175926 0 -0.080393815743885974 -0.079226798441291518 0 -0.082732400265469117 -0.082887985106693096 0 -0.080393815743885974 -0.079226798441291518 0 -0.075722812235163639 -0.082550968605180602 0 -0.087974354719905917 -0.088843024495116774 0 -0.088471628540416153 -0.086708149077934393 0 -0.086357032898493405 -0.083477571540117174 0 -0.087974354719905917 -0.088843024495116774 0 -0.087577342815421011 -0.09054745959757797 0 -0.091673318775770826 -0.08992270842349312 0 -0.087974354719905917 -0.088843024495116774 0 -0.087577342815421011 -0.09054745959757797 0 -0.087974354719905917 -0.088843024495116774 0 -0.091673318775770826 -0.08992270842349312 0 -0.088471628540416153 -0.086708149077934393 0 -0.090671362733463018 -0.086948220769208023 0 -0.089062244171151939 -0.084186940788981354 0 -0.087974354719905917 -0.088843024495116774 0 -0.088471628540416153 -0.086708149077934393 0 -0.087974354719905917 -0.088843024495116774 0 -0.088471628540416153 -0.086708149077934393 0 -0.090671362733463018 -0.086948220769208023 0 -0.087577342815421011 -0.09054745959757797 0 -0.091673318775770826 -0.08992270842349312 0 -0.087577342815421011 -0.09054745959757797 0 -0.091673318775770826 -0.08992270842349312 0 -0.094765407840774932 -0.090825252708369816 0 -0.087577342815421011 -0.09054745959757797 0 -0.094765407840774932 -0.090825252708369816 0 -0.087577342815421011 -0.09054745959757797 0 -0.091155941448770317 -0.094192501112227531 0 -0.094765407840774932 -0.090825252708369816 0 -0.091673318775770826 -0.08992270842349312 0 -0.094765407840774932 -0.090825252708369816 0 -0.087974354719905917 -0.088843024495116774 0 -0.091673318775770826 -0.08992270842349312 0 -0.090671362733463018 -0.086948220769208023 0 -0.091673318775770826 -0.08992270842349312 0 -0.090671362733463018 -0.086948220769208023 0 -0.094017700642740787 -0.08670860212744308 0 -0.090671362733463018 -0.086948220769208023 0 -0.091818305897320873 -0.084476757871393693 0 -0.094017700642740787 -0.08670860212744308 0 -0.091818305897320873 -0.084476757871393693 0 -0.095098643793535484 -0.08330938029616955 0 -0.094017700642740787 -0.08670860212744308 0 -0.091818305897320873 -0.084476757871393693 0 -0.092106837963776542 -0.082214570441101906 0 -0.095098643793535484 -0.08330938029616955 0 -0.091818305897320873 -0.084476757871393693 0 -0.092106837963776542 -0.082214570441101906 0 -0.089647292214726282 -0.081689701941347087 0 -0.091818305897320873 -0.084476757871393693 0 -0.089062244171151939 -0.084186940788981354 0 -0.089647292214726282 -0.081689701941347087 0 -0.090671362733463018 -0.086948220769208023 0 -0.091818305897320873 -0.084476757871393693 0 -0.089062244171151939 -0.084186940788981354 0 -0.088471628540416153 -0.086708149077934393 0 -0.089062244171151939 -0.084186940788981354 0 -0.086357032898493405 -0.083477571540117174 0 -0.089062244171151939 -0.084186940788981354 0 -0.086357032898493405 -0.083477571540117174 0 -0.089647292214726282 -0.081689701941347087 0 -0.089647292214726282 -0.081689701941347087 0 -0.089018262734373327 -0.079191310000607654 0 -0.08966035705368948 -0.077256510994723623 0 -0.086577557782174408 -0.07958563017700522 0 -0.089018262734373327 -0.079191310000607654 0 -0.087985090991069131 -0.076107466228581014 0 -0.086357032898493405 -0.083477571540117174 0 -0.086577557782174408 -0.07958563017700522 0 -0.089647292214726282 -0.081689701941347087 0 -0.086577557782174408 -0.07958563017700522 0 -0.089647292214726282 -0.081689701941347087 0 -0.089018262734373327 -0.079191310000607654 0 -0.092106837963776542 -0.082214570441101906 0 -0.089647292214726282 -0.081689701941347087 0 -0.08966035705368948 -0.077256510994723623 0 -0.092106837963776542 -0.082214570441101906 0 -0.08966035705368948 -0.077256510994723623 0 -0.095098643793535484 -0.08330938029616955 0 -0.08966035705368948 -0.077256510994723623 0 -0.086540494520770492 -0.06559441069284358 0 -0.095098643793535484 -0.08330938029616955 0 -0.087225877157575141 -0.072688737362414629 0 -0.08966035705368948 -0.077256510994723623 0 -0.086540494520770492 -0.06559441069284358 0 -0.086540494520770492 -0.06559441069284358 0 -0.1004057788246672 -0.088534634180748126 0 -0.0920783590780824 -0.066400139240328657 0 -0.086540494520770492 -0.06559441069284358 0 -0.1004057788246672 -0.088534634180748126 0 -0.087225877157575141 -0.072688737362414629 0 -0.087985090991069131 -0.076107466228581014 0 -0.084981111081486427 -0.07311451795882673 0 -0.087225877157575141 -0.072688737362414629 0 -0.08966035705368948 -0.077256510994723623 0 -0.087985090991069131 -0.076107466228581014 0 -0.089018262734373327 -0.079191310000607654 0 -0.08966035705368948 -0.077256510994723623 0 -0.087985090991069131 -0.076107466228581014 0 -0.087225877157575141 -0.072688737362414629 0 -0.086540494520770492 -0.06559441069284358 0 -0.084439638391384353 -0.069547723555580546 0 -0.086540494520770492 -0.06559441069284358 0 -0.081040895411404454 -0.066564410585386452 0 -0.080050880038532723 -0.061354317569527438 0 -0.086540494520770492 -0.06559441069284358 0 -0.084439638391384353 -0.069547723555580546 0 -0.081040895411404454 -0.066564410585386452 0 -0.084439638391384353 -0.069547723555580546 0 -0.081040895411404454 -0.066564410585386452 0 -0.08223937688660099 -0.071541204845113282 0 -0.081040895411404454 -0.066564410585386452 0 -0.08223937688660099 -0.071541204845113282 0 -0.077013722488465497 -0.07159540941591494 0 -0.081040895411404454 -0.066564410585386452 0 -0.077041810622474241 -0.062662991055495609 0 -0.080050880038532723 -0.061354317569527438 0 -0.086577557782174408 -0.07958563017700522 0 -0.087985090991069131 -0.076107466228581014 0 -0.082930353531260423 -0.076569789635785188 0 -0.087985090991069131 -0.076107466228581014 0 -0.082930353531260423 -0.076569789635785188 0 -0.084981111081486427 -0.07311451795882673 0 -0.082930353531260423 -0.076569789635785188 0 -0.084981111081486427 -0.07311451795882673 0 -0.08223937688660099 -0.071541204845113282 0 -0.087225877157575141 -0.072688737362414629 0 -0.084439638391384353 -0.069547723555580546 0 -0.084981111081486427 -0.07311451795882673 0 -0.084439638391384353 -0.069547723555580546 0 -0.084981111081486427 -0.07311451795882673 0 -0.08223937688660099 -0.071541204845113282 0 -0.08223937688660099 -0.071541204845113282 0 -0.079940829078863823 -0.074622162816081306 0 -0.077013722488465497 -0.07159540941591494 0 -0.082930353531260423 -0.076569789635785188 0 -0.08223937688660099 -0.071541204845113282 0 -0.079940829078863823 -0.074622162816081306 0 -0.080393815743885974 -0.079226798441291518 0 -0.082930353531260423 -0.076569789635785188 0 -0.079940829078863823 -0.074622162816081306 0 -0.080393815743885974 -0.079226798441291518 0 -0.079940829078863823 -0.074622162816081306 0 -0.076941208682835133 -0.077092309744027171 0 -0.076941208682835133 -0.077092309744027171 0 -0.077013722488465497 -0.07159540941591494 0 -0.072808109695265327 -0.074019338332528509 0 -0.079940829078863823 -0.074622162816081306 0 -0.076941208682835133 -0.077092309744027171 0 -0.077013722488465497 -0.07159540941591494 0 -0.072808109695265327 -0.074019338332528509 0 -0.070932630712467484 -0.068170873109463709 0 -0.067520077108130364 -0.07371190083201043 0 -0.077013722488465497 -0.07159540941591494 0 -0.072808109695265327 -0.074019338332528509 0 -0.070932630712467484 -0.068170873109463709 0 -0.072808109695265327 -0.074019338332528509 0 -0.071329371403213979 -0.077970492157526605 0 -0.067520077108130364 -0.07371190083201043 0 -0.076941208682835133 -0.077092309744027171 0 -0.072808109695265327 -0.074019338332528509 0 -0.071329371403213979 -0.077970492157526605 0 -0.081040895411404454 -0.066564410585386452 0 -0.077041810622474241 -0.062662991055495609 0 -0.076111259720126376 -0.066671038271931674 0 -0.077041810622474241 -0.062662991055495609 0 -0.076111259720126376 -0.066671038271931674 0 -0.073456461895847272 -0.060537993629323369 0 -0.081040895411404454 -0.066564410585386452 0 -0.077013722488465497 -0.07159540941591494 0 -0.076111259720126376 -0.066671038271931674 0 -0.077013722488465497 -0.07159540941591494 0 -0.076111259720126376 -0.066671038271931674 0 -0.070932630712467484 -0.068170873109463709 0 -0.070932630712467484 -0.068170873109463709 0 -0.073456461895847272 -0.060537993629323369 0 -0.066789463891685358 -0.061871852090517217 0 -0.076111259720126376 -0.066671038271931674 0 -0.070932630712467484 -0.068170873109463709 0 -0.073456461895847272 -0.060537993629323369 0 -0.062677551147145169 -0.068010725992169924 0 -0.066789463891685358 -0.061871852090517217 0 -0.058627058711837418 -0.059165224964098838 0 -0.070932630712467484 -0.068170873109463709 0 -0.062677551147145169 -0.068010725992169924 0 -0.066789463891685358 -0.061871852090517217 0 -0.070932630712467484 -0.068170873109463709 0 -0.062677551147145169 -0.068010725992169924 0 -0.067520077108130364 -0.07371190083201043 0 -0.067520077108130364 -0.07371190083201043 0 -0.06350288025406832 -0.081700090072036435 0 -0.061882072362706868 -0.073527200219238392 0 -0.071329371403213979 -0.077970492157526605 0 -0.067520077108130364 -0.07371190083201043 0 -0.06350288025406832 -0.081700090072036435 0 -0.062677551147145169 -0.068010725992169924 0 -0.067520077108130364 -0.07371190083201043 0 -0.061882072362706868 -0.073527200219238392 0 -0.087577342815421011 -0.09054745959757797 0 -0.06350288025406832 -0.081700090072036435 0 -0.059746757096571679 -0.089337395062774161 0 -0.087577342815421011 -0.09054745959757797 0 -0.059746757096571679 -0.089337395062774161 0 -0.061063907421878158 -0.09478824863186544 0 -0.087577342815421011 -0.09054745959757797 0 -0.061063907421878158 -0.09478824863186544 0 -0.087974354719905917 -0.088843024495116774 0 -0.06350288025406832 -0.081700090072036435 0 -0.075722812235163639 -0.082550968605180602 0 -0.087577342815421011 -0.09054745959757797 0 -0.059746757096571679 -0.089337395062774161 0 -0.071329371403213979 -0.077970492157526605 0 -0.06350288025406832 -0.081700090072036435 0 -0.075722812235163639 -0.082550968605180602 0 -0.087974354719905917 -0.088843024495116774 0 -0.06350288025406832 -0.081700090072036435 0 -0.076941208682835133 -0.077092309744027171 0 -0.071329371403213979 -0.077970492157526605 0 -0.075722812235163639 -0.082550968605180602 0 -0.080393815743885974 -0.079226798441291518 0 -0.076941208682835133 -0.077092309744027171 0 -0.075722812235163639 -0.082550968605180602 0 -0.087577342815421011 -0.09054745959757797 0 -0.075973286763083597 -0.1030648497075716 0 -0.061063907421878158 -0.09478824863186544 0 -0.065528315039284135 -0.1030849184790758 0 -0.075973286763083597 -0.1030648497075716 0 -0.061063907421878158 -0.09478824863186544 0 -0.065528315039284135 -0.1030849184790758 0 -0.075973286763083597 -0.1030648497075716 0 -0.065957364449601041 -0.10989105591042329 0 -0.065528315039284135 -0.1030849184790758 0 -0.065957364449601041 -0.10989105591042329 0 -0.059118701522573751 -0.1045955196664427 0 -0.080855942706341555 -0.1194034967949565 0 -0.061547629105528363 -0.12005784721570339 0 -0.064455597417520896 -0.1299350705479437 0 -0.075973286763083597 -0.1030648497075716 0 -0.065957364449601041 -0.10989105591042329 0 -0.080855942706341555 -0.1194034967949565 0 -0.065957364449601041 -0.10989105591042329 0 -0.080855942706341555 -0.1194034967949565 0 -0.061547629105528363 -0.12005784721570339 0 -0.080855942706341555 -0.1194034967949565 0 -0.096346363153965275 -0.1094179357238871 0 -0.1009891402431053 -0.1251525369066844 0 -0.080855942706341555 -0.1194034967949565 0 -0.090698265855893245 -0.102144542762964 0 -0.096346363153965275 -0.1094179357238871 0 -0.087577342815421011 -0.09054745959757797 0 -0.080855942706341555 -0.1194034967949565 0 -0.087577342815421011 -0.09054745959757797 0 -0.075973286763083597 -0.1030648497075716 0 -0.080855942706341555 -0.1194034967949565 0 -0.087577342815421011 -0.09054745959757797 0 -0.080855942706341555 -0.1194034967949565 0 -0.090698265855893245 -0.102144542762964 0 -0.090698265855893245 -0.102144542762964 0 -0.091155941448770317 -0.094192501112227531 0 -0.097907864072978273 -0.099377673856778675 0 -0.087577342815421011 -0.09054745959757797 0 -0.090698265855893245 -0.102144542762964 0 -0.091155941448770317 -0.094192501112227531 0 -0.097907864072978273 -0.099377673856778675 0 -0.103295048637048 -0.093314954133811301 0 -0.094765407840774932 -0.090825252708369816 0 -0.091155941448770317 -0.094192501112227531 0 -0.097907864072978273 -0.099377673856778675 0 -0.094765407840774932 -0.090825252708369816 0 -0.090698265855893245 -0.102144542762964 0 -0.097907864072978273 -0.099377673856778675 0 -0.096346363153965275 -0.1094179357238871 0 -0.097907864072978273 -0.099377673856778675 0 -0.096346363153965275 -0.1094179357238871 0 -0.1111861575014184 -0.1063708566994124 0 -0.097907864072978273 -0.099377673856778675 0 -0.1111861575014184 -0.1063708566994124 0 -0.103295048637048 -0.093314954133811301 0 -0.1111861575014184 -0.1063708566994124 0 -0.103295048637048 -0.093314954133811301 0 -0.096346363153965275 -0.1094179357238871 0 -0.1111861575014184 -0.1063708566994124 0 -0.1009891402431053 -0.1251525369066844 0 -0.11907726636578921 -0.1194267592650132 0 -0.12405876720250419 -0.12937388037033051 0 -0.13091026451203749 -0.1131775294615706 0 -0.11907726636578921 -0.1194267592650132 0 -0.1111861575014184 -0.1063708566994124 0 -0.1009891402431053 -0.1251525369066844 0 -0.12109799714093911 -0.1095263653552736 0 -0.11907726636578921 -0.1194267592650132 0 -0.1111861575014184 -0.1063708566994124 0 -0.11907726636578921 -0.1194267592650132 0 -0.1111861575014184 -0.1063708566994124 0 -0.12109799714093911 -0.1095263653552736 0 -0.11907726636578921 -0.1194267592650132 0 -0.13091026451203749 -0.1131775294615706 0 -0.1149633499731197 -0.094627097060670712 0 -0.12321830018451151 -0.099130315995098348 0 -0.103295048637048 -0.093314954133811301 0 -0.12321830018451151 -0.099130315995098348 0 -0.103295048637048 -0.093314954133811301 0 -0.1111861575014184 -0.1063708566994124 0 -0.12321830018451151 -0.099130315995098348 0 -0.103295048637048 -0.093314954133811301 0 -0.12109799714093911 -0.1095263653552736 0 -0.1111861575014184 -0.1063708566994124 0 -0.12321830018451151 -0.099130315995098348 0 -0.1149633499731197 -0.094627097060670712 0 -0.12321830018451151 -0.099130315995098348 0 -0.1185551860560342 -0.091836022759538755 0 -0.12321830018451151 -0.099130315995098348 0 -0.1247857037112305 -0.092014141712698089 0 -0.1185551860560342 -0.091836022759538755 0 -0.1247857037112305 -0.092014141712698089 0 -0.1185551860560342 -0.091836022759538755 0 -0.12527752501238221 -0.083939856630775911 0 -0.1185551860560342 -0.091836022759538755 0 -0.1165033569194583 -0.084645055623124923 0 -0.12527752501238221 -0.083939856630775911 0 -0.1165033569194583 -0.084645055623124923 0 -0.1175215696211345 -0.076193242745727571 0 -0.12527752501238221 -0.083939856630775911 0 -0.111852954198562 -0.080004995982493471 0 -0.1165033569194583 -0.084645055623124923 0 -0.1175215696211345 -0.076193242745727571 0 -0.111852954198562 -0.080004995982493471 0 -0.1165033569194583 -0.084645055623124923 0 -0.1124916175674974 -0.091578396422043296 0 -0.1149633499731197 -0.094627097060670712 0 -0.1124916175674974 -0.091578396422043296 0 -0.103295048637048 -0.093314954133811301 0 -0.1149633499731197 -0.094627097060670712 0 -0.1185551860560342 -0.091836022759538755 0 -0.1124916175674974 -0.091578396422043296 0 -0.1185551860560342 -0.091836022759538755 0 -0.1124916175674974 -0.091578396422043296 0 -0.1149633499731197 -0.094627097060670712 0 -0.1124916175674974 -0.091578396422043296 0 -0.1185551860560342 -0.091836022759538755 0 -0.1165033569194583 -0.084645055623124923 0 -0.1124916175674974 -0.091578396422043296 0 -0.1124916175674974 -0.091578396422043296 0 -0.10197540178289879 -0.091131587886440393 0 -0.1124916175674974 -0.091578396422043296 0 -0.10197540178289879 -0.091131587886440393 0 -0.103295048637048 -0.093314954133811301 0 -0.086540494520770492 -0.06559441069284358 0 -0.095098643793535484 -0.08330938029616955 0 -0.1004057788246672 -0.088534634180748126 0 -0.1124916175674974 -0.091578396422043296 0 -0.1065832920518552 -0.087552683281819907 0 -0.1022849883227909 -0.078989267831185164 0 -0.1124916175674974 -0.091578396422043296 0 -0.10197540178289879 -0.091131587886440393 0 -0.1065832920518552 -0.087552683281819907 0 -0.10197540178289879 -0.091131587886440393 0 -0.103295048637048 -0.093314954133811301 0 -0.10197540178289879 -0.091131587886440393 0 -0.1065832920518552 -0.087552683281819907 0 -0.1004057788246672 -0.088534634180748126 0 -0.1065832920518552 -0.087552683281819907 0 -0.1004057788246672 -0.088534634180748126 0 -0.1124916175674974 -0.091578396422043296 0 -0.1022849883227909 -0.078989267831185164 0 -0.1065832920518552 -0.087552683281819907 0 -0.1022849883227909 -0.078989267831185164 0 -0.1004057788246672 -0.088534634180748126 0 -0.111852954198562 -0.080004995982493471 0 -0.1124916175674974 -0.091578396422043296 0 -0.1022849883227909 -0.078989267831185164 0 -0.10197540178289879 -0.091131587886440393 0 -0.103295048637048 -0.093314954133811301 0 -0.094765407840774932 -0.090825252708369816 0 -0.103295048637048 -0.093314954133811301 0 -0.094765407840774932 -0.090825252708369816 0 -0.091673318775770826 -0.08992270842349312 0 -0.094765407840774932 -0.090825252708369816 0 -0.1004057788246672 -0.088534634180748126 0 -0.091673318775770826 -0.08992270842349312 0 -0.1004057788246672 -0.088534634180748126 0 -0.091673318775770826 -0.08992270842349312 0 -0.094017700642740787 -0.08670860212744308 0 -0.1004057788246672 -0.088534634180748126 0 -0.095098643793535484 -0.08330938029616955 0 -0.094017700642740787 -0.08670860212744308 0 -0.1004057788246672 -0.088534634180748126 0 -0.10197540178289879 -0.091131587886440393 0 -0.094765407840774932 -0.090825252708369816 0 -0.1004057788246672 -0.088534634180748126 0 -0.10197540178289879 -0.091131587886440393 0 -0.094765407840774932 -0.090825252708369816 0 -0.10197540178289879 -0.091131587886440393 0 -0.1004057788246672 -0.088534634180748126 0 -0.0920783590780824 -0.066400139240328657 0 -0.1022849883227909 -0.078989267831185164 0 -0.1004057788246672 -0.088534634180748126 0 -0.0920783590780824 -0.066400139240328657 0 -0.1022849883227909 -0.078989267831185164 0 -0.1104632385619289 -0.068619017290386455 0 -0.0920783590780824 -0.066400139240328657 0 -0.1022849883227909 -0.078989267831185164 0 -0.111852954198562 -0.080004995982493471 0 -0.1022849883227909 -0.078989267831185164 0 -0.1104632385619289 -0.068619017290386455 0 -0.1104632385619289 -0.068619017290386455 0 -0.1175215696211345 -0.076193242745727571 0 -0.1263523515483003 -0.069295255791671145 0 -0.1104632385619289 -0.068619017290386455 0 -0.11702759225075859 -0.051132925731288512 0 -0.1263523515483003 -0.069295255791671145 0 -0.111852954198562 -0.080004995982493471 0 -0.1104632385619289 -0.068619017290386455 0 -0.1175215696211345 -0.076193242745727571 0 -0.1175215696211345 -0.076193242745727571 0 -0.1263523515483003 -0.069295255791671145 0 -0.12527752501238221 -0.083939856630775911 0 -0.11702759225075859 -0.051132925731288512 0 -0.1181622066211899 -0.033862262445460443 0 -0.097528003885424042 -0.045996189964202711 0 -0.1181622066211899 -0.033862262445460443 0 -0.097528003885424042 -0.045996189964202711 0 -0.101663232835741 -0.027718045388766169 0 -0.097528003885424042 -0.045996189964202711 0 -0.101663232835741 -0.027718045388766169 0 -0.08624923291985806 -0.034198458501809227 0 -0.0920783590780824 -0.066400139240328657 0 -0.1104632385619289 -0.068619017290386455 0 -0.11702759225075859 -0.051132925731288512 0 -0.0920783590780824 -0.066400139240328657 0 -0.11702759225075859 -0.051132925731288512 0 -0.097528003885424042 -0.045996189964202711 0 -0.0920783590780824 -0.066400139240328657 0 -0.11702759225075859 -0.051132925731288512 0 -0.1233175976785533 -0.0013763948974506749 0 -0.1189110916564507 -0.01854792215838981 0 -0.10232618472210959 -0.01012198025123094 0 -0.1233175976785533 -0.0013763948974506749 0 -0.10232618472210959 -0.01012198025123094 0 -0.1233175976785533 -0.0013763948974506749 0 -0.10232618472210959 -0.01012198025123094 0 -0.11571833404873361 0.0051250802623291356 0 -0.1181622066211899 -0.033862262445460443 0 -0.1189110916564507 -0.01854792215838981 0 -0.101663232835741 -0.027718045388766169 0 -0.1181622066211899 -0.033862262445460443 0 -0.1189110916564507 -0.01854792215838981 0 -0.1318664936753301 -0.023912779207867361 0 -0.1189110916564507 -0.01854792215838981 0 -0.101663232835741 -0.027718045388766169 0 -0.10232618472210959 -0.01012198025123094 0 -0.101663232835741 -0.027718045388766169 0 -0.10232618472210959 -0.01012198025123094 0 -0.081408827909099479 -0.018781004917855081 0 -0.10232618472210959 -0.01012198025123094 0 -0.083185712721567245 -0.00052073779233788493 0 -0.1000252883819376 0.0054039767755358001 0 -0.10232618472210959 -0.01012198025123094 0 -0.081408827909099479 -0.018781004917855081 0 -0.10232618472210959 -0.01012198025123094 0 -0.083185712721567245 -0.00052073779233788493 0 -0.081408827909099479 -0.018781004917855081 0 -0.101663232835741 -0.027718045388766169 0 -0.081408827909099479 -0.018781004917855081 0 -0.08624923291985806 -0.034198458501809227 0 -0.081408827909099479 -0.018781004917855081 0 -0.06049147109608919 -0.027440029584478939 0 -0.081408827909099479 -0.018781004917855081 0 -0.066646939806800531 -0.01160546851398322 0 -0.06049147109608919 -0.027440029584478939 0 -0.081408827909099479 -0.018781004917855081 0 -0.08624923291985806 -0.034198458501809227 0 -0.06049147109608919 -0.027440029584478939 0 -0.083185712721567245 -0.00052073779233788493 0 -0.066646939806800531 -0.01160546851398322 0 -0.062971457059756569 0.003398427010444498 0 -0.083185712721567245 -0.00052073779233788493 0 -0.081408827909099479 -0.018781004917855081 0 -0.066646939806800531 -0.01160546851398322 0 -0.086540494520770492 -0.06559441069284358 0 -0.072766400502454281 -0.042580254729873243 0 -0.076284915087087263 -0.046920084412402703 0 -0.0920783590780824 -0.066400139240328657 0 -0.076284915087087263 -0.046920084412402703 0 -0.0920783590780824 -0.066400139240328657 0 -0.086165385746610562 -0.052748129397522957 0 -0.076284915087087263 -0.046920084412402703 0 -0.086540494520770492 -0.06559441069284358 0 -0.072766400502454281 -0.042580254729873243 0 -0.0920783590780824 -0.066400139240328657 0 -0.086540494520770492 -0.06559441069284358 0 -0.076284915087087263 -0.046920084412402703 0 -0.086540494520770492 -0.06559441069284358 0 -0.072766400502454281 -0.042580254729873243 0 -0.076556676067329271 -0.0543530929478429 0 -0.0920783590780824 -0.066400139240328657 0 -0.097528003885424042 -0.045996189964202711 0 -0.089730429690145913 -0.052404649500050811 0 -0.086165385746610562 -0.052748129397522957 0 -0.086567839131126728 -0.045267644437309698 0 -0.076284915087087263 -0.046920084412402703 0 -0.086540494520770492 -0.06559441069284358 0 -0.080050880038532723 -0.061354317569527438 0 -0.076556676067329271 -0.0543530929478429 0 -0.0920783590780824 -0.066400139240328657 0 -0.089730429690145913 -0.052404649500050811 0 -0.086165385746610562 -0.052748129397522957 0 -0.097528003885424042 -0.045996189964202711 0 -0.089730429690145913 -0.052404649500050811 0 -0.086567839131126728 -0.045267644437309698 0 -0.089730429690145913 -0.052404649500050811 0 -0.086165385746610562 -0.052748129397522957 0 -0.086567839131126728 -0.045267644437309698 0 -0.097528003885424042 -0.045996189964202711 0 -0.086567839131126728 -0.045267644437309698 0 -0.08624923291985806 -0.034198458501809227 0 -0.086567839131126728 -0.045267644437309698 0 -0.08624923291985806 -0.034198458501809227 0 -0.076284915087087263 -0.046920084412402703 0 -0.08624923291985806 -0.034198458501809227 0 -0.072766400502454281 -0.042580254729873243 0 -0.076284915087087263 -0.046920084412402703 0 -0.072766400502454281 -0.042580254729873243 0 -0.076284915087087263 -0.046920084412402703 0 -0.08624923291985806 -0.034198458501809227 0 -0.072766400502454281 -0.042580254729873243 0 -0.06049147109608919 -0.027440029584478939 0 -0.072766400502454281 -0.042580254729873243 0 -0.06049147109608919 -0.027440029584478939 0 -0.072766400502454281 -0.042580254729873243 0 -0.060236521136849963 -0.040129742294195372 0 -0.06049147109608919 -0.027440029584478939 0 -0.066842254052056224 -0.045669912197671553 0 -0.06401634459847641 -0.050216487767052259 0 -0.060236521136849963 -0.040129742294195372 0 -0.072766400502454281 -0.042580254729873243 0 -0.066842254052056224 -0.045669912197671553 0 -0.060236521136849963 -0.040129742294195372 0 -0.072766400502454281 -0.042580254729873243 0 -0.066842254052056224 -0.045669912197671553 0 -0.070440940256025986 -0.049679231524498872 0 -0.06401634459847641 -0.050216487767052259 0 -0.070735878394186991 -0.055185864442222059 0 -0.06548849156964294 -0.056596268732625361 0 -0.06401634459847641 -0.050216487767052259 0 -0.070440940256025986 -0.049679231524498872 0 -0.070735878394186991 -0.055185864442222059 0 -0.066842254052056224 -0.045669912197671553 0 -0.06401634459847641 -0.050216487767052259 0 -0.070440940256025986 -0.049679231524498872 0 -0.072766400502454281 -0.042580254729873243 0 -0.070440940256025986 -0.049679231524498872 0 -0.076556676067329271 -0.0543530929478429 0 -0.070440940256025986 -0.049679231524498872 0 -0.076556676067329271 -0.0543530929478429 0 -0.070735878394186991 -0.055185864442222059 0 -0.077041810622474241 -0.062662991055495609 0 -0.076776457156045877 -0.059727098800547329 0 -0.073456461895847272 -0.060537993629323369 0 -0.077041810622474241 -0.062662991055495609 0 -0.080050880038532723 -0.061354317569527438 0 -0.076776457156045877 -0.059727098800547329 0 -0.080050880038532723 -0.061354317569527438 0 -0.076556676067329271 -0.0543530929478429 0 -0.076776457156045877 -0.059727098800547329 0 -0.076556676067329271 -0.0543530929478429 0 -0.076776457156045877 -0.059727098800547329 0 -0.073456461895847272 -0.060537993629323369 0 -0.076556676067329271 -0.0543530929478429 0 -0.070735878394186991 -0.055185864442222059 0 -0.073456461895847272 -0.060537993629323369 0 -0.070735878394186991 -0.055185864442222059 0 -0.073456461895847272 -0.060537993629323369 0 -0.066789463891685358 -0.061871852090517217 0 -0.06401634459847641 -0.050216487767052259 0 -0.06548849156964294 -0.056596268732625361 0 -0.058627058711837418 -0.059165224964098838 0 -0.066789463891685358 -0.061871852090517217 0 -0.06548849156964294 -0.056596268732625361 0 -0.058627058711837418 -0.059165224964098838 0 -0.070735878394186991 -0.055185864442222059 0 -0.066789463891685358 -0.061871852090517217 0 -0.06548849156964294 -0.056596268732625361 0 -0.058627058711837418 -0.059165224964098838 0 -0.051226116351478633 -0.048811855029514781 0 -0.04604535142824822 -0.058928790268728611 0 -0.06401634459847641 -0.050216487767052259 0 -0.058627058711837418 -0.059165224964098838 0 -0.051226116351478633 -0.048811855029514781 0 -0.040350193022120603 -0.035777785889872238 0 -0.06049147109608919 -0.027440029584478939 0 -0.06401634459847641 -0.050216487767052259 0 -0.051226116351478633 -0.048811855029514781 0 -0.060236521136849963 -0.040129742294195372 0 -0.051226116351478633 -0.048811855029514781 0 -0.060236521136849963 -0.040129742294195372 0 -0.040350193022120603 -0.035777785889872238 0 -0.060236521136849963 -0.040129742294195372 0 -0.040350193022120603 -0.035777785889872238 0 -0.06049147109608919 -0.027440029584478939 0 -0.051226116351478633 -0.048811855029514781 0 -0.040350193022120603 -0.035777785889872238 0 -0.037617526587032213 -0.049352210087163867 0 -0.040350193022120603 -0.035777785889872238 0 -0.037617526587032213 -0.049352210087163867 0 -0.02020891494815177 -0.044115542195265312 0 -0.037617526587032213 -0.049352210087163867 0 -0.04604535142824822 -0.058928790268728611 0 -0.030257057185161879 -0.059127077052438387 0 -0.051226116351478633 -0.048811855029514781 0 -0.037617526587032213 -0.049352210087163867 0 -0.04604535142824822 -0.058928790268728611 0 -0.066646939806800531 -0.01160546851398322 0 -0.06049147109608919 -0.027440029584478939 0 -0.04449598534487504 -0.0077107710636280802 0 -0.066646939806800531 -0.01160546851398322 0 -0.04449598534487504 -0.0077107710636280802 0 -0.062971457059756569 0.003398427010444498 0 -0.06049147109608919 -0.027440029584478939 0 -0.04449598534487504 -0.0077107710636280802 0 -0.040350193022120603 -0.035777785889872238 0 -0.06049147109608919 -0.027440029584478939 0 -0.04449598534487504 -0.0077107710636280802 0 -0.040350193022120603 -0.035777785889872238 0 -0.04449598534487504 -0.0077107710636280802 0 -0.024841850687949321 -0.026810960601400091 0 -0.01461459848910099 -0.01210327722946879 0 -0.02687766930537195 0.01198072755719223 0 -0.04449598534487504 -0.0077107710636280802 0 -0.01461459848910099 -0.01210327722946879 0 -0.02687766930537195 0.01198072755719223 0 -0.04449598534487504 -0.0077107710636280802 0 -0.024841850687949321 -0.026810960601400091 0 -0.01461459848910099 -0.01210327722946879 0 -0.01461459848910099 -0.01210327722946879 0 -0.0023515276728300698 -0.036187282016129758 0 -0.01461459848910099 -0.01210327722946879 0 -0.0023515276728300698 -0.036187282016129758 0 0.008821337616188217 -0.018882087659208839 0 -0.024841850687949321 -0.026810960601400091 0 -0.01461459848910099 -0.01210327722946879 0 -0.0023515276728300698 -0.036187282016129758 0 -0.01461459848910099 -0.01210327722946879 0 -0.0013666425693502891 0.0097628382489691745 0 0.0039791465726569976 -0.0051270665085446556 0 -0.01461459848910099 -0.01210327722946879 0 0.0039791465726569976 -0.0051270665085446556 0 0.008821337616188217 -0.018882087659208839 0 -0.037617526587032213 -0.049352210087163867 0 -0.030257057185161879 -0.059127077052438387 0 -0.02020891494815177 -0.044115542195265312 0 -0.030257057185161879 -0.059127077052438387 0 -0.02020891494815177 -0.044115542195265312 0 -0.014559931322394319 -0.067414221225871776 0 -0.040350193022120603 -0.035777785889872238 0 -0.024841850687949321 -0.026810960601400091 0 -0.02020891494815177 -0.044115542195265312 0 -0.040350193022120603 -0.035777785889872238 0 -0.02020891494815177 -0.044115542195265312 0 -0.024841850687949321 -0.026810960601400091 0 -0.02020891494815177 -0.044115542195265312 0 -0.0023515276728300698 -0.036187282016129758 0 -0.02020891494815177 -0.044115542195265312 0 -0.0023515276728300698 -0.036187282016129758 0 -0.005502050822162932 -0.052955514221292542 0 -0.005502050822162932 -0.052955514221292542 0 -0.014559931322394319 -0.067414221225871776 0 0.0099115431434426554 -0.060271286802789842 0 -0.02020891494815177 -0.044115542195265312 0 -0.005502050822162932 -0.052955514221292542 0 -0.014559931322394319 -0.067414221225871776 0 -0.014559931322394319 -0.067414221225871776 0 -0.0040832436918835022 -0.086972387210106444 0 0.0031983312488128601 -0.073661712566750581 0 -0.014559931322394319 -0.067414221225871776 0 0.0099115431434426554 -0.060271286802789842 0 -0.014559931322394319 -0.067414221225871776 0 0.0031983312488128601 -0.073661712566750581 0 0.0099115431434426554 -0.060271286802789842 0 -0.0040832436918835022 -0.086972387210106444 0 -0.0080288730825291057 -0.1032184692933187 0 0.0099361380484255905 -0.085693296239407024 0 -0.0040832436918835022 -0.086972387210106444 0 -0.031915000394227601 -0.088154891136440303 0 -0.0080288730825291057 -0.1032184692933187 0 -0.0040832436918835022 -0.086972387210106444 0 -0.031915000394227601 -0.088154891136440303 0 -0.014559931322394319 -0.067414221225871776 0 -0.0040832436918835022 -0.086972387210106444 0 -0.031915000394227601 -0.088154891136440303 0 -0.014559931322394319 -0.067414221225871776 0 -0.039031405788231263 -0.074557155648954099 0 -0.031915000394227601 -0.088154891136440303 0 -0.030257057185161879 -0.059127077052438387 0 -0.014559931322394319 -0.067414221225871776 0 -0.039031405788231263 -0.074557155648954099 0 -0.014559931322394319 -0.067414221225871776 0 -0.039031405788231263 -0.074557155648954099 0 -0.04604535142824822 -0.058928790268728611 0 -0.039031405788231263 -0.074557155648954099 0 -0.053827780941483661 -0.070686083980736766 0 -0.04604535142824822 -0.058928790268728611 0 -0.030257057185161879 -0.059127077052438387 0 -0.039031405788231263 -0.074557155648954099 0 -0.031915000394227601 -0.088154891136440303 0 -0.059746757096571679 -0.089337395062774161 0 -0.039031405788231263 -0.074557155648954099 0 -0.031915000394227601 -0.088154891136440303 0 -0.059746757096571679 -0.089337395062774161 0 -0.031915000394227601 -0.088154891136440303 0 -0.059746757096571679 -0.089337395062774161 0 -0.034546390252203567 -0.099003358962592061 0 -0.06350288025406832 -0.081700090072036435 0 -0.039031405788231263 -0.074557155648954099 0 -0.06350288025406832 -0.081700090072036435 0 -0.039031405788231263 -0.074557155648954099 0 -0.059746757096571679 -0.089337395062774161 0 -0.06350288025406832 -0.081700090072036435 0 -0.061882072362706868 -0.073527200219238392 0 -0.053827780941483661 -0.070686083980736766 0 -0.06350288025406832 -0.081700090072036435 0 -0.039031405788231263 -0.074557155648954099 0 -0.053827780941483661 -0.070686083980736766 0 -0.062677551147145169 -0.068010725992169924 0 -0.061882072362706868 -0.073527200219238392 0 -0.053827780941483661 -0.070686083980736766 0 -0.062677551147145169 -0.068010725992169924 0 -0.058627058711837418 -0.059165224964098838 0 -0.053827780941483661 -0.070686083980736766 0 -0.058627058711837418 -0.059165224964098838 0 -0.04604535142824822 -0.058928790268728611 0 -0.053827780941483661 -0.070686083980736766 0 -0.051751089544617969 -0.12028887593683529 0 -0.054772185267038212 -0.11232476287950111 0 -0.046095911487455413 -0.11402351341780879 0 -0.054772185267038212 -0.11232476287950111 0 -0.048769152512721653 -0.1042734711247026 0 -0.046095911487455413 -0.11402351341780879 0 -0.051751089544617969 -0.12028887593683529 0 -0.043426960853168557 -0.12308214321523669 0 -0.053025280767121062 -0.12966276694049109 0 -0.051751089544617969 -0.12028887593683529 0 -0.046095911487455413 -0.11402351341780879 0 -0.043426960853168557 -0.12308214321523669 0 -0.051751089544617969 -0.12028887593683529 0 -0.061547629105528363 -0.12005784721570339 0 -0.054772185267038212 -0.11232476287950111 0 -0.051751089544617969 -0.12028887593683529 0 -0.061547629105528363 -0.12005784721570339 0 -0.053025280767121062 -0.12966276694049109 0 -0.065957364449601041 -0.10989105591042329 0 -0.061547629105528363 -0.12005784721570339 0 -0.054772185267038212 -0.11232476287950111 0 -0.059746757096571679 -0.089337395062774161 0 -0.061063907421878158 -0.09478824863186544 0 -0.034546390252203567 -0.099003358962592061 0 -0.065957364449601041 -0.10989105591042329 0 -0.054772185267038212 -0.11232476287950111 0 -0.059118701522573751 -0.1045955196664427 0 -0.061063907421878158 -0.09478824863186544 0 -0.048769152512721653 -0.1042734711247026 0 -0.034546390252203567 -0.099003358962592061 0 -0.061063907421878158 -0.09478824863186544 0 -0.034546390252203567 -0.099003358962592061 0 -0.059118701522573751 -0.1045955196664427 0 -0.061063907421878158 -0.09478824863186544 0 -0.048769152512721653 -0.1042734711247026 0 -0.065528315039284135 -0.1030849184790758 0 -0.059118701522573751 -0.1045955196664427 0 -0.061063907421878158 -0.09478824863186544 0 -0.054772185267038212 -0.11232476287950111 0 -0.059118701522573751 -0.1045955196664427 0 -0.048769152512721653 -0.1042734711247026 0 -0.048769152512721653 -0.1042734711247026 0 -0.039656065099561537 -0.1083090896234624 0 -0.046095911487455413 -0.11402351341780879 0 -0.048769152512721653 -0.1042734711247026 0 -0.039656065099561537 -0.1083090896234624 0 -0.034546390252203567 -0.099003358962592061 0 -0.039656065099561537 -0.1083090896234624 0 -0.034546390252203567 -0.099003358962592061 0 -0.032576147518073827 -0.1098253682235026 0 -0.032576147518073827 -0.1098253682235026 0 -0.037894053997964347 -0.1151537905776816 0 -0.03057937920012669 -0.12212210211420341 0 -0.039656065099561537 -0.1083090896234624 0 -0.032576147518073827 -0.1098253682235026 0 -0.037894053997964347 -0.1151537905776816 0 -0.039656065099561537 -0.1083090896234624 0 -0.037894053997964347 -0.1151537905776816 0 -0.046095911487455413 -0.11402351341780879 0 -0.037894053997964347 -0.1151537905776816 0 -0.046095911487455413 -0.11402351341780879 0 -0.043426960853168557 -0.12308214321523669 0 -0.037894053997964347 -0.1151537905776816 0 -0.043426960853168557 -0.12308214321523669 0 -0.03057937920012669 -0.12212210211420341 0 -0.032576147518073827 -0.1098253682235026 0 -0.03057937920012669 -0.12212210211420341 0 -0.022597257269812879 -0.1093498489775527 0 -0.03057937920012669 -0.12212210211420341 0 -0.015987154831183219 -0.1243253772916932 0 -0.022597257269812879 -0.1093498489775527 0 -0.034546390252203567 -0.099003358962592061 0 -0.0080288730825291057 -0.1032184692933187 0 -0.034546390252203567 -0.099003358962592061 0 -0.022597257269812879 -0.1093498489775527 0 -0.0080288730825291057 -0.1032184692933187 0 -0.031915000394227601 -0.088154891136440303 0 -0.034546390252203567 -0.099003358962592061 0 -0.0080288730825291057 -0.1032184692933187 0 -0.034546390252203567 -0.099003358962592061 0 -0.032576147518073827 -0.1098253682235026 0 -0.022597257269812879 -0.1093498489775527 0 -0.015987154831183219 -0.1243253772916932 0 -0.022597257269812879 -0.1093498489775527 0 -0.0080288730825291057 -0.1032184692933187 0 -0.015987154831183219 -0.1243253772916932 0 -0.0080288730825291057 -0.1032184692933187 0 0.0040652259800201488 -0.12257454176842621 0 -0.015987154831183219 -0.1243253772916932 0 -0.023010611375990319 -0.1416566392096473 0 -0.0050531176289645126 -0.14420320963432051 0 -0.015987154831183219 -0.1243253772916932 0 -0.0050531176289645126 -0.14420320963432051 0 0.0040652259800201488 -0.12257454176842621 0 -0.03057937920012669 -0.12212210211420341 0 -0.015987154831183219 -0.1243253772916932 0 -0.023010611375990319 -0.1416566392096473 0 -0.015987154831183219 -0.1243253772916932 0 -0.023010611375990319 -0.1416566392096473 0 -0.03057937920012669 -0.12212210211420341 0 -0.023010611375990319 -0.1416566392096473 0 -0.039453711019683493 -0.1331582747236669 0 -0.023010611375990319 -0.1416566392096473 0 -0.0092018991721211536 -0.16185948937580211 0 -0.030034067920797582 -0.15898790112760131 0 -0.023010611375990319 -0.1416566392096473 0 -0.030034067920797582 -0.15898790112760131 0 -0.03893220085381438 -0.14628256944083171 0 -0.023010611375990319 -0.1416566392096473 0 -0.030034067920797582 -0.15898790112760131 0 -0.023010611375990319 -0.1416566392096473 0 -0.0050531176289645126 -0.14420320963432051 0 -0.0092018991721211536 -0.16185948937580211 0 -0.0092018991721211536 -0.16185948937580211 0 -0.002569755866629865 -0.17574766087700811 0 0.01163026957655516 -0.16473107762400341 0 -0.0092018991721211536 -0.16185948937580211 0 -0.002569755866629865 -0.17574766087700811 0 -0.019464702710226441 -0.17760228391456009 0 -0.0050531176289645126 -0.14420320963432051 0 -0.0092018991721211536 -0.16185948937580211 0 0.01163026957655516 -0.16473107762400341 0 -0.002569755866629865 -0.17574766087700811 0 -0.0095123721634875619 -0.19844028543060019 0 0.0093436273548723747 -0.18807609032811151 0 -0.002569755866629865 -0.17574766087700811 0 -0.019464702710226441 -0.17760228391456009 0 -0.0095123721634875619 -0.19844028543060019 0 -0.019464702710226441 -0.17760228391456009 0 -0.037361696323305577 -0.1770697453407909 0 -0.027978418406072569 -0.19284442520083861 0 -0.0092018991721211536 -0.16185948937580211 0 -0.030034067920797582 -0.15898790112760131 0 -0.0092018991721211536 -0.16185948937580211 0 -0.019464702710226441 -0.17760228391456009 0 -0.030034067920797582 -0.15898790112760131 0 -0.019464702710226441 -0.17760228391456009 0 -0.030034067920797582 -0.15898790112760131 0 -0.037361696323305577 -0.1770697453407909 0 -0.030034067920797582 -0.15898790112760131 0 -0.037361696323305577 -0.1770697453407909 0 -0.051524854990569927 -0.15602552633414199 0 -0.030034067920797582 -0.15898790112760131 0 -0.037361696323305577 -0.1770697453407909 0 -0.030034067920797582 -0.15898790112760131 0 -0.051524854990569927 -0.15602552633414199 0 -0.037361696323305577 -0.1770697453407909 0 -0.044689324725813731 -0.1951515895539804 0 -0.037361696323305577 -0.1770697453407909 0 -0.054273099734476887 -0.18588828397170151 0 -0.044689324725813731 -0.1951515895539804 0 -0.037361696323305577 -0.1770697453407909 0 -0.054273099734476887 -0.18588828397170151 0 -0.057970640254197098 -0.1715270555875045 0 -0.054273099734476887 -0.18588828397170151 0 -0.057970640254197098 -0.1715270555875045 0 -0.067734584737984133 -0.18251269452325189 0 -0.057970640254197098 -0.1715270555875045 0 -0.051524854990569927 -0.15602552633414199 0 -0.071024394295120502 -0.1616118941612677 0 -0.037361696323305577 -0.1770697453407909 0 -0.057970640254197098 -0.1715270555875045 0 -0.051524854990569927 -0.15602552633414199 0 -0.051524854990569927 -0.15602552633414199 0 -0.073015642060342681 -0.15306315154068589 0 -0.051524854990569927 -0.15602552633414199 0 -0.060695698573188413 -0.14664680448108761 0 -0.073015642060342681 -0.15306315154068589 0 -0.051524854990569927 -0.15602552633414199 0 -0.050637758962030578 -0.1415845058091009 0 -0.060695698573188413 -0.14664680448108761 0 -0.051524854990569927 -0.15602552633414199 0 -0.050637758962030578 -0.1415845058091009 0 -0.03893220085381438 -0.14628256944083171 0 -0.050637758962030578 -0.1415845058091009 0 -0.060695698573188413 -0.14664680448108761 0 -0.059598256817637391 -0.13882370398551841 0 -0.061547629105528363 -0.12005784721570339 0 -0.053025280767121062 -0.12966276694049109 0 -0.064455597417520896 -0.1299350705479437 0 -0.059598256817637391 -0.13882370398551841 0 -0.053025280767121062 -0.12966276694049109 0 -0.064455597417520896 -0.1299350705479437 0 -0.050637758962030578 -0.1415845058091009 0 -0.053025280767121062 -0.12966276694049109 0 -0.039453711019683493 -0.1331582747236669 0 -0.050637758962030578 -0.1415845058091009 0 -0.059598256817637391 -0.13882370398551841 0 -0.053025280767121062 -0.12966276694049109 0 -0.050637758962030578 -0.1415845058091009 0 -0.039453711019683493 -0.1331582747236669 0 -0.03893220085381438 -0.14628256944083171 0 -0.023010611375990319 -0.1416566392096473 0 -0.039453711019683493 -0.1331582747236669 0 -0.03893220085381438 -0.14628256944083171 0 -0.043426960853168557 -0.12308214321523669 0 -0.053025280767121062 -0.12966276694049109 0 -0.039453711019683493 -0.1331582747236669 0 -0.043426960853168557 -0.12308214321523669 0 -0.03057937920012669 -0.12212210211420341 0 -0.039453711019683493 -0.1331582747236669 0 -0.030034067920797582 -0.15898790112760131 0 -0.051524854990569927 -0.15602552633414199 0 -0.03893220085381438 -0.14628256944083171 0 -0.019416911990818391 -0.24326809351042239 0 -0.032558759089921487 -0.22834648587800749 0 -0.037975740375761152 -0.240746033000964 0 -0.019416911990818391 -0.24326809351042239 0 0.002528124606417811 -0.25939633599466022 0 0.0044201085073492328 -0.23423603289523109 0 -0.01271803900740578 -0.221077830881793 0 0.0044201085073492328 -0.23423603289523109 0 0.0082707050215391209 -0.21271008468098329 0 -0.019416911990818391 -0.24326809351042239 0 -0.01271803900740578 -0.221077830881793 0 0.0044201085073492328 -0.23423603289523109 0 -0.019416911990818391 -0.24326809351042239 0 -0.01271803900740578 -0.221077830881793 0 -0.032558759089921487 -0.22834648587800749 0 -0.01271803900740578 -0.221077830881793 0 -0.027730340221534571 -0.2101664314695095 0 -0.032558759089921487 -0.22834648587800749 0 -0.01271803900740578 -0.221077830881793 0 -0.027730340221534571 -0.2101664314695095 0 -0.0095123721634875619 -0.19844028543060019 0 -0.01271803900740578 -0.221077830881793 0 -0.0095123721634875619 -0.19844028543060019 0 0.0082707050215391209 -0.21271008468098329 0 -0.027730340221534571 -0.2101664314695095 0 -0.0095123721634875619 -0.19844028543060019 0 -0.027978418406072569 -0.19284442520083861 0 -0.019464702710226441 -0.17760228391456009 0 -0.0095123721634875619 -0.19844028543060019 0 -0.027978418406072569 -0.19284442520083861 0 -0.037361696323305577 -0.1770697453407909 0 -0.027978418406072569 -0.19284442520083861 0 -0.044689324725813731 -0.1951515895539804 0 -0.027730340221534571 -0.2101664314695095 0 -0.027978418406072569 -0.19284442520083861 0 -0.044689324725813731 -0.1951515895539804 0 -0.054273099734476887 -0.18588828397170151 0 -0.05876613892139438 -0.20564459005947569 0 -0.069660335882636149 -0.19578979851102729 0 -0.054273099734476887 -0.18588828397170151 0 -0.044689324725813731 -0.1951515895539804 0 -0.05876613892139438 -0.20564459005947569 0 -0.05876613892139438 -0.20564459005947569 0 -0.046049939350923649 -0.21641322305078539 0 -0.064955461946047247 -0.22748161838885611 0 -0.044689324725813731 -0.1951515895539804 0 -0.05876613892139438 -0.20564459005947569 0 -0.046049939350923649 -0.21641322305078539 0 -0.027730340221534571 -0.2101664314695095 0 -0.044689324725813731 -0.1951515895539804 0 -0.046049939350923649 -0.21641322305078539 0 -0.027730340221534571 -0.2101664314695095 0 -0.046049939350923649 -0.21641322305078539 0 -0.032558759089921487 -0.22834648587800749 0 -0.032558759089921487 -0.22834648587800749 0 -0.047599611200830533 -0.23168862295488291 0 -0.037975740375761152 -0.240746033000964 0 -0.046049939350923649 -0.21641322305078539 0 -0.032558759089921487 -0.22834648587800749 0 -0.047599611200830533 -0.23168862295488291 0 -0.046049939350923649 -0.21641322305078539 0 -0.047599611200830533 -0.23168862295488291 0 -0.064955461946047247 -0.22748161838885611 0 -0.047599611200830533 -0.23168862295488291 0 -0.051992409625708662 -0.24503076948762001 0 -0.064955461946047247 -0.22748161838885611 0 -0.062520597588523519 -0.25670147966669649 0 -0.051992409625708662 -0.24503076948762001 0 -0.068576896754689823 -0.24364005220113941 0 -0.051992409625708662 -0.24503076948762001 0 -0.068576896754689823 -0.24364005220113941 0 -0.064955461946047247 -0.22748161838885611 0 -0.03831100997152663 -0.2553961931738869 0 -0.019416911990818391 -0.24326809351042239 0 -0.037975740375761152 -0.240746033000964 0 -0.03831100997152663 -0.2553961931738869 0 -0.051992409625708662 -0.24503076948762001 0 -0.037975740375761152 -0.240746033000964 0 -0.047599611200830533 -0.23168862295488291 0 -0.051992409625708662 -0.24503076948762001 0 -0.037975740375761152 -0.240746033000964 0 -0.080425574216372558 -0.25474488374953258 0 -0.082990440396797108 -0.23424150971299151 0 -0.1007348902855434 -0.23599279705788939 0 -0.080425574216372558 -0.25474488374953258 0 -0.1007348902855434 -0.23599279705788939 0 -0.068576896754689823 -0.24364005220113941 0 -0.064955461946047247 -0.22748161838885611 0 -0.082990440396797108 -0.23424150971299151 0 -0.080425574216372558 -0.25474488374953258 0 -0.068576896754689823 -0.24364005220113941 0 -0.082990440396797108 -0.23424150971299151 0 -0.064955461946047247 -0.22748161838885611 0 -0.084396585920058068 -0.22131148804002579 0 -0.072921770920306453 -0.21274714099400249 0 -0.064955461946047247 -0.22748161838885611 0 -0.084396585920058068 -0.22131148804002579 0 -0.082990440396797108 -0.23424150971299151 0 -0.084396585920058068 -0.22131148804002579 0 -0.082990440396797108 -0.23424150971299151 0 -0.09765109661241847 -0.2232902118182559 0 -0.084396585920058068 -0.22131148804002579 0 -0.072921770920306453 -0.21274714099400249 0 -0.08315210652296165 -0.20307272887451799 0 -0.084396585920058068 -0.22131148804002579 0 -0.08315210652296165 -0.20307272887451799 0 -0.09962387845166995 -0.20891517059413239 0 -0.072921770920306453 -0.21274714099400249 0 -0.069660335882636149 -0.19578979851102729 0 -0.08315210652296165 -0.20307272887451799 0 -0.05876613892139438 -0.20564459005947569 0 -0.064955461946047247 -0.22748161838885611 0 -0.072921770920306453 -0.21274714099400249 0 -0.05876613892139438 -0.20564459005947569 0 -0.072921770920306453 -0.21274714099400249 0 -0.069660335882636149 -0.19578979851102729 0 -0.069660335882636149 -0.19578979851102729 0 -0.079501583791530356 -0.18941015493499441 0 -0.08315210652296165 -0.20307272887451799 0 -0.054273099734476887 -0.18588828397170151 0 -0.069660335882636149 -0.19578979851102729 0 -0.067734584737984133 -0.18251269452325189 0 -0.069660335882636149 -0.19578979851102729 0 -0.079501583791530356 -0.18941015493499441 0 -0.067734584737984133 -0.18251269452325189 0 -0.08315210652296165 -0.20307272887451799 0 -0.095698818130669272 -0.18949842844516951 0 -0.09962387845166995 -0.20891517059413239 0 -0.079501583791530356 -0.18941015493499441 0 -0.08315210652296165 -0.20307272887451799 0 -0.095698818130669272 -0.18949842844516951 0 -0.095698818130669272 -0.18949842844516951 0 -0.11520019940889931 -0.19977390445303811 0 -0.11476199694230239 -0.18208032615509601 0 -0.095698818130669272 -0.18949842844516951 0 -0.11520019940889931 -0.19977390445303811 0 -0.09962387845166995 -0.20891517059413239 0 -0.11476199694230239 -0.18208032615509601 0 -0.13267988893662769 -0.1969962816562266 0 -0.11520019940889931 -0.19977390445303811 0 -0.11476199694230239 -0.18208032615509601 0 -0.13267988893662769 -0.1969962816562266 0 -0.11520019940889931 -0.19977390445303811 0 -0.1210442063547142 -0.21724071036624629 0 -0.09962387845166995 -0.20891517059413239 0 -0.11520019940889931 -0.19977390445303811 0 -0.1210442063547142 -0.21724071036624629 0 -0.13267988893662769 -0.1969962816562266 0 -0.1210442063547142 -0.21724071036624629 0 -0.09962387845166995 -0.20891517059413239 0 -0.09765109661241847 -0.2232902118182559 0 -0.084396585920058068 -0.22131148804002579 0 -0.09962387845166995 -0.20891517059413239 0 -0.09765109661241847 -0.2232902118182559 0 -0.082990440396797108 -0.23424150971299151 0 -0.09765109661241847 -0.2232902118182559 0 -0.1007348902855434 -0.23599279705788939 0 -0.1210442063547142 -0.21724071036624629 0 -0.09765109661241847 -0.2232902118182559 0 -0.1007348902855434 -0.23599279705788939 0 -0.1210442063547142 -0.21724071036624629 0 -0.1123681871151046 -0.2427582923822772 0 -0.1007348902855434 -0.23599279705788939 0 -0.1210442063547142 -0.21724071036624629 0 -0.1246976081239722 -0.23912259977268721 0 -0.1123681871151046 -0.2427582923822772 0 -0.1210442063547142 -0.21724071036624629 0 -0.1007348902855434 -0.23599279705788939 0 -0.12246935957181899 -0.25821058833430971 0 -0.1246976081239722 -0.23912259977268721 0 -0.1123681871151046 -0.2427582923822772 0 -0.1123681871151046 -0.2427582923822772 0 -0.1007348902855434 -0.23599279705788939 0 -0.10124283389978971 -0.24819093178282539 0 -0.080425574216372558 -0.25474488374953258 0 -0.1007348902855434 -0.23599279705788939 0 -0.10124283389978971 -0.24819093178282539 0 -0.078926212953652874 -0.15224841515283369 0 -0.08683633798780635 -0.1388876158822854 0 -0.099073334491744824 -0.14947125651218249 0 -0.078926212953652874 -0.15224841515283369 0 -0.099073334491744824 -0.14947125651218249 0 -0.078926212953652874 -0.15224841515283369 0 -0.08683633798780635 -0.1388876158822854 0 -0.074134542597261016 -0.14825953399233491 0 -0.080855942706341555 -0.1194034967949565 0 -0.08683633798780635 -0.1388876158822854 0 -0.074134542597261016 -0.14825953399233491 0 -0.080855942706341555 -0.1194034967949565 0 -0.08683633798780635 -0.1388876158822854 0 -0.1009891402431053 -0.1251525369066844 0 -0.080855942706341555 -0.1194034967949565 0 -0.064455597417520896 -0.1299350705479437 0 -0.06870198003536053 -0.14373713473599059 0 -0.080855942706341555 -0.1194034967949565 0 -0.06870198003536053 -0.14373713473599059 0 -0.074134542597261016 -0.14825953399233491 0 -0.080855942706341555 -0.1194034967949565 0 -0.074134542597261016 -0.14825953399233491 0 -0.059598256817637391 -0.13882370398551841 0 -0.064455597417520896 -0.1299350705479437 0 -0.06870198003536053 -0.14373713473599059 0 -0.060695698573188413 -0.14664680448108761 0 -0.059598256817637391 -0.13882370398551841 0 -0.06870198003536053 -0.14373713473599059 0 -0.060695698573188413 -0.14664680448108761 0 -0.06870198003536053 -0.14373713473599059 0 -0.073015642060342681 -0.15306315154068589 0 -0.06870198003536053 -0.14373713473599059 0 -0.074134542597261016 -0.14825953399233491 0 -0.073015642060342681 -0.15306315154068589 0 -0.06870198003536053 -0.14373713473599059 0 -0.074134542597261016 -0.14825953399233491 0 -0.078926212953652874 -0.15224841515283369 0 -0.073015642060342681 -0.15306315154068589 0 -0.076267161387110316 -0.1598695137060013 0 -0.078926212953652874 -0.15224841515283369 0 -0.073015642060342681 -0.15306315154068589 0 -0.078926212953652874 -0.15224841515283369 0 -0.074134542597261016 -0.14825953399233491 0 -0.078926212953652874 -0.15224841515283369 0 -0.074134542597261016 -0.14825953399233491 0 -0.073015642060342681 -0.15306315154068589 0 -0.074134542597261016 -0.14825953399233491 0 -0.073015642060342681 -0.15306315154068589 0 -0.051524854990569927 -0.15602552633414199 0 -0.073015642060342681 -0.15306315154068589 0 -0.071024394295120502 -0.1616118941612677 0 -0.057970640254197098 -0.1715270555875045 0 -0.071024394295120502 -0.1616118941612677 0 -0.070131851583489543 -0.17295516036443251 0 -0.076074868106805721 -0.16817164922962141 0 -0.071024394295120502 -0.1616118941612677 0 -0.070131851583489543 -0.17295516036443251 0 -0.076074868106805721 -0.16817164922962141 0 -0.071024394295120502 -0.1616118941612677 0 -0.076267161387110316 -0.1598695137060013 0 -0.073015642060342681 -0.15306315154068589 0 -0.071024394295120502 -0.1616118941612677 0 -0.073015642060342681 -0.15306315154068589 0 -0.071024394295120502 -0.1616118941612677 0 -0.076267161387110316 -0.1598695137060013 0 -0.057970640254197098 -0.1715270555875045 0 -0.067734584737984133 -0.18251269452325189 0 -0.070131851583489543 -0.17295516036443251 0 -0.076074868106805721 -0.16817164922962141 0 -0.070131851583489543 -0.17295516036443251 0 -0.081262073683400576 -0.17617712432100541 0 -0.067734584737984133 -0.18251269452325189 0 -0.070131851583489543 -0.17295516036443251 0 -0.081262073683400576 -0.17617712432100541 0 -0.079501583791530356 -0.18941015493499441 0 -0.067734584737984133 -0.18251269452325189 0 -0.081262073683400576 -0.17617712432100541 0 -0.095698818130669272 -0.18949842844516951 0 -0.081262073683400576 -0.17617712432100541 0 -0.096844104947977183 -0.16716437065396539 0 -0.079501583791530356 -0.18941015493499441 0 -0.095698818130669272 -0.18949842844516951 0 -0.081262073683400576 -0.17617712432100541 0 -0.078926212953652874 -0.15224841515283369 0 -0.096844104947977183 -0.16716437065396539 0 -0.078926212953652874 -0.15224841515283369 0 -0.082294689519628997 -0.16425245844559869 0 -0.096844104947977183 -0.16716437065396539 0 -0.078926212953652874 -0.15224841515283369 0 -0.096844104947977183 -0.16716437065396539 0 -0.099073334491744824 -0.14947125651218249 0 -0.078926212953652874 -0.15224841515283369 0 -0.076267161387110316 -0.1598695137060013 0 -0.082294689519628997 -0.16425245844559869 0 -0.076074868106805721 -0.16817164922962141 0 -0.076267161387110316 -0.1598695137060013 0 -0.082294689519628997 -0.16425245844559869 0 -0.076074868106805721 -0.16817164922962141 0 -0.081262073683400576 -0.17617712432100541 0 -0.082294689519628997 -0.16425245844559869 0 -0.081262073683400576 -0.17617712432100541 0 -0.082294689519628997 -0.16425245844559869 0 -0.096844104947977183 -0.16716437065396539 0 -0.096844104947977183 -0.16716437065396539 0 -0.1145766605823401 -0.1640829907436816 0 -0.099073334491744824 -0.14947125651218249 0 -0.096844104947977183 -0.16716437065396539 0 -0.11476199694230239 -0.18208032615509601 0 -0.1145766605823401 -0.1640829907436816 0 -0.096844104947977183 -0.16716437065396539 0 -0.11476199694230239 -0.18208032615509601 0 -0.095698818130669272 -0.18949842844516951 0 -0.096844104947977183 -0.16716437065396539 0 -0.11476199694230239 -0.18208032615509601 0 -0.11476199694230239 -0.18208032615509601 0 -0.1145766605823401 -0.1640829907436816 0 -0.13477067859587599 -0.17668380237489381 0 -0.1145766605823401 -0.1640829907436816 0 -0.1192204560298369 -0.14669409787153229 0 -0.099073334491744824 -0.14947125651218249 0 -0.1192204560298369 -0.14669409787153229 0 -0.099073334491744824 -0.14947125651218249 0 -0.11285842929039661 -0.13417904664652569 0 -0.1192204560298369 -0.14669409787153229 0 -0.099073334491744824 -0.14947125651218249 0 -0.099073334491744824 -0.14947125651218249 0 -0.1009891402431053 -0.1251525369066844 0 -0.11285842929039661 -0.13417904664652569 0 -0.08683633798780635 -0.1388876158822854 0 -0.099073334491744824 -0.14947125651218249 0 -0.1009891402431053 -0.1251525369066844 0 -0.11907726636578921 -0.1194267592650132 0 -0.1009891402431053 -0.1251525369066844 0 -0.11285842929039661 -0.13417904664652569 0 -0.1192204560298369 -0.14669409787153229 0 -0.11285842929039661 -0.13417904664652569 0 -0.12405876720250419 -0.12937388037033051 0 -0.11907726636578921 -0.1194267592650132 0 -0.11285842929039661 -0.13417904664652569 0 -0.12405876720250419 -0.12937388037033051 0 -0.1192204560298369 -0.14669409787153229 0 -0.12405876720250419 -0.12937388037033051 0 -0.13822741981446079 -0.13339196860701061 0 -0.12405876720250419 -0.12937388037033051 0 -0.13822741981446079 -0.13339196860701061 0 -0.13091026451203749 -0.1131775294615706 0 -0.13822741981446079 -0.13339196860701061 0 -0.1599561498745096 -0.14230753029225371 0 -0.14940328856709559 -0.1214246981889837 0 -0.14126518170810479 -0.1568887460302347 0 -0.16325938199408499 -0.1593850940509989 0 -0.1599561498745096 -0.14230753029225371 0 -0.13822741981446079 -0.13339196860701061 0 -0.14126518170810479 -0.1568887460302347 0 -0.1599561498745096 -0.14230753029225371 0 -0.1192204560298369 -0.14669409787153229 0 -0.13822741981446079 -0.13339196860701061 0 -0.14126518170810479 -0.1568887460302347 0 -0.1145766605823401 -0.1640829907436816 0 -0.1192204560298369 -0.14669409787153229 0 -0.14126518170810479 -0.1568887460302347 0 -0.1145766605823401 -0.1640829907436816 0 -0.13477067859587599 -0.17668380237489381 0 -0.14126518170810479 -0.1568887460302347 0 -0.11476199694230239 -0.18208032615509601 0 -0.13477067859587599 -0.17668380237489381 0 -0.13267988893662769 -0.1969962816562266 0 -0.13477067859587599 -0.17668380237489381 0 -0.15998447505899979 -0.1764681122543591 0 -0.14814438625291071 -0.191641964132505 0 -0.14126518170810479 -0.1568887460302347 0 -0.16325938199408499 -0.1593850940509989 0 -0.15998447505899979 -0.1764681122543591 0 -0.13477067859587599 -0.17668380237489381 0 -0.14126518170810479 -0.1568887460302347 0 -0.15998447505899979 -0.1764681122543591 0 -0.16325938199408499 -0.1593850940509989 0 -0.15998447505899979 -0.1764681122543591 0 -0.18065347059777581 -0.159370671264839 0 -0.15998447505899979 -0.1764681122543591 0 -0.17605187525720681 -0.18511636397335529 0 -0.16268910774209719 -0.19614938721968819 0 -0.17605187525720681 -0.18511636397335529 0 -0.18065347059777581 -0.159370671264839 0 -0.19349303557641739 -0.18311059178811459 0 -0.15998447505899979 -0.1764681122543591 0 -0.17605187525720681 -0.18511636397335529 0 -0.18065347059777581 -0.159370671264839 0 -0.18065347059777581 -0.159370671264839 0 -0.18441715926469851 -0.13719475456265581 0 -0.1599561498745096 -0.14230753029225371 0 -0.1599561498745096 -0.14230753029225371 0 -0.1679261512241772 -0.1168767124371318 0 -0.14940328856709559 -0.1214246981889837 0 -0.18441715926469851 -0.13719475456265581 0 -0.1599561498745096 -0.14230753029225371 0 -0.1679261512241772 -0.1168767124371318 0 -0.16325938199408499 -0.1593850940509989 0 -0.18065347059777581 -0.159370671264839 0 -0.1599561498745096 -0.14230753029225371 0 -0.1383286968505178 -0.24488046723053811 0 -0.15036875250320139 -0.23082062730476191 0 -0.1574300568723051 -0.24443947626063381 0 -0.1383286968505178 -0.24488046723053811 0 -0.13629895733736169 -0.22862458783213571 0 -0.15036875250320139 -0.23082062730476191 0 -0.14138071420385931 -0.2604994431051475 0 -0.1383286968505178 -0.24488046723053811 0 -0.1574300568723051 -0.24443947626063381 0 -0.1246976081239722 -0.23912259977268721 0 -0.1383286968505178 -0.24488046723053811 0 -0.13629895733736169 -0.22862458783213571 0 -0.12246935957181899 -0.25821058833430971 0 -0.1246976081239722 -0.23912259977268721 0 -0.1383286968505178 -0.24488046723053811 0 -0.1210442063547142 -0.21724071036624629 0 -0.13629895733736169 -0.22862458783213571 0 -0.15059778093095291 -0.21191223715735719 0 -0.1210442063547142 -0.21724071036624629 0 -0.1246976081239722 -0.23912259977268721 0 -0.13629895733736169 -0.22862458783213571 0 -0.13629895733736169 -0.22862458783213571 0 -0.15036875250320139 -0.23082062730476191 0 -0.15059778093095291 -0.21191223715735719 0 -0.15036875250320139 -0.23082062730476191 0 -0.15059778093095291 -0.21191223715735719 0 -0.16603814425828731 -0.22564752188817319 0 -0.15059778093095291 -0.21191223715735719 0 -0.13267988893662769 -0.1969962816562266 0 -0.1210442063547142 -0.21724071036624629 0 -0.15059778093095291 -0.21191223715735719 0 -0.13267988893662769 -0.1969962816562266 0 -0.13477067859587599 -0.17668380237489381 0 -0.13267988893662769 -0.1969962816562266 0 -0.14814438625291071 -0.191641964132505 0 -0.15059778093095291 -0.21191223715735719 0 -0.14814438625291071 -0.191641964132505 0 -0.16268910774209719 -0.19614938721968819 0 -0.15059778093095291 -0.21191223715735719 0 -0.13267988893662769 -0.1969962816562266 0 -0.14814438625291071 -0.191641964132505 0 -0.17605187525720681 -0.18511636397335529 0 -0.16268910774209719 -0.19614938721968819 0 -0.17528109871110689 -0.20868287203134231 0 -0.15998447505899979 -0.1764681122543591 0 -0.14814438625291071 -0.191641964132505 0 -0.16268910774209719 -0.19614938721968819 0 -0.17605187525720681 -0.18511636397335529 0 -0.17528109871110689 -0.20868287203134231 0 -0.18779637538133939 -0.2005712130659599 0 -0.17605187525720681 -0.18511636397335529 0 -0.18779637538133939 -0.2005712130659599 0 -0.19349303557641739 -0.18311059178811459 0 -0.17528109871110689 -0.20868287203134231 0 -0.19038811735816791 -0.2160549237106644 0 -0.18779637538133939 -0.2005712130659599 0 -0.17528109871110689 -0.20868287203134231 0 -0.18047233885100339 -0.223819841047498 0 -0.19038811735816791 -0.2160549237106644 0 -0.15059778093095291 -0.21191223715735719 0 -0.17528109871110689 -0.20868287203134231 0 -0.16603814425828731 -0.22564752188817319 0 -0.15059778093095291 -0.21191223715735719 0 -0.16268910774209719 -0.19614938721968819 0 -0.17528109871110689 -0.20868287203134231 0 -0.15036875250320139 -0.23082062730476191 0 -0.16603814425828731 -0.22564752188817319 0 -0.1574300568723051 -0.24443947626063381 0 -0.17528109871110689 -0.20868287203134231 0 -0.16603814425828731 -0.22564752188817319 0 -0.18047233885100339 -0.223819841047498 0 -0.16603814425828731 -0.22564752188817319 0 -0.18047233885100339 -0.223819841047498 0 -0.17999285027296691 -0.23991434859502619 0 -0.18047233885100339 -0.223819841047498 0 -0.17999285027296691 -0.23991434859502619 0 -0.19383764802298231 -0.230432329303592 0 -0.16603814425828731 -0.22564752188817319 0 -0.17999285027296691 -0.23991434859502619 0 -0.1574300568723051 -0.24443947626063381 0 -0.16893529208760449 -0.26356099791696957 0 -0.17999285027296691 -0.23991434859502619 0 -0.1574300568723051 -0.24443947626063381 0 -0.21446315600452931 -0.23827379353440931 0 -0.20163417156410271 -0.24719184903735991 0 -0.19383764802298231 -0.230432329303592 0 -0.19492898730145 -0.26148337934621552 0 -0.17999285027296691 -0.23991434859502619 0 -0.20163417156410271 -0.24719184903735991 0 -0.17999285027296691 -0.23991434859502619 0 -0.20163417156410271 -0.24719184903735991 0 -0.19383764802298231 -0.230432329303592 0 -0.21446315600452931 -0.23827379353440931 0 -0.19383764802298231 -0.230432329303592 0 -0.20066675429403821 -0.2238633098024819 0 -0.19383764802298231 -0.230432329303592 0 -0.20066675429403821 -0.2238633098024819 0 -0.19038811735816791 -0.2160549237106644 0 -0.18047233885100339 -0.223819841047498 0 -0.19383764802298231 -0.230432329303592 0 -0.19038811735816791 -0.2160549237106644 0 -0.21446315600452931 -0.23827379353440931 0 -0.21241253766711091 -0.2154215548543868 0 -0.2231693220488799 -0.22071555509292459 0 -0.21446315600452931 -0.23827379353440931 0 -0.2039780957904733 -0.21069219266126191 0 -0.21446315600452931 -0.23827379353440931 0 -0.21241253766711091 -0.2154215548543868 0 -0.2039780957904733 -0.21069219266126191 0 -0.21446315600452931 -0.23827379353440931 0 -0.20066675429403821 -0.2238633098024819 0 -0.2039780957904733 -0.21069219266126191 0 -0.21241253766711091 -0.2154215548543868 0 -0.2206541298468182 -0.1947731887832502 0 -0.21241253766711091 -0.2154215548543868 0 -0.21204992131005779 -0.20117786303247601 0 -0.2206541298468182 -0.1947731887832502 0 -0.21241253766711091 -0.2154215548543868 0 -0.2039780957904733 -0.21069219266126191 0 -0.21204992131005779 -0.20117786303247601 0 -0.20066675429403821 -0.2238633098024819 0 -0.2039780957904733 -0.21069219266126191 0 -0.19038811735816791 -0.2160549237106644 0 -0.2039780957904733 -0.21069219266126191 0 -0.19038811735816791 -0.2160549237106644 0 -0.18779637538133939 -0.2005712130659599 0 -0.2039780957904733 -0.21069219266126191 0 -0.19349303557641739 -0.18311059178811459 0 -0.2039780957904733 -0.21069219266126191 0 -0.18779637538133939 -0.2005712130659599 0 -0.19349303557641739 -0.18311059178811459 0 -0.2039780957904733 -0.21069219266126191 0 -0.20722258966713869 -0.19270849113731811 0 -0.19349303557641739 -0.18311059178811459 0 -0.20722258966713869 -0.19270849113731811 0 -0.21860169220099859 -0.19324626554918259 0 -0.21254386697971001 -0.17728015531396191 0 -0.2039780957904733 -0.21069219266126191 0 -0.20722258966713869 -0.19270849113731811 0 -0.21204992131005779 -0.20117786303247601 0 -0.20722258966713869 -0.19270849113731811 0 -0.21204992131005779 -0.20117786303247601 0 -0.21860169220099859 -0.19324626554918259 0 -0.21204992131005779 -0.20117786303247601 0 -0.21860169220099859 -0.19324626554918259 0 -0.2206541298468182 -0.1947731887832502 0 -0.22694699273563029 -0.19945480168062829 0 -0.23257016703842959 -0.1900691486447402 0 -0.23804346119329231 -0.207710085605391 0 -0.2206541298468182 -0.1947731887832502 0 -0.2248764541714664 -0.19703541416691989 0 -0.23257016703842959 -0.1900691486447402 0 -0.21860169220099859 -0.19324626554918259 0 -0.2206541298468182 -0.1947731887832502 0 -0.2206541298468182 -0.1947731887832502 0 -0.22694699273563029 -0.19945480168062829 0 -0.22357712397697699 -0.20856229481117 0 -0.2206541298468182 -0.1947731887832502 0 -0.2248764541714664 -0.19703541416691989 0 -0.22694699273563029 -0.19945480168062829 0 -0.2206541298468182 -0.1947731887832502 0 -0.22694699273563029 -0.19945480168062829 0 -0.2248764541714664 -0.19703541416691989 0 -0.22694699273563029 -0.19945480168062829 0 -0.2248764541714664 -0.19703541416691989 0 -0.22694699273563029 -0.19945480168062829 0 -0.23257016703842959 -0.1900691486447402 0 -0.24611569098029501 -0.18815823865398321 0 -0.23804346119329231 -0.207710085605391 0 -0.25581348596192077 -0.20361381946474 0 -0.24611569098029501 -0.18815823865398321 0 -0.23804346119329231 -0.207710085605391 0 -0.23257016703842959 -0.1900691486447402 0 -0.24611569098029501 -0.18815823865398321 0 -0.23804346119329231 -0.207710085605391 0 -0.23804346119329231 -0.207710085605391 0 -0.2367314939863337 -0.21088781749764091 0 -0.2566952481561261 -0.22158619381673811 0 -0.23804346119329231 -0.207710085605391 0 -0.2566952481561261 -0.22158619381673811 0 -0.23804346119329231 -0.207710085605391 0 -0.2367314939863337 -0.21088781749764091 0 -0.2367314939863337 -0.21088781749764091 0 -0.22357712397697699 -0.20856229481117 0 -0.2231693220488799 -0.22071555509292459 0 -0.21241253766711091 -0.2154215548543868 0 -0.2206541298468182 -0.1947731887832502 0 -0.22357712397697699 -0.20856229481117 0 -0.22694699273563029 -0.19945480168062829 0 -0.2367314939863337 -0.21088781749764091 0 -0.22357712397697699 -0.20856229481117 0 -0.22694699273563029 -0.19945480168062829 0 -0.23804346119329231 -0.207710085605391 0 -0.2367314939863337 -0.21088781749764091 0 -0.22694699273563029 -0.19945480168062829 0 -0.2367314939863337 -0.21088781749764091 0 -0.22694699273563029 -0.19945480168062829 0 -0.23804346119329231 -0.207710085605391 0 -0.21241253766711091 -0.2154215548543868 0 -0.22357712397697699 -0.20856229481117 0 -0.2231693220488799 -0.22071555509292459 0 -0.21446315600452931 -0.23827379353440931 0 -0.2231693220488799 -0.22071555509292459 0 -0.22866229860944831 -0.2304323147670162 0 -0.2367314939863337 -0.21088781749764091 0 -0.2231693220488799 -0.22071555509292459 0 -0.22866229860944831 -0.2304323147670162 0 -0.2367314939863337 -0.21088781749764091 0 -0.22866229860944831 -0.2304323147670162 0 -0.2367314939863337 -0.21088781749764091 0 -0.24062412112579529 -0.23400999405915229 0 -0.25552640085103251 -0.2328493321377367 0 -0.2367314939863337 -0.21088781749764091 0 -0.25552640085103251 -0.2328493321377367 0 -0.2367314939863337 -0.21088781749764091 0 -0.2566952481561261 -0.22158619381673811 0 -0.25552640085103251 -0.2328493321377367 0 -0.2367314939863337 -0.21088781749764091 0 -0.22866229860944831 -0.2304323147670162 0 -0.24062412112579529 -0.23400999405915229 0 -0.24062412112579529 -0.23400999405915229 0 -0.24202555347879451 -0.2494207751729384 0 -0.25552640085103251 -0.2328493321377367 0 -0.24062412112579529 -0.23400999405915229 0 -0.24202555347879451 -0.2494207751729384 0 -0.22944725721767151 -0.24385842148500761 0 -0.22494821621858521 -0.26585539440755668 0 -0.21446315600452931 -0.23827379353440931 0 -0.22944725721767151 -0.24385842148500761 0 -0.22866229860944831 -0.2304323147670162 0 -0.24062412112579529 -0.23400999405915229 0 -0.22944725721767151 -0.24385842148500761 0 -0.21446315600452931 -0.23827379353440931 0 -0.22866229860944831 -0.2304323147670162 0 -0.22944725721767151 -0.24385842148500761 0 -0.20592509049552979 -0.1503776132356974 0 -0.22017643874440679 -0.15849925002859319 0 -0.22563787586283951 -0.14341693020781349 0 -0.20592509049552979 -0.1503776132356974 0 -0.20761753649625581 -0.13252093621680669 0 -0.22563787586283951 -0.14341693020781349 0 -0.20761753649625581 -0.13252093621680669 0 -0.22319648568937719 -0.12911385500294401 0 -0.21214671841555391 -0.1149299558679608 0 -0.18441715926469851 -0.13719475456265581 0 -0.20761753649625581 -0.13252093621680669 0 -0.19438188924953589 -0.1200925084237692 0 -0.18441715926469851 -0.13719475456265581 0 -0.20592509049552979 -0.1503776132356974 0 -0.20761753649625581 -0.13252093621680669 0 -0.18065347059777581 -0.159370671264839 0 -0.18441715926469851 -0.13719475456265581 0 -0.20592509049552979 -0.1503776132356974 0 -0.18065347059777581 -0.159370671264839 0 -0.20592509049552979 -0.1503776132356974 0 -0.19717012788267579 -0.1657798095371216 0 -0.18065347059777581 -0.159370671264839 0 -0.19717012788267579 -0.1657798095371216 0 -0.19349303557641739 -0.18311059178811459 0 -0.19717012788267579 -0.1657798095371216 0 -0.19349303557641739 -0.18311059178811459 0 -0.21254386697971001 -0.17728015531396191 0 -0.20722258966713869 -0.19270849113731811 0 -0.19349303557641739 -0.18311059178811459 0 -0.21254386697971001 -0.17728015531396191 0 -0.19717012788267579 -0.1657798095371216 0 -0.21254386697971001 -0.17728015531396191 0 -0.22017643874440679 -0.15849925002859319 0 -0.20592509049552979 -0.1503776132356974 0 -0.19717012788267579 -0.1657798095371216 0 -0.22017643874440679 -0.15849925002859319 0 -0.22017643874440679 -0.15849925002859319 0 -0.22949472966179679 -0.17262407762999979 0 -0.23833532947677541 -0.15047496647674929 0 -0.22949472966179679 -0.17262407762999979 0 -0.23833532947677541 -0.15047496647674929 0 -0.21254386697971001 -0.17728015531396191 0 -0.22017643874440679 -0.15849925002859319 0 -0.22949472966179679 -0.17262407762999979 0 -0.21860169220099859 -0.19324626554918259 0 -0.21254386697971001 -0.17728015531396191 0 -0.22949472966179679 -0.17262407762999979 0 -0.2206541298468182 -0.1947731887832502 0 -0.22949472966179679 -0.17262407762999979 0 -0.2206541298468182 -0.1947731887832502 0 -0.23257016703842959 -0.1900691486447402 0 -0.22949472966179679 -0.17262407762999979 0 -0.21860169220099859 -0.19324626554918259 0 -0.2206541298468182 -0.1947731887832502 0 -0.22949472966179679 -0.17262407762999979 0 -0.24611569098029501 -0.18815823865398321 0 -0.24127225269178809 -0.17557196275837739 0 -0.25418792076729813 -0.1686063917025753 0 -0.23257016703842959 -0.1900691486447402 0 -0.22949472966179679 -0.17262407762999979 0 -0.24127225269178809 -0.17557196275837739 0 -0.23257016703842959 -0.1900691486447402 0 -0.24611569098029501 -0.18815823865398321 0 -0.24127225269178809 -0.17557196275837739 0 -0.22949472966179679 -0.17262407762999979 0 -0.24127225269178809 -0.17557196275837739 0 -0.24399275501112111 -0.15840195716058861 0 -0.24399275501112111 -0.15840195716058861 0 -0.25418792076729813 -0.1686063917025753 0 -0.25066472591945599 -0.14836457327471669 0 -0.22949472966179679 -0.17262407762999979 0 -0.24399275501112111 -0.15840195716058861 0 -0.23833532947677541 -0.15047496647674929 0 -0.24127225269178809 -0.17557196275837739 0 -0.24399275501112111 -0.15840195716058861 0 -0.25418792076729813 -0.1686063917025753 0 -0.24399275501112111 -0.15840195716058861 0 -0.25418792076729813 -0.1686063917025753 0 -0.23833532947677541 -0.15047496647674929 0 -0.22563787586283951 -0.14341693020781349 0 -0.24717592929175389 -0.12832585532349891 0 -0.24399275501112111 -0.15840195716058861 0 -0.23833532947677541 -0.15047496647674929 0 -0.25066472591945599 -0.14836457327471669 0 -0.23833532947677541 -0.15047496647674929 0 -0.24717592929175389 -0.12832585532349891 0 -0.25066472591945599 -0.14836457327471669 0 -0.22017643874440679 -0.15849925002859319 0 -0.23833532947677541 -0.15047496647674929 0 -0.22563787586283951 -0.14341693020781349 0 -0.22563787586283951 -0.14341693020781349 0 -0.22319648568937719 -0.12911385500294401 0 -0.24717592929175389 -0.12832585532349891 0 -0.20761753649625581 -0.13252093621680669 0 -0.22563787586283951 -0.14341693020781349 0 -0.22319648568937719 -0.12911385500294401 0 -0.23833532947677541 -0.15047496647674929 0 -0.24717592929175389 -0.12832585532349891 0 -0.24717592929175389 -0.12832585532349891 0 -0.24094254704299509 -0.1032696157525328 0 -0.25653721432813292 -0.11143625765566011 0 -0.24717592929175389 -0.12832585532349891 0 -0.24094254704299509 -0.1032696157525328 0 -0.22870136936255009 -0.11445444865902001 0 -0.24094254704299509 -0.1032696157525328 0 -0.22004516637307051 -0.096632961348163224 0 -0.2313850012965338 -0.082619282256175763 0 -0.24094254704299509 -0.1032696157525328 0 -0.22004516637307051 -0.096632961348163224 0 -0.22870136936255009 -0.11445444865902001 0 -0.22004516637307051 -0.096632961348163224 0 -0.22870136936255009 -0.11445444865902001 0 -0.21214671841555391 -0.1149299558679608 0 -0.22319648568937719 -0.12911385500294401 0 -0.22870136936255009 -0.11445444865902001 0 -0.21214671841555391 -0.1149299558679608 0 -0.22319648568937719 -0.12911385500294401 0 -0.24717592929175389 -0.12832585532349891 0 -0.22870136936255009 -0.11445444865902001 0 -0.2483655533806578 -0.064444294594833904 0 -0.24965348391788331 -0.077116107900899955 0 -0.23869950874797671 -0.060166850529908472 0 -0.24965348391788331 -0.077116107900899955 0 -0.23869950874797671 -0.060166850529908472 0 -0.24965348391788331 -0.077116107900899955 0 -0.2332222161513659 -0.061553285824947582 0 -0.23869950874797671 -0.060166850529908472 0 -0.24965348391788331 -0.077116107900899955 0 -0.2332222161513659 -0.061553285824947582 0 -0.24965348391788331 -0.077116107900899955 0 -0.2313850012965338 -0.082619282256175763 0 -0.2332222161513659 -0.061553285824947582 0 -0.24094254704299509 -0.1032696157525328 0 -0.24965348391788331 -0.077116107900899955 0 -0.2313850012965338 -0.082619282256175763 0 -0.22004516637307051 -0.096632961348163224 0 -0.2313850012965338 -0.082619282256175763 0 -0.21306159299735469 -0.07452444045433497 0 -0.2313850012965338 -0.082619282256175763 0 -0.21306159299735469 -0.07452444045433497 0 -0.2332222161513659 -0.061553285824947582 0 -0.22004516637307051 -0.096632961348163224 0 -0.21306159299735469 -0.07452444045433497 0 -0.19866929103636799 -0.097815966176730829 0 -0.21306159299735469 -0.07452444045433497 0 -0.19005099937098069 -0.080679556224485804 0 -0.19866929103636799 -0.097815966176730829 0 -0.19005099937098069 -0.080679556224485804 0 -0.19866929103636799 -0.097815966176730829 0 -0.17554781942362699 -0.0935697602801734 0 -0.21306159299735469 -0.07452444045433497 0 -0.19005099937098069 -0.080679556224485804 0 -0.19576845697581591 -0.063284037107348673 0 -0.20761753649625581 -0.13252093621680669 0 -0.21214671841555391 -0.1149299558679608 0 -0.19438188924953589 -0.1200925084237692 0 -0.22004516637307051 -0.096632961348163224 0 -0.21214671841555391 -0.1149299558679608 0 -0.19866929103636799 -0.097815966176730829 0 -0.19866929103636799 -0.097815966176730829 0 -0.19438188924953589 -0.1200925084237692 0 -0.18244777703138501 -0.1078411209283818 0 -0.21214671841555391 -0.1149299558679608 0 -0.19866929103636799 -0.097815966176730829 0 -0.19438188924953589 -0.1200925084237692 0 -0.18441715926469851 -0.13719475456265581 0 -0.19438188924953589 -0.1200925084237692 0 -0.1679261512241772 -0.1168767124371318 0 -0.19438188924953589 -0.1200925084237692 0 -0.1679261512241772 -0.1168767124371318 0 -0.18244777703138501 -0.1078411209283818 0 -0.1679261512241772 -0.1168767124371318 0 -0.17554781942362699 -0.0935697602801734 0 -0.1576825974673694 -0.092654106443865208 0 -0.1679261512241772 -0.1168767124371318 0 -0.1576825974673694 -0.092654106443865208 0 -0.14314155173197479 -0.104945677856386 0 -0.1679261512241772 -0.1168767124371318 0 -0.18244777703138501 -0.1078411209283818 0 -0.17554781942362699 -0.0935697602801734 0 -0.19866929103636799 -0.097815966176730829 0 -0.18244777703138501 -0.1078411209283818 0 -0.17554781942362699 -0.0935697602801734 0 -0.19005099937098069 -0.080679556224485804 0 -0.17554781942362699 -0.0935697602801734 0 -0.16795591973646509 -0.074263194077665462 0 -0.19005099937098069 -0.080679556224485804 0 -0.19576845697581591 -0.063284037107348673 0 -0.16795591973646509 -0.074263194077665462 0 -0.19576845697581591 -0.063284037107348673 0 -0.16795591973646509 -0.074263194077665462 0 -0.1730080804473077 -0.051787261830974103 0 -0.17554781942362699 -0.0935697602801734 0 -0.16795591973646509 -0.074263194077665462 0 -0.1576825974673694 -0.092654106443865208 0 -0.16795591973646509 -0.074263194077665462 0 -0.1576825974673694 -0.092654106443865208 0 -0.14135660968242139 -0.080887661296412824 0 -0.1576825974673694 -0.092654106443865208 0 -0.14135660968242139 -0.080887661296412824 0 -0.14314155173197479 -0.104945677856386 0 -0.16795591973646509 -0.074263194077665462 0 -0.14135660968242139 -0.080887661296412824 0 -0.14714683718218829 -0.056805951906728047 0 -0.14135660968242139 -0.080887661296412824 0 -0.1263523515483003 -0.069295255791671145 0 -0.14714683718218829 -0.056805951906728047 0 -0.14135660968242139 -0.080887661296412824 0 -0.1263523515483003 -0.069295255791671145 0 -0.12527752501238221 -0.083939856630775911 0 -0.14135660968242139 -0.080887661296412824 0 -0.12527752501238221 -0.083939856630775911 0 -0.13149472080826741 -0.091969691521056163 0 -0.14135660968242139 -0.080887661296412824 0 -0.13149472080826741 -0.091969691521056163 0 -0.14314155173197479 -0.104945677856386 0 -0.1247857037112305 -0.092014141712698089 0 -0.12527752501238221 -0.083939856630775911 0 -0.13149472080826741 -0.091969691521056163 0 -0.12321830018451151 -0.099130315995098348 0 -0.13091026451203749 -0.1131775294615706 0 -0.14314155173197479 -0.104945677856386 0 -0.12321830018451151 -0.099130315995098348 0 -0.13149472080826741 -0.091969691521056163 0 -0.14314155173197479 -0.104945677856386 0 -0.12321830018451151 -0.099130315995098348 0 -0.14314155173197479 -0.104945677856386 0 -0.12321830018451151 -0.099130315995098348 0 -0.1247857037112305 -0.092014141712698089 0 -0.13149472080826741 -0.091969691521056163 0 -0.12109799714093911 -0.1095263653552736 0 -0.12321830018451151 -0.099130315995098348 0 -0.13091026451203749 -0.1131775294615706 0 -0.13822741981446079 -0.13339196860701061 0 -0.13091026451203749 -0.1131775294615706 0 -0.14940328856709559 -0.1214246981889837 0 -0.1679261512241772 -0.1168767124371318 0 -0.14940328856709559 -0.1214246981889837 0 -0.14314155173197479 -0.104945677856386 0 -0.13091026451203749 -0.1131775294615706 0 -0.14940328856709559 -0.1214246981889837 0 -0.14314155173197479 -0.104945677856386 0 -0.14197682542343459 -0.035865712222248089 0 -0.16692605859611059 -0.02059849871320768 0 -0.14534863378680651 -0.019706560959377482 0 -0.15185808719984281 -0.007541206200570195 0 -0.16692605859611059 -0.02059849871320768 0 -0.14534863378680651 -0.019706560959377482 0 -0.14197682542343459 -0.035865712222248089 0 -0.16692605859611059 -0.02059849871320768 0 -0.14534863378680651 -0.019706560959377482 0 -0.15185808719984281 -0.007541206200570195 0 -0.1341157040393143 -0.01061460845299405 0 -0.15185808719984281 -0.007541206200570195 0 -0.1341157040393143 -0.01061460845299405 0 -0.14358443493233539 0.0034656691008575231 0 -0.1233175976785533 -0.0013763948974506749 0 -0.1189110916564507 -0.01854792215838981 0 -0.1341157040393143 -0.01061460845299405 0 -0.1341157040393143 -0.01061460845299405 0 -0.1310346792272262 0.0069050339284476266 0 -0.14358443493233539 0.0034656691008575231 0 -0.1233175976785533 -0.0013763948974506749 0 -0.1341157040393143 -0.01061460845299405 0 -0.1310346792272262 0.0069050339284476266 0 -0.1233175976785533 -0.0013763948974506749 0 -0.1341157040393143 -0.01061460845299405 0 -0.1181622066211899 -0.033862262445460443 0 -0.1318664936753301 -0.023912779207867361 0 -0.14197682542343459 -0.035865712222248089 0 -0.14534863378680651 -0.019706560959377482 0 -0.1318664936753301 -0.023912779207867361 0 -0.14197682542343459 -0.035865712222248089 0 -0.1189110916564507 -0.01854792215838981 0 -0.1341157040393143 -0.01061460845299405 0 -0.1318664936753301 -0.023912779207867361 0 -0.14534863378680651 -0.019706560959377482 0 -0.1341157040393143 -0.01061460845299405 0 -0.1318664936753301 -0.023912779207867361 0 -0.11702759225075859 -0.051132925731288512 0 -0.1181622066211899 -0.033862262445460443 0 -0.14197682542343459 -0.035865712222248089 0 -0.11702759225075859 -0.051132925731288512 0 -0.14197682542343459 -0.035865712222248089 0 -0.11702759225075859 -0.051132925731288512 0 -0.14714683718218829 -0.056805951906728047 0 -0.14197682542343459 -0.035865712222248089 0 -0.11702759225075859 -0.051132925731288512 0 -0.1263523515483003 -0.069295255791671145 0 -0.14714683718218829 -0.056805951906728047 0 -0.14714683718218829 -0.056805951906728047 0 -0.14197682542343459 -0.035865712222248089 0 -0.16147429247424969 -0.039259399946836887 0 -0.16147429247424969 -0.039259399946836887 0 -0.1730080804473077 -0.051787261830974103 0 -0.17831366072220761 -0.03123957506102654 0 -0.14197682542343459 -0.035865712222248089 0 -0.16147429247424969 -0.039259399946836887 0 -0.16692605859611059 -0.02059849871320768 0 -0.14714683718218829 -0.056805951906728047 0 -0.16147429247424969 -0.039259399946836887 0 -0.1730080804473077 -0.051787261830974103 0 -0.16795591973646509 -0.074263194077665462 0 -0.14714683718218829 -0.056805951906728047 0 -0.1730080804473077 -0.051787261830974103 0 -0.1730080804473077 -0.051787261830974103 0 -0.17831366072220761 -0.03123957506102654 0 -0.19835920730085299 -0.045008902219272118 0 -0.17596746689752399 -0.0073246354065978347 0 -0.1963792076411861 -0.026657549577796709 0 -0.17831366072220761 -0.03123957506102654 0 -0.17596746689752399 -0.0073246354065978347 0 -0.1963792076411861 -0.026657549577796709 0 -0.17831366072220761 -0.03123957506102654 0 -0.16692605859611059 -0.02059849871320768 0 -0.17596746689752399 -0.0073246354065978347 0 -0.16147429247424969 -0.039259399946836887 0 -0.17831366072220761 -0.03123957506102654 0 -0.16692605859611059 -0.02059849871320768 0 -0.15185808719984281 -0.007541206200570195 0 -0.1625768347118354 -0.0058640153889427714 0 -0.15555572615386359 0.012008278764602641 0 -0.1625768347118354 -0.0058640153889427714 0 -0.17596746689752399 -0.0073246354065978347 0 -0.15555572615386359 0.012008278764602641 0 -0.15185808719984281 -0.007541206200570195 0 -0.16692605859611059 -0.02059849871320768 0 -0.1625768347118354 -0.0058640153889427714 0 -0.16692605859611059 -0.02059849871320768 0 -0.1625768347118354 -0.0058640153889427714 0 -0.17596746689752399 -0.0073246354065978347 0 -0.1963792076411861 -0.026657549577796709 0 -0.21653070785467701 -0.0076046726051159702 0 -0.19098085629790901 0.0031795829193770331 0 -0.17596746689752399 -0.0073246354065978347 0 -0.1963792076411861 -0.026657549577796709 0 -0.19098085629790901 0.0031795829193770331 0 -0.1963792076411861 -0.026657549577796709 0 -0.21653070785467701 -0.0076046726051159702 0 -0.21679094838484839 -0.045990463748995368 0 -0.19576845697581591 -0.063284037107348673 0 -0.1730080804473077 -0.051787261830974103 0 -0.19835920730085299 -0.045008902219272118 0 -0.17831366072220761 -0.03123957506102654 0 -0.1963792076411861 -0.026657549577796709 0 -0.19835920730085299 -0.045008902219272118 0 -0.1963792076411861 -0.026657549577796709 0 -0.19835920730085299 -0.045008902219272118 0 -0.21679094838484839 -0.045990463748995368 0 -0.1963792076411861 -0.026657549577796709 0 -0.21679094838484839 -0.045990463748995368 0 -0.19576845697581591 -0.063284037107348673 0 -0.19835920730085299 -0.045008902219272118 0 -0.21679094838484839 -0.045990463748995368 0 -0.21306159299735469 -0.07452444045433497 0 -0.19576845697581591 -0.063284037107348673 0 -0.21679094838484839 -0.045990463748995368 0 -0.19576845697581591 -0.063284037107348673 0 -0.21679094838484839 -0.045990463748995368 0 -0.21306159299735469 -0.07452444045433497 0 -0.21679094838484839 -0.045990463748995368 0 -0.2332222161513659 -0.061553285824947582 0 -0.21679094838484839 -0.045990463748995368 0 -0.2332222161513659 -0.061553285824947582 0 -0.2329334042090058 -0.046211821293356083 0 -0.21679094838484839 -0.045990463748995368 0 -0.2332222161513659 -0.061553285824947582 0 -0.21679094838484839 -0.045990463748995368 0 -0.2329334042090058 -0.046211821293356083 0 -0.23869625008658299 -0.02797067082601928 0 -0.21679094838484839 -0.045990463748995368 0 -0.23869625008658299 -0.02797067082601928 0 -0.2329334042090058 -0.046211821293356083 0 -0.2465629097881179 -0.045184066694741683 0 -0.23869625008658299 -0.02797067082601928 0 -0.2465629097881179 -0.045184066694741683 0 -0.23869625008658299 -0.02797067082601928 0 -0.25441494109318552 -0.039245197918196188 0 -0.2332222161513659 -0.061553285824947582 0 -0.2329334042090058 -0.046211821293356083 0 -0.23969241155418011 -0.053746110925366117 0 -0.2329334042090058 -0.046211821293356083 0 -0.2465629097881179 -0.045184066694741683 0 -0.23969241155418011 -0.053746110925366117 0 -0.2465629097881179 -0.045184066694741683 0 -0.24704401887443389 -0.055614530283876813 0 -0.25550899067400978 -0.052067914282592553 0 -0.2465629097881179 -0.045184066694741683 0 -0.23969241155418011 -0.053746110925366117 0 -0.24704401887443389 -0.055614530283876813 0 -0.2483655533806578 -0.064444294594833904 0 -0.24704401887443389 -0.055614530283876813 0 -0.25396024284551 -0.060150982644096053 0 -0.2483655533806578 -0.064444294594833904 0 -0.24704401887443389 -0.055614530283876813 0 -0.23869950874797671 -0.060166850529908472 0 -0.23969241155418011 -0.053746110925366117 0 -0.24704401887443389 -0.055614530283876813 0 -0.23869950874797671 -0.060166850529908472 0 -0.2332222161513659 -0.061553285824947582 0 -0.23969241155418011 -0.053746110925366117 0 -0.23869950874797671 -0.060166850529908472 0 -0.23869625008658299 -0.02797067082601928 0 -0.26060155178831179 -0.0099508779030361358 0 -0.2404879013547162 0.0063648643017436444 0 -0.21653070785467701 -0.0076046726051159702 0 -0.23869625008658299 -0.02797067082601928 0 -0.2404879013547162 0.0063648643017436444 0 -0.21653070785467701 -0.0076046726051159702 0 -0.21679094838484839 -0.045990463748995368 0 -0.23869625008658299 -0.02797067082601928 0 -0.23869625008658299 -0.02797067082601928 0 -0.26060155178831179 -0.0099508779030361358 0 -0.26060155178831179 -0.0099508779030361358 0 -0.2404879013547162 0.0063648643017436444 0 -0.26060155178831179 -0.0099508779030361358 0 -0.26365098301432488 -0.01212475237805875 0 -0.26388712253128638 -0.017504453174816421 0 -0.26388712253128638 -0.017504453174816421 0 -0.26715657375159252 -0.014526686906849679 0 -0.26578439380636643 -0.012265087321530491 0 -0.26365098301432488 -0.01212475237805875 0 -0.26388712253128638 -0.017504453174816421 0 -0.26578439380636643 -0.012265087321530491 0 -0.26060155178831179 -0.0099508779030361358 0 -0.26505050715674477 -0.0096578266833447415 0 -0.2638926020328391 -0.007243586092463318 0 -0.26060155178831179 -0.0099508779030361358 0 -0.26365098301432488 -0.01212475237805875 0 -0.26505050715674477 -0.0096578266833447415 0 -0.26060155178831179 -0.0099508779030361358 0 -0.2638926020328391 -0.007243586092463318 0 -0.26365098301432488 -0.01212475237805875 0 -0.26505050715674477 -0.0096578266833447415 0 -0.26578439380636643 -0.012265087321530491 0 -0.26505050715674477 -0.0096578266833447415 0 -0.2638926020328391 -0.007243586092463318 0 -0.26776232092585672 -0.0087881593354680824 0 -0.26060155178831179 -0.0099508779030361358 0 -0.2638926020328391 -0.007243586092463318 0 -0.26408586383376897 -0.0027686284137106621 0 -0.26060155178831179 -0.0099508779030361358 0 -0.26408586383376897 -0.0027686284137106621 0 -0.25769703189193349 0.0047669400876523983 0 -0.23869625008658299 -0.02797067082601928 0 -0.26060155178831179 -0.0099508779030361358 0 -0.25948555014186558 -0.02084353896678131 0 -0.23869625008658299 -0.02797067082601928 0 -0.25948555014186558 -0.02084353896678131 0 -0.26014784119255158 -0.031644057912632209 0 -0.25948555014186558 -0.02084353896678131 0 -0.26388712253128638 -0.017504453174816421 0 -0.26788423296194841 -0.022463801805905029 0 -0.26060155178831179 -0.0099508779030361358 0 -0.25948555014186558 -0.02084353896678131 0 -0.26388712253128638 -0.017504453174816421 0 -0.25948555014186558 -0.02084353896678131 0 -0.26702530162448951 -0.02936256575207127 0 -0.26788423296194841 -0.022463801805905029 0 -0.25948555014186558 -0.02084353896678131 0 -0.26702530162448951 -0.02936256575207127 0 -0.26014784119255158 -0.031644057912632209 0 -0.26702530162448951 -0.02936256575207127 0 -0.27273006795023541 -0.025635253781837751 0 -0.27374251389100729 -0.029958011285058289 0 -0.26702530162448951 -0.02936256575207127 0 -0.27273006795023541 -0.025635253781837751 0 -0.26788423296194841 -0.022463801805905029 0 -0.27089847657027311 -0.019607796143197971 0 -0.27460448318162012 -0.017563452765903299 0 -0.27360267411859829 -0.021733359632007301 0 -0.27273006795023541 -0.025635253781837751 0 -0.26788423296194841 -0.022463801805905029 0 -0.27360267411859829 -0.021733359632007301 0 -0.27089847657027311 -0.019607796143197971 0 -0.26788423296194841 -0.022463801805905029 0 -0.27360267411859829 -0.021733359632007301 0 -0.26388712253128638 -0.017504453174816421 0 -0.27089847657027311 -0.019607796143197971 0 -0.26788423296194841 -0.022463801805905029 0 -0.26388712253128638 -0.017504453174816421 0 -0.27089847657027311 -0.019607796143197971 0 -0.26925185475242641 -0.016184232882261559 0 -0.26388712253128638 -0.017504453174816421 0 -0.26925185475242641 -0.016184232882261559 0 -0.26715657375159252 -0.014526686906849679 0 -0.27089847657027311 -0.019607796143197971 0 -0.26925185475242641 -0.016184232882261559 0 -0.2721881162023434 -0.01601822324197965 0 -0.27089847657027311 -0.019607796143197971 0 -0.2721881162023434 -0.01601822324197965 0 -0.27460448318162012 -0.017563452765903299 0 -0.27460448318162012 -0.017563452765903299 0 -0.27838556623680882 -0.02001996510775033 0 -0.2787323204150437 -0.014543327965635341 0 -0.27838556623680882 -0.02001996510775033 0 -0.2787323204150437 -0.014543327965635341 0 -0.28240321992028428 -0.016414524902346409 0 -0.27838556623680882 -0.02001996510775033 0 -0.28240321992028428 -0.016414524902346409 0 -0.28265159723903022 -0.020631525730515299 0 -0.27938059629602641 -0.023148621653086291 0 -0.28265159723903022 -0.020631525730515299 0 -0.28148352581199831 -0.025735637139438789 0 -0.27838556623680882 -0.02001996510775033 0 -0.27938059629602641 -0.023148621653086291 0 -0.28265159723903022 -0.020631525730515299 0 -0.27838556623680882 -0.02001996510775033 0 -0.27938059629602641 -0.023148621653086291 0 -0.27631006652788898 -0.023854852235681109 0 -0.27838556623680882 -0.02001996510775033 0 -0.27360267411859829 -0.021733359632007301 0 -0.27631006652788898 -0.023854852235681109 0 -0.27460448318162012 -0.017563452765903299 0 -0.27838556623680882 -0.02001996510775033 0 -0.27360267411859829 -0.021733359632007301 0 -0.27273006795023541 -0.025635253781837751 0 -0.27631006652788898 -0.023854852235681109 0 -0.27742166726888617 -0.027146061303147541 0 -0.27273006795023541 -0.025635253781837751 0 -0.27360267411859829 -0.021733359632007301 0 -0.27631006652788898 -0.023854852235681109 0 -0.27938059629602641 -0.023148621653086291 0 -0.27631006652788898 -0.023854852235681109 0 -0.27742166726888617 -0.027146061303147541 0 -0.27938059629602641 -0.023148621653086291 0 -0.27742166726888617 -0.027146061303147541 0 -0.28148352581199831 -0.025735637139438789 0 -0.27742166726888617 -0.027146061303147541 0 -0.28148352581199831 -0.025735637139438789 0 -0.27961623591798601 -0.031378604751308888 0 -0.27742166726888617 -0.027146061303147541 0 -0.27374251389100729 -0.029958011285058289 0 -0.27961623591798601 -0.031378604751308888 0 -0.27273006795023541 -0.025635253781837751 0 -0.27742166726888617 -0.027146061303147541 0 -0.27374251389100729 -0.029958011285058289 0 -0.26904763535809217 -0.0037276608778924552 0 -0.26776232092585672 -0.0087881593354680824 0 -0.2727222878888621 -0.0080274062784006107 0 -0.26904763535809217 -0.0037276608778924552 0 -0.2727222878888621 -0.0080274062784006107 0 -0.27633698374482091 -0.00067737869662126075 0 -0.26904763535809217 -0.0037276608778924552 0 -0.27633698374482091 -0.00067737869662126075 0 -0.26919049809766721 0.0023120427171847611 0 -0.26408586383376897 -0.0027686284137106621 0 -0.26904763535809217 -0.0037276608778924552 0 -0.26919049809766721 0.0023120427171847611 0 -0.2638926020328391 -0.007243586092463318 0 -0.26408586383376897 -0.0027686284137106621 0 -0.26904763535809217 -0.0037276608778924552 0 -0.2638926020328391 -0.007243586092463318 0 -0.26904763535809217 -0.0037276608778924552 0 -0.26776232092585672 -0.0087881593354680824 0 -0.26776232092585672 -0.0087881593354680824 0 -0.26578439380636643 -0.012265087321530491 0 -0.2697029239162908 -0.01215297424879028 0 -0.26505050715674477 -0.0096578266833447415 0 -0.26776232092585672 -0.0087881593354680824 0 -0.26578439380636643 -0.012265087321530491 0 -0.26715657375159252 -0.014526686906849679 0 -0.26578439380636643 -0.012265087321530491 0 -0.2697029239162908 -0.01215297424879028 0 -0.26925185475242641 -0.016184232882261559 0 -0.26715657375159252 -0.014526686906849679 0 -0.2697029239162908 -0.01215297424879028 0 -0.2721881162023434 -0.01601822324197965 0 -0.2697029239162908 -0.01215297424879028 0 -0.2736153745310328 -0.013224067030831239 0 -0.26925185475242641 -0.016184232882261559 0 -0.2721881162023434 -0.01601822324197965 0 -0.2697029239162908 -0.01215297424879028 0 -0.26776232092585672 -0.0087881593354680824 0 -0.2697029239162908 -0.01215297424879028 0 -0.2727222878888621 -0.0080274062784006107 0 -0.2697029239162908 -0.01215297424879028 0 -0.2727222878888621 -0.0080274062784006107 0 -0.2736153745310328 -0.013224067030831239 0 -0.2727222878888621 -0.0080274062784006107 0 -0.2736153745310328 -0.013224067030831239 0 -0.27840941382941742 -0.0085555928671700466 0 -0.2721881162023434 -0.01601822324197965 0 -0.27460448318162012 -0.017563452765903299 0 -0.2736153745310328 -0.013224067030831239 0 -0.27460448318162012 -0.017563452765903299 0 -0.2736153745310328 -0.013224067030831239 0 -0.2787323204150437 -0.014543327965635341 0 -0.2736153745310328 -0.013224067030831239 0 -0.2787323204150437 -0.014543327965635341 0 -0.27840941382941742 -0.0085555928671700466 0 -0.2787323204150437 -0.014543327965635341 0 -0.27840941382941742 -0.0085555928671700466 0 -0.28360451836570078 -0.01128854074719709 0 -0.27840941382941742 -0.0085555928671700466 0 -0.27633698374482091 -0.00067737869662126075 0 -0.28359120288042561 -0.003139179131532679 0 -0.2727222878888621 -0.0080274062784006107 0 -0.27840941382941742 -0.0085555928671700466 0 -0.27633698374482091 -0.00067737869662126075 0 -0.29047979856063738 -0.0090380142025746207 0 -0.2967273691532657 -0.027496464635486859 0 -0.29405399412486022 6.6318562070358245e-05 0 -0.27840941382941742 -0.0085555928671700466 0 -0.28359120288042561 -0.003139179131532679 0 -0.28360451836570078 -0.01128854074719709 0 -0.27633698374482091 -0.00067737869662126075 0 -0.28359120288042561 -0.003139179131532679 0 -0.2884888893773766 0.0033370998036932071 0 -0.2967273691532657 -0.027496464635486859 0 -0.29405399412486022 6.6318562070358245e-05 0 -0.28359120288042561 -0.003139179131532679 0 -0.28917812162165302 -0.0026968629327373339 0 -0.29047979856063738 -0.0090380142025746207 0 -0.28359120288042561 -0.003139179131532679 0 -0.28917812162165302 -0.0026968629327373339 0 -0.2884888893773766 0.0033370998036932071 0 -0.28917812162165302 -0.0026968629327373339 0 -0.29047979856063738 -0.0090380142025746207 0 -0.29405399412486022 6.6318562070358245e-05 0 -0.29047979856063738 -0.0090380142025746207 0 -0.28360451836570078 -0.01128854074719709 0 -0.28671554435012209 -0.016593207895892789 0 -0.28359120288042561 -0.003139179131532679 0 -0.29047979856063738 -0.0090380142025746207 0 -0.28360451836570078 -0.01128854074719709 0 -0.2787323204150437 -0.014543327965635341 0 -0.28360451836570078 -0.01128854074719709 0 -0.28240321992028428 -0.016414524902346409 0 -0.28360451836570078 -0.01128854074719709 0 -0.28240321992028428 -0.016414524902346409 0 -0.28671554435012209 -0.016593207895892789 0 -0.28240321992028428 -0.016414524902346409 0 -0.28265159723903022 -0.020631525730515299 0 -0.28671554435012209 -0.016593207895892789 0 -0.29047979856063738 -0.0090380142025746207 0 -0.28671554435012209 -0.016593207895892789 0 -0.2898245868323388 -0.0215478395471289 0 -0.29047979856063738 -0.0090380142025746207 0 -0.2967273691532657 -0.027496464635486859 0 -0.2898245868323388 -0.0215478395471289 0 -0.28265159723903022 -0.020631525730515299 0 -0.28591224284540151 -0.022151922224112851 0 -0.28671554435012209 -0.016593207895892789 0 -0.28265159723903022 -0.020631525730515299 0 -0.28591224284540151 -0.022151922224112851 0 -0.28148352581199831 -0.025735637139438789 0 -0.28591224284540151 -0.022151922224112851 0 -0.28671554435012209 -0.016593207895892789 0 -0.2898245868323388 -0.0215478395471289 0 -0.28352997514735701 -0.029003181754163151 0 -0.28533861776622688 -0.032263543210202007 0 -0.27961623591798601 -0.031378604751308888 0 -0.28352997514735701 -0.029003181754163151 0 -0.28148352581199831 -0.025735637139438789 0 -0.27961623591798601 -0.031378604751308888 0 -0.28352997514735701 -0.029003181754163151 0 -0.28148352581199831 -0.025735637139438789 0 -0.28634634232539141 -0.026642110290522408 0 -0.28591224284540151 -0.022151922224112851 0 -0.28148352581199831 -0.025735637139438789 0 -0.28634634232539141 -0.026642110290522408 0 -0.28591224284540151 -0.022151922224112851 0 -0.28634634232539141 -0.026642110290522408 0 -0.2898245868323388 -0.0215478395471289 0 -0.28352997514735701 -0.029003181754163151 0 -0.28817748514546671 -0.02993231724033028 0 -0.28533861776622688 -0.032263543210202007 0 -0.28352997514735701 -0.029003181754163151 0 -0.28634634232539141 -0.026642110290522408 0 -0.28817748514546671 -0.02993231724033028 0 -0.28634634232539141 -0.026642110290522408 0 -0.28817748514546671 -0.02993231724033028 0 -0.29126248415753209 -0.028430261717598899 0 -0.29126248415753209 -0.028430261717598899 0 -0.29483245598510038 -0.031729905311025229 0 -0.29102866934425958 -0.033244121864989519 0 -0.28817748514546671 -0.02993231724033028 0 -0.29126248415753209 -0.028430261717598899 0 -0.29102866934425958 -0.033244121864989519 0 -0.28634634232539141 -0.026642110290522408 0 -0.29126248415753209 -0.028430261717598899 0 -0.2898245868323388 -0.0215478395471289 0 -0.29126248415753209 -0.028430261717598899 0 -0.2967273691532657 -0.027496464635486859 0 -0.2898245868323388 -0.0215478395471289 0 -0.29126248415753209 -0.028430261717598899 0 -0.2967273691532657 -0.027496464635486859 0 -0.29483245598510038 -0.031729905311025229 0 -0.30753780111789292 -0.010491706029582191 0 -0.29961072545211742 -0.032633219002253827 0 -0.30864104459036512 -0.023376464966387459 0 -0.30753780111789292 -0.010491706029582191 0 -0.29961072545211742 -0.032633219002253827 0 -0.2967273691532657 -0.027496464635486859 0 -0.30753780111789292 -0.010491706029582191 0 -0.29961072545211742 -0.032633219002253827 0 -0.2967273691532657 -0.027496464635486859 0 -0.29961072545211742 -0.032633219002253827 0 -0.29483245598510038 -0.031729905311025229 0 -0.30864104459036512 -0.023376464966387459 0 -0.30676353145764779 -0.032532267905289722 0 -0.29961072545211742 -0.032633219002253827 0 -0.30864104459036512 -0.023376464966387459 0 -0.30676353145764779 -0.032532267905289722 0 -0.31462399371254079 -0.031136228054262839 0 -0.30864104459036512 -0.023376464966387459 0 -0.30753780111789292 -0.010491706029582191 0 -0.31293948616813572 -0.017634293747614549 0 -0.2967273691532657 -0.027496464635486859 0 -0.30753780111789292 -0.010491706029582191 0 -0.29405399412486022 6.6318562070358245e-05 0 -0.30753780111789292 -0.010491706029582191 0 -0.31660410492576879 -0.01318706708850197 0 -0.29405399412486022 6.6318562070358245e-05 0 -0.31660410492576879 -0.01318706708850197 0 -0.29405399412486022 6.6318562070358245e-05 0 -0.31031161647040639 0.0019172660656071911 0 -0.30753780111789292 -0.010491706029582191 0 -0.31660410492576879 -0.01318706708850197 0 -0.31293948616813572 -0.017634293747614549 0 -0.31660410492576879 -0.01318706708850197 0 -0.29405399412486022 6.6318562070358245e-05 0 -0.30999180154219108 -0.051392085483473397 0 -0.30867435865971599 -0.036634121002952817 0 -0.29760593666621948 -0.063443081912226168 0 -0.30867435865971599 -0.036634121002952817 0 -0.29760593666621948 -0.063443081912226168 0 -0.30867435865971599 -0.036634121002952817 0 -0.29952573689791562 -0.045092568654897983 0 -0.29760593666621948 -0.063443081912226168 0 -0.30951554536866249 -0.06235671120450724 0 -0.30999180154219108 -0.051392085483473397 0 -0.29760593666621948 -0.063443081912226168 0 -0.30951554536866249 -0.06235671120450724 0 -0.30999180154219108 -0.051392085483473397 0 -0.31616250532244639 -0.052996831790065417 0 -0.29961072545211742 -0.032633219002253827 0 -0.29952573689791562 -0.045092568654897983 0 -0.29168364978634193 -0.054774731974925557 0 -0.30867435865971599 -0.036634121002952817 0 -0.30676353145764779 -0.032532267905289722 0 -0.31462399371254079 -0.031136228054262839 0 -0.30867435865971599 -0.036634121002952817 0 -0.30676353145764779 -0.032532267905289722 0 -0.3022675348734995 -0.038881306500591663 0 -0.3022675348734995 -0.038881306500591663 0 -0.29961072545211742 -0.032633219002253827 0 -0.29952573689791562 -0.045092568654897983 0 -0.30676353145764779 -0.032532267905289722 0 -0.3022675348734995 -0.038881306500591663 0 -0.29961072545211742 -0.032633219002253827 0 -0.30867435865971599 -0.036634121002952817 0 -0.3022675348734995 -0.038881306500591663 0 -0.29952573689791562 -0.045092568654897983 0 -0.28930767715221217 -0.04188605484543443 0 -0.29329263554400642 -0.038853606599725712 0 -0.29168364978634193 -0.054774731974925557 0 -0.29961072545211742 -0.032633219002253827 0 -0.29168364978634193 -0.054774731974925557 0 -0.29961072545211742 -0.032633219002253827 0 -0.29329263554400642 -0.038853606599725712 0 -0.29168364978634193 -0.054774731974925557 0 -0.28930767715221217 -0.04188605484543443 0 -0.29329263554400642 -0.038853606599725712 0 -0.29102866934425958 -0.033244121864989519 0 -0.29961072545211742 -0.032633219002253827 0 -0.29483245598510038 -0.031729905311025229 0 -0.29329263554400642 -0.038853606599725712 0 -0.29483245598510038 -0.031729905311025229 0 -0.29329263554400642 -0.038853606599725712 0 -0.29102866934425958 -0.033244121864989519 0 -0.28930767715221217 -0.04188605484543443 0 -0.29102866934425958 -0.033244121864989519 0 -0.28435261675078588 -0.03782026269654043 0 -0.28817748514546671 -0.02993231724033028 0 -0.29102866934425958 -0.033244121864989519 0 -0.28533861776622688 -0.032263543210202007 0 -0.29102866934425958 -0.033244121864989519 0 -0.28533861776622688 -0.032263543210202007 0 -0.28435261675078588 -0.03782026269654043 0 -0.28533861776622688 -0.032263543210202007 0 -0.28435261675078588 -0.03782026269654043 0 -0.27961623591798601 -0.031378604751308888 0 -0.28930767715221217 -0.04188605484543443 0 -0.28435261675078588 -0.03782026269654043 0 -0.28474043388986081 -0.046712289746110747 0 -0.28435261675078588 -0.03782026269654043 0 -0.28474043388986081 -0.046712289746110747 0 -0.27936313782935768 -0.043163928484585772 0 -0.28474043388986081 -0.046712289746110747 0 -0.28244570485889059 -0.05443650312697744 0 -0.29168364978634193 -0.054774731974925557 0 -0.29952573689791562 -0.045092568654897983 0 -0.29168364978634193 -0.054774731974925557 0 -0.29760593666621948 -0.063443081912226168 0 -0.28474043388986081 -0.046712289746110747 0 -0.28244570485889059 -0.05443650312697744 0 -0.27728653119946028 -0.05028228352853284 0 -0.28930767715221217 -0.04188605484543443 0 -0.28474043388986081 -0.046712289746110747 0 -0.29168364978634193 -0.054774731974925557 0 -0.28244570485889059 -0.05443650312697744 0 -0.29168364978634193 -0.054774731974925557 0 -0.28106031067737769 -0.063113788621502326 0 -0.27680822737976302 -0.057617882475193581 0 -0.28106031067737769 -0.063113788621502326 0 -0.26947425988915691 -0.065368346256522158 0 -0.28244570485889059 -0.05443650312697744 0 -0.27680822737976302 -0.057617882475193581 0 -0.28106031067737769 -0.063113788621502326 0 -0.27680822737976302 -0.057617882475193581 0 -0.27728653119946028 -0.05028228352853284 0 -0.27065734773801409 -0.056417102257046998 0 -0.28244570485889059 -0.05443650312697744 0 -0.27680822737976302 -0.057617882475193581 0 -0.27728653119946028 -0.05028228352853284 0 -0.27065734773801409 -0.056417102257046998 0 -0.262379781275633 -0.057588485168418503 0 -0.26433857943243672 -0.049089027556424372 0 -0.27728653119946028 -0.05028228352853284 0 -0.27086714734047479 -0.050037811536026863 0 -0.27065734773801409 -0.056417102257046998 0 -0.27728653119946028 -0.05028228352853284 0 -0.27086714734047479 -0.050037811536026863 0 -0.2720984253569213 -0.043880010550913999 0 -0.27086714734047479 -0.050037811536026863 0 -0.2720984253569213 -0.043880010550913999 0 -0.26433857943243672 -0.049089027556424372 0 -0.27086714734047479 -0.050037811536026863 0 -0.27065734773801409 -0.056417102257046998 0 -0.26433857943243672 -0.049089027556424372 0 -0.27065734773801409 -0.056417102257046998 0 -0.262379781275633 -0.057588485168418503 0 -0.26947425988915691 -0.065368346256522158 0 -0.27680822737976302 -0.057617882475193581 0 -0.27065734773801409 -0.056417102257046998 0 -0.26947425988915691 -0.065368346256522158 0 -0.27833768194976022 -0.037124795900830863 0 -0.2720984253569213 -0.043880010550913999 0 -0.27202312706367521 -0.035622181102819957 0 -0.27961623591798601 -0.031378604751308888 0 -0.27833768194976022 -0.037124795900830863 0 -0.27202312706367521 -0.035622181102819957 0 -0.27374251389100729 -0.029958011285058289 0 -0.27961623591798601 -0.031378604751308888 0 -0.27202312706367521 -0.035622181102819957 0 -0.28435261675078588 -0.03782026269654043 0 -0.27961623591798601 -0.031378604751308888 0 -0.27833768194976022 -0.037124795900830863 0 -0.27833768194976022 -0.037124795900830863 0 -0.27936313782935768 -0.043163928484585772 0 -0.2720984253569213 -0.043880010550913999 0 -0.28435261675078588 -0.03782026269654043 0 -0.27833768194976022 -0.037124795900830863 0 -0.27936313782935768 -0.043163928484585772 0 -0.28474043388986081 -0.046712289746110747 0 -0.27728653119946028 -0.05028228352853284 0 -0.27936313782935768 -0.043163928484585772 0 -0.27728653119946028 -0.05028228352853284 0 -0.27936313782935768 -0.043163928484585772 0 -0.2720984253569213 -0.043880010550913999 0 -0.2720984253569213 -0.043880010550913999 0 -0.26407040463230419 -0.039102753932253438 0 -0.26433857943243672 -0.049089027556424372 0 -0.2720984253569213 -0.043880010550913999 0 -0.27202312706367521 -0.035622181102819957 0 -0.26407040463230419 -0.039102753932253438 0 -0.26702530162448951 -0.02936256575207127 0 -0.27202312706367521 -0.035622181102819957 0 -0.26407040463230419 -0.039102753932253438 0 -0.26702530162448951 -0.02936256575207127 0 -0.27374251389100729 -0.029958011285058289 0 -0.27202312706367521 -0.035622181102819957 0 -0.23869625008658299 -0.02797067082601928 0 -0.26014784119255158 -0.031644057912632209 0 -0.25441494109318552 -0.039245197918196188 0 -0.26702530162448951 -0.02936256575207127 0 -0.26014784119255158 -0.031644057912632209 0 -0.26407040463230419 -0.039102753932253438 0 -0.26014784119255158 -0.031644057912632209 0 -0.26407040463230419 -0.039102753932253438 0 -0.25441494109318552 -0.039245197918196188 0 -0.26407040463230419 -0.039102753932253438 0 -0.25441494109318552 -0.039245197918196188 0 -0.25697916512401081 -0.044937792076841648 0 -0.26407040463230419 -0.039102753932253438 0 -0.25697916512401081 -0.044937792076841648 0 -0.26433857943243672 -0.049089027556424372 0 -0.2465629097881179 -0.045184066694741683 0 -0.25441494109318552 -0.039245197918196188 0 -0.25697916512401081 -0.044937792076841648 0 -0.262379781275633 -0.057588485168418503 0 -0.25396024284551 -0.060150982644096053 0 -0.26046521004263962 -0.064193552901764928 0 -0.262379781275633 -0.057588485168418503 0 -0.26046521004263962 -0.064193552901764928 0 -0.26947425988915691 -0.065368346256522158 0 -0.25697916512401081 -0.044937792076841648 0 -0.26433857943243672 -0.049089027556424372 0 -0.25550899067400978 -0.052067914282592553 0 -0.262379781275633 -0.057588485168418503 0 -0.26433857943243672 -0.049089027556424372 0 -0.25550899067400978 -0.052067914282592553 0 -0.2465629097881179 -0.045184066694741683 0 -0.25697916512401081 -0.044937792076841648 0 -0.25550899067400978 -0.052067914282592553 0 -0.24704401887443389 -0.055614530283876813 0 -0.25550899067400978 -0.052067914282592553 0 -0.25396024284551 -0.060150982644096053 0 -0.262379781275633 -0.057588485168418503 0 -0.25550899067400978 -0.052067914282592553 0 -0.25396024284551 -0.060150982644096053 0 -0.2483655533806578 -0.064444294594833904 0 -0.24965348391788331 -0.077116107900899955 0 -0.25529358745092068 -0.068880359989028958 0 -0.2483655533806578 -0.064444294594833904 0 -0.25396024284551 -0.060150982644096053 0 -0.25529358745092068 -0.068880359989028958 0 -0.25396024284551 -0.060150982644096053 0 -0.25529358745092068 -0.068880359989028958 0 -0.26046521004263962 -0.064193552901764928 0 -0.26046521004263962 -0.064193552901764928 0 -0.26137783741388848 -0.070674106847672599 0 -0.26947425988915691 -0.065368346256522158 0 -0.25529358745092068 -0.068880359989028958 0 -0.26046521004263962 -0.064193552901764928 0 -0.26137783741388848 -0.070674106847672599 0 -0.26137783741388848 -0.070674106847672599 0 -0.25881619480379559 -0.076534131081430701 0 -0.26654000751521439 -0.077932518419781868 0 -0.25529358745092068 -0.068880359989028958 0 -0.26137783741388848 -0.070674106847672599 0 -0.25881619480379559 -0.076534131081430701 0 -0.24965348391788331 -0.077116107900899955 0 -0.25529358745092068 -0.068880359989028958 0 -0.25881619480379559 -0.076534131081430701 0 -0.24965348391788331 -0.077116107900899955 0 -0.26256128829855629 -0.0970885558158361 0 -0.24094254704299509 -0.1032696157525328 0 -0.24965348391788331 -0.077116107900899955 0 -0.26256128829855629 -0.0970885558158361 0 -0.24965348391788331 -0.077116107900899955 0 -0.25881619480379559 -0.076534131081430701 0 -0.26121605772107193 -0.088067562249769887 0 -0.24965348391788331 -0.077116107900899955 0 -0.26121605772107193 -0.088067562249769887 0 -0.24965348391788331 -0.077116107900899955 0 -0.26121605772107193 -0.088067562249769887 0 -0.26256128829855629 -0.0970885558158361 0 -0.25881619480379559 -0.076534131081430701 0 -0.26121605772107193 -0.088067562249769887 0 -0.26654000751521439 -0.077932518419781868 0 -0.26121605772107193 -0.088067562249769887 0 -0.26817387718298252 -0.089285655461683058 0 -0.26654000751521439 -0.077932518419781868 0 -0.26817387718298252 -0.089285655461683058 0 -0.27353738608621098 -0.082001936795058336 0 -0.26654000751521439 -0.077932518419781868 0 -0.27582949845479082 -0.099057757920269135 0 -0.28375657412056632 -0.076916244947597384 0 -0.274578535794053 -0.091610251718545477 0 -0.27582949845479082 -0.099057757920269135 0 -0.28375657412056632 -0.076916244947597384 0 -0.26121605772107193 -0.088067562249769887 0 -0.27277863152426018 -0.099019016598640208 0 -0.26121605772107193 -0.088067562249769887 0 -0.26817387718298252 -0.089285655461683058 0 -0.27277863152426018 -0.099019016598640208 0 -0.26817387718298252 -0.089285655461683058 0 -0.274578535794053 -0.091610251718545477 0 -0.27353738608621098 -0.082001936795058336 0 -0.26817387718298252 -0.089285655461683058 0 -0.274578535794053 -0.091610251718545477 0 -0.27395128758375958 -0.095692054020399958 0 -0.274578535794053 -0.091610251718545477 0 -0.27353738608621098 -0.082001936795058336 0 -0.28375657412056632 -0.076916244947597384 0 -0.27353738608621098 -0.082001936795058336 0 -0.27487370765770519 -0.073066567008092428 0 -0.28375657412056632 -0.076916244947597384 0 -0.27487370765770519 -0.073066567008092428 0 -0.28106031067737769 -0.063113788621502326 0 -0.28375657412056632 -0.076916244947597384 0 -0.27487370765770519 -0.073066567008092428 0 -0.28106031067737769 -0.063113788621502326 0 -0.26947425988915691 -0.065368346256522158 0 -0.27353738608621098 -0.082001936795058336 0 -0.27487370765770519 -0.073066567008092428 0 -0.26654000751521439 -0.077932518419781868 0 -0.26137783741388848 -0.070674106847672599 0 -0.26947425988915691 -0.065368346256522158 0 -0.26654000751521439 -0.077932518419781868 0 -0.27487370765770519 -0.073066567008092428 0 -0.26947425988915691 -0.065368346256522158 0 -0.26654000751521439 -0.077932518419781868 0 -0.24717592929175389 -0.12832585532349891 0 -0.25653721432813292 -0.11143625765566011 0 -0.27546909267922781 -0.1170610037307732 0 -0.24094254704299509 -0.1032696157525328 0 -0.25653721432813292 -0.11143625765566011 0 -0.26256128829855629 -0.0970885558158361 0 -0.25653721432813292 -0.11143625765566011 0 -0.26256128829855629 -0.0970885558158361 0 -0.27546909267922781 -0.1170610037307732 0 -0.26121605772107193 -0.088067562249769887 0 -0.26256128829855629 -0.0970885558158361 0 -0.27277863152426018 -0.099019016598640208 0 -0.27277863152426018 -0.099019016598640208 0 -0.27582949845479082 -0.099057757920269135 0 -0.27546909267922781 -0.1170610037307732 0 -0.26256128829855629 -0.0970885558158361 0 -0.27546909267922781 -0.1170610037307732 0 -0.27582949845479082 -0.099057757920269135 0 -0.27546909267922781 -0.1170610037307732 0 -0.28653751467272298 -0.090252042821499387 0 -0.26256128829855629 -0.0970885558158361 0 -0.27277863152426018 -0.099019016598640208 0 -0.27546909267922781 -0.1170610037307732 0 -0.27546909267922781 -0.1170610037307732 0 -0.28653751467272298 -0.090252042821499387 0 -0.26817387718298252 -0.089285655461683058 0 -0.27277863152426018 -0.099019016598640208 0 -0.27395128758375958 -0.095692054020399958 0 -0.274578535794053 -0.091610251718545477 0 -0.27395128758375958 -0.095692054020399958 0 -0.27582949845479082 -0.099057757920269135 0 -0.27277863152426018 -0.099019016598640208 0 -0.27395128758375958 -0.095692054020399958 0 -0.27582949845479082 -0.099057757920269135 0 -0.27546909267922781 -0.1170610037307732 0 -0.29543170229437749 -0.1227049298256718 0 -0.29218133648754191 -0.1072221053378169 0 -0.27546909267922781 -0.1170610037307732 0 -0.29543170229437749 -0.1227049298256718 0 -0.28640868621233889 -0.13398800816986389 0 -0.27546909267922781 -0.1170610037307732 0 -0.29218133648754191 -0.1072221053378169 0 -0.28653751467272298 -0.090252042821499387 0 -0.29218133648754191 -0.1072221053378169 0 -0.303057228159475 -0.096715209125383311 0 -0.28653751467272298 -0.090252042821499387 0 -0.303057228159475 -0.096715209125383311 0 -0.31549078247367562 -0.086542615934806083 0 -0.31860971991298792 -0.1074347027043107 0 -0.303057228159475 -0.096715209125383311 0 -0.30369368122175988 -0.11151062041584441 0 -0.31860971991298792 -0.1074347027043107 0 -0.29218133648754191 -0.1072221053378169 0 -0.303057228159475 -0.096715209125383311 0 -0.30369368122175988 -0.11151062041584441 0 -0.30369368122175988 -0.11151062041584441 0 -0.30962457476194383 -0.12326058045469809 0 -0.31860971991298792 -0.1074347027043107 0 -0.29543170229437749 -0.1227049298256718 0 -0.29218133648754191 -0.1072221053378169 0 -0.30369368122175988 -0.11151062041584441 0 -0.29543170229437749 -0.1227049298256718 0 -0.30369368122175988 -0.11151062041584441 0 -0.30962457476194383 -0.12326058045469809 0 -0.28653751467272298 -0.090252042821499387 0 -0.29991703885317689 -0.080086600137937308 0 -0.29760593666621948 -0.063443081912226168 0 -0.28375657412056632 -0.076916244947597384 0 -0.28653751467272298 -0.090252042821499387 0 -0.29760593666621948 -0.063443081912226168 0 -0.29168364978634193 -0.054774731974925557 0 -0.28106031067737769 -0.063113788621502326 0 -0.28375657412056632 -0.076916244947597384 0 -0.29168364978634193 -0.054774731974925557 0 -0.28375657412056632 -0.076916244947597384 0 -0.29760593666621948 -0.063443081912226168 0 -0.29168364978634193 -0.054774731974925557 0 -0.28375657412056632 -0.076916244947597384 0 -0.28653751467272298 -0.090252042821499387 0 -0.29760593666621948 -0.063443081912226168 0 -0.303057228159475 -0.096715209125383311 0 -0.28653751467272298 -0.090252042821499387 0 -0.29991703885317689 -0.080086600137937308 0 -0.27582949845479082 -0.099057757920269135 0 -0.28375657412056632 -0.076916244947597384 0 -0.28653751467272298 -0.090252042821499387 0 -0.303057228159475 -0.096715209125383311 0 -0.29991703885317689 -0.080086600137937308 0 -0.31549078247367562 -0.086542615934806083 0 -0.29991703885317689 -0.080086600137937308 0 -0.31171622338062971 -0.072917285465253057 0 -0.31549078247367562 -0.086542615934806083 0 -0.29991703885317689 -0.080086600137937308 0 -0.29760593666621948 -0.063443081912226168 0 -0.30468868606717209 -0.069700919679980947 0 -0.29991703885317689 -0.080086600137937308 0 -0.31171622338062971 -0.072917285465253057 0 -0.30468868606717209 -0.069700919679980947 0 -0.30951554536866249 -0.06235671120450724 0 -0.29760593666621948 -0.063443081912226168 0 -0.30468868606717209 -0.069700919679980947 0 -0.30951554536866249 -0.06235671120450724 0 -0.31171622338062971 -0.072917285465253057 0 -0.30468868606717209 -0.069700919679980947 0 -0.31171622338062971 -0.072917285465253057 0 -0.32637387814053692 -0.075818499039120524 0 -0.31875036318260253 -0.062196151380951442 0 -0.30951554536866249 -0.06235671120450724 0 -0.31171622338062971 -0.072917285465253057 0 -0.31875036318260253 -0.062196151380951442 0 -0.32637387814053692 -0.075818499039120524 0 -0.31875036318260253 -0.062196151380951442 0 -0.33123322623397811 -0.060327127677957337 0 -0.31171622338062971 -0.072917285465253057 0 -0.32637387814053692 -0.075818499039120524 0 -0.31549078247367562 -0.086542615934806083 0 -0.32637387814053692 -0.075818499039120524 0 -0.31549078247367562 -0.086542615934806083 0 -0.32935032645660678 -0.093725136203820447 0 -0.32637387814053692 -0.075818499039120524 0 -0.3423205863163985 -0.088077070372722166 0 -0.3438726675344238 -0.070651582169856897 0 -0.32637387814053692 -0.075818499039120524 0 -0.3423205863163985 -0.088077070372722166 0 -0.32935032645660678 -0.093725136203820447 0 -0.32637387814053692 -0.075818499039120524 0 -0.3438726675344238 -0.070651582169856897 0 -0.33123322623397811 -0.060327127677957337 0 -0.30962457476194383 -0.12326058045469809 0 -0.31860971991298792 -0.1074347027043107 0 -0.32464354820156027 -0.12899986357727031 0 -0.31549078247367562 -0.086542615934806083 0 -0.32935032645660678 -0.093725136203820447 0 -0.31860971991298792 -0.1074347027043107 0 -0.32935032645660678 -0.093725136203820447 0 -0.31860971991298792 -0.1074347027043107 0 -0.34395666543943498 -0.1107527929681428 0 -0.3423205863163985 -0.088077070372722166 0 -0.32935032645660678 -0.093725136203820447 0 -0.34395666543943498 -0.1107527929681428 0 -0.31860971991298792 -0.1074347027043107 0 -0.34395666543943498 -0.1107527929681428 0 -0.32464354820156027 -0.12899986357727031 0 -0.34395666543943498 -0.1107527929681428 0 -0.36504398971258051 -0.1149276719679424 0 -0.35668937085178998 -0.1285270274518979 0 -0.34395666543943498 -0.1107527929681428 0 -0.35935685723261651 -0.096933990135575798 0 -0.36504398971258051 -0.1149276719679424 0 -0.3423205863163985 -0.088077070372722166 0 -0.34395666543943498 -0.1107527929681428 0 -0.35935685723261651 -0.096933990135575798 0 -0.35935685723261651 -0.096933990135575798 0 -0.36504398971258051 -0.1149276719679424 0 -0.37802030087920802 -0.1002597821507185 0 -0.36504398971258051 -0.1149276719679424 0 -0.37212039532758762 -0.13043860080442859 0 -0.38218799579901253 -0.1159715049449242 0 -0.36504398971258051 -0.1149276719679424 0 -0.35668937085178998 -0.1285270274518979 0 -0.37212039532758762 -0.13043860080442859 0 -0.3438726675344238 -0.070651582169856897 0 -0.3607783276065456 -0.064487091921909184 0 -0.3467695313975856 -0.054307821552572952 0 -0.3438726675344238 -0.070651582169856897 0 -0.35576045551149849 -0.08089188245485926 0 -0.3607783276065456 -0.064487091921909184 0 -0.3423205863163985 -0.088077070372722166 0 -0.35935685723261651 -0.096933990135575798 0 -0.35576045551149849 -0.08089188245485926 0 -0.3423205863163985 -0.088077070372722166 0 -0.3438726675344238 -0.070651582169856897 0 -0.35576045551149849 -0.08089188245485926 0 -0.35935685723261651 -0.096933990135575798 0 -0.35576045551149849 -0.08089188245485926 0 -0.37251903031674871 -0.082879279404674058 0 -0.35935685723261651 -0.096933990135575798 0 -0.37251903031674871 -0.082879279404674058 0 -0.37802030087920802 -0.1002597821507185 0 -0.35576045551149849 -0.08089188245485926 0 -0.37251903031674871 -0.082879279404674058 0 -0.3607783276065456 -0.064487091921909184 0 -0.3607783276065456 -0.064487091921909184 0 -0.38581642046153541 -0.068983112455629811 0 -0.37251903031674871 -0.082879279404674058 0 -0.3607783276065456 -0.064487091921909184 0 -0.38581642046153541 -0.068983112455629811 0 -0.3607783276065456 -0.064487091921909184 0 -0.36348933761679381 -0.050487947909711263 0 -0.37966970287236002 -0.052547422085634128 0 -0.36348933761679381 -0.050487947909711263 0 -0.3467695313975856 -0.054307821552572952 0 -0.35581652462859631 -0.042322097442933873 0 -0.3607783276065456 -0.064487091921909184 0 -0.36348933761679381 -0.050487947909711263 0 -0.3467695313975856 -0.054307821552572952 0 -0.3467695313975856 -0.054307821552572952 0 -0.34378439466782978 -0.038490311088793708 0 -0.35581652462859631 -0.042322097442933873 0 -0.34378439466782978 -0.038490311088793708 0 -0.35357256737317339 -0.029985212728497791 0 -0.33915421572667898 -0.026440452739071561 0 -0.34378439466782978 -0.038490311088793708 0 -0.35581652462859631 -0.042322097442933873 0 -0.35357256737317339 -0.029985212728497791 0 -0.35581652462859631 -0.042322097442933873 0 -0.36950314741224211 -0.0373073499673994 0 -0.35357256737317339 -0.029985212728497791 0 -0.36348933761679381 -0.050487947909711263 0 -0.36950314741224211 -0.0373073499673994 0 -0.37966970287236002 -0.052547422085634128 0 -0.36348933761679381 -0.050487947909711263 0 -0.35581652462859631 -0.042322097442933873 0 -0.36950314741224211 -0.0373073499673994 0 -0.36950314741224211 -0.0373073499673994 0 -0.36725045222193292 -0.02304761782253752 0 -0.37891032816902448 -0.026794728131398909 0 -0.36950314741224211 -0.0373073499673994 0 -0.36725045222193292 -0.02304761782253752 0 -0.35357256737317339 -0.029985212728497791 0 -0.36725045222193292 -0.02304761782253752 0 -0.37289906329371142 -0.01075325774520593 0 -0.38344569979048232 -0.01408937994966112 0 -0.36725045222193292 -0.02304761782253752 0 -0.37289906329371142 -0.01075325774520593 0 -0.3461571792283914 -0.016375373413627561 0 -0.37289906329371142 -0.01075325774520593 0 -0.36175709916431592 -0.00070327302944183333 0 -0.35498435311568982 -0.005575114468422634 0 -0.37289906329371142 -0.01075325774520593 0 -0.3461571792283914 -0.016375373413627561 0 -0.37289906329371142 -0.01075325774520593 0 -0.36175709916431592 -0.00070327302944183333 0 -0.3727731609852345 0.0039141314299658506 0 -0.37289906329371142 -0.01075325774520593 0 -0.35498435311568982 -0.005575114468422634 0 -0.3461571792283914 -0.016375373413627561 0 -0.36175709916431592 -0.00070327302944183333 0 -0.35498435311568982 -0.005575114468422634 0 -0.35279133893119258 0.001604363420070106 0 -0.35498435311568982 -0.005575114468422634 0 -0.3461571792283914 -0.016375373413627561 0 -0.34131708496083762 -0.0016480315739079449 0 -0.35498435311568982 -0.005575114468422634 0 -0.34131708496083762 -0.0016480315739079449 0 -0.35279133893119258 0.001604363420070106 0 -0.36725045222193292 -0.02304761782253752 0 -0.35357256737317339 -0.029985212728497791 0 -0.3461571792283914 -0.016375373413627561 0 -0.35357256737317339 -0.029985212728497791 0 -0.3461571792283914 -0.016375373413627561 0 -0.33915421572667898 -0.026440452739071561 0 -0.33915421572667898 -0.026440452739071561 0 -0.33352593205709002 -0.011993250215612129 0 -0.31660410492576879 -0.01318706708850197 0 -0.3461571792283914 -0.016375373413627561 0 -0.33915421572667898 -0.026440452739071561 0 -0.33352593205709002 -0.011993250215612129 0 -0.3461571792283914 -0.016375373413627561 0 -0.34131708496083762 -0.0016480315739079449 0 -0.33352593205709002 -0.011993250215612129 0 -0.34131708496083762 -0.0016480315739079449 0 -0.33352593205709002 -0.011993250215612129 0 -0.32608935260755428 -0.00056023927961031518 0 -0.33352593205709002 -0.011993250215612129 0 -0.32608935260755428 -0.00056023927961031518 0 -0.31660410492576879 -0.01318706708850197 0 -0.32608935260755428 -0.00056023927961031518 0 -0.31660410492576879 -0.01318706708850197 0 -0.31031161647040639 0.0019172660656071911 0 -0.33915421572667898 -0.026440452739071561 0 -0.31660410492576879 -0.01318706708850197 0 -0.33915421572667898 -0.026440452739071561 0 -0.31660410492576879 -0.01318706708850197 0 -0.31897499403851598 -0.0234819369059866 0 -0.33915421572667898 -0.026440452739071561 0 -0.32481873542184519 -0.031178453629000229 0 -0.31897499403851598 -0.0234819369059866 0 -0.30864104459036512 -0.023376464966387459 0 -0.31293948616813572 -0.017634293747614549 0 -0.31897499403851598 -0.0234819369059866 0 -0.31660410492576879 -0.01318706708850197 0 -0.31293948616813572 -0.017634293747614549 0 -0.31897499403851598 -0.0234819369059866 0 -0.30864104459036512 -0.023376464966387459 0 -0.31462399371254079 -0.031136228054262839 0 -0.31897499403851598 -0.0234819369059866 0 -0.32481873542184519 -0.031178453629000229 0 -0.31462399371254079 -0.031136228054262839 0 -0.31897499403851598 -0.0234819369059866 0 -0.30867435865971599 -0.036634121002952817 0 -0.31462399371254079 -0.031136228054262839 0 -0.32045195758183159 -0.042134880041484822 0 -0.32481873542184519 -0.031178453629000229 0 -0.31462399371254079 -0.031136228054262839 0 -0.32045195758183159 -0.042134880041484822 0 -0.32481873542184519 -0.031178453629000229 0 -0.32045195758183159 -0.042134880041484822 0 -0.33222142684591233 -0.037117712384304363 0 -0.30999180154219108 -0.051392085483473397 0 -0.30867435865971599 -0.036634121002952817 0 -0.32045195758183159 -0.042134880041484822 0 -0.30999180154219108 -0.051392085483473397 0 -0.32045195758183159 -0.042134880041484822 0 -0.31616250532244639 -0.052996831790065417 0 -0.32045195758183159 -0.042134880041484822 0 -0.31616250532244639 -0.052996831790065417 0 -0.32389917663044693 -0.052999891062726102 0 -0.30951554536866249 -0.06235671120450724 0 -0.31616250532244639 -0.052996831790065417 0 -0.31875036318260253 -0.062196151380951442 0 -0.31616250532244639 -0.052996831790065417 0 -0.31875036318260253 -0.062196151380951442 0 -0.32389917663044693 -0.052999891062726102 0 -0.31875036318260253 -0.062196151380951442 0 -0.32389917663044693 -0.052999891062726102 0 -0.33123322623397811 -0.060327127677957337 0 -0.32045195758183159 -0.042134880041484822 0 -0.32389917663044693 -0.052999891062726102 0 -0.33289783083137597 -0.047344464423171459 0 -0.32389917663044693 -0.052999891062726102 0 -0.33289783083137597 -0.047344464423171459 0 -0.33123322623397811 -0.060327127677957337 0 -0.3438726675344238 -0.070651582169856897 0 -0.3467695313975856 -0.054307821552572952 0 -0.33123322623397811 -0.060327127677957337 0 -0.3467695313975856 -0.054307821552572952 0 -0.33289783083137597 -0.047344464423171459 0 -0.33123322623397811 -0.060327127677957337 0 -0.3467695313975856 -0.054307821552572952 0 -0.34378439466782978 -0.038490311088793708 0 -0.33289783083137597 -0.047344464423171459 0 -0.34378439466782978 -0.038490311088793708 0 -0.33289783083137597 -0.047344464423171459 0 -0.33222142684591233 -0.037117712384304363 0 -0.34378439466782978 -0.038490311088793708 0 -0.33915421572667898 -0.026440452739071561 0 -0.33222142684591233 -0.037117712384304363 0 -0.33915421572667898 -0.026440452739071561 0 -0.32481873542184519 -0.031178453629000229 0 -0.33222142684591233 -0.037117712384304363 0 -0.32045195758183159 -0.042134880041484822 0 -0.33289783083137597 -0.047344464423171459 0 -0.33222142684591233 -0.037117712384304363 0 -0.29730959939203933 -0.24084899208011501 0 -0.30910312244255 -0.23997918993506109 0 -0.29019428966808231 -0.22443095120237169 0 -0.30116663146637529 -0.25516913772278899 0 -0.29730959939203933 -0.24084899208011501 0 -0.30910312244255 -0.23997918993506109 0 -0.30116663146637529 -0.25516913772278899 0 -0.29730959939203933 -0.24084899208011501 0 -0.29399882208179162 -0.24933841023943501 0 -0.30910312244255 -0.23997918993506109 0 -0.30685313513899931 -0.2213194858835221 0 -0.29019428966808231 -0.22443095120237169 0 -0.30910312244255 -0.23997918993506109 0 -0.29019428966808231 -0.22443095120237169 0 -0.30910312244255 -0.23997918993506109 0 -0.30685313513899931 -0.2213194858835221 0 -0.32055431631798542 -0.229961015225324 0 -0.29730959939203933 -0.24084899208011501 0 -0.29019428966808231 -0.22443095120237169 0 -0.28953162486923789 -0.23727650915565929 0 -0.29019428966808231 -0.22443095120237169 0 -0.28953162486923789 -0.23727650915565929 0 -0.27534703511895892 -0.23546230202808649 0 -0.29399882208179162 -0.24933841023943501 0 -0.27534703511895892 -0.23546230202808649 0 -0.28953162486923789 -0.23727650915565929 0 -0.29399882208179162 -0.24933841023943501 0 -0.27534703511895892 -0.23546230202808649 0 -0.29730959939203933 -0.24084899208011501 0 -0.28953162486923789 -0.23727650915565929 0 -0.29399882208179162 -0.24933841023943501 0 -0.2743213077157316 -0.25481084677783239 0 -0.27534703511895892 -0.23546230202808649 0 -0.25552640085103251 -0.2328493321377367 0 -0.2743213077157316 -0.25481084677783239 0 -0.29399882208179162 -0.24933841023943501 0 -0.27534703511895892 -0.23546230202808649 0 -0.26081699204607939 -0.25463061151349869 0 -0.24202555347879451 -0.2494207751729384 0 -0.25552640085103251 -0.2328493321377367 0 -0.26081699204607939 -0.25463061151349869 0 -0.2743213077157316 -0.25481084677783239 0 -0.25552640085103251 -0.2328493321377367 0 -0.2743213077157316 -0.25481084677783239 0 -0.25552640085103251 -0.2328493321377367 0 -0.27534703511895892 -0.23546230202808649 0 -0.2566952481561261 -0.22158619381673811 0 -0.25552640085103251 -0.2328493321377367 0 -0.27534703511895892 -0.23546230202808649 0 -0.2566952481561261 -0.22158619381673811 0 -0.27338050745919551 -0.22259053987921959 0 -0.29019428966808231 -0.22443095120237169 0 -0.27534703511895892 -0.23546230202808649 0 -0.27338050745919551 -0.22259053987921959 0 -0.27534703511895892 -0.23546230202808649 0 -0.2566952481561261 -0.22158619381673811 0 -0.2566952481561261 -0.22158619381673811 0 -0.27338050745919551 -0.22259053987921959 0 -0.27128545689361472 -0.20888271246968229 0 -0.27128545689361472 -0.20888271246968229 0 -0.26944286355150798 -0.19845264408443539 0 -0.28929806368176558 -0.20374845448987319 0 -0.29019428966808231 -0.22443095120237169 0 -0.27338050745919551 -0.22259053987921959 0 -0.27128545689361472 -0.20888271246968229 0 -0.29019428966808231 -0.22443095120237169 0 -0.27128545689361472 -0.20888271246968229 0 -0.23804346119329231 -0.207710085605391 0 -0.2566952481561261 -0.22158619381673811 0 -0.25581348596192077 -0.20361381946474 0 -0.2566952481561261 -0.22158619381673811 0 -0.27128545689361472 -0.20888271246968229 0 -0.25581348596192077 -0.20361381946474 0 -0.27128545689361472 -0.20888271246968229 0 -0.25581348596192077 -0.20361381946474 0 -0.26944286355150798 -0.19845264408443539 0 -0.24611569098029501 -0.18815823865398321 0 -0.25581348596192077 -0.20361381946474 0 -0.25928534355958083 -0.1917736960522666 0 -0.25581348596192077 -0.20361381946474 0 -0.25928534355958083 -0.1917736960522666 0 -0.26944286355150798 -0.19845264408443539 0 -0.26944286355150798 -0.19845264408443539 0 -0.28929806368176558 -0.20374845448987319 0 -0.2717429922245318 -0.18617742309622429 0 -0.25928534355958083 -0.1917736960522666 0 -0.26944286355150798 -0.19845264408443539 0 -0.2717429922245318 -0.18617742309622429 0 -0.28929806368176558 -0.20374845448987319 0 -0.2717429922245318 -0.18617742309622429 0 -0.28929806368176558 -0.20374845448987319 0 -0.29867505371859199 -0.18569814558247821 0 -0.28522679054806999 -0.18693619851358839 0 -0.28929806368176558 -0.20374845448987319 0 -0.28522679054806999 -0.18693619851358839 0 -0.2717429922245318 -0.18617742309622429 0 -0.30685313513899931 -0.2213194858835221 0 -0.29019428966808231 -0.22443095120237169 0 -0.28929806368176558 -0.20374845448987319 0 -0.29019428966808231 -0.22443095120237169 0 -0.27128545689361472 -0.20888271246968229 0 -0.28929806368176558 -0.20374845448987319 0 -0.30685313513899931 -0.2213194858835221 0 -0.28929806368176558 -0.20374845448987319 0 -0.30685313513899931 -0.2213194858835221 0 -0.28929806368176558 -0.20374845448987319 0 -0.30569844324540202 -0.20491805025387749 0 -0.29867505371859199 -0.18569814558247821 0 -0.31940373572910552 -0.19583480402696671 0 -0.30569844324540202 -0.20491805025387749 0 -0.29867505371859199 -0.18569814558247821 0 -0.31940373572910552 -0.19583480402696671 0 -0.28929806368176558 -0.20374845448987319 0 -0.30569844324540202 -0.20491805025387749 0 -0.29867505371859199 -0.18569814558247821 0 -0.29867505371859199 -0.18569814558247821 0 -0.3107010636038694 -0.17515452004907461 0 -0.31940373572910552 -0.19583480402696671 0 -0.29867505371859199 -0.18569814558247821 0 -0.3107010636038694 -0.17515452004907461 0 -0.29402136659808609 -0.17102943150136771 0 -0.3107010636038694 -0.17515452004907461 0 -0.30739448717949969 -0.16056404816172731 0 -0.29402136659808609 -0.17102943150136771 0 -0.30739448717949969 -0.16056404816172731 0 -0.29402136659808609 -0.17102943150136771 0 -0.29409812482121878 -0.15720119436365301 0 -0.29402136659808609 -0.17102943150136771 0 -0.28328504602848731 -0.16574340965834961 0 -0.2779463717080779 -0.17556148713799091 0 -0.29402136659808609 -0.17102943150136771 0 -0.29409812482121878 -0.15720119436365301 0 -0.28328504602848731 -0.16574340965834961 0 -0.29409812482121878 -0.15720119436365301 0 -0.28328504602848731 -0.16574340965834961 0 -0.27739092133416399 -0.15677135015227259 0 -0.29867505371859199 -0.18569814558247821 0 -0.29402136659808609 -0.17102943150136771 0 -0.2779463717080779 -0.17556148713799091 0 -0.29867505371859199 -0.18569814558247821 0 -0.2779463717080779 -0.17556148713799091 0 -0.29867505371859199 -0.18569814558247821 0 -0.28522679054806999 -0.18693619851358839 0 -0.2779463717080779 -0.17556148713799091 0 -0.2779463717080779 -0.17556148713799091 0 -0.2717429922245318 -0.18617742309622429 0 -0.26890503141729238 -0.1669965195709735 0 -0.28522679054806999 -0.18693619851358839 0 -0.2779463717080779 -0.17556148713799091 0 -0.2717429922245318 -0.18617742309622429 0 -0.24611569098029501 -0.18815823865398321 0 -0.25418792076729813 -0.1686063917025753 0 -0.25928534355958083 -0.1917736960522666 0 -0.2717429922245318 -0.18617742309622429 0 -0.25418792076729813 -0.1686063917025753 0 -0.2717429922245318 -0.18617742309622429 0 -0.25418792076729813 -0.1686063917025753 0 -0.24611569098029501 -0.18815823865398321 0 -0.25928534355958083 -0.1917736960522666 0 -0.25418792076729813 -0.1686063917025753 0 -0.2717429922245318 -0.18617742309622429 0 -0.25418792076729813 -0.1686063917025753 0 -0.26890503141729238 -0.1669965195709735 0 -0.25418792076729813 -0.1686063917025753 0 -0.26890503141729238 -0.1669965195709735 0 -0.2648285067232623 -0.14283369771667401 0 -0.28328504602848731 -0.16574340965834961 0 -0.2779463717080779 -0.17556148713799091 0 -0.26890503141729238 -0.1669965195709735 0 -0.28328504602848731 -0.16574340965834961 0 -0.26890503141729238 -0.1669965195709735 0 -0.27739092133416399 -0.15677135015227259 0 -0.2648285067232623 -0.14283369771667401 0 -0.28640868621233889 -0.13398800816986389 0 -0.2848478836219171 -0.14738519685378801 0 -0.26890503141729238 -0.1669965195709735 0 -0.27739092133416399 -0.15677135015227259 0 -0.2648285067232623 -0.14283369771667401 0 -0.27739092133416399 -0.15677135015227259 0 -0.2648285067232623 -0.14283369771667401 0 -0.2848478836219171 -0.14738519685378801 0 -0.25418792076729813 -0.1686063917025753 0 -0.2648285067232623 -0.14283369771667401 0 -0.25418792076729813 -0.1686063917025753 0 -0.2648285067232623 -0.14283369771667401 0 -0.25066472591945599 -0.14836457327471669 0 -0.24717592929175389 -0.12832585532349891 0 -0.27546909267922781 -0.1170610037307732 0 -0.2648285067232623 -0.14283369771667401 0 -0.24717592929175389 -0.12832585532349891 0 -0.2648285067232623 -0.14283369771667401 0 -0.25066472591945599 -0.14836457327471669 0 -0.27546909267922781 -0.1170610037307732 0 -0.28640868621233889 -0.13398800816986389 0 -0.27546909267922781 -0.1170610037307732 0 -0.2648285067232623 -0.14283369771667401 0 -0.27546909267922781 -0.1170610037307732 0 -0.2648285067232623 -0.14283369771667401 0 -0.28640868621233889 -0.13398800816986389 0 -0.29543170229437749 -0.1227049298256718 0 -0.28640868621233889 -0.13398800816986389 0 -0.30468146262787599 -0.14072173593967621 0 -0.29409812482121878 -0.15720119436365301 0 -0.27739092133416399 -0.15677135015227259 0 -0.2848478836219171 -0.14738519685378801 0 -0.29409812482121878 -0.15720119436365301 0 -0.2848478836219171 -0.14738519685378801 0 -0.30468146262787599 -0.14072173593967621 0 -0.28640868621233889 -0.13398800816986389 0 -0.2848478836219171 -0.14738519685378801 0 -0.30468146262787599 -0.14072173593967621 0 -0.30739448717949969 -0.16056404816172731 0 -0.30468146262787599 -0.14072173593967621 0 -0.32175882877232198 -0.15541255895417111 0 -0.30739448717949969 -0.16056404816172731 0 -0.29409812482121878 -0.15720119436365301 0 -0.30468146262787599 -0.14072173593967621 0 -0.29543170229437749 -0.1227049298256718 0 -0.30962457476194383 -0.12326058045469809 0 -0.30468146262787599 -0.14072173593967621 0 -0.30962457476194383 -0.12326058045469809 0 -0.30468146262787599 -0.14072173593967621 0 -0.32464354820156027 -0.12899986357727031 0 -0.30468146262787599 -0.14072173593967621 0 -0.32464354820156027 -0.12899986357727031 0 -0.32175882877232198 -0.15541255895417111 0 -0.32464354820156027 -0.12899986357727031 0 -0.32175882877232198 -0.15541255895417111 0 -0.34106445935417828 -0.13924516424202879 0 -0.32175882877232198 -0.15541255895417111 0 -0.34106445935417828 -0.13924516424202879 0 -0.34632361480749679 -0.1582946058129476 0 -0.34395666543943498 -0.1107527929681428 0 -0.32464354820156027 -0.12899986357727031 0 -0.34106445935417828 -0.13924516424202879 0 -0.34106445935417828 -0.13924516424202879 0 -0.35668937085178998 -0.1285270274518979 0 -0.36198049312080582 -0.145283027270042 0 -0.34395666543943498 -0.1107527929681428 0 -0.34106445935417828 -0.13924516424202879 0 -0.35668937085178998 -0.1285270274518979 0 -0.37212039532758762 -0.13043860080442859 0 -0.36198049312080582 -0.145283027270042 0 -0.37893533132266333 -0.1430377639439841 0 -0.35668937085178998 -0.1285270274518979 0 -0.37212039532758762 -0.13043860080442859 0 -0.36198049312080582 -0.145283027270042 0 -0.36198049312080582 -0.145283027270042 0 -0.34632361480749679 -0.1582946058129476 0 -0.37088840084267172 -0.1611766526717241 0 -0.36198049312080582 -0.145283027270042 0 -0.37088840084267172 -0.1611766526717241 0 -0.37893533132266333 -0.1430377639439841 0 -0.34106445935417828 -0.13924516424202879 0 -0.36198049312080582 -0.145283027270042 0 -0.34632361480749679 -0.1582946058129476 0 -0.34632361480749679 -0.1582946058129476 0 -0.37088840084267172 -0.1611766526717241 0 -0.34632361480749679 -0.1582946058129476 0 -0.37088840084267172 -0.1611766526717241 0 -0.35341105548939911 -0.17194423008915999 0 -0.34632361480749679 -0.1582946058129476 0 -0.35341105548939911 -0.17194423008915999 0 -0.34022298287079311 -0.17832287716214049 0 -0.37088840084267172 -0.1611766526717241 0 -0.36274444726220872 -0.18342863149535241 0 -0.38353496853418989 -0.18124353884150041 0 -0.36274444726220872 -0.18342863149535241 0 -0.37634448205599541 -0.19301914624443189 0 -0.38353496853418989 -0.18124353884150041 0 -0.37088840084267172 -0.1611766526717241 0 -0.36274444726220872 -0.18342863149535241 0 -0.35341105548939911 -0.17194423008915999 0 -0.36274444726220872 -0.18342863149535241 0 -0.35341105548939911 -0.17194423008915999 0 -0.35069788915384531 -0.18744171538311641 0 -0.35341105548939911 -0.17194423008915999 0 -0.35069788915384531 -0.18744171538311641 0 -0.34022298287079311 -0.17832287716214049 0 -0.3319128299588765 -0.1850724030427974 0 -0.34022298287079311 -0.17832287716214049 0 -0.33773908964267763 -0.18851810064094521 0 -0.3319128299588765 -0.1850724030427974 0 -0.34022298287079311 -0.17832287716214049 0 -0.32447207770123088 -0.18052524584606541 0 -0.35069788915384531 -0.18744171538311641 0 -0.34022298287079311 -0.17832287716214049 0 -0.33773908964267763 -0.18851810064094521 0 -0.32175882877232198 -0.15541255895417111 0 -0.34632361480749679 -0.1582946058129476 0 -0.32175882877232198 -0.15541255895417111 0 -0.34022298287079311 -0.17832287716214049 0 -0.32447207770123088 -0.18052524584606541 0 -0.32175882877232198 -0.15541255895417111 0 -0.34632361480749679 -0.1582946058129476 0 -0.34022298287079311 -0.17832287716214049 0 -0.3107010636038694 -0.17515452004907461 0 -0.32175882877232198 -0.15541255895417111 0 -0.32447207770123088 -0.18052524584606541 0 -0.3107010636038694 -0.17515452004907461 0 -0.30739448717949969 -0.16056404816172731 0 -0.32175882877232198 -0.15541255895417111 0 -0.3107010636038694 -0.17515452004907461 0 -0.32447207770123088 -0.18052524584606541 0 -0.31940373572910552 -0.19583480402696671 0 -0.3107010636038694 -0.17515452004907461 0 -0.31940373572910552 -0.19583480402696671 0 -0.3319128299588765 -0.1850724030427974 0 -0.32447207770123088 -0.18052524584606541 0 -0.32521716962080449 -0.1929233885220385 0 -0.32521716962080449 -0.1929233885220385 0 -0.31940373572910552 -0.19583480402696671 0 -0.33947971429700852 -0.20565228000437799 0 -0.32447207770123088 -0.18052524584606541 0 -0.32521716962080449 -0.1929233885220385 0 -0.31940373572910552 -0.19583480402696671 0 -0.30569844324540202 -0.20491805025387749 0 -0.31940373572910552 -0.19583480402696671 0 -0.32759562889668442 -0.21530131667781971 0 -0.30685313513899931 -0.2213194858835221 0 -0.30569844324540202 -0.20491805025387749 0 -0.32759562889668442 -0.21530131667781971 0 -0.31940373572910552 -0.19583480402696671 0 -0.32759562889668442 -0.21530131667781971 0 -0.31940373572910552 -0.19583480402696671 0 -0.32759562889668442 -0.21530131667781971 0 -0.32879903568931779 -0.20617207879923341 0 -0.32879903568931779 -0.20617207879923341 0 -0.33687727874102857 -0.21693975825679759 0 -0.33947971429700852 -0.20565228000437799 0 -0.32879903568931779 -0.20617207879923341 0 -0.33947971429700852 -0.20565228000437799 0 -0.32759562889668442 -0.21530131667781971 0 -0.32879903568931779 -0.20617207879923341 0 -0.33687727874102857 -0.21693975825679759 0 -0.33687727874102857 -0.21693975825679759 0 -0.33947971429700852 -0.20565228000437799 0 -0.34809011315686911 -0.2201476376600143 0 -0.32521716962080449 -0.1929233885220385 0 -0.34518531223449661 -0.1986630996424911 0 -0.32521716962080449 -0.1929233885220385 0 -0.33773908964267763 -0.18851810064094521 0 -0.34518531223449661 -0.1986630996424911 0 -0.31940373572910552 -0.19583480402696671 0 -0.32879903568931779 -0.20617207879923341 0 -0.33947971429700852 -0.20565228000437799 0 -0.31940373572910552 -0.19583480402696671 0 -0.33947971429700852 -0.20565228000437799 0 -0.32521716962080449 -0.1929233885220385 0 -0.33947971429700852 -0.20565228000437799 0 -0.34518531223449661 -0.1986630996424911 0 -0.3319128299588765 -0.1850724030427974 0 -0.32521716962080449 -0.1929233885220385 0 -0.33773908964267763 -0.18851810064094521 0 -0.35069788915384531 -0.18744171538311641 0 -0.34518531223449661 -0.1986630996424911 0 -0.36515345484818901 -0.20440281076294281 0 -0.34518531223449661 -0.1986630996424911 0 -0.36515345484818901 -0.20440281076294281 0 -0.33947971429700852 -0.20565228000437799 0 -0.34518531223449661 -0.1986630996424911 0 -0.36515345484818901 -0.20440281076294281 0 -0.35069788915384531 -0.18744171538311641 0 -0.33773908964267763 -0.18851810064094521 0 -0.34518531223449661 -0.1986630996424911 0 -0.36274444726220872 -0.18342863149535241 0 -0.35069788915384531 -0.18744171538311641 0 -0.36515345484818901 -0.20440281076294281 0 -0.36274444726220872 -0.18342863149535241 0 -0.36515345484818901 -0.20440281076294281 0 -0.37634448205599541 -0.19301914624443189 0 -0.37200140723700548 -0.21202917251123349 0 -0.36515345484818901 -0.20440281076294281 0 -0.38385345145060851 -0.2097780016621581 0 -0.36515345484818901 -0.20440281076294281 0 -0.38385345145060851 -0.2097780016621581 0 -0.37200140723700548 -0.21202917251123349 0 -0.36515345484818901 -0.20440281076294281 0 -0.36317490046989281 -0.2172396066318627 0 -0.33947971429700852 -0.20565228000437799 0 -0.36515345484818901 -0.20440281076294281 0 -0.33947971429700852 -0.20565228000437799 0 -0.36317490046989281 -0.2172396066318627 0 -0.33947971429700852 -0.20565228000437799 0 -0.36515345484818901 -0.20440281076294281 0 -0.36317490046989281 -0.2172396066318627 0 -0.33947971429700852 -0.20565228000437799 0 -0.36317490046989281 -0.2172396066318627 0 -0.34809011315686911 -0.2201476376600143 0 -0.35466348234687178 -0.22753209962116611 0 -0.36411396080526698 -0.23318854423511839 0 -0.3478957173568657 -0.23550894173918629 0 -0.34405696939881819 -0.22609237648681321 0 -0.34809011315686911 -0.2201476376600143 0 -0.35466348234687178 -0.22753209962116611 0 -0.34405696939881819 -0.22609237648681321 0 -0.35466348234687178 -0.22753209962116611 0 -0.3478957173568657 -0.23550894173918629 0 -0.36317490046989281 -0.2172396066318627 0 -0.34809011315686911 -0.2201476376600143 0 -0.35466348234687178 -0.22753209962116611 0 -0.36317490046989281 -0.2172396066318627 0 -0.35466348234687178 -0.22753209962116611 0 -0.36411396080526698 -0.23318854423511839 0 -0.37200140723700548 -0.21202917251123349 0 -0.36317490046989281 -0.2172396066318627 0 -0.36411396080526698 -0.23318854423511839 0 -0.36411396080526698 -0.23318854423511839 0 -0.3819329164932565 -0.21456313567755819 0 -0.37200140723700548 -0.21202917251123349 0 -0.36411396080526698 -0.23318854423511839 0 -0.3819329164932565 -0.21456313567755819 0 -0.36693787197232891 -0.25604695317142417 0 -0.35899198930215143 -0.2462111737376852 0 -0.37759104703002849 -0.24418835058047919 0 -0.36411396080526698 -0.23318854423511839 0 -0.35899198930215143 -0.2462111737376852 0 -0.37759104703002849 -0.24418835058047919 0 -0.34629500511727829 -0.25181395279267971 0 -0.36411396080526698 -0.23318854423511839 0 -0.34629500511727829 -0.25181395279267971 0 -0.36411396080526698 -0.23318854423511839 0 -0.3478957173568657 -0.23550894173918629 0 -0.34629500511727829 -0.25181395279267971 0 -0.36411396080526698 -0.23318854423511839 0 -0.35899198930215143 -0.2462111737376852 0 -0.34629500511727829 -0.25181395279267971 0 -0.33414746100218279 -0.22659821155954241 0 -0.34629500511727829 -0.25181395279267971 0 -0.3478957173568657 -0.23550894173918629 0 -0.33414746100218279 -0.22659821155954241 0 -0.34629500511727829 -0.25181395279267971 0 -0.33578752206426438 -0.2347678293286723 0 -0.33414746100218279 -0.22659821155954241 0 -0.34629500511727829 -0.25181395279267971 0 -0.34397941523184239 -0.25423434197952571 0 -0.33578752206426438 -0.2347678293286723 0 -0.32801195521701909 -0.25552742866774869 0 -0.34397941523184239 -0.25423434197952571 0 -0.33578752206426438 -0.2347678293286723 0 -0.34397941523184239 -0.25423434197952571 0 -0.33578752206426438 -0.2347678293286723 0 -0.32801195521701909 -0.25552742866774869 0 -0.33578752206426438 -0.2347678293286723 0 -0.32382893071466889 -0.24115949934534209 0 -0.32759562889668442 -0.21530131667781971 0 -0.33578752206426438 -0.2347678293286723 0 -0.33414746100218279 -0.22659821155954241 0 -0.34405696939881819 -0.22609237648681321 0 -0.3478957173568657 -0.23550894173918629 0 -0.33414746100218279 -0.22659821155954241 0 -0.32759562889668442 -0.21530131667781971 0 -0.33578752206426438 -0.2347678293286723 0 -0.33687727874102857 -0.21693975825679759 0 -0.34405696939881819 -0.22609237648681321 0 -0.33414746100218279 -0.22659821155954241 0 -0.33687727874102857 -0.21693975825679759 0 -0.34405696939881819 -0.22609237648681321 0 -0.34809011315686911 -0.2201476376600143 0 -0.32759562889668442 -0.21530131667781971 0 -0.33687727874102857 -0.21693975825679759 0 -0.33414746100218279 -0.22659821155954241 0 -0.30685313513899931 -0.2213194858835221 0 -0.32759562889668442 -0.21530131667781971 0 -0.32055431631798542 -0.229961015225324 0 -0.32759562889668442 -0.21530131667781971 0 -0.33578752206426438 -0.2347678293286723 0 -0.32055431631798542 -0.229961015225324 0 -0.30910312244255 -0.23997918993506109 0 -0.32055431631798542 -0.229961015225324 0 -0.32382893071466889 -0.24115949934534209 0 -0.32801195521701909 -0.25552742866774869 0 -0.30910312244255 -0.23997918993506109 0 -0.32382893071466889 -0.24115949934534209 0 -0.32801195521701909 -0.25552742866774869 0 -0.30910312244255 -0.23997918993506109 0 -0.33578752206426438 -0.2347678293286723 0 -0.32055431631798542 -0.229961015225324 0 -0.32382893071466889 -0.24115949934534209 0 -0.42826808125808091 -0.2548638565224382 0 -0.43343342069033308 -0.23442081826859459 0 -0.44435151036965598 -0.248053572262112 0 -0.42826808125808091 -0.2548638565224382 0 -0.43343342069033308 -0.23442081826859459 0 -0.40952038837458071 -0.24376449622397969 0 -0.43343342069033308 -0.23442081826859459 0 -0.41956464579483321 -0.22270451801904451 0 -0.44719211462826458 -0.21433260555092931 0 -0.41956464579483321 -0.22270451801904451 0 -0.40952038837458071 -0.24376449622397969 0 -0.40195184271219292 -0.22695559851646799 0 -0.43343342069033308 -0.23442081826859459 0 -0.41956464579483321 -0.22270451801904451 0 -0.40952038837458071 -0.24376449622397969 0 -0.41956464579483321 -0.22270451801904451 0 -0.40195184271219292 -0.22695559851646799 0 -0.40255344805302828 -0.21515319256137261 0 -0.42826808125808091 -0.2548638565224382 0 -0.40952038837458071 -0.24376449622397969 0 -0.43343342069033308 -0.23442081826859459 0 -0.40952038837458071 -0.24376449622397969 0 -0.40952038837458071 -0.24376449622397969 0 -0.39426839989926149 -0.24972399423372421 0 -0.40952038837458071 -0.24376449622397969 0 -0.38359419163807451 -0.2284151836159998 0 -0.40952038837458071 -0.24376449622397969 0 -0.39124350673548641 -0.24152300616354561 0 -0.39426839989926149 -0.24972399423372421 0 -0.40952038837458071 -0.24376449622397969 0 -0.39124350673548641 -0.24152300616354561 0 -0.38359419163807451 -0.2284151836159998 0 -0.36411396080526698 -0.23318854423511839 0 -0.37759104703002849 -0.24418835058047919 0 -0.38359419163807451 -0.2284151836159998 0 -0.39124350673548641 -0.24152300616354561 0 -0.37759104703002849 -0.24418835058047919 0 -0.38359419163807451 -0.2284151836159998 0 -0.39124350673548641 -0.24152300616354561 0 -0.39426839989926149 -0.24972399423372421 0 -0.37759104703002849 -0.24418835058047919 0 -0.36411396080526698 -0.23318854423511839 0 -0.38359419163807451 -0.2284151836159998 0 -0.3819329164932565 -0.21456313567755819 0 -0.38359419163807451 -0.2284151836159998 0 -0.39107927480448051 -0.21959905383744591 0 -0.3819329164932565 -0.21456313567755819 0 -0.40952038837458071 -0.24376449622397969 0 -0.38359419163807451 -0.2284151836159998 0 -0.40195184271219292 -0.22695559851646799 0 -0.38359419163807451 -0.2284151836159998 0 -0.39107927480448051 -0.21959905383744591 0 -0.40195184271219292 -0.22695559851646799 0 -0.39107927480448051 -0.21959905383744591 0 -0.40195184271219292 -0.22695559851646799 0 -0.40255344805302828 -0.21515319256137261 0 -0.40255344805302828 -0.21515319256137261 0 -0.38385345145060851 -0.2097780016621581 0 -0.39394505757939408 -0.20300160387793281 0 -0.39107927480448051 -0.21959905383744591 0 -0.40255344805302828 -0.21515319256137261 0 -0.38385345145060851 -0.2097780016621581 0 -0.40255344805302828 -0.21515319256137261 0 -0.38385345145060851 -0.2097780016621581 0 -0.36515345484818901 -0.20440281076294281 0 -0.38385345145060851 -0.2097780016621581 0 -0.39394505757939408 -0.20300160387793281 0 -0.39107927480448051 -0.21959905383744591 0 -0.38385345145060851 -0.2097780016621581 0 -0.3819329164932565 -0.21456313567755819 0 -0.36515345484818901 -0.20440281076294281 0 -0.39394505757939408 -0.20300160387793281 0 -0.37200140723700548 -0.21202917251123349 0 -0.38385345145060851 -0.2097780016621581 0 -0.3819329164932565 -0.21456313567755819 0 -0.36515345484818901 -0.20440281076294281 0 -0.37634448205599541 -0.19301914624443189 0 -0.39394505757939408 -0.20300160387793281 0 -0.37634448205599541 -0.19301914624443189 0 -0.39394505757939408 -0.20300160387793281 0 -0.38353496853418989 -0.18124353884150041 0 -0.39394505757939408 -0.20300160387793281 0 -0.40735564168806421 -0.18342684877866561 0 -0.38353496853418989 -0.18124353884150041 0 -0.39394505757939408 -0.20300160387793281 0 -0.42273666031059942 -0.20160039699292351 0 -0.40735564168806421 -0.18342684877866561 0 -0.39394505757939408 -0.20300160387793281 0 -0.42273666031059942 -0.20160039699292351 0 -0.42273666031059942 -0.20160039699292351 0 -0.43178088554008842 -0.18416882168647619 0 -0.40735564168806421 -0.18342684877866561 0 -0.41956464579483321 -0.22270451801904451 0 -0.40255344805302828 -0.21515319256137261 0 -0.42273666031059942 -0.20160039699292351 0 -0.40255344805302828 -0.21515319256137261 0 -0.39394505757939408 -0.20300160387793281 0 -0.42273666031059942 -0.20160039699292351 0 -0.41956464579483321 -0.22270451801904451 0 -0.42273666031059942 -0.20160039699292351 0 -0.44719211462826458 -0.21433260555092931 0 -0.42273666031059942 -0.20160039699292351 0 -0.45152826304180471 -0.20019919010791429 0 -0.42273666031059942 -0.20160039699292351 0 -0.43178088554008842 -0.18416882168647619 0 -0.45152826304180471 -0.20019919010791429 0 -0.43178088554008842 -0.18416882168647619 0 -0.42001797291302151 -0.16694074638927711 0 -0.44019490198213951 -0.16853892939607051 0 -0.42001797291302151 -0.16694074638927711 0 -0.43095594385529362 -0.15118397080333021 0 -0.44019490198213951 -0.16853892939607051 0 -0.42001797291302151 -0.16694074638927711 0 -0.39545318687784659 -0.16405869953050059 0 -0.42001797291302151 -0.16694074638927711 0 -0.39545318687784659 -0.16405869953050059 0 -0.40494563758897839 -0.14711086737365711 0 -0.42001797291302151 -0.16694074638927711 0 -0.40735564168806421 -0.18342684877866561 0 -0.39545318687784659 -0.16405869953050059 0 -0.43178088554008842 -0.18416882168647619 0 -0.42001797291302151 -0.16694074638927711 0 -0.40735564168806421 -0.18342684877866561 0 -0.40735564168806421 -0.18342684877866561 0 -0.38353496853418989 -0.18124353884150041 0 -0.39545318687784659 -0.16405869953050059 0 -0.37088840084267172 -0.1611766526717241 0 -0.39545318687784659 -0.16405869953050059 0 -0.37088840084267172 -0.1611766526717241 0 -0.38353496853418989 -0.18124353884150041 0 -0.39545318687784659 -0.16405869953050059 0 -0.40494563758897839 -0.14711086737365711 0 -0.37893533132266333 -0.1430377639439841 0 -0.39545318687784659 -0.16405869953050059 0 -0.40494563758897839 -0.14711086737365711 0 -0.37893533132266333 -0.1430377639439841 0 -0.37088840084267172 -0.1611766526717241 0 -0.39545318687784659 -0.16405869953050059 0 -0.37893533132266333 -0.1430377639439841 0 -0.40494563758897839 -0.14711086737365711 0 -0.37893533132266333 -0.1430377639439841 0 -0.38709627193921259 -0.13087245422090149 0 -0.37212039532758762 -0.13043860080442859 0 -0.38709627193921259 -0.13087245422090149 0 -0.38218799579901253 -0.1159715049449242 0 -0.37212039532758762 -0.13043860080442859 0 -0.37893533132266333 -0.1430377639439841 0 -0.38709627193921259 -0.13087245422090149 0 -0.38709627193921259 -0.13087245422090149 0 -0.41246977191963652 -0.13130989037016999 0 -0.39520479513247081 -0.11632372739233091 0 -0.40494563758897839 -0.14711086737365711 0 -0.38709627193921259 -0.13087245422090149 0 -0.41246977191963652 -0.13130989037016999 0 -0.38709627193921259 -0.13087245422090149 0 -0.41246977191963652 -0.13130989037016999 0 -0.40494563758897839 -0.14711086737365711 0 -0.41246977191963652 -0.13130989037016999 0 -0.42506637493981447 -0.13915677740904181 0 -0.40494563758897839 -0.14711086737365711 0 -0.43095594385529362 -0.15118397080333021 0 -0.42506637493981447 -0.13915677740904181 0 -0.42001797291302151 -0.16694074638927711 0 -0.40494563758897839 -0.14711086737365711 0 -0.43095594385529362 -0.15118397080333021 0 -0.40494563758897839 -0.14711086737365711 0 -0.43095594385529362 -0.15118397080333021 0 -0.43095594385529362 -0.15118397080333021 0 -0.42506637493981447 -0.13915677740904181 0 -0.43932656351370958 -0.14321150351326789 0 -0.41246977191963652 -0.13130989037016999 0 -0.43784327190006028 -0.13174732651943849 0 -0.42516102650811027 -0.12100675558716439 0 -0.41246977191963652 -0.13130989037016999 0 -0.42506637493981447 -0.13915677740904181 0 -0.43784327190006028 -0.13174732651943849 0 -0.42506637493981447 -0.13915677740904181 0 -0.43784327190006028 -0.13174732651943849 0 -0.43932656351370958 -0.14321150351326789 0 -0.41246977191963652 -0.13130989037016999 0 -0.43784327190006028 -0.13174732651943849 0 -0.43784327190006028 -0.13174732651943849 0 -0.46321677188048421 -0.1321847626687076 0 -0.43784327190006028 -0.13174732651943849 0 -0.45690241678531951 -0.13893949969766339 0 -0.46321677188048421 -0.1321847626687076 0 -0.43784327190006028 -0.13174732651943849 0 -0.46321677188048421 -0.1321847626687076 0 -0.44796821404417547 -0.1245776650014444 0 -0.43784327190006028 -0.13174732651943849 0 -0.45086666923834789 -0.14388490385566349 0 -0.45690241678531951 -0.13893949969766339 0 -0.43784327190006028 -0.13174732651943849 0 -0.43932656351370958 -0.14321150351326789 0 -0.45086666923834789 -0.14388490385566349 0 -0.43095594385529362 -0.15118397080333021 0 -0.43932656351370958 -0.14321150351326789 0 -0.45696625012160869 -0.1552570742330025 0 -0.43932656351370958 -0.14321150351326789 0 -0.45086666923834789 -0.14388490385566349 0 -0.45696625012160869 -0.1552570742330025 0 -0.43095594385529362 -0.15118397080333021 0 -0.45696625012160869 -0.1552570742330025 0 -0.45086666923834789 -0.14388490385566349 0 -0.45948781178480003 -0.14489157908361669 0 -0.45690241678531951 -0.13893949969766339 0 -0.45086666923834789 -0.14388490385566349 0 -0.45948781178480003 -0.14489157908361669 0 -0.45696625012160869 -0.1552570742330025 0 -0.45696625012160869 -0.1552570742330025 0 -0.4649110936691197 -0.14598244735651239 0 -0.47310761765299031 -0.14882747447903191 0 -0.45948781178480003 -0.14489157908361669 0 -0.46343726523191608 -0.1403608946655196 0 -0.45690241678531951 -0.13893949969766339 0 -0.45086666923834789 -0.14388490385566349 0 -0.45696625012160869 -0.1552570742330025 0 -0.45948781178480003 -0.14489157908361669 0 -0.45696625012160869 -0.1552570742330025 0 -0.4649110936691197 -0.14598244735651239 0 -0.4649110936691197 -0.14598244735651239 0 -0.46343726523191608 -0.1403608946655196 0 -0.47155652355428329 -0.1405752143213912 0 -0.45948781178480003 -0.14489157908361669 0 -0.4649110936691197 -0.14598244735651239 0 -0.46343726523191608 -0.1403608946655196 0 -0.46358836311273621 -0.1342924377822341 0 -0.46343726523191608 -0.1403608946655196 0 -0.47155652355428329 -0.1405752143213912 0 -0.46178620425261402 -0.1364443987035312 0 -0.46358836311273621 -0.1342924377822341 0 -0.46321677188048421 -0.1321847626687076 0 -0.46358836311273621 -0.1342924377822341 0 -0.46321677188048421 -0.1321847626687076 0 -0.46178620425261402 -0.1364443987035312 0 -0.46358836311273621 -0.1342924377822341 0 -0.46343726523191608 -0.1403608946655196 0 -0.46178620425261402 -0.1364443987035312 0 -0.46343726523191608 -0.1403608946655196 0 -0.45690241678531951 -0.13893949969766339 0 -0.46178620425261402 -0.1364443987035312 0 -0.45690241678531951 -0.13893949969766339 0 -0.46321677188048421 -0.1321847626687076 0 -0.46358836311273621 -0.1342924377822341 0 -0.47155652355428329 -0.1405752143213912 0 -0.48160838594024141 -0.13250183192755341 0 -0.46321677188048421 -0.1321847626687076 0 -0.48160838594024141 -0.13250183192755341 0 -0.47509274430860382 -0.114116888440667 0 -0.46321677188048421 -0.1321847626687076 0 -0.48160838594024141 -0.13250183192755341 0 -0.46358836311273621 -0.1342924377822341 0 -0.46321677188048421 -0.1321847626687076 0 -0.48160838594024141 -0.13250183192755341 0 -0.48160838594024141 -0.13250183192755341 0 -0.48697289644036118 -0.14567113250204461 0 -0.47879739347936823 -0.14178961313346219 0 -0.47155652355428329 -0.1405752143213912 0 -0.48160838594024141 -0.13250183192755341 0 -0.47879739347936823 -0.14178961313346219 0 -0.48160838594024141 -0.13250183192755341 0 -0.49999999999999861 -0.1328189011863998 0 -0.48697289644036118 -0.14567113250204461 0 -0.48160838594024141 -0.13250183192755341 0 -0.49999999999999861 -0.1328189011863998 0 -0.48861562610540149 -0.11702210060702239 0 -0.48160838594024141 -0.13250183192755341 0 -0.49999999999999861 -0.1328189011863998 0 -0.49999999999999861 -0.1328189011863998 0 -0.5 -0.1544926694776301 0 -0.48697289644036118 -0.14567113250204461 0 -0.5 -0.1544926694776301 0 -0.48697289644036118 -0.14567113250204461 0 -0.48651079118348139 -0.15988362381281629 0 -0.45696625012160869 -0.1552570742330025 0 -0.47310761765299031 -0.14882747447903191 0 -0.48651079118348139 -0.15988362381281629 0 -0.48697289644036118 -0.14567113250204461 0 -0.47310761765299031 -0.14882747447903191 0 -0.48651079118348139 -0.15988362381281629 0 -0.48697289644036118 -0.14567113250204461 0 -0.47879739347936823 -0.14178961313346219 0 -0.47310761765299031 -0.14882747447903191 0 -0.4649110936691197 -0.14598244735651239 0 -0.47155652355428329 -0.1405752143213912 0 -0.47310761765299031 -0.14882747447903191 0 -0.47155652355428329 -0.1405752143213912 0 -0.47879739347936823 -0.14178961313346219 0 -0.47310761765299031 -0.14882747447903191 0 -0.45696625012160869 -0.1552570742330025 0 -0.48651079118348139 -0.15988362381281629 0 -0.46864305794731148 -0.17702752872795191 0 -0.45696625012160869 -0.1552570742330025 0 -0.48651079118348139 -0.15988362381281629 0 -0.5 -0.1544926694776301 0 -0.48651079118348139 -0.15988362381281629 0 -0.5 -0.17616643776886029 0 -0.5 -0.17616643776886029 0 -0.48709474298076139 -0.18194315591852489 0 -0.50000000000000377 -0.19784020606009059 0 -0.48651079118348139 -0.15988362381281629 0 -0.5 -0.17616643776886029 0 -0.48709474298076139 -0.18194315591852489 0 -0.48709474298076139 -0.18194315591852489 0 -0.46864305794731148 -0.17702752872795191 0 -0.48031986577301011 -0.19879798322290351 0 -0.48651079118348139 -0.15988362381281629 0 -0.48709474298076139 -0.18194315591852489 0 -0.46864305794731148 -0.17702752872795191 0 -0.46864305794731148 -0.17702752872795191 0 -0.45366402083899021 -0.17128258770275781 0 -0.44896497555168169 -0.18282598502478911 0 -0.46864305794731148 -0.17702752872795191 0 -0.44896497555168169 -0.18282598502478911 0 -0.45152826304180471 -0.20019919010791429 0 -0.45696625012160869 -0.1552570742330025 0 -0.46864305794731148 -0.17702752872795191 0 -0.45696625012160869 -0.1552570742330025 0 -0.46864305794731148 -0.17702752872795191 0 -0.45366402083899021 -0.17128258770275781 0 -0.43095594385529362 -0.15118397080333021 0 -0.45696625012160869 -0.1552570742330025 0 -0.44019490198213951 -0.16853892939607051 0 -0.45696625012160869 -0.1552570742330025 0 -0.45366402083899021 -0.17128258770275781 0 -0.44019490198213951 -0.16853892939607051 0 -0.43178088554008842 -0.18416882168647619 0 -0.44019490198213951 -0.16853892939607051 0 -0.44896497555168169 -0.18282598502478911 0 -0.45366402083899021 -0.17128258770275781 0 -0.44019490198213951 -0.16853892939607051 0 -0.44896497555168169 -0.18282598502478911 0 -0.43178088554008842 -0.18416882168647619 0 -0.44896497555168169 -0.18282598502478911 0 -0.45152826304180471 -0.20019919010791429 0 -0.44719211462826458 -0.21433260555092931 0 -0.45343722200101472 -0.20093282014026259 0 -0.45734645300608501 -0.2250771403132085 0 -0.42273666031059942 -0.20160039699292351 0 -0.45152826304180471 -0.20019919010791429 0 -0.44719211462826458 -0.21433260555092931 0 -0.45152826304180471 -0.20019919010791429 0 -0.44719211462826458 -0.21433260555092931 0 -0.45343722200101472 -0.20093282014026259 0 -0.4601237377307128 -0.2105381594164176 0 -0.45343722200101472 -0.20093282014026259 0 -0.45734645300608501 -0.2250771403132085 0 -0.4601237377307128 -0.2105381594164176 0 -0.46740705597081078 -0.2065770668992872 0 -0.45343722200101472 -0.20093282014026259 0 -0.45343722200101472 -0.20093282014026259 0 -0.45734645300608501 -0.2250771403132085 0 -0.4601237377307128 -0.2105381594164176 0 -0.46410525036415001 -0.21454287347634951 0 -0.45734645300608501 -0.2250771403132085 0 -0.46410525036415001 -0.21454287347634951 0 -0.46740705597081078 -0.2065770668992872 0 -0.47266939876099717 -0.2190899167536331 0 -0.4601237377307128 -0.2105381594164176 0 -0.46410525036415001 -0.21454287347634951 0 -0.46740705597081078 -0.2065770668992872 0 -0.46864305794731148 -0.17702752872795191 0 -0.45152826304180471 -0.20019919010791429 0 -0.48031986577301011 -0.19879798322290351 0 -0.46740705597081078 -0.2065770668992872 0 -0.45343722200101472 -0.20093282014026259 0 -0.48031986577301011 -0.19879798322290351 0 -0.45152826304180471 -0.20019919010791429 0 -0.45343722200101472 -0.20093282014026259 0 -0.48031986577301011 -0.19879798322290351 0 -0.45152826304180471 -0.20019919010791429 0 -0.48031986577301011 -0.19879798322290351 0 -0.46864305794731148 -0.17702752872795191 0 -0.48031986577301011 -0.19879798322290351 0 -0.48031986577301011 -0.19879798322290351 0 -0.50000000000000377 -0.19784020606009059 0 -0.48709474298076139 -0.18194315591852489 0 -0.48031986577301011 -0.19879798322290351 0 -0.50000000000000377 -0.19784020606009059 0 -0.48031986577301011 -0.19879798322290351 0 -0.50000000000000377 -0.19784020606009059 0 -0.48799234451590978 -0.21310269319405831 0 -0.49999999999999872 -0.20841087225051991 0 -0.48799234451590978 -0.21310269319405831 0 -0.50000000000000377 -0.19784020606009059 0 -0.49999999999999872 -0.20841087225051991 0 -0.48799234451590978 -0.21310269319405831 0 -0.48799234451590978 -0.21310269319405831 0 -0.47266939876099717 -0.2190899167536331 0 -0.48799234451590978 -0.21310269319405831 0 -0.47752289642751522 -0.20933162625518131 0 -0.47266939876099717 -0.2190899167536331 0 -0.48031986577301011 -0.19879798322290351 0 -0.48799234451590978 -0.21310269319405831 0 -0.48031986577301011 -0.19879798322290351 0 -0.48799234451590978 -0.21310269319405831 0 -0.47752289642751522 -0.20933162625518131 0 -0.46740705597081078 -0.2065770668992872 0 -0.48031986577301011 -0.19879798322290351 0 -0.47752289642751522 -0.20933162625518131 0 -0.46740705597081078 -0.2065770668992872 0 -0.47752289642751522 -0.20933162625518131 0 -0.47266939876099717 -0.2190899167536331 0 -0.47266939876099717 -0.2190899167536331 0 -0.48502343787906638 -0.2269613193498565 0 -0.47943200823935822 -0.2401626813254204 0 -0.47266939876099717 -0.2190899167536331 0 -0.47943200823935822 -0.2401626813254204 0 -0.45734645300608501 -0.2250771403132085 0 -0.48799234451590978 -0.21310269319405831 0 -0.47266939876099717 -0.2190899167536331 0 -0.48502343787906638 -0.2269613193498565 0 -0.48799234451590978 -0.21310269319405831 0 -0.50000000000000233 -0.23548998612631311 0 -0.49999999999999872 -0.20841087225051991 0 -0.48799234451590978 -0.21310269319405831 0 -0.50000000000000233 -0.23548998612631311 0 -0.48502343787906638 -0.2269613193498565 0 -0.50000000000000233 -0.23548998612631311 0 -0.47943200823935822 -0.2401626813254204 0 -0.48799234451590978 -0.21310269319405831 0 -0.48502343787906638 -0.2269613193498565 0 -0.50000000000000233 -0.23548998612631311 0 -0.5 -0.26239569058885548 0 -0.50000000000000233 -0.23548998612631311 0 -0.47943200823935822 -0.2401626813254204 0 -0.46155496001558122 -0.25106985871628329 0 -0.45734645300608501 -0.2250771403132085 0 -0.44435151036965598 -0.248053572262112 0 -0.46155496001558122 -0.25106985871628329 0 -0.47943200823935822 -0.2401626813254204 0 -0.45734645300608501 -0.2250771403132085 0 -0.46155496001558122 -0.25106985871628329 0 -0.45734645300608501 -0.2250771403132085 0 -0.46410525036415001 -0.21454287347634951 0 -0.47266939876099717 -0.2190899167536331 0 -0.45734645300608501 -0.2250771403132085 0 -0.47266939876099717 -0.2190899167536331 0 -0.45734645300608501 -0.2250771403132085 0 -0.43343342069033308 -0.23442081826859459 0 -0.45734645300608501 -0.2250771403132085 0 -0.43343342069033308 -0.23442081826859459 0 -0.44719211462826458 -0.21433260555092931 0 -0.45734645300608501 -0.2250771403132085 0 -0.43343342069033308 -0.23442081826859459 0 -0.45734645300608501 -0.2250771403132085 0 -0.44435151036965598 -0.248053572262112 0 -0.41969669587914171 -0.044055117239098107 0 -0.41370432678206998 -0.057282037354117153 0 -0.40390737908409668 -0.038258885615739542 0 -0.41969669587914171 -0.044055117239098107 0 -0.41882043445380618 -0.029550424570330219 0 -0.40390737908409668 -0.038258885615739542 0 -0.41969669587914171 -0.044055117239098107 0 -0.41370432678206998 -0.057282037354117153 0 -0.42975190411504088 -0.054289610791199268 0 -0.41370432678206998 -0.057282037354117153 0 -0.39774294208688771 -0.053319520172110411 0 -0.41085451331652528 -0.073479132989350382 0 -0.41370432678206998 -0.057282037354117153 0 -0.42975190411504088 -0.054289610791199268 0 -0.42364828961801021 -0.064942296439997035 0 -0.42975190411504088 -0.054289610791199268 0 -0.42364828961801021 -0.064942296439997035 0 -0.43722035217166672 -0.066600577389948165 0 -0.42975190411504088 -0.054289610791199268 0 -0.43722035217166672 -0.066600577389948165 0 -0.43926869752384567 -0.057681716977455222 0 -0.42975190411504088 -0.054289610791199268 0 -0.43229943496069451 -0.040894627864104388 0 -0.43920565055535071 -0.047530645100146283 0 -0.42975190411504088 -0.054289610791199268 0 -0.43920565055535071 -0.047530645100146283 0 -0.43926869752384567 -0.057681716977455222 0 -0.41969669587914171 -0.044055117239098107 0 -0.42975190411504088 -0.054289610791199268 0 -0.43229943496069451 -0.040894627864104388 0 -0.43229943496069451 -0.040894627864104388 0 -0.43425252024717342 -0.028461093480037749 0 -0.41882043445380618 -0.029550424570330219 0 -0.41969669587914171 -0.044055117239098107 0 -0.43229943496069451 -0.040894627864104388 0 -0.41882043445380618 -0.029550424570330219 0 -0.43425252024717342 -0.028461093480037749 0 -0.42874416633381562 -0.0136941310643383 0 -0.44460831177661192 -0.019153158619615609 0 -0.43425252024717342 -0.028461093480037749 0 -0.42874416633381562 -0.0136941310643383 0 -0.41882043445380618 -0.029550424570330219 0 -0.42874416633381562 -0.0136941310643383 0 -0.44460831177661192 -0.019153158619615609 0 -0.43497730257453271 0.002311667103308373 0 -0.4239566835676839 -0.0067539161492865766 0 -0.41731051655071277 -0.0014163566277051549 0 -0.43497730257453271 0.002311667103308373 0 -0.42874416633381562 -0.0136941310643383 0 -0.4239566835676839 -0.0067539161492865766 0 -0.43497730257453271 0.002311667103308373 0 -0.42874416633381562 -0.0136941310643383 0 -0.4239566835676839 -0.0067539161492865766 0 -0.4150122614296437 -0.013872602752799669 0 -0.41731051655071277 -0.0014163566277051549 0 -0.39964094735903138 -0.0051311420767845249 0 -0.41514332715256569 0.0034438429735111492 0 -0.41731051655071277 -0.0014163566277051549 0 -0.4150122614296437 -0.013872602752799669 0 -0.39964094735903138 -0.0051311420767845249 0 -0.41731051655071277 -0.0014163566277051549 0 -0.39964094735903138 -0.0051311420767845249 0 -0.4239566835676839 -0.0067539161492865766 0 -0.41731051655071277 -0.0014163566277051549 0 -0.4150122614296437 -0.013872602752799669 0 -0.39964094735903138 -0.0051311420767845249 0 -0.41514332715256569 0.0034438429735111492 0 -0.42874416633381562 -0.0136941310643383 0 -0.4150122614296437 -0.013872602752799669 0 -0.41882043445380618 -0.029550424570330219 0 -0.41882043445380618 -0.029550424570330219 0 -0.4027409614242537 -0.02294001313672649 0 -0.40390737908409668 -0.038258885615739542 0 -0.4150122614296437 -0.013872602752799669 0 -0.41882043445380618 -0.029550424570330219 0 -0.4027409614242537 -0.02294001313672649 0 -0.4027409614242537 -0.02294001313672649 0 -0.39075770337180687 -0.02339820506086427 0 -0.39964094735903138 -0.0051311420767845249 0 -0.4027409614242537 -0.02294001313672649 0 -0.39075770337180687 -0.02339820506086427 0 -0.40390737908409668 -0.038258885615739542 0 -0.4150122614296437 -0.013872602752799669 0 -0.4027409614242537 -0.02294001313672649 0 -0.39964094735903138 -0.0051311420767845249 0 -0.39075770337180687 -0.02339820506086427 0 -0.39964094735903138 -0.0051311420767845249 0 -0.38344569979048232 -0.01408937994966112 0 -0.39964094735903138 -0.0051311420767845249 0 -0.38344569979048232 -0.01408937994966112 0 -0.37289906329371142 -0.01075325774520593 0 -0.39964094735903138 -0.0051311420767845249 0 -0.37289906329371142 -0.01075325774520593 0 -0.39964094735903138 -0.0051311420767845249 0 -0.38344569979048232 -0.01408937994966112 0 -0.37289906329371142 -0.01075325774520593 0 -0.39964094735903138 -0.0051311420767845249 0 -0.38426134468230888 0.0021323948161950982 0 -0.37289906329371142 -0.01075325774520593 0 -0.38426134468230888 0.0021323948161950982 0 -0.3727731609852345 0.0039141314299658506 0 -0.36725045222193292 -0.02304761782253752 0 -0.38344569979048232 -0.01408937994966112 0 -0.37891032816902448 -0.026794728131398909 0 -0.36725045222193292 -0.02304761782253752 0 -0.38344569979048232 -0.01408937994966112 0 -0.39075770337180687 -0.02339820506086427 0 -0.37891032816902448 -0.026794728131398909 0 -0.38521096864628568 -0.03675209760477946 0 -0.39075770337180687 -0.02339820506086427 0 -0.38344569979048232 -0.01408937994966112 0 -0.37891032816902448 -0.026794728131398909 0 -0.36950314741224211 -0.0373073499673994 0 -0.38521096864628568 -0.03675209760477946 0 -0.37966970287236002 -0.052547422085634128 0 -0.36950314741224211 -0.0373073499673994 0 -0.37891032816902448 -0.026794728131398909 0 -0.38521096864628568 -0.03675209760477946 0 -0.38521096864628568 -0.03675209760477946 0 -0.40390737908409668 -0.038258885615739542 0 -0.39774294208688771 -0.053319520172110411 0 -0.39075770337180687 -0.02339820506086427 0 -0.38521096864628568 -0.03675209760477946 0 -0.40390737908409668 -0.038258885615739542 0 -0.41370432678206998 -0.057282037354117153 0 -0.40390737908409668 -0.038258885615739542 0 -0.39774294208688771 -0.053319520172110411 0 -0.39774294208688771 -0.053319520172110411 0 -0.37966970287236002 -0.052547422085634128 0 -0.38581642046153541 -0.068983112455629811 0 -0.3607783276065456 -0.064487091921909184 0 -0.37966970287236002 -0.052547422085634128 0 -0.38581642046153541 -0.068983112455629811 0 -0.38521096864628568 -0.03675209760477946 0 -0.39774294208688771 -0.053319520172110411 0 -0.37966970287236002 -0.052547422085634128 0 -0.37251903031674871 -0.082879279404674058 0 -0.38581642046153541 -0.068983112455629811 0 -0.39165879116488389 -0.086959883392507833 0 -0.37251903031674871 -0.082879279404674058 0 -0.39165879116488389 -0.086959883392507833 0 -0.37802030087920802 -0.1002597821507185 0 -0.39165879116488389 -0.086959883392507833 0 -0.41085451331652528 -0.073479132989350382 0 -0.40710026021227019 -0.093151200221450736 0 -0.38581642046153541 -0.068983112455629811 0 -0.41085451331652528 -0.073479132989350382 0 -0.38581642046153541 -0.068983112455629811 0 -0.39165879116488389 -0.086959883392507833 0 -0.41085451331652528 -0.073479132989350382 0 -0.39774294208688771 -0.053319520172110411 0 -0.38581642046153541 -0.068983112455629811 0 -0.41085451331652528 -0.073479132989350382 0 -0.39774294208688771 -0.053319520172110411 0 -0.41085451331652528 -0.073479132989350382 0 -0.36504398971258051 -0.1149276719679424 0 -0.38218799579901253 -0.1159715049449242 0 -0.37802030087920802 -0.1002597821507185 0 -0.38709627193921259 -0.13087245422090149 0 -0.38218799579901253 -0.1159715049449242 0 -0.39520479513247081 -0.11632372739233091 0 -0.38218799579901253 -0.1159715049449242 0 -0.39441870805559498 -0.1023785289007496 0 -0.39520479513247081 -0.11632372739233091 0 -0.38218799579901253 -0.1159715049449242 0 -0.37802030087920802 -0.1002597821507185 0 -0.39441870805559498 -0.1023785289007496 0 -0.39165879116488389 -0.086959883392507833 0 -0.37802030087920802 -0.1002597821507185 0 -0.39441870805559498 -0.1023785289007496 0 -0.39441870805559498 -0.1023785289007496 0 -0.41086280141704251 -0.1106456608287633 0 -0.40710026021227019 -0.093151200221450736 0 -0.39165879116488389 -0.086959883392507833 0 -0.39441870805559498 -0.1023785289007496 0 -0.40710026021227019 -0.093151200221450736 0 -0.39441870805559498 -0.1023785289007496 0 -0.39520479513247081 -0.11632372739233091 0 -0.41086280141704251 -0.1106456608287633 0 -0.41246977191963652 -0.13130989037016999 0 -0.39520479513247081 -0.11632372739233091 0 -0.41086280141704251 -0.1106456608287633 0 -0.41246977191963652 -0.13130989037016999 0 -0.41086280141704251 -0.1106456608287633 0 -0.42516102650811027 -0.12100675558716439 0 -0.41086280141704251 -0.1106456608287633 0 -0.42538117842396339 -0.11148564410923389 0 -0.42516102650811027 -0.12100675558716439 0 -0.41086280141704251 -0.1106456608287633 0 -0.42545179969574209 -0.095923097670119459 0 -0.40710026021227019 -0.093151200221450736 0 -0.41086280141704251 -0.1106456608287633 0 -0.42545179969574209 -0.095923097670119459 0 -0.42538117842396339 -0.11148564410923389 0 -0.42545179969574209 -0.095923097670119459 0 -0.44004908607495891 -0.11836706235088849 0 -0.42545179969574209 -0.095923097670119459 0 -0.42538117842396339 -0.11148564410923389 0 -0.44004908607495891 -0.11836706235088849 0 -0.42545179969574209 -0.095923097670119459 0 -0.44004908607495891 -0.11836706235088849 0 -0.44376444780154639 -0.1067323714695198 0 -0.42538117842396339 -0.11148564410923389 0 -0.42516102650811027 -0.12100675558716439 0 -0.44004908607495891 -0.11836706235088849 0 -0.43784327190006028 -0.13174732651943849 0 -0.42516102650811027 -0.12100675558716439 0 -0.44004908607495891 -0.11836706235088849 0 -0.41370432678206998 -0.057282037354117153 0 -0.41085451331652528 -0.073479132989350382 0 -0.42364828961801021 -0.064942296439997035 0 -0.41085451331652528 -0.073479132989350382 0 -0.42828121952806242 -0.076608398042242593 0 -0.41085451331652528 -0.073479132989350382 0 -0.42828121952806242 -0.076608398042242593 0 -0.42364828961801021 -0.064942296439997035 0 -0.42545179969574209 -0.095923097670119459 0 -0.41085451331652528 -0.073479132989350382 0 -0.42545179969574209 -0.095923097670119459 0 -0.41085451331652528 -0.073479132989350382 0 -0.42828121952806242 -0.076608398042242593 0 -0.42545179969574209 -0.095923097670119459 0 -0.41085451331652528 -0.073479132989350382 0 -0.40710026021227019 -0.093151200221450736 0 -0.4356634014592955 -0.086313318280573301 0 -0.42828121952806242 -0.076608398042242593 0 -0.44570792573959961 -0.07973766309513472 0 -0.42545179969574209 -0.095923097670119459 0 -0.4356634014592955 -0.086313318280573301 0 -0.42828121952806242 -0.076608398042242593 0 -0.42545179969574209 -0.095923097670119459 0 -0.4356634014592955 -0.086313318280573301 0 -0.44344748457773708 -0.094468335537867001 0 -0.42828121952806242 -0.076608398042242593 0 -0.44570792573959961 -0.07973766309513472 0 -0.42828121952806242 -0.076608398042242593 0 -0.43722035217166672 -0.066600577389948165 0 -0.44570792573959961 -0.07973766309513472 0 -0.42828121952806242 -0.076608398042242593 0 -0.42364828961801021 -0.064942296439997035 0 -0.43722035217166672 -0.066600577389948165 0 -0.43722035217166672 -0.066600577389948165 0 -0.44570792573959961 -0.07973766309513472 0 -0.4508968832533245 -0.062306034628527199 0 -0.44570792573959961 -0.07973766309513472 0 -0.45500351279571011 -0.08559894397525418 0 -0.4508968832533245 -0.062306034628527199 0 -0.45500351279571011 -0.08559894397525418 0 -0.4508968832533245 -0.062306034628527199 0 -0.4356634014592955 -0.086313318280573301 0 -0.44570792573959961 -0.07973766309513472 0 -0.44344748457773708 -0.094468335537867001 0 -0.44570792573959961 -0.07973766309513472 0 -0.45500351279571011 -0.08559894397525418 0 -0.44344748457773708 -0.094468335537867001 0 -0.45500351279571011 -0.08559894397525418 0 -0.46684005446715671 -0.07626065516586325 0 -0.47007384386890622 -0.093795937311443894 0 -0.45500351279571011 -0.08559894397525418 0 -0.45914584420179938 -0.071565179657028202 0 -0.4508968832533245 -0.062306034628527199 0 -0.46684005446715671 -0.07626065516586325 0 -0.45914584420179938 -0.071565179657028202 0 -0.46384292629100649 -0.062095084858468201 0 -0.45914584420179938 -0.071565179657028202 0 -0.46384292629100649 -0.062095084858468201 0 -0.4508968832533245 -0.062306034628527199 0 -0.45500351279571011 -0.08559894397525418 0 -0.46684005446715671 -0.07626065516586325 0 -0.45914584420179938 -0.071565179657028202 0 -0.44796821404417547 -0.1245776650014444 0 -0.44004908607495891 -0.11836706235088849 0 -0.45076372632119871 -0.116011508466743 0 -0.43784327190006028 -0.13174732651943849 0 -0.44796821404417547 -0.1245776650014444 0 -0.44004908607495891 -0.11836706235088849 0 -0.44004908607495891 -0.11836706235088849 0 -0.45076372632119871 -0.116011508466743 0 -0.44376444780154639 -0.1067323714695198 0 -0.45076372632119871 -0.116011508466743 0 -0.44376444780154639 -0.1067323714695198 0 -0.45911014233809561 -0.10889185332198111 0 -0.45500351279571011 -0.08559894397525418 0 -0.44344748457773708 -0.094468335537867001 0 -0.45911014233809561 -0.10889185332198111 0 -0.44376444780154639 -0.1067323714695198 0 -0.44344748457773708 -0.094468335537867001 0 -0.45911014233809561 -0.10889185332198111 0 -0.42545179969574209 -0.095923097670119459 0 -0.44376444780154639 -0.1067323714695198 0 -0.44344748457773708 -0.094468335537867001 0 -0.45911014233809561 -0.10889185332198111 0 -0.47509274430860382 -0.114116888440667 0 -0.47007384386890622 -0.093795937311443894 0 -0.45500351279571011 -0.08559894397525418 0 -0.45911014233809561 -0.10889185332198111 0 -0.45500351279571011 -0.08559894397525418 0 -0.45911014233809561 -0.10889185332198111 0 -0.47007384386890622 -0.093795937311443894 0 -0.46321677188048421 -0.1321847626687076 0 -0.45911014233809561 -0.10889185332198111 0 -0.47509274430860382 -0.114116888440667 0 -0.46321677188048421 -0.1321847626687076 0 -0.45076372632119871 -0.116011508466743 0 -0.45911014233809561 -0.10889185332198111 0 -0.46321677188048421 -0.1321847626687076 0 -0.44796821404417547 -0.1245776650014444 0 -0.45076372632119871 -0.116011508466743 0 -0.46321677188048421 -0.1321847626687076 0 -0.45911014233809561 -0.10889185332198111 0 -0.48160838594024141 -0.13250183192755341 0 -0.47509274430860382 -0.114116888440667 0 -0.48861562610540149 -0.11702210060702239 0 -0.47509274430860382 -0.114116888440667 0 -0.48637700027816227 -0.097992343987098343 0 -0.48861562610540149 -0.11702210060702239 0 -0.47509274430860382 -0.114116888440667 0 -0.47007384386890622 -0.093795937311443894 0 -0.48637700027816227 -0.097992343987098343 0 -0.5 -0.10768053749339319 0 -0.48637700027816227 -0.097992343987098343 0 -0.48861562610540149 -0.11702210060702239 0 -0.5 -0.10768053749339319 0 -0.48637700027816227 -0.097992343987098343 0 -0.5 -0.082542173800386642 0 -0.49999999999999861 -0.1328189011863998 0 -0.5 -0.10768053749339319 0 -0.48861562610540149 -0.11702210060702239 0 -0.46684005446715671 -0.07626065516586325 0 -0.48028584814292241 -0.065369793897642123 0 -0.48003229484975612 -0.082711386817003574 0 -0.46684005446715671 -0.07626065516586325 0 -0.48028584814292241 -0.065369793897642123 0 -0.46384292629100649 -0.062095084858468201 0 -0.46684005446715671 -0.07626065516586325 0 -0.47007384386890622 -0.093795937311443894 0 -0.48003229484975612 -0.082711386817003574 0 -0.47007384386890622 -0.093795937311443894 0 -0.48637700027816227 -0.097992343987098343 0 -0.48003229484975612 -0.082711386817003574 0 -0.48637700027816227 -0.097992343987098343 0 -0.48003229484975612 -0.082711386817003574 0 -0.5 -0.082542173800386642 0 -0.48028584814292241 -0.065369793897642123 0 -0.48003229484975612 -0.082711386817003574 0 -0.5 -0.082542173800386642 0 -0.48028584814292241 -0.065369793897642123 0 -0.5 -0.082542173800386642 0 -0.5 -0.05740381010738016 0 -0.48028584814292241 -0.065369793897642123 0 -0.5 -0.05740381010738016 0 -0.47677281189415288 -0.048328454142264873 0 -0.5 -0.05740381010738016 0 -0.5 -0.032265446414373573 0 -0.47677281189415288 -0.048328454142264873 0 -0.5 -0.032265446414373573 0 -0.47677281189415288 -0.048328454142264873 0 -0.48636710921819448 -0.020441589017998529 0 -0.47677281189415288 -0.048328454142264873 0 -0.46839592697119697 -0.022083515765346919 0 -0.47677281189415288 -0.048328454142264873 0 -0.46458975220833248 -0.047033677340498591 0 -0.46839592697119697 -0.022083515765346919 0 -0.48028584814292241 -0.065369793897642123 0 -0.47677281189415288 -0.048328454142264873 0 -0.46384292629100649 -0.062095084858468201 0 -0.46384292629100649 -0.062095084858468201 0 -0.4542256190338092 -0.040624121739041889 0 -0.46384292629100649 -0.062095084858468201 0 -0.4542256190338092 -0.040624121739041889 0 -0.4508968832533245 -0.062306034628527199 0 -0.46384292629100649 -0.062095084858468201 0 -0.46458975220833248 -0.047033677340498591 0 -0.4542256190338092 -0.040624121739041889 0 -0.47677281189415288 -0.048328454142264873 0 -0.46384292629100649 -0.062095084858468201 0 -0.46458975220833248 -0.047033677340498591 0 -0.46458975220833248 -0.047033677340498591 0 -0.4542256190338092 -0.040624121739041889 0 -0.46839592697119697 -0.022083515765346919 0 -0.4542256190338092 -0.040624121739041889 0 -0.446790253710939 -0.039013125281800211 0 -0.44460831177661192 -0.019153158619615609 0 -0.43229943496069451 -0.040894627864104388 0 -0.43425252024717342 -0.028461093480037749 0 -0.446790253710939 -0.039013125281800211 0 -0.43229943496069451 -0.040894627864104388 0 -0.446790253710939 -0.039013125281800211 0 -0.43920565055535071 -0.047530645100146283 0 -0.446790253710939 -0.039013125281800211 0 -0.4508968832533245 -0.062306034628527199 0 -0.4542256190338092 -0.040624121739041889 0 -0.446790253710939 -0.039013125281800211 0 -0.4508968832533245 -0.062306034628527199 0 -0.446790253710939 -0.039013125281800211 0 -0.43920565055535071 -0.047530645100146283 0 -0.4508968832533245 -0.062306034628527199 0 -0.43722035217166672 -0.066600577389948165 0 -0.43926869752384567 -0.057681716977455222 0 -0.4508968832533245 -0.062306034628527199 0 -0.43920565055535071 -0.047530645100146283 0 -0.43926869752384567 -0.057681716977455222 0 -0.4508968832533245 -0.062306034628527199 0 -0.45139568041174888 -0.007855945172329612 0 -0.44402835842416499 0.0042007044984384194 0 -0.43497730257453271 0.002311667103308373 0 -0.45139568041174888 -0.007855945172329612 0 -0.44460831177661192 -0.019153158619615609 0 -0.43497730257453271 0.002311667103308373 0 -0.44460831177661192 -0.019153158619615609 0 -0.43497730257453271 0.002311667103308373 0 -0.45139568041174888 -0.007855945172329612 0 -0.4516594449088715 0.003053850584475317 0 -0.44402835842416499 0.0042007044984384194 0 -0.45139568041174888 -0.007855945172329612 0 -0.44460831177661192 -0.019153158619615609 0 -0.45570721386748297 -0.02707110228644059 0 -0.4542256190338092 -0.040624121739041889 0 -0.44460831177661192 -0.019153158619615609 0 -0.43425252024717342 -0.028461093480037749 0 -0.446790253710939 -0.039013125281800211 0 -0.44460831177661192 -0.019153158619615609 0 -0.4542256190338092 -0.040624121739041889 0 -0.44460831177661192 -0.019153158619615609 0 -0.45570721386748297 -0.02707110228644059 0 -0.4542256190338092 -0.040624121739041889 0 -0.45570721386748297 -0.02707110228644059 0 -0.46839592697119697 -0.022083515765346919 0 -0.45139568041174888 -0.007855945172329612 0 -0.45570721386748297 -0.02707110228644059 0 -0.46839592697119697 -0.022083515765346919 0 -0.46839592697119697 -0.022083515765346919 0 -0.46001904204824112 0.0041614226115709967 0 -0.45139568041174888 -0.007855945172329612 0 -0.46839592697119697 -0.022083515765346919 0 -0.46001904204824112 0.0041614226115709967 0 -0.45139568041174888 -0.007855945172329612 0 -0.46001904204824112 0.0041614226115709967 0 -0.4516594449088715 0.003053850584475317 0 -0.46839592697119697 -0.022083515765346919 0 -0.47861703125086991 -0.0037909509520216949 0 -0.46001904204824112 0.0041614226115709967 0 -0.46839592697119697 -0.022083515765346919 0 -0.47861703125086991 -0.0037909509520216949 0 -0.48636710921819448 -0.020441589017998529 0 -0.47677281189415288 -0.048328454142264873 0 -0.46839592697119697 -0.022083515765346919 0 -0.48636710921819448 -0.020441589017998529 0 -0.5 -0.032265446414373573 0 -0.48636710921819448 -0.020441589017998529 0 -0.50000000000000044 -0.0071270827213671091 0 -0.47861703125086991 -0.0037909509520216949 0 -0.48636710921819448 -0.020441589017998529 0 -0.50000000000000044 -0.0071270827213671091 0 -0.50000000000000044 -0.0071270827213671091 0 -0.4846902872199822 0.01640453479650246 0 -0.50000000000000044 -0.0071270827213671091 0 -0.50000000000000178 0.008197174204156844 0 -0.4846902872199822 0.01640453479650246 0 -0.47861703125086991 -0.0037909509520216949 0 -0.50000000000000044 -0.0071270827213671091 0 -0.4846902872199822 0.01640453479650246 0 -0.50000000000000178 0.008197174204156844 0 -0.4846902872199822 0.01640453479650246 0 -0.50000000000000178 0.008197174204156844 0 -0.5 0.024387667345023459 0 -0.4846902872199822 0.01640453479650246 0 -0.5 0.024387667345023459 0 -0.4846902872199822 0.01640453479650246 0 -0.48912557186630151 0.032549519916041617 0 -0.4846902872199822 0.01640453479650246 0 -0.45800165927725878 0.030712000677030071 0 -0.4846902872199822 0.01640453479650246 0 -0.47594838601235562 0.029841173259465219 0 -0.48912557186630151 0.032549519916041617 0 -0.4846902872199822 0.01640453479650246 0 -0.46531659354367422 0.01760496869162027 0 -0.45800165927725878 0.030712000677030071 0 -0.4846902872199822 0.01640453479650246 0 -0.46823008073685701 0.031502150756761382 0 -0.45800165927725878 0.030712000677030071 0 -0.4846902872199822 0.01640453479650246 0 -0.47594838601235562 0.029841173259465219 0 -0.4846902872199822 0.01640453479650246 0 -0.47594838601235562 0.029841173259465219 0 -0.46823008073685701 0.031502150756761382 0 -0.4846902872199822 0.01640453479650246 0 -0.4721804766676666 0.0079508596719438645 0 -0.46531659354367422 0.01760496869162027 0 -0.47861703125086991 -0.0037909509520216949 0 -0.4721804766676666 0.0079508596719438645 0 -0.46001904204824112 0.0041614226115709967 0 -0.47861703125086991 -0.0037909509520216949 0 -0.4846902872199822 0.01640453479650246 0 -0.4721804766676666 0.0079508596719438645 0 -0.48526759870908681 0.05147284401057186 0 -0.4999197508180242 0.040578160485890143 0 -0.5 0.064341050510986431 0 -0.48526759870908681 0.05147284401057186 0 -0.48823815372186219 0.0706805083282223 0 -0.5 0.064341050510986431 0 -0.5 0.024387667345023459 0 -0.4999197508180242 0.040578160485890143 0 -0.48912557186630151 0.032549519916041617 0 -0.48526759870908681 0.05147284401057186 0 -0.48912557186630151 0.032549519916041617 0 -0.47926616551235091 0.039879595015871218 0 -0.48526759870908681 0.05147284401057186 0 -0.4999197508180242 0.040578160485890143 0 -0.48912557186630151 0.032549519916041617 0 -0.48526759870908681 0.05147284401057186 0 -0.4999197508180242 0.040578160485890143 0 -0.48526759870908681 0.05147284401057186 0 -0.47926616551235091 0.039879595015871218 0 -0.46720648480472821 0.043277811722427527 0 -0.47594838601235562 0.029841173259465219 0 -0.48912557186630151 0.032549519916041617 0 -0.47926616551235091 0.039879595015871218 0 -0.47594838601235562 0.029841173259465219 0 -0.46720648480472821 0.043277811722427527 0 -0.47594838601235562 0.029841173259465219 0 -0.46720648480472821 0.043277811722427527 0 -0.46823008073685701 0.031502150756761382 0 -0.47594838601235562 0.029841173259465219 0 -0.47926616551235091 0.039879595015871218 0 -0.46720648480472821 0.043277811722427527 0 -0.48526759870908681 0.05147284401057186 0 -0.47061544660014959 0.06236752753525393 0 -0.46720648480472821 0.043277811722427527 0 -0.48526759870908681 0.05147284401057186 0 -0.47061544660014959 0.06236752753525393 0 -0.48823815372186219 0.0706805083282223 0 -0.48526759870908681 0.05147284401057186 0 -0.47061544660014959 0.06236752753525393 0 -0.47061544660014959 0.06236752753525393 0 -0.4558331592576072 0.05232378251312484 0 -0.46112880186271749 0.046386944261871448 0 -0.47061544660014959 0.06236752753525393 0 -0.4558331592576072 0.05232378251312484 0 -0.45014354738614948 0.059691356082715932 0 -0.47061544660014959 0.06236752753525393 0 -0.46112880186271749 0.046386944261871448 0 -0.47061544660014959 0.06236752753525393 0 -0.46112880186271749 0.046386944261871448 0 -0.46720648480472821 0.043277811722427527 0 -0.4558331592576072 0.05232378251312484 0 -0.46112880186271749 0.046386944261871448 0 -0.45136036246149952 0.044902715456172498 0 -0.46112880186271749 0.046386944261871448 0 -0.45072965096401513 0.033265259993471123 0 -0.45164215712528522 0.03040636098848911 0 -0.46112880186271749 0.046386944261871448 0 -0.45164215712528522 0.03040636098848911 0 -0.46112880186271749 0.046386944261871448 0 -0.46100430674571302 0.036489780867198521 0 -0.45164215712528522 0.03040636098848911 0 -0.46112880186271749 0.046386944261871448 0 -0.45072965096401513 0.033265259993471123 0 -0.45023941659508221 0.039550733415410211 0 -0.46112880186271749 0.046386944261871448 0 -0.45023941659508221 0.039550733415410211 0 -0.45136036246149952 0.044902715456172498 0 -0.46112880186271749 0.046386944261871448 0 -0.46720648480472821 0.043277811722427527 0 -0.46100430674571302 0.036489780867198521 0 -0.46100430674571302 0.036489780867198521 0 -0.46823008073685701 0.031502150756761382 0 -0.45800165927725878 0.030712000677030071 0 -0.46720648480472821 0.043277811722427527 0 -0.46100430674571302 0.036489780867198521 0 -0.46823008073685701 0.031502150756761382 0 -0.46100430674571302 0.036489780867198521 0 -0.45800165927725878 0.030712000677030071 0 -0.45164215712528522 0.03040636098848911 0 -0.45072965096401513 0.033265259993471123 0 -0.45164215712528522 0.03040636098848911 0 -0.44759848354841292 0.030259316186504619 0 -0.45072965096401513 0.033265259993471123 0 -0.45164215712528522 0.03040636098848911 0 -0.45072965096401513 0.033265259993471123 0 -0.44682097715259272 0.033973621034607847 0 -0.45023941659508221 0.039550733415410211 0 -0.44682097715259272 0.033973621034607847 0 -0.44450243636509418 0.037297855813057633 0 -0.45023941659508221 0.039550733415410211 0 -0.45072965096401513 0.033265259993471123 0 -0.44682097715259272 0.033973621034607847 0 -0.44759848354841292 0.030259316186504619 0 -0.44682097715259272 0.033973621034607847 0 -0.44759848354841292 0.030259316186504619 0 -0.44505363286348498 0.030746116298718231 0 -0.44682097715259272 0.033973621034607847 0 -0.44280224257946738 0.032722444500485288 0 -0.44505363286348498 0.030746116298718231 0 -0.44682097715259272 0.033973621034607847 0 -0.44280224257946738 0.032722444500485288 0 -0.44450243636509418 0.037297855813057633 0 -0.44280224257946738 0.032722444500485288 0 -0.43904295142889799 0.034815509561025283 0 -0.44450243636509418 0.037297855813057633 0 -0.44280224257946738 0.032722444500485288 0 -0.43904295142889799 0.034815509561025283 0 -0.44131463904003881 0.028685090538806308 0 -0.43904295142889799 0.034815509561025283 0 -0.44450243636509418 0.037297855813057633 0 -0.44125814250147238 0.042330818105603657 0 -0.44450243636509418 0.037297855813057633 0 -0.44125814250147238 0.042330818105603657 0 -0.4466555991801337 0.042470498403970963 0 -0.44125814250147238 0.042330818105603657 0 -0.43892384526539202 0.053290946520190112 0 -0.43386350739700891 0.04198546103027604 0 -0.43904295142889799 0.034815509561025283 0 -0.44125814250147238 0.042330818105603657 0 -0.43386350739700891 0.04198546103027604 0 -0.44125814250147238 0.042330818105603657 0 -0.4466555991801337 0.042470498403970963 0 -0.44591763797751988 0.048270369229610782 0 -0.4466555991801337 0.042470498403970963 0 -0.45136036246149952 0.044902715456172498 0 -0.44591763797751988 0.048270369229610782 0 -0.44450243636509418 0.037297855813057633 0 -0.4466555991801337 0.042470498403970963 0 -0.45023941659508221 0.039550733415410211 0 -0.4466555991801337 0.042470498403970963 0 -0.45023941659508221 0.039550733415410211 0 -0.45136036246149952 0.044902715456172498 0 -0.4558331592576072 0.05232378251312484 0 -0.45136036246149952 0.044902715456172498 0 -0.44591763797751988 0.048270369229610782 0 -0.4558331592576072 0.05232378251312484 0 -0.44591763797751988 0.048270369229610782 0 -0.45014354738614948 0.059691356082715932 0 -0.44125814250147238 0.042330818105603657 0 -0.44591763797751988 0.048270369229610782 0 -0.43892384526539202 0.053290946520190112 0 -0.44591763797751988 0.048270369229610782 0 -0.43892384526539202 0.053290946520190112 0 -0.45014354738614948 0.059691356082715932 0 -0.43892384526539202 0.053290946520190112 0 -0.45014354738614948 0.059691356082715932 0 -0.44207759152755971 0.066449227044001913 0 -0.46001904204824112 0.0041614226115709967 0 -0.45164215712528522 0.03040636098848911 0 -0.4520399094843997 0.01077944719576128 0 -0.46001904204824112 0.0041614226115709967 0 -0.4520399094843997 0.01077944719576128 0 -0.4516594449088715 0.003053850584475317 0 -0.4721804766676666 0.0079508596719438645 0 -0.46001904204824112 0.0041614226115709967 0 -0.46531659354367422 0.01760496869162027 0 -0.46001904204824112 0.0041614226115709967 0 -0.46531659354367422 0.01760496869162027 0 -0.45164215712528522 0.03040636098848911 0 -0.46001904204824112 0.0041614226115709967 0 -0.45164215712528522 0.03040636098848911 0 -0.46531659354367422 0.01760496869162027 0 -0.45800165927725878 0.030712000677030071 0 -0.45164215712528522 0.03040636098848911 0 -0.44816993620317891 0.016866225887238129 0 -0.45164215712528522 0.03040636098848911 0 -0.44330486491102411 0.016361902047298961 0 -0.45164215712528522 0.03040636098848911 0 -0.44330486491102411 0.016361902047298961 0 -0.44816993620317891 0.016866225887238129 0 -0.45164215712528522 0.03040636098848911 0 -0.4520399094843997 0.01077944719576128 0 -0.45164215712528522 0.03040636098848911 0 -0.4457665423490289 0.025105640191786949 0 -0.44330486491102411 0.016361902047298961 0 -0.45164215712528522 0.03040636098848911 0 -0.4457665423490289 0.025105640191786949 0 -0.44759848354841292 0.030259316186504619 0 -0.4457665423490289 0.025105640191786949 0 -0.44759848354841292 0.030259316186504619 0 -0.44481638786152949 0.027970854004481072 0 -0.44759848354841292 0.030259316186504619 0 -0.44505363286348498 0.030746116298718231 0 -0.44481638786152949 0.027970854004481072 0 -0.44280224257946738 0.032722444500485288 0 -0.44505363286348498 0.030746116298718231 0 -0.44131463904003881 0.028685090538806308 0 -0.44505363286348498 0.030746116298718231 0 -0.44481638786152949 0.027970854004481072 0 -0.44131463904003881 0.028685090538806308 0 -0.4457665423490289 0.025105640191786949 0 -0.44283506875228801 0.025353364104040599 0 -0.44271265208690858 0.02138533095776507 0 -0.44283506875228801 0.025353364104040599 0 -0.43956512242393408 0.023619904827363598 0 -0.44271265208690858 0.02138533095776507 0 -0.44481638786152949 0.027970854004481072 0 -0.44283506875228801 0.025353364104040599 0 -0.44131463904003881 0.028685090538806308 0 -0.4457665423490289 0.025105640191786949 0 -0.44481638786152949 0.027970854004481072 0 -0.44283506875228801 0.025353364104040599 0 -0.43956512242393408 0.023619904827363598 0 -0.44131463904003881 0.028685090538806308 0 -0.43558064949058373 0.028736045101390249 0 -0.44283506875228801 0.025353364104040599 0 -0.43956512242393408 0.023619904827363598 0 -0.44131463904003881 0.028685090538806308 0 -0.43904295142889799 0.034815509561025283 0 -0.44131463904003881 0.028685090538806308 0 -0.43558064949058373 0.028736045101390249 0 -0.4457665423490289 0.025105640191786949 0 -0.44330486491102411 0.016361902047298961 0 -0.44271265208690858 0.02138533095776507 0 -0.44330486491102411 0.016361902047298961 0 -0.44187484449918868 0.01823011222196692 0 -0.44271265208690858 0.02138533095776507 0 -0.44187484449918868 0.01823011222196692 0 -0.44271265208690858 0.02138533095776507 0 -0.44012269598399473 0.02061482101659725 0 -0.43956512242393408 0.023619904827363598 0 -0.44012269598399473 0.02061482101659725 0 -0.43633816492594751 0.019223936059293401 0 -0.43956512242393408 0.023619904827363598 0 -0.44271265208690858 0.02138533095776507 0 -0.44012269598399473 0.02061482101659725 0 -0.44187484449918868 0.01823011222196692 0 -0.44012269598399473 0.02061482101659725 0 -0.43633816492594751 0.019223936059293401 0 -0.44330486491102411 0.016361902047298961 0 -0.44569281329200688 0.0099171933174031918 0 -0.43497730257453271 0.002311667103308373 0 -0.44330486491102411 0.016361902047298961 0 -0.43497730257453271 0.002311667103308373 0 -0.44330486491102411 0.016361902047298961 0 -0.44187484449918868 0.01823011222196692 0 -0.43064570694609999 0.012018828023806801 0 -0.44816993620317891 0.016866225887238129 0 -0.44569281329200688 0.0099171933174031918 0 -0.4520399094843997 0.01077944719576128 0 -0.44816993620317891 0.016866225887238129 0 -0.44330486491102411 0.016361902047298961 0 -0.44569281329200688 0.0099171933174031918 0 -0.44569281329200688 0.0099171933174031918 0 -0.4520399094843997 0.01077944719576128 0 -0.4516594449088715 0.003053850584475317 0 -0.44569281329200688 0.0099171933174031918 0 -0.4516594449088715 0.003053850584475317 0 -0.44402835842416499 0.0042007044984384194 0 -0.44402835842416499 0.0042007044984384194 0 -0.43497730257453271 0.002311667103308373 0 -0.44569281329200688 0.0099171933174031918 0 -0.44402835842416499 0.0042007044984384194 0 -0.43497730257453271 0.002311667103308373 0 -0.41731051655071277 -0.0014163566277051549 0 -0.43497730257453271 0.002311667103308373 0 -0.43064570694609999 0.012018828023806801 0 -0.43497730257453271 0.002311667103308373 0 -0.43064570694609999 0.012018828023806801 0 -0.41731051655071277 -0.0014163566277051549 0 -0.43497730257453271 0.002311667103308373 0 -0.44330486491102411 0.016361902047298961 0 -0.43497730257453271 0.002311667103308373 0 -0.43064570694609999 0.012018828023806801 0 -0.44187484449918868 0.01823011222196692 0 -0.43064570694609999 0.012018828023806801 0 -0.43064570694609999 0.012018828023806801 0 -0.42181321786007753 0.013065716618905401 0 -0.42694806872790469 0.020273930173365141 0 -0.43064570694609999 0.012018828023806801 0 -0.41514332715256569 0.0034438429735111492 0 -0.42181321786007753 0.013065716618905401 0 -0.43064570694609999 0.012018828023806801 0 -0.41514332715256569 0.0034438429735111492 0 -0.41731051655071277 -0.0014163566277051549 0 -0.43064570694609999 0.012018828023806801 0 -0.41514332715256569 0.0034438429735111492 0 -0.41514332715256569 0.0034438429735111492 0 -0.42181321786007753 0.013065716618905401 0 -0.41451576861373979 0.016526265304938531 0 -0.41514332715256569 0.0034438429735111492 0 -0.41451576861373979 0.016526265304938531 0 -0.4010946777762433 0.01468335672389048 0 -0.40900707800441499 0.024161882421352289 0 -0.4179495474657321 0.029048894457409359 0 -0.40676439496136002 0.033491664599307247 0 -0.40900707800441499 0.024161882421352289 0 -0.41451576861373979 0.016526265304938531 0 -0.4010946777762433 0.01468335672389048 0 -0.40900707800441499 0.024161882421352289 0 -0.41451576861373979 0.016526265304938531 0 -0.4179495474657321 0.029048894457409359 0 -0.41451576861373979 0.016526265304938531 0 -0.4179495474657321 0.029048894457409359 0 -0.42694806872790469 0.020273930173365141 0 -0.42181321786007753 0.013065716618905401 0 -0.41451576861373979 0.016526265304938531 0 -0.42694806872790469 0.020273930173365141 0 -0.4179495474657321 0.029048894457409359 0 -0.42850802670340121 0.028597145297975971 0 -0.42694806872790469 0.020273930173365141 0 -0.42850802670340121 0.028597145297975971 0 -0.42694806872790469 0.020273930173365141 0 -0.43319206204882799 0.022964510911573911 0 -0.43064570694609999 0.012018828023806801 0 -0.42694806872790469 0.020273930173365141 0 -0.44187484449918868 0.01823011222196692 0 -0.43064570694609999 0.012018828023806801 0 -0.43633816492594751 0.019223936059293401 0 -0.43064570694609999 0.012018828023806801 0 -0.42694806872790469 0.020273930173365141 0 -0.43178100066219499 0.018620301292009811 0 -0.43064570694609999 0.012018828023806801 0 -0.43178100066219499 0.018620301292009811 0 -0.43633816492594751 0.019223936059293401 0 -0.42694806872790469 0.020273930173365141 0 -0.43178100066219499 0.018620301292009811 0 -0.43319206204882799 0.022964510911573911 0 -0.43178100066219499 0.018620301292009811 0 -0.43319206204882799 0.022964510911573911 0 -0.43633816492594751 0.019223936059293401 0 -0.43956512242393408 0.023619904827363598 0 -0.43319206204882799 0.022964510911573911 0 -0.43633816492594751 0.019223936059293401 0 -0.42850802670340121 0.028597145297975971 0 -0.43558064949058373 0.028736045101390249 0 -0.43186109529840222 0.033734109471596399 0 -0.42850802670340121 0.028597145297975971 0 -0.43319206204882799 0.022964510911573911 0 -0.43558064949058373 0.028736045101390249 0 -0.43956512242393408 0.023619904827363598 0 -0.43319206204882799 0.022964510911573911 0 -0.43558064949058373 0.028736045101390249 0 -0.43904295142889799 0.034815509561025283 0 -0.43558064949058373 0.028736045101390249 0 -0.43186109529840222 0.033734109471596399 0 -0.43186109529840222 0.033734109471596399 0 -0.43386350739700891 0.04198546103027604 0 -0.42510128042350898 0.037235796024261837 0 -0.43904295142889799 0.034815509561025283 0 -0.43186109529840222 0.033734109471596399 0 -0.43386350739700891 0.04198546103027604 0 -0.42510128042350898 0.037235796024261837 0 -0.42699372946437991 0.050505586498978967 0 -0.41533640399907018 0.041622268024836359 0 -0.43386350739700891 0.04198546103027604 0 -0.42510128042350898 0.037235796024261837 0 -0.42699372946437991 0.050505586498978967 0 -0.42850802670340121 0.028597145297975971 0 -0.43186109529840222 0.033734109471596399 0 -0.42510128042350898 0.037235796024261837 0 -0.4179495474657321 0.029048894457409359 0 -0.42850802670340121 0.028597145297975971 0 -0.42510128042350898 0.037235796024261837 0 -0.43892384526539202 0.053290946520190112 0 -0.42699372946437991 0.050505586498978967 0 -0.42906948452523769 0.070476162823449359 0 -0.42699372946437991 0.050505586498978967 0 -0.4143765594296146 0.054064048210419352 0 -0.42906948452523769 0.070476162823449359 0 -0.43892384526539202 0.053290946520190112 0 -0.43386350739700891 0.04198546103027604 0 -0.42699372946437991 0.050505586498978967 0 -0.4143765594296146 0.054064048210419352 0 -0.40624827710671368 0.043714793802244578 0 -0.39841714027923919 0.051351395231273647 0 -0.4143765594296146 0.054064048210419352 0 -0.39841714027923919 0.051351395231273647 0 -0.40887227509098861 0.065672700542522999 0 -0.42699372946437991 0.050505586498978967 0 -0.4143765594296146 0.054064048210419352 0 -0.41533640399907018 0.041622268024836359 0 -0.4179495474657321 0.029048894457409359 0 -0.42510128042350898 0.037235796024261837 0 -0.41533640399907018 0.041622268024836359 0 -0.4143765594296146 0.054064048210419352 0 -0.41533640399907018 0.041622268024836359 0 -0.40624827710671368 0.043714793802244578 0 -0.41533640399907018 0.041622268024836359 0 -0.40676439496136002 0.033491664599307247 0 -0.40624827710671368 0.043714793802244578 0 -0.4179495474657321 0.029048894457409359 0 -0.41533640399907018 0.041622268024836359 0 -0.40676439496136002 0.033491664599307247 0 -0.40676439496136002 0.033491664599307247 0 -0.40624827710671368 0.043714793802244578 0 -0.39634688686428432 0.038044592945386257 0 -0.40676439496136002 0.033491664599307247 0 -0.39634688686428432 0.038044592945386257 0 -0.40084777133223692 0.027554561613908821 0 -0.40624827710671368 0.043714793802244578 0 -0.39634688686428432 0.038044592945386257 0 -0.39841714027923919 0.051351395231273647 0 -0.39634688686428432 0.038044592945386257 0 -0.39841714027923919 0.051351395231273647 0 -0.38396581042654992 0.040247736370304057 0 -0.39841714027923919 0.051351395231273647 0 -0.39537394569701728 0.065106511635588671 0 -0.40887227509098861 0.065672700542522999 0 -0.39841714027923919 0.051351395231273647 0 -0.38439922226021211 0.054097243407277097 0 -0.39537394569701728 0.065106511635588671 0 -0.38439922226021211 0.054097243407277097 0 -0.37913465212212061 0.065675176532655838 0 -0.39537394569701728 0.065106511635588671 0 -0.39841714027923919 0.051351395231273647 0 -0.38439922226021211 0.054097243407277097 0 -0.38396581042654992 0.040247736370304057 0 -0.38439922226021211 0.054097243407277097 0 -0.37261372632497258 0.045163334082492693 0 -0.37275633896488181 0.055844264633964733 0 -0.38439922226021211 0.054097243407277097 0 -0.37913465212212061 0.065675176532655838 0 -0.37275633896488181 0.055844264633964733 0 -0.38396581042654992 0.040247736370304057 0 -0.38088627163784677 0.029694684817401989 0 -0.39102581905488221 0.02739131137960784 0 -0.39634688686428432 0.038044592945386257 0 -0.38396581042654992 0.040247736370304057 0 -0.39102581905488221 0.02739131137960784 0 -0.38396581042654992 0.040247736370304057 0 -0.37400361689354161 0.035854073194307327 0 -0.37261372632497258 0.045163334082492693 0 -0.38439922226021211 0.054097243407277097 0 -0.38396581042654992 0.040247736370304057 0 -0.37261372632497258 0.045163334082492693 0 -0.38396581042654992 0.040247736370304057 0 -0.38088627163784677 0.029694684817401989 0 -0.37400361689354161 0.035854073194307327 0 -0.38088627163784677 0.029694684817401989 0 -0.38319552690233349 0.01537500881018101 0 -0.36984020686482411 0.025959641154479171 0 -0.38088627163784677 0.029694684817401989 0 -0.38319552690233349 0.01537500881018101 0 -0.39102581905488221 0.02739131137960784 0 -0.38319552690233349 0.01537500881018101 0 -0.36911389909504883 0.0145959280844078 0 -0.3727731609852345 0.0039141314299658506 0 -0.38426134468230888 0.0021323948161950982 0 -0.38319552690233349 0.01537500881018101 0 -0.3727731609852345 0.0039141314299658506 0 -0.38426134468230888 0.0021323948161950982 0 -0.38319552690233349 0.01537500881018101 0 -0.3925247374473072 0.0070778134388945558 0 -0.39964094735903138 -0.0051311420767845249 0 -0.3925247374473072 0.0070778134388945558 0 -0.4010946777762433 0.01468335672389048 0 -0.38319552690233349 0.01537500881018101 0 -0.3925247374473072 0.0070778134388945558 0 -0.4010946777762433 0.01468335672389048 0 -0.39964094735903138 -0.0051311420767845249 0 -0.41514332715256569 0.0034438429735111492 0 -0.4010946777762433 0.01468335672389048 0 -0.39964094735903138 -0.0051311420767845249 0 -0.38426134468230888 0.0021323948161950982 0 -0.3925247374473072 0.0070778134388945558 0 -0.38319552690233349 0.01537500881018101 0 -0.4010946777762433 0.01468335672389048 0 -0.39102581905488221 0.02739131137960784 0 -0.40900707800441499 0.024161882421352289 0 -0.4010946777762433 0.01468335672389048 0 -0.40084777133223692 0.027554561613908821 0 -0.40900707800441499 0.024161882421352289 0 -0.40676439496136002 0.033491664599307247 0 -0.40084777133223692 0.027554561613908821 0 -0.39634688686428432 0.038044592945386257 0 -0.40084777133223692 0.027554561613908821 0 -0.39102581905488221 0.02739131137960784 0 -0.4010946777762433 0.01468335672389048 0 -0.40084777133223692 0.027554561613908821 0 -0.39102581905488221 0.02739131137960784 0 -0.3944801816486615 0.093297216743517264 0 -0.40964369354932911 0.079648060249445943 0 -0.40846953289753118 0.1085764432705205 0 -0.3880813960344498 0.1066464007922234 0 -0.3944801816486615 0.093297216743517264 0 -0.40846953289753118 0.1085764432705205 0 -0.38775422832999179 0.123979415182276 0 -0.40846953289753118 0.1085764432705205 0 -0.4088763002353315 0.1250501283219701 0 -0.38775422832999179 0.123979415182276 0 -0.3880813960344498 0.1066464007922234 0 -0.40846953289753118 0.1085764432705205 0 -0.38775422832999179 0.123979415182276 0 -0.40846953289753118 0.1085764432705205 0 -0.38775422832999179 0.123979415182276 0 -0.3705532687007751 0.1243771828620189 0 -0.37241831463459241 0.109833280152714 0 -0.38775422832999179 0.123979415182276 0 -0.3880813960344498 0.1066464007922234 0 -0.37241831463459241 0.109833280152714 0 -0.38775422832999179 0.123979415182276 0 -0.37241831463459241 0.109833280152714 0 -0.3880813960344498 0.1066464007922234 0 -0.37540784127202997 0.09193695288261873 0 -0.3944801816486615 0.093297216743517264 0 -0.3880813960344498 0.1066464007922234 0 -0.37540784127202997 0.09193695288261873 0 -0.37241831463459241 0.109833280152714 0 -0.37540784127202997 0.09193695288261873 0 -0.38746023484872782 0.078168478357418775 0 -0.3944801816486615 0.093297216743517264 0 -0.37540784127202997 0.09193695288261873 0 -0.38746023484872782 0.078168478357418775 0 -0.36932962578096551 0.07529283399517811 0 -0.38746023484872782 0.078168478357418775 0 -0.37913465212212061 0.065675176532655838 0 -0.39537394569701728 0.065106511635588671 0 -0.38746023484872782 0.078168478357418775 0 -0.37913465212212061 0.065675176532655838 0 -0.36932962578096551 0.07529283399517811 0 -0.38746023484872782 0.078168478357418775 0 -0.39537394569701728 0.065106511635588671 0 -0.40964369354932911 0.079648060249445943 0 -0.39537394569701728 0.065106511635588671 0 -0.40964369354932911 0.079648060249445943 0 -0.40887227509098861 0.065672700542522999 0 -0.38746023484872782 0.078168478357418775 0 -0.3944801816486615 0.093297216743517264 0 -0.40964369354932911 0.079648060249445943 0 -0.4143765594296146 0.054064048210419352 0 -0.40887227509098861 0.065672700542522999 0 -0.42906948452523769 0.070476162823449359 0 -0.40964369354932911 0.079648060249445943 0 -0.40887227509098861 0.065672700542522999 0 -0.42906948452523769 0.070476162823449359 0 -0.43892384526539202 0.053290946520190112 0 -0.42906948452523769 0.070476162823449359 0 -0.44207759152755971 0.066449227044001913 0 -0.40964369354932911 0.079648060249445943 0 -0.42906948452523769 0.070476162823449359 0 -0.42918483746507058 0.0931734713587649 0 -0.42906948452523769 0.070476162823449359 0 -0.42918483746507058 0.0931734713587649 0 -0.44990014203260997 0.077770499447009228 0 -0.42918483746507058 0.0931734713587649 0 -0.43141844629495801 0.1086362369121259 0 -0.40846953289753118 0.1085764432705205 0 -0.40964369354932911 0.079648060249445943 0 -0.42918483746507058 0.0931734713587649 0 -0.40846953289753118 0.1085764432705205 0 -0.42918483746507058 0.0931734713587649 0 -0.40846953289753118 0.1085764432705205 0 -0.40846953289753118 0.1085764432705205 0 -0.42352797263845138 0.12088639188352809 0 -0.4088763002353315 0.1250501283219701 0 -0.43141844629495801 0.1086362369121259 0 -0.40846953289753118 0.1085764432705205 0 -0.42352797263845138 0.12088639188352809 0 -0.42352797263845138 0.12088639188352809 0 -0.44283509890741912 0.11722528371381991 0 -0.43228040382599592 0.13003802633199429 0 -0.43141844629495801 0.1086362369121259 0 -0.42352797263845138 0.12088639188352809 0 -0.44283509890741912 0.11722528371381991 0 -0.43141844629495801 0.1086362369121259 0 -0.44283509890741912 0.11722528371381991 0 -0.45307478956631753 0.10331959433399621 0 -0.44283509890741912 0.11722528371381991 0 -0.44354814606676313 0.13148540671407641 0 -0.45919977597377748 0.12501556840405301 0 -0.44283509890741912 0.11722528371381991 0 -0.45307478956631753 0.10331959433399621 0 -0.45919977597377748 0.12501556840405301 0 -0.42918483746507058 0.0931734713587649 0 -0.43141844629495801 0.1086362369121259 0 -0.45307478956631753 0.10331959433399621 0 -0.45307478956631753 0.10331959433399621 0 -0.4748068590436173 0.1143735429752198 0 -0.45919977597377748 0.12501556840405301 0 -0.45307478956631753 0.10331959433399621 0 -0.44990014203260997 0.077770499447009228 0 -0.48530772330007482 0.087117179048216573 0 -0.47061544660014959 0.06236752753525393 0 -0.44990014203260997 0.077770499447009228 0 -0.48530772330007482 0.087117179048216573 0 -0.45014354738614948 0.059691356082715932 0 -0.44990014203260997 0.077770499447009228 0 -0.44207759152755971 0.066449227044001913 0 -0.42906948452523769 0.070476162823449359 0 -0.44990014203260997 0.077770499447009228 0 -0.44207759152755971 0.066449227044001913 0 -0.42918483746507058 0.0931734713587649 0 -0.44990014203260997 0.077770499447009228 0 -0.42918483746507058 0.0931734713587649 0 -0.45307478956631753 0.10331959433399621 0 -0.44990014203260997 0.077770499447009228 0 -0.47061544660014959 0.06236752753525393 0 -0.45014354738614948 0.059691356082715932 0 -0.44990014203260997 0.077770499447009228 0 -0.47061544660014959 0.06236752753525393 0 -0.44990014203260997 0.077770499447009228 0 -0.47061544660014959 0.06236752753525393 0 -0.48530772330007482 0.087117179048216573 0 -0.47061544660014959 0.06236752753525393 0 -0.48530772330007482 0.087117179048216573 0 -0.48823815372186219 0.0706805083282223 0 -0.48530772330007482 0.087117179048216573 0 -0.5 0.088103940536082725 0 -0.48823815372186219 0.0706805083282223 0 -0.5 0.088103940536082725 0 -0.48823815372186219 0.0706805083282223 0 -0.5 0.064341050510986431 0 -0.45307478956631753 0.10331959433399621 0 -0.48530772330007482 0.087117179048216573 0 -0.4748068590436173 0.1143735429752198 0 -0.48530772330007482 0.087117179048216573 0 -0.4748068590436173 0.1143735429752198 0 -0.49999999999999978 0.11186683056117901 0 -0.48530772330007482 0.087117179048216573 0 -0.49999999999999978 0.11186683056117901 0 -0.48530772330007482 0.087117179048216573 0 -0.5 0.088103940536082725 0 -0.49999999999999978 0.11186683056117901 0 -0.4748068590436173 0.1143735429752198 0 -0.49999999999999978 0.11186683056117901 0 -0.48805724417395008 0.12723889596509219 0 -0.49999999999999978 0.11186683056117901 0 -0.48805724417395008 0.12723889596509219 0 -0.50000000000000089 0.1413494581845898 0 -0.48805724417395008 0.12723889596509219 0 -0.47742211765218362 0.1413657521393801 0 -0.50000000000000089 0.1413494581845898 0 -0.4748068590436173 0.1143735429752198 0 -0.48805724417395008 0.12723889596509219 0 -0.47742211765218362 0.1413657521393801 0 -0.4748068590436173 0.1143735429752198 0 -0.47742211765218362 0.1413657521393801 0 -0.45919977597377748 0.12501556840405301 0 -0.47742211765218362 0.1413657521393801 0 -0.48186813233854647 0.1594893411143728 0 -0.46781099007613097 0.1562566969226078 0 -0.50000000000000089 0.1413494581845898 0 -0.5 0.1599925218150676 0 -0.48186813233854647 0.1594893411143728 0 -0.47742211765218362 0.1413657521393801 0 -0.50000000000000089 0.1413494581845898 0 -0.47742211765218362 0.1413657521393801 0 -0.50000000000000089 0.1413494581845898 0 -0.48186813233854647 0.1594893411143728 0 -0.5 0.1599925218150676 0 -0.48701141642071111 0.17506798956249869 0 -0.48186813233854647 0.1594893411143728 0 -0.5 0.1599925218150676 0 -0.48701141642071111 0.17506798956249869 0 -0.50000000000000133 0.17863558544554539 0 -0.48701141642071111 0.17506798956249869 0 -0.50000000000000133 0.17863558544554539 0 -0.48637807903738012 0.19315561282336041 0 -0.50000000000000133 0.17863558544554539 0 -0.48637807903738012 0.19315561282336041 0 -0.48701141642071111 0.17506798956249869 0 -0.47043284804097962 0.1774006526961586 0 -0.48637807903738012 0.19315561282336041 0 -0.47043284804097962 0.1774006526961586 0 -0.48637807903738012 0.19315561282336041 0 -0.48701141642071111 0.17506798956249869 0 -0.47043284804097962 0.1774006526961586 0 -0.48186813233854647 0.1594893411143728 0 -0.47043284804097962 0.1774006526961586 0 -0.48186813233854647 0.1594893411143728 0 -0.46781099007613097 0.1562566969226078 0 -0.47043284804097962 0.1774006526961586 0 -0.45448761704457918 0.16164569256895689 0 -0.47043284804097962 0.1774006526961586 0 -0.46781099007613097 0.1562566969226078 0 -0.45448761704457918 0.16164569256895689 0 -0.47043284804097962 0.1774006526961586 0 -0.45448761704457918 0.16164569256895689 0 -0.45329747597325909 0.1790590320082163 0 -0.47043284804097962 0.1774006526961586 0 -0.45329747597325909 0.1790590320082163 0 -0.46696386806935808 0.19369703155652229 0 -0.45329747597325909 0.1790590320082163 0 -0.44912727949048098 0.198611507136289 0 -0.43638920347514121 0.18267897146728829 0 -0.45329747597325909 0.1790590320082163 0 -0.43654399178686348 0.16458172316849909 0 -0.43638920347514121 0.18267897146728829 0 -0.45448761704457918 0.16164569256895689 0 -0.43842316218644373 0.1552029821738839 0 -0.43654399178686348 0.16458172316849909 0 -0.45448761704457918 0.16164569256895689 0 -0.45329747597325909 0.1790590320082163 0 -0.43654399178686348 0.16458172316849909 0 -0.43854238604817869 0.14589073244175521 0 -0.45484423530436641 0.1413820460941704 0 -0.43226635295654908 0.14139834004896071 0 -0.45484423530436641 0.1413820460941704 0 -0.43226635295654908 0.14139834004896071 0 -0.45448761704457918 0.16164569256895689 0 -0.43854238604817869 0.14589073244175521 0 -0.45448761704457918 0.16164569256895689 0 -0.43842316218644373 0.1552029821738839 0 -0.43854238604817869 0.14589073244175521 0 -0.45448761704457918 0.16164569256895689 0 -0.43854238604817869 0.14589073244175521 0 -0.45484423530436641 0.1413820460941704 0 -0.44354814606676313 0.13148540671407641 0 -0.45919977597377748 0.12501556840405301 0 -0.45484423530436641 0.1413820460941704 0 -0.44354814606676313 0.13148540671407641 0 -0.45484423530436641 0.1413820460941704 0 -0.43226635295654908 0.14139834004896071 0 -0.44283509890741912 0.11722528371381991 0 -0.44354814606676313 0.13148540671407641 0 -0.43228040382599592 0.13003802633199429 0 -0.47742211765218362 0.1413657521393801 0 -0.45919977597377748 0.12501556840405301 0 -0.45484423530436641 0.1413820460941704 0 -0.47742211765218362 0.1413657521393801 0 -0.45484423530436641 0.1413820460941704 0 -0.46781099007613097 0.1562566969226078 0 -0.45448761704457918 0.16164569256895689 0 -0.45484423530436641 0.1413820460941704 0 -0.47742211765218362 0.1413657521393801 0 -0.46781099007613097 0.1562566969226078 0 -0.45484423530436641 0.1413820460941704 0 -0.47212136066428573 0.2342147364144174 0 -0.46721132042424712 0.24925519771351959 0 -0.481875181198271 0.26106578105968098 0 -0.47212136066428573 0.2342147364144174 0 -0.481875181198271 0.26106578105968098 0 -0.48853759105745842 0.2439447864997969 0 -0.47212136066428573 0.2342147364144174 0 -0.481875181198271 0.26106578105968098 0 -0.48853759105745842 0.2439447864997969 0 -0.5 0.23196067192098241 0 -0.5 0.25730635738704971 0 -0.48853759105745842 0.2439447864997969 0 -0.48578992980113839 0.22049220562254879 0 -0.5 0.23196067192098241 0 -0.48578992980113839 0.22049220562254879 0 -0.5 0.23196067192098241 0 -0.50000000000000089 0.20661498645491491 0 -0.48578992980113839 0.22049220562254879 0 -0.47212136066428573 0.2342147364144174 0 -0.46770254804770528 0.21306243962182181 0 -0.48853759105745842 0.2439447864997969 0 -0.48578992980113839 0.22049220562254879 0 -0.47212136066428573 0.2342147364144174 0 -0.48578992980113839 0.22049220562254879 0 -0.48637807903738012 0.19315561282336041 0 -0.46770254804770528 0.21306243962182181 0 -0.48578992980113839 0.22049220562254879 0 -0.50000000000000089 0.20661498645491491 0 -0.48637807903738012 0.19315561282336041 0 -0.50000000000000133 0.17863558544554539 0 -0.50000000000000089 0.20661498645491491 0 -0.48637807903738012 0.19315561282336041 0 -0.50000000000000089 0.20661498645491491 0 -0.48637807903738012 0.19315561282336041 0 -0.48637807903738012 0.19315561282336041 0 -0.46696386806935808 0.19369703155652229 0 -0.46770254804770528 0.21306243962182181 0 -0.47043284804097962 0.1774006526961586 0 -0.48637807903738012 0.19315561282336041 0 -0.46696386806935808 0.19369703155652229 0 -0.48637807903738012 0.19315561282336041 0 -0.46770254804770528 0.21306243962182181 0 -0.46696386806935808 0.19369703155652229 0 -0.44912727949048098 0.198611507136289 0 -0.46770254804770528 0.21306243962182181 0 -0.45329747597325909 0.1790590320082163 0 -0.46696386806935808 0.19369703155652229 0 -0.44912727949048098 0.198611507136289 0 -0.44912727949048098 0.198611507136289 0 -0.4386630123778496 0.2064594288294645 0 -0.43164943889380331 0.1987798015500841 0 -0.44912727949048098 0.198611507136289 0 -0.43164943889380331 0.1987798015500841 0 -0.43638920347514121 0.18267897146728829 0 -0.44912727949048098 0.198611507136289 0 -0.44625412711710588 0.21453338419049159 0 -0.4386630123778496 0.2064594288294645 0 -0.44625412711710588 0.21453338419049159 0 -0.4386630123778496 0.2064594288294645 0 -0.42762120401000819 0.21391302244099339 0 -0.44912727949048098 0.198611507136289 0 -0.44625412711710588 0.21453338419049159 0 -0.46770254804770528 0.21306243962182181 0 -0.44625412711710588 0.21453338419049159 0 -0.46770254804770528 0.21306243962182181 0 -0.44902701705803122 0.23296926642028379 0 -0.46770254804770528 0.21306243962182181 0 -0.44902701705803122 0.23296926642028379 0 -0.47212136066428573 0.2342147364144174 0 -0.46770254804770528 0.21306243962182181 0 -0.46095707207220188 0.23681796777012329 0 -0.46770254804770528 0.21306243962182181 0 -0.44902701705803122 0.23296926642028379 0 -0.46095707207220188 0.23681796777012329 0 -0.44902701705803122 0.23296926642028379 0 -0.42762120401000819 0.21391302244099339 0 -0.44625412711710588 0.21453338419049159 0 -0.44902701705803122 0.23296926642028379 0 -0.42762120401000819 0.21391302244099339 0 -0.44902701705803122 0.23296926642028379 0 -0.45124779077454091 0.24002273983123559 0 -0.44649242354006219 0.24156324590816111 0 -0.44902701705803122 0.23296926642028379 0 -0.45124779077454091 0.24002273983123559 0 -0.45433177921360551 0.23823266336329529 0 -0.44902701705803122 0.23296926642028379 0 -0.43682638659378958 0.2459742962434234 0 -0.43262783767659291 0.22875131952786931 0 -0.45124779077454091 0.24002273983123559 0 -0.44649242354006219 0.24156324590816111 0 -0.45000754002397908 0.24492410962795191 0 -0.44902701705803122 0.23296926642028379 0 -0.44649242354006219 0.24156324590816111 0 -0.43682638659378958 0.2459742962434234 0 -0.44902701705803122 0.23296926642028379 0 -0.43682638659378958 0.2459742962434234 0 -0.44649242354006219 0.24156324590816111 0 -0.44260514354074382 0.24663824283758209 0 -0.43682638659378958 0.2459742962434234 0 -0.4393666918235043 0.24905179489911561 0 -0.44260514354074382 0.24663824283758209 0 -0.43682638659378958 0.2459742962434234 0 -0.4393666918235043 0.24905179489911561 0 -0.43682638659378958 0.2459742962434234 0 -0.43634758690429709 0.25372271014442282 0 -0.4393666918235043 0.24905179489911561 0 -0.43682638659378958 0.2459742962434234 0 -0.44649242354006219 0.24156324590816111 0 -0.44260514354074382 0.24663824283758209 0 -0.44622232745536777 0.2466064645367877 0 -0.44260514354074382 0.24663824283758209 0 -0.44411788829099452 0.2499954126004221 0 -0.44622232745536777 0.2466064645367877 0 -0.4393666918235043 0.24905179489911561 0 -0.44260514354074382 0.24663824283758209 0 -0.44411788829099452 0.2499954126004221 0 -0.44411788829099452 0.2499954126004221 0 -0.44622232745536777 0.2466064645367877 0 -0.44874138078559411 0.2493336573642202 0 -0.44622232745536777 0.2466064645367877 0 -0.44874138078559411 0.2493336573642202 0 -0.45000754002397908 0.24492410962795191 0 -0.44649242354006219 0.24156324590816111 0 -0.44622232745536777 0.2466064645367877 0 -0.45000754002397908 0.24492410962795191 0 -0.45000754002397908 0.24492410962795191 0 -0.45304220878385493 0.2488068918788551 0 -0.45485714678914979 0.24304644599930139 0 -0.45124779077454091 0.24002273983123559 0 -0.45000754002397908 0.24492410962795191 0 -0.45485714678914979 0.24304644599930139 0 -0.44874138078559411 0.2493336573642202 0 -0.45000754002397908 0.24492410962795191 0 -0.45304220878385493 0.2488068918788551 0 -0.45922386110059349 0.2489550843189465 0 -0.45485714678914979 0.24304644599930139 0 -0.46095707207220188 0.23681796777012329 0 -0.45304220878385493 0.2488068918788551 0 -0.45922386110059349 0.2489550843189465 0 -0.45485714678914979 0.24304644599930139 0 -0.45124779077454091 0.24002273983123559 0 -0.45485714678914979 0.24304644599930139 0 -0.45433177921360551 0.23823266336329529 0 -0.45485714678914979 0.24304644599930139 0 -0.45433177921360551 0.23823266336329529 0 -0.46095707207220188 0.23681796777012329 0 -0.44902701705803122 0.23296926642028379 0 -0.45433177921360551 0.23823266336329529 0 -0.46095707207220188 0.23681796777012329 0 -0.47212136066428573 0.2342147364144174 0 -0.46095707207220188 0.23681796777012329 0 -0.46721132042424712 0.24925519771351959 0 -0.45922386110059349 0.2489550843189465 0 -0.46095707207220188 0.23681796777012329 0 -0.46721132042424712 0.24925519771351959 0 -0.41944578727453108 0.24964648624219371 0 -0.42378139198285208 0.23017070189226879 0 -0.41944578727453108 0.24964648624219371 0 -0.40315425932699223 0.2311562716413357 0 -0.40547633660232779 0.25186089584115789 0 -0.41944578727453108 0.24964648624219371 0 -0.42378139198285208 0.23017070189226879 0 -0.40315425932699223 0.2311562716413357 0 -0.43682638659378958 0.2459742962434234 0 -0.42378139198285208 0.23017070189226879 0 -0.43682638659378958 0.2459742962434234 0 -0.42378139198285208 0.23017070189226879 0 -0.43262783767659291 0.22875131952786931 0 -0.41944578727453108 0.24964648624219371 0 -0.43682638659378958 0.2459742962434234 0 -0.42378139198285208 0.23017070189226879 0 -0.44902701705803122 0.23296926642028379 0 -0.43262783767659291 0.22875131952786931 0 -0.42762120401000819 0.21391302244099339 0 -0.43262783767659291 0.22875131952786931 0 -0.4258831887382829 0.22072931064237619 0 -0.42762120401000819 0.21391302244099339 0 -0.42378139198285208 0.23017070189226879 0 -0.4258831887382829 0.22072931064237619 0 -0.42378139198285208 0.23017070189226879 0 -0.43262783767659291 0.22875131952786931 0 -0.4258831887382829 0.22072931064237619 0 -0.42378139198285208 0.23017070189226879 0 -0.40537356505354138 0.20787020746099269 0 -0.40315425932699223 0.2311562716413357 0 -0.42378139198285208 0.23017070189226879 0 -0.40537356505354138 0.20787020746099269 0 -0.42378139198285208 0.23017070189226879 0 -0.4258831887382829 0.22072931064237619 0 -0.40537356505354138 0.20787020746099269 0 -0.4258831887382829 0.22072931064237619 0 -0.42762120401000819 0.21391302244099339 0 -0.40537356505354138 0.20787020746099269 0 -0.42762120401000819 0.21391302244099339 0 -0.406215390961983 0.1948567784617056 0 -0.40537356505354138 0.20787020746099269 0 -0.42762120401000819 0.21391302244099339 0 -0.406215390961983 0.1948567784617056 0 -0.4386630123778496 0.2064594288294645 0 -0.42762120401000819 0.21391302244099339 0 -0.43164943889380331 0.1987798015500841 0 -0.42190855338249961 0.18776758344395081 0 -0.43164943889380331 0.1987798015500841 0 -0.43638920347514121 0.18267897146728829 0 -0.42762120401000819 0.21391302244099339 0 -0.43164943889380331 0.1987798015500841 0 -0.406215390961983 0.1948567784617056 0 -0.42190855338249961 0.18776758344395081 0 -0.43164943889380331 0.1987798015500841 0 -0.406215390961983 0.1948567784617056 0 -0.40537356505354138 0.20787020746099269 0 -0.38696573812423102 0.18556971302971631 0 -0.38562423579523802 0.20098997901758089 0 -0.40537356505354138 0.20787020746099269 0 -0.38696573812423102 0.18556971302971631 0 -0.406215390961983 0.1948567784617056 0 -0.40537356505354138 0.20787020746099269 0 -0.38696573812423102 0.18556971302971631 0 -0.38562423579523802 0.20098997901758089 0 -0.37995832200854468 0.21511549118242149 0 -0.37425811660173292 0.1891923548904306 0 -0.37995832200854468 0.21511549118242149 0 -0.37425811660173292 0.1891923548904306 0 -0.38562423579523802 0.20098997901758089 0 -0.38696573812423102 0.18556971302971631 0 -0.37425811660173292 0.1891923548904306 0 -0.38562423579523802 0.20098997901758089 0 -0.37995832200854468 0.21511549118242149 0 -0.39271033792715371 0.21480171935798639 0 -0.39271033792715371 0.21480171935798639 0 -0.40537356505354138 0.20787020746099269 0 -0.40315425932699223 0.2311562716413357 0 -0.38562423579523802 0.20098997901758089 0 -0.39271033792715371 0.21480171935798639 0 -0.40537356505354138 0.20787020746099269 0 -0.39271033792715371 0.21480171935798639 0 -0.40315425932699223 0.2311562716413357 0 -0.3898264306149134 0.22653387895307561 0 -0.40315425932699223 0.2311562716413357 0 -0.3898264306149134 0.22653387895307561 0 -0.38565852741535661 0.2410386274744124 0 -0.37995832200854468 0.21511549118242149 0 -0.38565852741535661 0.2410386274744124 0 -0.37261385182013268 0.22687576727696199 0 -0.37995832200854468 0.21511549118242149 0 -0.38565852741535661 0.2410386274744124 0 -0.37995832200854468 0.21511549118242149 0 -0.3898264306149134 0.22653387895307561 0 -0.38565852741535661 0.2410386274744124 0 -0.37995832200854468 0.21511549118242149 0 -0.39271033792715371 0.21480171935798639 0 -0.3898264306149134 0.22653387895307561 0 -0.38565852741535661 0.2410386274744124 0 -0.36467962509174767 0.2382464920731604 0 -0.37908994260607598 0.26034591691548697 0 -0.40315425932699223 0.2311562716413357 0 -0.38565852741535661 0.2410386274744124 0 -0.40547633660232779 0.25186089584115789 0 -0.42058677494402119 0.1542647732634039 0 -0.40438525319113272 0.15442109194092041 0 -0.40417050163700652 0.13912209422283989 0 -0.42058677494402119 0.1542647732634039 0 -0.40417050163700652 0.13912209422283989 0 -0.42171638231756808 0.14385200113530619 0 -0.42058677494402119 0.1542647732634039 0 -0.40417050163700652 0.13912209422283989 0 -0.4088763002353315 0.1250501283219701 0 -0.42071280500533492 0.13343146396794839 0 -0.40417050163700652 0.13912209422283989 0 -0.42171638231756808 0.14385200113530619 0 -0.42071280500533492 0.13343146396794839 0 -0.40417050163700652 0.13912209422283989 0 -0.42352797263845138 0.12088639188352809 0 -0.4088763002353315 0.1250501283219701 0 -0.42071280500533492 0.13343146396794839 0 -0.42171638231756808 0.14385200113530619 0 -0.42071280500533492 0.13343146396794839 0 -0.43226635295654908 0.14139834004896071 0 -0.42071280500533492 0.13343146396794839 0 -0.43228040382599592 0.13003802633199429 0 -0.43226635295654908 0.14139834004896071 0 -0.42352797263845138 0.12088639188352809 0 -0.42071280500533492 0.13343146396794839 0 -0.43228040382599592 0.13003802633199429 0 -0.44354814606676313 0.13148540671407641 0 -0.43228040382599592 0.13003802633199429 0 -0.43226635295654908 0.14139834004896071 0 -0.43854238604817869 0.14589073244175521 0 -0.43226635295654908 0.14139834004896071 0 -0.43084547704492893 0.15104333417337801 0 -0.42171638231756808 0.14385200113530619 0 -0.43226635295654908 0.14139834004896071 0 -0.43084547704492893 0.15104333417337801 0 -0.42171638231756808 0.14385200113530619 0 -0.42058677494402119 0.1542647732634039 0 -0.43084547704492893 0.15104333417337801 0 -0.43842316218644373 0.1552029821738839 0 -0.43854238604817869 0.14589073244175521 0 -0.43084547704492893 0.15104333417337801 0 -0.43842316218644373 0.1552029821738839 0 -0.43084547704492893 0.15104333417337801 0 -0.43654399178686348 0.16458172316849909 0 -0.42058677494402119 0.1542647732634039 0 -0.43084547704492893 0.15104333417337801 0 -0.43654399178686348 0.16458172316849909 0 -0.42058677494402119 0.1542647732634039 0 -0.43654399178686348 0.16458172316849909 0 -0.4213309424284935 0.1713316320444935 0 -0.42190855338249961 0.18776758344395081 0 -0.43638920347514121 0.18267897146728829 0 -0.4213309424284935 0.1713316320444935 0 -0.43654399178686348 0.16458172316849909 0 -0.43638920347514121 0.18267897146728829 0 -0.4213309424284935 0.1713316320444935 0 -0.42190855338249961 0.18776758344395081 0 -0.4213309424284935 0.1713316320444935 0 -0.40489742985533422 0.1706883612404628 0 -0.42190855338249961 0.18776758344395081 0 -0.406215390961983 0.1948567784617056 0 -0.40489742985533422 0.1706883612404628 0 -0.42190855338249961 0.18776758344395081 0 -0.40489742985533422 0.1706883612404628 0 -0.42058677494402119 0.1542647732634039 0 -0.40489742985533422 0.1706883612404628 0 -0.40438525319113272 0.15442109194092041 0 -0.42058677494402119 0.1542647732634039 0 -0.4213309424284935 0.1713316320444935 0 -0.40489742985533422 0.1706883612404628 0 -0.40489742985533422 0.1706883612404628 0 -0.38788630632816878 0.1536091390369749 0 -0.40438525319113272 0.15442109194092041 0 -0.40489742985533422 0.1706883612404628 0 -0.38197692364141889 0.16409881643130281 0 -0.38788630632816878 0.1536091390369749 0 -0.40489742985533422 0.1706883612404628 0 -0.38788630632816878 0.1536091390369749 0 -0.406215390961983 0.1948567784617056 0 -0.38480957791395781 0.17580053448241781 0 -0.406215390961983 0.1948567784617056 0 -0.40489742985533422 0.1706883612404628 0 -0.38480957791395781 0.17580053448241781 0 -0.406215390961983 0.1948567784617056 0 -0.38480957791395781 0.17580053448241781 0 -0.38696573812423102 0.18556971302971631 0 -0.38480957791395781 0.17580053448241781 0 -0.38696573812423102 0.18556971302971631 0 -0.36855791119492087 0.16326921859843971 0 -0.38696573812423102 0.18556971302971631 0 -0.36855791119492087 0.16326921859843971 0 -0.37425811660173292 0.1891923548904306 0 -0.38696573812423102 0.18556971302971631 0 -0.36855791119492087 0.16326921859843971 0 -0.38480957791395781 0.17580053448241781 0 -0.38197692364141889 0.16409881643130281 0 -0.36855791119492087 0.16326921859843971 0 -0.40489742985533422 0.1706883612404628 0 -0.38480957791395781 0.17580053448241781 0 -0.38197692364141889 0.16409881643130281 0 -0.38197692364141889 0.16409881643130281 0 -0.37844917833874958 0.1542918563309042 0 -0.38788630632816878 0.1536091390369749 0 -0.38197692364141889 0.16409881643130281 0 -0.37844917833874958 0.1542918563309042 0 -0.37145477127665899 0.15824745375340429 0 -0.38788630632816878 0.1536091390369749 0 -0.38767155477404269 0.1383101413188946 0 -0.3708751828010034 0.136529916833487 0 -0.37844917833874958 0.1542918563309042 0 -0.38788630632816878 0.1536091390369749 0 -0.3708751828010034 0.136529916833487 0 -0.38788630632816878 0.1536091390369749 0 -0.3708751828010034 0.136529916833487 0 -0.38788630632816878 0.1536091390369749 0 -0.40417050163700652 0.13912209422283989 0 -0.38767155477404269 0.1383101413188946 0 -0.38788630632816878 0.1536091390369749 0 -0.40438525319113272 0.15442109194092041 0 -0.40417050163700652 0.13912209422283989 0 -0.38775422832999179 0.123979415182276 0 -0.40417050163700652 0.13912209422283989 0 -0.38775422832999179 0.123979415182276 0 -0.4088763002353315 0.1250501283219701 0 -0.40417050163700652 0.13912209422283989 0 -0.38775422832999179 0.123979415182276 0 -0.40417050163700652 0.13912209422283989 0 -0.38767155477404269 0.1383101413188946 0 -0.38775422832999179 0.123979415182276 0 -0.3708751828010034 0.136529916833487 0 -0.38775422832999179 0.123979415182276 0 -0.38767155477404269 0.1383101413188946 0 -0.3708751828010034 0.136529916833487 0 -0.38775422832999179 0.123979415182276 0 -0.3708751828010034 0.136529916833487 0 -0.3705532687007751 0.1243771828620189 0 -0.3708751828010034 0.136529916833487 0 -0.3667435145897493 0.13238170878959091 0 -0.3705532687007751 0.1243771828620189 0 -0.3708751828010034 0.136529916833487 0 -0.3667435145897493 0.13238170878959091 0 -0.3708751828010034 0.136529916833487 0 -0.36293798217248191 0.13627576772716979 0 -0.35739100425605902 0.1465561475704647 0 -0.3708751828010034 0.136529916833487 0 -0.36293798217248191 0.13627576772716979 0 -0.3667435145897493 0.13238170878959091 0 -0.36293798217248191 0.13627576772716979 0 -0.3667435145897493 0.13238170878959091 0 -0.36200243741567639 0.1316591441523276 0 -0.36293798217248191 0.13627576772716979 0 -0.36200243741567639 0.1316591441523276 0 -0.35767777179992127 0.13425192128997909 0 -0.36377622842807927 0.1265985245479177 0 -0.3667435145897493 0.13238170878959091 0 -0.3705532687007751 0.1243771828620189 0 -0.36377622842807927 0.1265985245479177 0 -0.3667435145897493 0.13238170878959091 0 -0.36200243741567639 0.1316591441523276 0 -0.36377622842807927 0.1265985245479177 0 -0.36200243741567639 0.1316591441523276 0 -0.35772781526045833 0.12831877189583021 0 -0.35767777179992127 0.13425192128997909 0 -0.34790697226168998 0.1271606124109535 0 -0.35739100425605902 0.1465561475704647 0 -0.35772781526045833 0.12831877189583021 0 -0.35767777179992127 0.13425192128997909 0 -0.34790697226168998 0.1271606124109535 0 -0.34790697226168998 0.1271606124109535 0 -0.35739100425605902 0.1465561475704647 0 -0.35772781526045833 0.12831877189583021 0 -0.34790697226168998 0.1271606124109535 0 -0.35409820865124231 0.1220774858810534 0 -0.34790697226168998 0.1271606124109535 0 -0.35739100425605902 0.1465561475704647 0 -0.3424281453602408 0.1316138418000519 0 -0.35576201087674708 0.14776739402759789 0 -0.3424281453602408 0.1316138418000519 0 -0.36200243741567639 0.1316591441523276 0 -0.35772781526045833 0.12831877189583021 0 -0.35767777179992127 0.13425192128997909 0 -0.36293798217248191 0.13627576772716979 0 -0.35767777179992127 0.13425192128997909 0 -0.35739100425605902 0.1465561475704647 0 -0.34550945062762828 0.1431163897658074 0 -0.35576201087674708 0.14776739402759789 0 -0.3424281453602408 0.1316138418000519 0 -0.35739100425605902 0.1465561475704647 0 -0.35576201087674708 0.14776739402759789 0 -0.3424281453602408 0.1316138418000519 0 -0.34857983485259908 0.15310773817772341 0 -0.34550945062762828 0.1431163897658074 0 -0.35576201087674708 0.14776739402759789 0 -0.35739100425605902 0.1465561475704647 0 -0.35576201087674708 0.14776739402759789 0 -0.34857983485259908 0.15310773817772341 0 -0.36207756842887329 0.15614051213662239 0 -0.35739100425605902 0.1465561475704647 0 -0.35576201087674708 0.14776739402759789 0 -0.36121142423859981 0.15436918427673529 0 -0.34857983485259908 0.15310773817772341 0 -0.36121142423859981 0.15436918427673529 0 -0.36207756842887329 0.15614051213662239 0 -0.35576201087674708 0.14776739402759789 0 -0.36121142423859981 0.15436918427673529 0 -0.34857983485259908 0.15310773817772341 0 -0.35576201087674708 0.14776739402759789 0 -0.36121142423859981 0.15436918427673529 0 -0.35739100425605902 0.1465561475704647 0 -0.36121142423859981 0.15436918427673529 0 -0.34857983485259908 0.15310773817772341 0 -0.35576201087674708 0.14776739402759789 0 -0.37844917833874958 0.1542918563309042 0 -0.3708751828010034 0.136529916833487 0 -0.37129135027631649 0.15139577157052769 0 -0.35739100425605902 0.1465561475704647 0 -0.36121142423859981 0.15436918427673529 0 -0.3627589190569932 0.15003234754960071 0 -0.36121142423859981 0.15436918427673529 0 -0.36207756842887329 0.15614051213662239 0 -0.36471503894833152 0.15539175712275671 0 -0.36121142423859981 0.15436918427673529 0 -0.36207756842887329 0.15614051213662239 0 -0.36121142423859981 0.15436918427673529 0 -0.3627589190569932 0.15003234754960071 0 -0.36526273259351211 0.15258932448123 0 -0.3627589190569932 0.15003234754960071 0 -0.36526273259351211 0.15258932448123 0 -0.36717051513980248 0.14661473386997281 0 -0.36121142423859981 0.15436918427673529 0 -0.36526273259351211 0.15258932448123 0 -0.36471503894833152 0.15539175712275671 0 -0.36526273259351211 0.15258932448123 0 -0.36471503894833152 0.15539175712275671 0 -0.36724572858112853 0.15730173386592999 0 -0.3708751828010034 0.136529916833487 0 -0.35739100425605902 0.1465561475704647 0 -0.3708751828010034 0.136529916833487 0 -0.35739100425605902 0.1465561475704647 0 -0.36717051513980248 0.14661473386997281 0 -0.35739100425605902 0.1465561475704647 0 -0.3627589190569932 0.15003234754960071 0 -0.36717051513980248 0.14661473386997281 0 -0.3708751828010034 0.136529916833487 0 -0.36717051513980248 0.14661473386997281 0 -0.37129135027631649 0.15139577157052769 0 -0.37129135027631649 0.15139577157052769 0 -0.37145477127665899 0.15824745375340429 0 -0.36724572858112853 0.15730173386592999 0 -0.36526273259351211 0.15258932448123 0 -0.37129135027631649 0.15139577157052769 0 -0.36724572858112853 0.15730173386592999 0 -0.36526273259351211 0.15258932448123 0 -0.36717051513980248 0.14661473386997281 0 -0.37129135027631649 0.15139577157052769 0 -0.37844917833874958 0.1542918563309042 0 -0.37129135027631649 0.15139577157052769 0 -0.37145477127665899 0.15824745375340429 0 -0.38197692364141889 0.16409881643130281 0 -0.37145477127665899 0.15824745375340429 0 -0.36855791119492087 0.16326921859843971 0 -0.37145477127665899 0.15824745375340429 0 -0.36724572858112853 0.15730173386592999 0 -0.37145477127665899 0.15824745375340429 0 -0.36724572858112853 0.15730173386592999 0 -0.36855791119492087 0.16326921859843971 0 -0.36724572858112853 0.15730173386592999 0 -0.36855791119492087 0.16326921859843971 0 -0.36855791119492087 0.16326921859843971 0 -0.3608099877082474 0.1634903139971928 0 -0.35585179479584389 0.1712717931420544 0 -0.3608099877082474 0.1634903139971928 0 -0.36302606994642472 0.15808026672026601 0 -0.3558041748958003 0.16133997752801091 0 -0.36207756842887329 0.15614051213662239 0 -0.36302606994642472 0.15808026672026601 0 -0.3558041748958003 0.16133997752801091 0 -0.36207756842887329 0.15614051213662239 0 -0.36302606994642472 0.15808026672026601 0 -0.36207756842887329 0.15614051213662239 0 -0.36471503894833152 0.15539175712275671 0 -0.36724572858112853 0.15730173386592999 0 -0.36207756842887329 0.15614051213662239 0 -0.36855791119492087 0.16326921859843971 0 -0.36207756842887329 0.15614051213662239 0 -0.36855791119492087 0.16326921859843971 0 -0.36302606994642472 0.15808026672026601 0 -0.36207756842887329 0.15614051213662239 0 -0.36724572858112853 0.15730173386592999 0 -0.36855791119492087 0.16326921859843971 0 -0.36207756842887329 0.15614051213662239 0 -0.36724572858112853 0.15730173386592999 0 -0.36855791119492087 0.16326921859843971 0 -0.3608099877082474 0.1634903139971928 0 -0.36302606994642472 0.15808026672026601 0 -0.36855791119492087 0.16326921859843971 0 -0.3602220212238374 0.18375274496229599 0 -0.35585179479584389 0.1712717931420544 0 -0.36855791119492087 0.16326921859843971 0 -0.3602220212238374 0.18375274496229599 0 -0.37425811660173292 0.1891923548904306 0 -0.36855791119492087 0.16326921859843971 0 -0.37425811660173292 0.1891923548904306 0 -0.3602220212238374 0.18375274496229599 0 -0.3479213406404712 0.18315626958000139 0 -0.3503734095017183 0.19551375753915351 0 -0.3602220212238374 0.18375274496229599 0 -0.3479213406404712 0.18315626958000139 0 -0.35585179479584389 0.1712717931420544 0 -0.3479213406404712 0.18315626958000139 0 -0.35585179479584389 0.1712717931420544 0 -0.34090306309072049 0.17269376841653411 0 -0.34857983485259908 0.15310773817772341 0 -0.36207756842887329 0.15614051213662239 0 -0.3558041748958003 0.16133997752801091 0 -0.3608099877082474 0.1634903139971928 0 -0.3558041748958003 0.16133997752801091 0 -0.35585179479584389 0.1712717931420544 0 -0.3558041748958003 0.16133997752801091 0 -0.35585179479584389 0.1712717931420544 0 -0.34736919016316908 0.16421852331266701 0 -0.35585179479584389 0.1712717931420544 0 -0.34736919016316908 0.16421852331266701 0 -0.34090306309072049 0.17269376841653411 0 -0.34857983485259908 0.15310773817772341 0 -0.34736919016316908 0.16421852331266701 0 -0.33570708318088149 0.16267933929901179 0 -0.34857983485259908 0.15310773817772341 0 -0.3558041748958003 0.16133997752801091 0 -0.34736919016316908 0.16421852331266701 0 -0.34857983485259908 0.15310773817772341 0 -0.33570708318088149 0.16267933929901179 0 -0.33570708318088149 0.16267933929901179 0 -0.34090306309072049 0.17269376841653411 0 -0.33570708318088149 0.16267933929901179 0 -0.34090306309072049 0.17269376841653411 0 -0.33395288915397708 0.1723338646075615 0 -0.34736919016316908 0.16421852331266701 0 -0.33570708318088149 0.16267933929901179 0 -0.34090306309072049 0.17269376841653411 0 -0.33146306408959919 0.16583500165689899 0 -0.33570708318088149 0.16267933929901179 0 -0.33395288915397708 0.1723338646075615 0 -0.33146306408959919 0.16583500165689899 0 -0.33570708318088149 0.16267933929901179 0 -0.33146306408959919 0.16583500165689899 0 -0.33395288915397708 0.1723338646075615 0 -0.32332062645002291 0.17098858346296991 0 -0.33146306408959919 0.16583500165689899 0 -0.32852521304982069 0.1574522140256043 0 -0.33570708318088149 0.16267933929901179 0 -0.3479213406404712 0.18315626958000139 0 -0.33758279526928742 0.18110012711757939 0 -0.34187261794067553 0.1905177600710955 0 -0.33758279526928742 0.18110012711757939 0 -0.34187261794067553 0.1905177600710955 0 -0.33128513623978262 0.18932269350770201 0 -0.3479213406404712 0.18315626958000139 0 -0.33758279526928742 0.18110012711757939 0 -0.34090306309072049 0.17269376841653411 0 -0.33758279526928742 0.18110012711757939 0 -0.34090306309072049 0.17269376841653411 0 -0.33395288915397708 0.1723338646075615 0 -0.32932894607760238 0.1783618288654874 0 -0.33395288915397708 0.1723338646075615 0 -0.32332062645002291 0.17098858346296991 0 -0.33758279526928742 0.18110012711757939 0 -0.32932894607760238 0.1783618288654874 0 -0.33395288915397708 0.1723338646075615 0 -0.33758279526928742 0.18110012711757939 0 -0.32932894607760238 0.1783618288654874 0 -0.33128513623978262 0.18932269350770201 0 -0.32932894607760238 0.1783618288654874 0 -0.32332062645002291 0.17098858346296991 0 -0.31239913239558609 0.18304174629206321 0 -0.32332062645002291 0.17098858346296991 0 -0.31520710284454317 0.16464098010021411 0 -0.31239913239558609 0.18304174629206321 0 -0.32932894607760238 0.1783618288654874 0 -0.33128513623978262 0.18932269350770201 0 -0.31239913239558609 0.18304174629206321 0 -0.31520710284454317 0.16464098010021411 0 -0.31239913239558609 0.18304174629206321 0 -0.32330621594549752 0.16103139863081051 0 -0.31520710284454317 0.16464098010021411 0 -0.3180150732935017 0.14624021390836531 0 -0.33146306408959919 0.16583500165689899 0 -0.32852521304982069 0.1574522140256043 0 -0.32330621594549752 0.16103139863081051 0 -0.33146306408959919 0.16583500165689899 0 -0.32330621594549752 0.16103139863081051 0 -0.32332062645002291 0.17098858346296991 0 -0.32330621594549752 0.16103139863081051 0 -0.32332062645002291 0.17098858346296991 0 -0.31520710284454317 0.16464098010021411 0 -0.31520710284454317 0.16464098010021411 0 -0.3180150732935017 0.14624021390836531 0 -0.3180150732935017 0.14624021390836531 0 -0.32009745676396362 0.1325942542879579 0 -0.32838677709074737 0.14857060760060689 0 -0.31520710284454317 0.16464098010021411 0 -0.3180150732935017 0.14624021390836531 0 -0.30476751359208859 0.15553519760123621 0 -0.32852521304982069 0.1574522140256043 0 -0.32330621594549752 0.16103139863081051 0 -0.3180150732935017 0.14624021390836531 0 -0.32852521304982069 0.1574522140256043 0 -0.3180150732935017 0.14624021390836531 0 -0.32838677709074737 0.14857060760060689 0 -0.3180150732935017 0.14624021390836531 0 -0.32838677709074737 0.14857060760060689 0 -0.32009745676396362 0.1325942542879579 0 -0.30687649667949612 0.12997411277591769 0 -0.31191079011188461 0.11681574969043509 0 -0.32009745676396362 0.1325942542879579 0 -0.33526781142092438 0.1399765850578536 0 -0.32838677709074737 0.14857060760060689 0 -0.3180150732935017 0.14624021390836531 0 -0.32009745676396362 0.1325942542879579 0 -0.3180150732935017 0.14624021390836531 0 -0.32009745676396362 0.1325942542879579 0 -0.31162932844603258 0.1378361044297422 0 -0.32009745676396362 0.1325942542879579 0 -0.33105715173259032 0.12742000821993699 0 -0.32909427984373429 0.11546028957250611 0 -0.32009745676396362 0.1325942542879579 0 -0.32838677709074737 0.14857060760060689 0 -0.32009745676396362 0.1325942542879579 0 -0.30687649667949612 0.12997411277591769 0 -0.31162932844603258 0.1378361044297422 0 -0.32009745676396362 0.1325942542879579 0 -0.33526781142092438 0.1399765850578536 0 -0.33105715173259032 0.12742000821993699 0 -0.34790697226168998 0.1271606124109535 0 -0.3424281453602408 0.1316138418000519 0 -0.33880237102199379 0.1193046095610088 0 -0.33526781142092438 0.1399765850578536 0 -0.33105715173259032 0.12742000821993699 0 -0.3424281453602408 0.1316138418000519 0 -0.34550945062762828 0.1431163897658074 0 -0.33526781142092438 0.1399765850578536 0 -0.3424281453602408 0.1316138418000519 0 -0.34857983485259908 0.15310773817772341 0 -0.34550945062762828 0.1431163897658074 0 -0.33526781142092438 0.1399765850578536 0 -0.34857983485259908 0.15310773817772341 0 -0.32838677709074737 0.14857060760060689 0 -0.34857983485259908 0.15310773817772341 0 -0.33570708318088149 0.16267933929901179 0 -0.32838677709074737 0.14857060760060689 0 -0.34857983485259908 0.15310773817772341 0 -0.33526781142092438 0.1399765850578536 0 -0.32838677709074737 0.14857060760060689 0 -0.33570708318088149 0.16267933929901179 0 -0.32838677709074737 0.14857060760060689 0 -0.32852521304982069 0.1574522140256043 0 -0.33570708318088149 0.16267933929901179 0 -0.32838677709074737 0.14857060760060689 0 -0.34792270048794438 0.24647785674207751 0 -0.34729448430824239 0.22677535373163571 0 -0.33664498083700989 0.23772139590660191 0 -0.34792270048794438 0.24647785674207751 0 -0.36467962509174767 0.2382464920731604 0 -0.36350651679038692 0.26172228249429669 0 -0.34792270048794438 0.24647785674207751 0 -0.36467962509174767 0.2382464920731604 0 -0.34729448430824239 0.22677535373163571 0 -0.38565852741535661 0.2410386274744124 0 -0.36467962509174767 0.2382464920731604 0 -0.37261385182013268 0.22687576727696199 0 -0.36467962509174767 0.2382464920731604 0 -0.36350651679038692 0.26172228249429669 0 -0.36467962509174767 0.2382464920731604 0 -0.37261385182013268 0.22687576727696199 0 -0.36585273339310859 0.21477070165202411 0 -0.36467962509174767 0.2382464920731604 0 -0.36585273339310859 0.21477070165202411 0 -0.37995832200854468 0.21511549118242149 0 -0.37261385182013268 0.22687576727696199 0 -0.36585273339310859 0.21477070165202411 0 -0.36467962509174767 0.2382464920731604 0 -0.34729448430824239 0.22677535373163571 0 -0.36585273339310859 0.21477070165202411 0 -0.34729448430824239 0.22677535373163571 0 -0.35020945305863749 0.20881989920244151 0 -0.33568189250304192 0.21322075777300761 0 -0.34729448430824239 0.22677535373163571 0 -0.35020945305863749 0.20881989920244151 0 -0.36585273339310859 0.21477070165202411 0 -0.37995832200854468 0.21511549118242149 0 -0.36585273339310859 0.21477070165202411 0 -0.36363095716611749 0.20151793485477831 0 -0.35020945305863749 0.20881989920244151 0 -0.36585273339310859 0.21477070165202411 0 -0.36363095716611749 0.20151793485477831 0 -0.37995832200854468 0.21511549118242149 0 -0.36363095716611749 0.20151793485477831 0 -0.37425811660173292 0.1891923548904306 0 -0.3602220212238374 0.18375274496229599 0 -0.36363095716611749 0.20151793485477831 0 -0.37425811660173292 0.1891923548904306 0 -0.3602220212238374 0.18375274496229599 0 -0.36363095716611749 0.20151793485477831 0 -0.3503734095017183 0.19551375753915351 0 -0.35020945305863749 0.20881989920244151 0 -0.36363095716611749 0.20151793485477831 0 -0.3503734095017183 0.19551375753915351 0 -0.35020945305863749 0.20881989920244151 0 -0.3503734095017183 0.19551375753915351 0 -0.33889309151490549 0.20044723325904371 0 -0.3479213406404712 0.18315626958000139 0 -0.3503734095017183 0.19551375753915351 0 -0.34187261794067553 0.1905177600710955 0 -0.34187261794067553 0.1905177600710955 0 -0.33889309151490549 0.20044723325904371 0 -0.33128513623978262 0.18932269350770201 0 -0.3503734095017183 0.19551375753915351 0 -0.34187261794067553 0.1905177600710955 0 -0.33889309151490549 0.20044723325904371 0 -0.33889309151490549 0.20044723325904371 0 -0.33128513623978262 0.18932269350770201 0 -0.32519053336727682 0.20021548401668851 0 -0.33128513623978262 0.18932269350770201 0 -0.32519053336727682 0.20021548401668851 0 -0.31239913239558609 0.18304174629206321 0 -0.31278495583944238 0.2015431114681128 0 -0.32519053336727682 0.20021548401668851 0 -0.31239913239558609 0.18304174629206321 0 -0.32519053336727682 0.20021548401668851 0 -0.32110718221666268 0.2136849340474189 0 -0.33568189250304192 0.21322075777300761 0 -0.31278495583944238 0.2015431114681128 0 -0.32110718221666268 0.2136849340474189 0 -0.30833051334952422 0.2139690656276835 0 -0.31278495583944238 0.2015431114681128 0 -0.32519053336727682 0.20021548401668851 0 -0.32110718221666268 0.2136849340474189 0 -0.32110718221666268 0.2136849340474189 0 -0.31672311052831897 0.22678541385518919 0 -0.30833051334952422 0.2139690656276835 0 -0.32110718221666268 0.2136849340474189 0 -0.33568189250304192 0.21322075777300761 0 -0.33035174492619762 0.2262979449371533 0 -0.33889309151490549 0.20044723325904371 0 -0.32519053336727682 0.20021548401668851 0 -0.33568189250304192 0.21322075777300761 0 -0.35020945305863749 0.20881989920244151 0 -0.33889309151490549 0.20044723325904371 0 -0.33568189250304192 0.21322075777300761 0 -0.34729448430824239 0.22677535373163571 0 -0.33035174492619762 0.2262979449371533 0 -0.33664498083700989 0.23772139590660191 0 -0.34729448430824239 0.22677535373163571 0 -0.33568189250304192 0.21322075777300761 0 -0.33035174492619762 0.2262979449371533 0 -0.33035174492619762 0.2262979449371533 0 -0.32458234881556453 0.23880522314113989 0 -0.33664498083700989 0.23772139590660191 0 -0.32110718221666268 0.2136849340474189 0 -0.33035174492619762 0.2262979449371533 0 -0.31672311052831897 0.22678541385518919 0 -0.31672311052831897 0.22678541385518919 0 -0.32458234881556453 0.23880522314113989 0 -0.31232279981114608 0.23745817492691779 0 -0.33035174492619762 0.2262979449371533 0 -0.31672311052831897 0.22678541385518919 0 -0.32458234881556453 0.23880522314113989 0 -0.32458234881556453 0.23880522314113989 0 -0.31798041098099572 0.24980595228124089 0 -0.31232279981114608 0.23745817492691779 0 -0.32458234881556453 0.23880522314113989 0 -0.31798041098099572 0.24980595228124089 0 -0.33307362564710052 0.25025060098100299 0 -0.32458234881556453 0.23880522314113989 0 -0.33664498083700989 0.23772139590660191 0 -0.33307362564710052 0.25025060098100299 0 -0.34792270048794438 0.24647785674207751 0 -0.33664498083700989 0.23772139590660191 0 -0.33307362564710052 0.25025060098100299 0 -0.28617206123379552 0.24092370483575989 0 -0.27397103192233668 0.24021079954307489 0 -0.28597606986012142 0.25131144330553112 0 -0.28617206123379552 0.24092370483575989 0 -0.28710063086969262 0.22859804583349769 0 -0.27397103192233668 0.24021079954307489 0 -0.29764051228303129 0.24357453066093579 0 -0.28710063086969262 0.22859804583349769 0 -0.28617206123379552 0.24092370483575989 0 -0.29764051228303129 0.24357453066093579 0 -0.28710063086969262 0.22859804583349769 0 -0.28617206123379552 0.24092370483575989 0 -0.29764051228303129 0.24357453066093579 0 -0.28597606986012142 0.25131144330553112 0 -0.31798041098099572 0.24980595228124089 0 -0.29764051228303129 0.24357453066093579 0 -0.31232279981114608 0.23745817492691779 0 -0.29764051228303129 0.24357453066093579 0 -0.31232279981114608 0.23745817492691779 0 -0.30642967449698899 0.22843737014432181 0 -0.29764051228303129 0.24357453066093579 0 -0.30642967449698899 0.22843737014432181 0 -0.29719561993484161 0.2189685557197372 0 -0.29764051228303129 0.24357453066093579 0 -0.29719561993484161 0.2189685557197372 0 -0.31672311052831897 0.22678541385518919 0 -0.31232279981114608 0.23745817492691779 0 -0.30642967449698899 0.22843737014432181 0 -0.31672311052831897 0.22678541385518919 0 -0.30642967449698899 0.22843737014432181 0 -0.30833051334952422 0.2139690656276835 0 -0.30642967449698899 0.22843737014432181 0 -0.29719561993484161 0.2189685557197372 0 -0.30833051334952422 0.2139690656276835 0 -0.29719561993484161 0.2189685557197372 0 -0.28710063086969262 0.22859804583349769 0 -0.28695026648095451 0.2166555380592749 0 -0.29764051228303129 0.24357453066093579 0 -0.29719561993484161 0.2189685557197372 0 -0.28710063086969262 0.22859804583349769 0 -0.28710063086969262 0.22859804583349769 0 -0.27656074945635523 0.2136215610060585 0 -0.28710063086969262 0.22859804583349769 0 -0.28695026648095451 0.2166555380592749 0 -0.27656074945635523 0.2136215610060585 0 -0.29719561993484161 0.2189685557197372 0 -0.28694406566292929 0.20543398967780571 0 -0.29675072758665139 0.19436258077853871 0 -0.28695026648095451 0.2166555380592749 0 -0.28694406566292929 0.20543398967780571 0 -0.27656074945635523 0.2136215610060585 0 -0.29719561993484161 0.2189685557197372 0 -0.28695026648095451 0.2166555380592749 0 -0.28694406566292929 0.20543398967780571 0 -0.29719561993484161 0.2189685557197372 0 -0.30833051334952422 0.2139690656276835 0 -0.29675072758665139 0.19436258077853871 0 -0.31278495583944238 0.2015431114681128 0 -0.30833051334952422 0.2139690656276835 0 -0.29675072758665139 0.19436258077853871 0 -0.29719561993484161 0.2189685557197372 0 -0.29675072758665139 0.19436258077853871 0 -0.31278495583944238 0.2015431114681128 0 -0.29675072758665139 0.19436258077853871 0 -0.31239913239558609 0.18304174629206321 0 -0.2864209978914446 0.19061850214738929 0 -0.27810210786313899 0.19779607200558089 0 -0.27964346626992148 0.18197058300510299 0 -0.28694406566292929 0.20543398967780571 0 -0.29675072758665139 0.19436258077853871 0 -0.2864209978914446 0.19061850214738929 0 -0.28694406566292929 0.20543398967780571 0 -0.2864209978914446 0.19061850214738929 0 -0.27810210786313899 0.19779607200558089 0 -0.26543352259899239 0.1978104965675315 0 -0.27196951533294023 0.17815081757338441 0 -0.27143925098386762 0.18883453331357489 0 -0.26543352259899239 0.1978104965675315 0 -0.27196951533294023 0.17815081757338441 0 -0.27810210786313899 0.19779607200558089 0 -0.27143925098386762 0.18883453331357489 0 -0.27964346626992148 0.18197058300510299 0 -0.27810210786313899 0.19779607200558089 0 -0.27964346626992148 0.18197058300510299 0 -0.27810210786313899 0.19779607200558089 0 -0.27194310852753562 0.19504046588241661 0 -0.27143925098386762 0.18883453331357489 0 -0.27810210786313899 0.19779607200558089 0 -0.26841615228945848 0.19909532453944781 0 -0.27194310852753562 0.19504046588241661 0 -0.27810210786313899 0.19779607200558089 0 -0.26741841660369642 0.2006309016346961 0 -0.26841615228945848 0.19909532453944781 0 -0.26841615228945848 0.19909532453944781 0 -0.26930800859996362 0.19519520507574259 0 -0.27194310852753562 0.19504046588241661 0 -0.26741841660369642 0.2006309016346961 0 -0.26841615228945848 0.19909532453944781 0 -0.26741841660369642 0.2006309016346961 0 -0.26543352259899239 0.1978104965675315 0 -0.26841615228945848 0.19909532453944781 0 -0.26930800859996362 0.19519520507574259 0 -0.26543352259899239 0.1978104965675315 0 -0.26741841660369642 0.2006309016346961 0 -0.26841615228945848 0.19909532453944781 0 -0.26543352259899239 0.1978104965675315 0 -0.26930800859996362 0.19519520507574259 0 -0.27143925098386762 0.18883453331357489 0 -0.26543352259899239 0.1978104965675315 0 -0.26930800859996362 0.19519520507574259 0 -0.27194310852753562 0.19504046588241661 0 -0.27143925098386762 0.18883453331357489 0 -0.25838862131867463 0.18780015081525619 0 -0.26543352259899239 0.1978104965675315 0 -0.26285706375597567 0.17970739331456059 0 -0.25838862131867463 0.18780015081525619 0 -0.25719659366146591 0.19567795124711579 0 -0.26543352259899239 0.1978104965675315 0 -0.25838862131867463 0.18780015081525619 0 -0.26543352259899239 0.1978104965675315 0 -0.25838862131867463 0.18780015081525619 0 -0.25719659366146591 0.19567795124711579 0 -0.24531288127584511 0.19295358905630319 0 -0.25175489277710938 0.200311357044932 0 -0.25719659366146591 0.19567795124711579 0 -0.24531288127584511 0.19295358905630319 0 -0.25175489277710938 0.200311357044932 0 -0.25816721155626859 0.20225113740596151 0 -0.25268540181145172 0.20627527203672269 0 -0.25175489277710938 0.200311357044932 0 -0.25719659366146591 0.19567795124711579 0 -0.25816721155626859 0.20225113740596151 0 -0.25719659366146591 0.19567795124711579 0 -0.25816721155626859 0.20225113740596151 0 -0.26543352259899239 0.1978104965675315 0 -0.26741841660369642 0.2006309016346961 0 -0.26543352259899239 0.1978104965675315 0 -0.26143359923836812 0.2098419067101063 0 -0.26741841660369642 0.2006309016346961 0 -0.26143359923836812 0.2098419067101063 0 -0.26543352259899239 0.1978104965675315 0 -0.26143359923836812 0.2098419067101063 0 -0.25816721155626859 0.20225113740596151 0 -0.26543352259899239 0.1978104965675315 0 -0.26143359923836812 0.2098419067101063 0 -0.26143359923836812 0.2098419067101063 0 -0.24980344990068479 0.22774142778784581 0 -0.24812016991408711 0.21420852213256489 0 -0.26143359923836812 0.2098419067101063 0 -0.25268540181145172 0.20627527203672269 0 -0.24812016991408711 0.21420852213256489 0 -0.25816721155626859 0.20225113740596151 0 -0.26143359923836812 0.2098419067101063 0 -0.25268540181145172 0.20627527203672269 0 -0.28694406566292929 0.20543398967780571 0 -0.27810210786313899 0.19779607200558089 0 -0.27656074945635523 0.2136215610060585 0 -0.26143359923836812 0.2098419067101063 0 -0.27656074945635523 0.2136215610060585 0 -0.26803988140963209 0.22278651388191331 0 -0.27810210786313899 0.19779607200558089 0 -0.26741841660369642 0.2006309016346961 0 -0.27656074945635523 0.2136215610060585 0 -0.27810210786313899 0.19779607200558089 0 -0.27656074945635523 0.2136215610060585 0 -0.26741841660369642 0.2006309016346961 0 -0.27656074945635523 0.2136215610060585 0 -0.26741841660369642 0.2006309016346961 0 -0.26143359923836812 0.2098419067101063 0 -0.27656074945635523 0.2136215610060585 0 -0.27656074945635523 0.2136215610060585 0 -0.26803988140963209 0.22278651388191331 0 -0.27397103192233668 0.24021079954307489 0 -0.28710063086969262 0.22859804583349769 0 -0.27656074945635523 0.2136215610060585 0 -0.27397103192233668 0.24021079954307489 0 -0.27656074945635523 0.2136215610060585 0 -0.27397103192233668 0.24021079954307489 0 -0.26803988140963209 0.22278651388191331 0 -0.26019414502146943 0.22747178826841341 0 -0.27397103192233668 0.24021079954307489 0 -0.26019414502146943 0.22747178826841341 0 -0.27397103192233668 0.24021079954307489 0 -0.26143359923836812 0.2098419067101063 0 -0.26803988140963209 0.22278651388191331 0 -0.26019414502146943 0.22747178826841341 0 -0.26143359923836812 0.2098419067101063 0 -0.25410549206993133 0.23188419476496769 0 -0.24980344990068479 0.22774142778784581 0 -0.26143359923836812 0.2098419067101063 0 -0.24980344990068479 0.22774142778784581 0 -0.26143359923836812 0.2098419067101063 0 -0.25410549206993133 0.23188419476496769 0 -0.26143359923836812 0.2098419067101063 0 -0.25410549206993133 0.23188419476496769 0 -0.26019414502146943 0.22747178826841341 0 -0.25410549206993133 0.23188419476496769 0 -0.26019414502146943 0.22747178826841341 0 -0.25697344785307252 0.23639898218799099 0 -0.25410549206993133 0.23188419476496769 0 -0.24831087900044929 0.2412774439807705 0 -0.24980344990068479 0.22774142778784581 0 -0.26019414502146943 0.22747178826841341 0 -0.26220529786608232 0.23766256258667171 0 -0.25697344785307252 0.23639898218799099 0 -0.26019414502146943 0.22747178826841341 0 -0.26220529786608232 0.23766256258667171 0 -0.27397103192233668 0.24021079954307489 0 -0.25410549206993133 0.23188419476496769 0 -0.24677738490149409 0.25392648281982888 0 -0.25410549206993133 0.23188419476496769 0 -0.25342612265009479 0.2404021009413462 0 -0.24677738490149409 0.25392648281982888 0 -0.26220529786608232 0.23766256258667171 0 -0.25818536847041351 0.2409135067550445 0 -0.25697344785307252 0.23639898218799099 0 -0.26220529786608232 0.23766256258667171 0 -0.25818536847041351 0.2409135067550445 0 -0.26147577205653127 0.24490035468802149 0 -0.25410549206993133 0.23188419476496769 0 -0.25697344785307252 0.23639898218799099 0 -0.25342612265009479 0.2404021009413462 0 -0.25818536847041351 0.2409135067550445 0 -0.25342612265009479 0.2404021009413462 0 -0.25680139168228933 0.2448984638445654 0 -0.25818536847041351 0.2409135067550445 0 -0.25697344785307252 0.23639898218799099 0 -0.25342612265009479 0.2404021009413462 0 -0.25342612265009479 0.2404021009413462 0 -0.2510180080839442 0.24995211331417111 0 -0.24677738490149409 0.25392648281982888 0 -0.25342612265009479 0.2404021009413462 0 -0.25345825858859389 0.2481284265953756 0 -0.2510180080839442 0.24995211331417111 0 -0.25342612265009479 0.2404021009413462 0 -0.25345825858859389 0.2481284265953756 0 -0.25680139168228933 0.2448984638445654 0 -0.25345825858859389 0.2481284265953756 0 -0.25680139168228933 0.2448984638445654 0 -0.25743903152381431 0.24999539547972571 0 -0.25743903152381431 0.24999539547972571 0 -0.26147577205653127 0.24490035468802149 0 -0.26461162009013628 0.25229248681512639 0 -0.25680139168228933 0.2448984638445654 0 -0.25743903152381431 0.24999539547972571 0 -0.26147577205653127 0.24490035468802149 0 -0.25818536847041351 0.2409135067550445 0 -0.25680139168228933 0.2448984638445654 0 -0.26147577205653127 0.24490035468802149 0 -0.27397103192233668 0.24021079954307489 0 -0.27206943636139391 0.25973492806544668 0 -0.26147577205653127 0.24490035468802149 0 -0.27397103192233668 0.24021079954307489 0 -0.26461162009013628 0.25229248681512639 0 -0.26220529786608232 0.23766256258667171 0 -0.26147577205653127 0.24490035468802149 0 -0.27397103192233668 0.24021079954307489 0 -0.27397103192233668 0.24021079954307489 0 -0.28597606986012142 0.25131144330553112 0 -0.2850415008008369 0.13883145958509069 0 -0.27850550806688912 0.15849113857923769 0 -0.29278126953676781 0.1545023514135338 0 -0.2850415008008369 0.13883145958509069 0 -0.27850550806688912 0.15849113857923769 0 -0.2850415008008369 0.13883145958509069 0 -0.30152828704716927 0.1425358367467279 0 -0.29278126953676781 0.1545023514135338 0 -0.2850415008008369 0.13883145958509069 0 -0.30152828704716927 0.1425358367467279 0 -0.2850415008008369 0.13883145958509069 0 -0.29556608276305479 0.13277809840667379 0 -0.30152828704716927 0.1425358367467279 0 -0.2850415008008369 0.13883145958509069 0 -0.27943882917911228 0.12900866080138559 0 -0.29045472967269909 0.12254895342656 0 -0.2850415008008369 0.13883145958509069 0 -0.29045472967269909 0.12254895342656 0 -0.2850415008008369 0.13883145958509069 0 -0.29556608276305479 0.13277809840667379 0 -0.29045472967269909 0.12254895342656 0 -0.29556608276305479 0.13277809840667379 0 -0.30687649667949612 0.12997411277591769 0 -0.30041797835596079 0.11682021729264221 0 -0.29556608276305479 0.13277809840667379 0 -0.30687649667949612 0.12997411277591769 0 -0.30152828704716927 0.1425358367467279 0 -0.30687649667949612 0.12997411277591769 0 -0.31162932844603258 0.1378361044297422 0 -0.30152828704716927 0.1425358367467279 0 -0.3180150732935017 0.14624021390836531 0 -0.30152828704716927 0.1425358367467279 0 -0.30476751359208859 0.15553519760123621 0 -0.3180150732935017 0.14624021390836531 0 -0.30152828704716927 0.1425358367467279 0 -0.3180150732935017 0.14624021390836531 0 -0.31162932844603258 0.1378361044297422 0 -0.30152828704716927 0.1425358367467279 0 -0.29278126953676781 0.1545023514135338 0 -0.30152828704716927 0.1425358367467279 0 -0.30476751359208859 0.15553519760123621 0 -0.31520710284454317 0.16464098010021411 0 -0.30476751359208859 0.15553519760123621 0 -0.29630583523846121 0.16975660583734009 0 -0.29278126953676781 0.1545023514135338 0 -0.30476751359208859 0.15553519760123621 0 -0.29630583523846121 0.16975660583734009 0 -0.31520710284454317 0.16464098010021411 0 -0.31239913239558609 0.18304174629206321 0 -0.29630583523846121 0.16975660583734009 0 -0.29675072758665139 0.19436258077853871 0 -0.31239913239558609 0.18304174629206321 0 -0.29630583523846121 0.16975660583734009 0 -0.29630583523846121 0.16975660583734009 0 -0.28372342711844323 0.16963446450506711 0 -0.27964346626992148 0.18197058300510299 0 -0.2864209978914446 0.19061850214738929 0 -0.29630583523846121 0.16975660583734009 0 -0.27964346626992148 0.18197058300510299 0 -0.29675072758665139 0.19436258077853871 0 -0.29630583523846121 0.16975660583734009 0 -0.29675072758665139 0.19436258077853871 0 -0.2864209978914446 0.19061850214738929 0 -0.29630583523846121 0.16975660583734009 0 -0.29278126953676781 0.1545023514135338 0 -0.29630583523846121 0.16975660583734009 0 -0.28372342711844323 0.16963446450506711 0 -0.29278126953676781 0.1545023514135338 0 -0.28372342711844323 0.16963446450506711 0 -0.27850550806688912 0.15849113857923769 0 -0.27850550806688912 0.15849113857923769 0 -0.26623094186721857 0.16612749502583379 0 -0.26696383090714371 0.14988565462208731 0 -0.27850550806688912 0.15849113857923769 0 -0.26623094186721857 0.16612749502583379 0 -0.27196951533294023 0.17815081757338441 0 -0.27850550806688912 0.15849113857923769 0 -0.27196951533294023 0.17815081757338441 0 -0.28372342711844323 0.16963446450506711 0 -0.27850550806688912 0.15849113857923769 0 -0.27196951533294023 0.17815081757338441 0 -0.26543352259899239 0.1978104965675315 0 -0.27196951533294023 0.17815081757338441 0 -0.26285706375597567 0.17970739331456059 0 -0.27143925098386762 0.18883453331357489 0 -0.27964346626992148 0.18197058300510299 0 -0.27196951533294023 0.17815081757338441 0 -0.28372342711844323 0.16963446450506711 0 -0.27964346626992148 0.18197058300510299 0 -0.27196951533294023 0.17815081757338441 0 -0.26623094186721857 0.16612749502583379 0 -0.27196951533294023 0.17815081757338441 0 -0.26285706375597567 0.17970739331456059 0 -0.26623094186721857 0.16612749502583379 0 -0.26285706375597567 0.17970739331456059 0 -0.25527036347879578 0.17125863002391209 0 -0.26285706375597567 0.17970739331456059 0 -0.25527036347879578 0.17125863002391209 0 -0.24995958464222839 0.1804303709041902 0 -0.25838862131867463 0.18780015081525619 0 -0.26285706375597567 0.17970739331456059 0 -0.24995958464222839 0.1804303709041902 0 -0.25838862131867463 0.18780015081525619 0 -0.24995958464222839 0.1804303709041902 0 -0.24531288127584511 0.19295358905630319 0 -0.26623094186721857 0.16612749502583379 0 -0.25054121279168012 0.15807604024564451 0 -0.26696383090714371 0.14988565462208731 0 -0.26623094186721857 0.16612749502583379 0 -0.25054121279168012 0.15807604024564451 0 -0.25527036347879578 0.17125863002391209 0 -0.25054121279168012 0.15807604024564451 0 -0.25292610413596778 0.1426645308384252 0 -0.26696383090714371 0.14988565462208731 0 -0.25292610413596778 0.1426645308384252 0 -0.26696383090714371 0.14988565462208731 0 -0.26853771778026941 0.13512326345829179 0 -0.2850415008008369 0.13883145958509069 0 -0.26696383090714371 0.14988565462208731 0 -0.26853771778026941 0.13512326345829179 0 -0.2850415008008369 0.13883145958509069 0 -0.27850550806688912 0.15849113857923769 0 -0.26696383090714371 0.14988565462208731 0 -0.2850415008008369 0.13883145958509069 0 -0.27943882917911228 0.12900866080138559 0 -0.26853771778026941 0.13512326345829179 0 -0.2850415008008369 0.13883145958509069 0 -0.26853771778026941 0.13512326345829179 0 -0.27943882917911228 0.12900866080138559 0 -0.26853771778026941 0.13512326345829179 0 -0.27372136846264372 0.11953096673559969 0 -0.26853771778026941 0.13512326345829179 0 -0.25239466005469258 0.1297106402418553 0 -0.25967609757330068 0.11885712311806811 0 -0.25292610413596778 0.1426645308384252 0 -0.26853771778026941 0.13512326345829179 0 -0.25239466005469258 0.1297106402418553 0 -0.25239466005469258 0.1297106402418553 0 -0.25967609757330068 0.11885712311806811 0 -0.24552691285969419 0.11763658175782279 0 -0.25967609757330068 0.11885712311806811 0 -0.25325518930097451 0.10634209692029679 0 -0.24552691285969419 0.11763658175782279 0 -0.25967609757330068 0.11885712311806811 0 -0.25325518930097451 0.10634209692029679 0 -0.26730746719832732 0.1065882426684835 0 -0.25325518930097451 0.10634209692029679 0 -0.25983864507093979 0.095777860621181654 0 -0.24773794056051049 0.095093727021387617 0 -0.25325518930097451 0.10634209692029679 0 -0.25983864507093979 0.095777860621181654 0 -0.26730746719832732 0.1065882426684835 0 -0.27253534269371299 0.094524590078243043 0 -0.28358030223356812 0.108051205011069 0 -0.28597027756656668 0.083410303060889854 0 -0.27253534269371299 0.094524590078243043 0 -0.26730746719832732 0.1065882426684835 0 -0.28358030223356812 0.108051205011069 0 -0.25983864507093979 0.095777860621181654 0 -0.27253534269371299 0.094524590078243043 0 -0.26730746719832732 0.1065882426684835 0 -0.26853771778026941 0.13512326345829179 0 -0.25967609757330068 0.11885712311806811 0 -0.27372136846264372 0.11953096673559969 0 -0.26730746719832732 0.1065882426684835 0 -0.27372136846264372 0.11953096673559969 0 -0.28358030223356812 0.108051205011069 0 -0.27943882917911228 0.12900866080138559 0 -0.27372136846264372 0.11953096673559969 0 -0.29045472967269909 0.12254895342656 0 -0.25967609757330068 0.11885712311806811 0 -0.26730746719832732 0.1065882426684835 0 -0.27372136846264372 0.11953096673559969 0 -0.29556608276305479 0.13277809840667379 0 -0.29045472967269909 0.12254895342656 0 -0.30041797835596079 0.11682021729264221 0 -0.29045472967269909 0.12254895342656 0 -0.29586795854456022 0.106266447268029 0 -0.30041797835596079 0.11682021729264221 0 -0.27372136846264372 0.11953096673559969 0 -0.29045472967269909 0.12254895342656 0 -0.28358030223356812 0.108051205011069 0 -0.29045472967269909 0.12254895342656 0 -0.28358030223356812 0.108051205011069 0 -0.29586795854456022 0.106266447268029 0 -0.29045472967269909 0.12254895342656 0 -0.29586795854456022 0.106266447268029 0 -0.28358030223356812 0.108051205011069 0 -0.29680279138729587 0.09454563776653209 0 -0.28597027756656668 0.083410303060889854 0 -0.28358030223356812 0.108051205011069 0 -0.28597027756656668 0.083410303060889854 0 -0.28358030223356812 0.108051205011069 0 -0.29680279138729587 0.09454563776653209 0 -0.29586795854456022 0.106266447268029 0 -0.30372412345980571 0.1010372450929123 0 -0.31191079011188461 0.11681574969043509 0 -0.29586795854456022 0.106266447268029 0 -0.30372412345980571 0.1010372450929123 0 -0.30041797835596079 0.11682021729264221 0 -0.30372412345980571 0.1010372450929123 0 -0.31191079011188461 0.11681574969043509 0 -0.31368636461004729 0.1057713270745891 0 -0.29680279138729587 0.09454563776653209 0 -0.30372412345980571 0.1010372450929123 0 -0.307688944880806 0.090951253238497731 0 -0.29680279138729587 0.09454563776653209 0 -0.29586795854456022 0.106266447268029 0 -0.30372412345980571 0.1010372450929123 0 -0.30372412345980571 0.1010372450929123 0 -0.31368636461004729 0.1057713270745891 0 -0.31540823955722841 0.096260806147576289 0 -0.30372412345980571 0.1010372450929123 0 -0.307688944880806 0.090951253238497731 0 -0.31540823955722841 0.096260806147576289 0 -0.30372412345980571 0.1010372450929123 0 -0.31191079011188461 0.11681574969043509 0 -0.30041797835596079 0.11682021729264221 0 -0.30687649667949612 0.12997411277591769 0 -0.31191079011188461 0.11681574969043509 0 -0.30041797835596079 0.11682021729264221 0 -0.3039851416384689 0.077557372927794618 0 -0.28836025289956541 0.058769401110710641 0 -0.30938609838601339 0.061424361502435257 0 -0.3039851416384689 0.077557372927794618 0 -0.307688944880806 0.090951253238497731 0 -0.3164330422279541 0.084553538776195938 0 -0.29680279138729587 0.09454563776653209 0 -0.3039851416384689 0.077557372927794618 0 -0.307688944880806 0.090951253238497731 0 -0.29680279138729587 0.09454563776653209 0 -0.3039851416384689 0.077557372927794618 0 -0.28597027756656668 0.083410303060889854 0 -0.3039851416384689 0.077557372927794618 0 -0.28597027756656668 0.083410303060889854 0 -0.28836025289956541 0.058769401110710641 0 -0.28597027756656668 0.083410303060889854 0 -0.28836025289956541 0.058769401110710641 0 -0.28597027756656668 0.083410303060889854 0 -0.27505350476669632 0.066006502515163754 0 -0.28836025289956541 0.058769401110710641 0 -0.28597027756656668 0.083410303060889854 0 -0.27505350476669632 0.066006502515163754 0 -0.26598002139916338 0.078795339029591127 0 -0.27505350476669632 0.066006502515163754 0 -0.26598002139916338 0.078795339029591127 0 -0.26150858621840561 0.06424791343666425 0 -0.25983864507093979 0.095777860621181654 0 -0.27253534269371299 0.094524590078243043 0 -0.26598002139916338 0.078795339029591127 0 -0.27253534269371299 0.094524590078243043 0 -0.28597027756656668 0.083410303060889854 0 -0.26598002139916338 0.078795339029591127 0 -0.26598002139916338 0.078795339029591127 0 -0.25214779925332598 0.085224491904434957 0 -0.25027064784529479 0.070822807096282081 0 -0.25983864507093979 0.095777860621181654 0 -0.26598002139916338 0.078795339029591127 0 -0.25214779925332598 0.085224491904434957 0 -0.25983864507093979 0.095777860621181654 0 -0.25214779925332598 0.085224491904434957 0 -0.24773794056051049 0.095093727021387617 0 -0.26150858621840561 0.06424791343666425 0 -0.25027064784529479 0.070822807096282081 0 -0.24582713713657239 0.06026394233603409 0 -0.26598002139916338 0.078795339029591127 0 -0.26150858621840561 0.06424791343666425 0 -0.25027064784529479 0.070822807096282081 0 -0.26150858621840561 0.06424791343666425 0 -0.27001825649799499 0.045421108365354797 0 -0.24582713713657239 0.06026394233603409 0 -0.27001825649799499 0.045421108365354797 0 -0.24582713713657239 0.06026394233603409 0 -0.25218349060199152 0.043488663219768867 0 -0.27001825649799499 0.045421108365354797 0 -0.24582713713657239 0.06026394233603409 0 -0.25218349060199152 0.043488663219768867 0 -0.27001825649799499 0.045421108365354797 0 -0.26608580854771902 0.032151169028288427 0 -0.25218349060199152 0.043488663219768867 0 -0.25209852891777262 0.033340039531665713 0 -0.26608580854771902 0.032151169028288427 0 -0.26608580854771902 0.032151169028288427 0 -0.27837948040473981 0.036656786233918937 0 -0.27334397899946872 0.026243260134530089 0 -0.27001825649799499 0.045421108365354797 0 -0.26608580854771902 0.032151169028288427 0 -0.27837948040473981 0.036656786233918937 0 -0.27505350476669632 0.066006502515163754 0 -0.27001825649799499 0.045421108365354797 0 -0.28836025289956541 0.058769401110710641 0 -0.27001825649799499 0.045421108365354797 0 -0.27837948040473981 0.036656786233918937 0 -0.28836025289956541 0.058769401110710641 0 -0.27505350476669632 0.066006502515163754 0 -0.26150858621840561 0.06424791343666425 0 -0.27001825649799499 0.045421108365354797 0 -0.25769703189193349 0.0047669400876523983 0 -0.25658187739454541 0.022089820732618261 0 -0.2404879013547162 0.0063648643017436444 0 -0.26060155178831179 -0.0099508779030361358 0 -0.25769703189193349 0.0047669400876523983 0 -0.2404879013547162 0.0063648643017436444 0 -0.25769703189193349 0.0047669400876523983 0 -0.25658187739454541 0.022089820732618261 0 -0.27253538338596089 0.012713460268155671 0 -0.26408586383376897 -0.0027686284137106621 0 -0.25769703189193349 0.0047669400876523983 0 -0.26919049809766721 0.0023120427171847611 0 -0.25658187739454541 0.022089820732618261 0 -0.27253538338596089 0.012713460268155671 0 -0.25658187739454541 0.022089820732618261 0 -0.26847742116856071 0.01851901490786878 0 -0.26608580854771902 0.032151169028288427 0 -0.25658187739454541 0.022089820732618261 0 -0.26847742116856071 0.01851901490786878 0 -0.25209852891777262 0.033340039531665713 0 -0.26608580854771902 0.032151169028288427 0 -0.25658187739454541 0.022089820732618261 0 -0.25658187739454541 0.022089820732618261 0 -0.26847742116856071 0.01851901490786878 0 -0.27253538338596089 0.012713460268155671 0 -0.26608580854771902 0.032151169028288427 0 -0.27334397899946872 0.026243260134530089 0 -0.26847742116856071 0.01851901490786878 0 -0.27837948040473981 0.036656786233918937 0 -0.27334397899946872 0.026243260134530089 0 -0.28199429379818891 0.023120282218445101 0 -0.27570339753878731 0.019248829428767961 0 -0.28237243353317648 0.013581453785882359 0 -0.28199429379818891 0.023120282218445101 0 -0.27334397899946872 0.026243260134530089 0 -0.27570339753878731 0.019248829428767961 0 -0.28199429379818891 0.023120282218445101 0 -0.27570339753878731 0.019248829428767961 0 -0.26847742116856071 0.01851901490786878 0 -0.27253538338596089 0.012713460268155671 0 -0.27334397899946872 0.026243260134530089 0 -0.27570339753878731 0.019248829428767961 0 -0.26847742116856071 0.01851901490786878 0 -0.27253538338596089 0.012713460268155671 0 -0.2884888893773766 0.0033370998036932071 0 -0.27253538338596089 0.012713460268155671 0 -0.2884888893773766 0.0033370998036932071 0 -0.28237243353317648 0.013581453785882359 0 -0.27633698374482091 -0.00067737869662126075 0 -0.27253538338596089 0.012713460268155671 0 -0.2884888893773766 0.0033370998036932071 0 -0.27570339753878731 0.019248829428767961 0 -0.27253538338596089 0.012713460268155671 0 -0.28237243353317648 0.013581453785882359 0 -0.27633698374482091 -0.00067737869662126075 0 -0.27253538338596089 0.012713460268155671 0 -0.26919049809766721 0.0023120427171847611 0 -0.25769703189193349 0.0047669400876523983 0 -0.27253538338596089 0.012713460268155671 0 -0.26919049809766721 0.0023120427171847611 0 -0.29405399412486022 6.6318562070358245e-05 0 -0.29314020356556553 0.0094875972103523158 0 -0.29405399412486022 6.6318562070358245e-05 0 -0.2884888893773766 0.0033370998036932071 0 -0.29314020356556553 0.0094875972103523158 0 -0.29405399412486022 6.6318562070358245e-05 0 -0.29314020356556553 0.0094875972103523158 0 -0.30130015521431158 0.0058227228691387894 0 -0.2884888893773766 0.0033370998036932071 0 -0.29314020356556553 0.0094875972103523158 0 -0.28917812162165302 -0.0026968629327373339 0 -0.29405399412486022 6.6318562070358245e-05 0 -0.2884888893773766 0.0033370998036932071 0 -0.29405399412486022 6.6318562070358245e-05 0 -0.2884888893773766 0.0033370998036932071 0 -0.28359120288042561 -0.003139179131532679 0 -0.2884888893773766 0.0033370998036932071 0 -0.28237243353317648 0.013581453785882359 0 -0.29314020356556553 0.0094875972103523158 0 -0.28199429379818891 0.023120282218445101 0 -0.2884888893773766 0.0033370998036932071 0 -0.28237243353317648 0.013581453785882359 0 -0.29314020356556553 0.0094875972103523158 0 -0.29314020356556553 0.0094875972103523158 0 -0.28199429379818891 0.023120282218445101 0 -0.29075022823256391 0.034128499160531331 0 -0.29314020356556553 0.0094875972103523158 0 -0.29075022823256391 0.034128499160531331 0 -0.29314020356556553 0.0094875972103523158 0 -0.3094718503609743 0.031083160786029022 0 -0.29075022823256391 0.034128499160531331 0 -0.29314020356556553 0.0094875972103523158 0 -0.3094718503609743 0.031083160786029022 0 -0.29314020356556553 0.0094875972103523158 0 -0.3094718503609743 0.031083160786029022 0 -0.30769480669641552 0.01181970963852539 0 -0.29405399412486022 6.6318562070358245e-05 0 -0.31031161647040639 0.0019172660656071911 0 -0.30130015521431158 0.0058227228691387894 0 -0.29314020356556553 0.0094875972103523158 0 -0.30769480669641552 0.01181970963852539 0 -0.30130015521431158 0.0058227228691387894 0 -0.30769480669641552 0.01181970963852539 0 -0.31031161647040639 0.0019172660656071911 0 -0.30130015521431158 0.0058227228691387894 0 -0.28836025289956541 0.058769401110710641 0 -0.29075022823256391 0.034128499160531331 0 -0.30475438540709948 0.047616829384282792 0 -0.28836025289956541 0.058769401110710641 0 -0.29075022823256391 0.034128499160531331 0 -0.27837948040473981 0.036656786233918937 0 -0.28836025289956541 0.058769401110710641 0 -0.29075022823256391 0.034128499160531331 0 -0.27837948040473981 0.036656786233918937 0 -0.28199429379818891 0.023120282218445101 0 -0.29075022823256391 0.034128499160531331 0 -0.3094718503609743 0.031083160786029022 0 -0.29075022823256391 0.034128499160531331 0 -0.30475438540709948 0.047616829384282792 0 -0.28836025289956541 0.058769401110710641 0 -0.30938609838601339 0.061424361502435257 0 -0.30475438540709948 0.047616829384282792 0 -0.32580349715638052 0.052678724361707722 0 -0.32655532550747879 0.069013742404307632 0 -0.30938609838601339 0.061424361502435257 0 -0.32580349715638052 0.052678724361707722 0 -0.32655532550747879 0.069013742404307632 0 -0.30938609838601339 0.061424361502435257 0 -0.30475438540709948 0.047616829384282792 0 -0.32580349715638052 0.052678724361707722 0 -0.32580349715638052 0.052678724361707722 0 -0.330522750360151 0.058919058473050533 0 -0.32655532550747879 0.069013742404307632 0 -0.32580349715638052 0.052678724361707722 0 -0.32484553340513939 0.031864990564838318 0 -0.3094718503609743 0.031083160786029022 0 -0.30475438540709948 0.047616829384282792 0 -0.32580349715638052 0.052678724361707722 0 -0.3094718503609743 0.031083160786029022 0 -0.32580349715638052 0.052678724361707722 0 -0.32484553340513939 0.031864990564838318 0 -0.3094718503609743 0.031083160786029022 0 -0.32580349715638052 0.052678724361707722 0 -0.32580349715638052 0.052678724361707722 0 -0.32484553340513939 0.031864990564838318 0 -0.33407630173981828 0.040990206913334902 0 -0.32484553340513939 0.031864990564838318 0 -0.33407630173981828 0.040990206913334902 0 -0.33528980383614998 0.030476954655885319 0 -0.33407630173981828 0.040990206913334902 0 -0.33528980383614998 0.030476954655885319 0 -0.34608600185876143 0.035092516241744399 0 -0.33407630173981828 0.040990206913334902 0 -0.34591305116686799 0.047226836373290122 0 -0.34608600185876143 0.035092516241744399 0 -0.33407630173981828 0.040990206913334902 0 -0.33884181945522479 0.053065311039489672 0 -0.33069172779919809 0.063169483680121291 0 -0.33407630173981828 0.040990206913334902 0 -0.330522750360151 0.058919058473050533 0 -0.33069172779919809 0.063169483680121291 0 -0.33407630173981828 0.040990206913334902 0 -0.33069172779919809 0.063169483680121291 0 -0.32580349715638052 0.052678724361707722 0 -0.33407630173981828 0.040990206913334902 0 -0.330522750360151 0.058919058473050533 0 -0.33884181945522479 0.053065311039489672 0 -0.34453637180748148 0.056488628641481103 0 -0.34591305116686799 0.047226836373290122 0 -0.33407630173981828 0.040990206913334902 0 -0.33884181945522479 0.053065311039489672 0 -0.34591305116686799 0.047226836373290122 0 -0.33949399603938413 0.061320183103352417 0 -0.34453637180748148 0.056488628641481103 0 -0.34528474694659972 0.064399462891393311 0 -0.33884181945522479 0.053065311039489672 0 -0.33949399603938413 0.061320183103352417 0 -0.33069172779919809 0.063169483680121291 0 -0.33884181945522479 0.053065311039489672 0 -0.33949399603938413 0.061320183103352417 0 -0.34453637180748148 0.056488628641481103 0 -0.32580349715638052 0.052678724361707722 0 -0.330522750360151 0.058919058473050533 0 -0.30769480669641552 0.01181970963852539 0 -0.31031161647040639 0.0019172660656071911 0 -0.32388756965389792 0.01105125676796889 0 -0.32608935260755428 -0.00056023927961031518 0 -0.31031161647040639 0.0019172660656071911 0 -0.32388756965389792 0.01105125676796889 0 -0.32608935260755428 -0.00056023927961031518 0 -0.32388756965389792 0.01105125676796889 0 -0.33424201871020248 0.01557640894529126 0 -0.32484553340513939 0.031864990564838318 0 -0.32388756965389792 0.01105125676796889 0 -0.3094718503609743 0.031083160786029022 0 -0.30769480669641552 0.01181970963852539 0 -0.32388756965389792 0.01105125676796889 0 -0.3094718503609743 0.031083160786029022 0 -0.32484553340513939 0.031864990564838318 0 -0.32388756965389792 0.01105125676796889 0 -0.32484553340513939 0.031864990564838318 0 -0.32388756965389792 0.01105125676796889 0 -0.33424201871020248 0.01557640894529126 0 -0.32484553340513939 0.031864990564838318 0 -0.33528980383614998 0.030476954655885319 0 -0.33424201871020248 0.01557640894529126 0 -0.33528980383614998 0.030476954655885319 0 -0.34121595868932841 0.024536586277541631 0 -0.33424201871020248 0.01557640894529126 0 -0.33528980383614998 0.030476954655885319 0 -0.34121595868932841 0.024536586277541631 0 -0.34608600185876143 0.035092516241744399 0 -0.34121595868932841 0.024536586277541631 0 -0.33424201871020248 0.01557640894529126 0 -0.3478856601565305 0.012412498467515401 0 -0.34131708496083762 -0.0016480315739079449 0 -0.32608935260755428 -0.00056023927961031518 0 -0.33424201871020248 0.01557640894529126 0 -0.34131708496083762 -0.0016480315739079449 0 -0.33424201871020248 0.01557640894529126 0 -0.3478856601565305 0.012412498467515401 0 -0.35279133893119258 0.001604363420070106 0 -0.3478856601565305 0.012412498467515401 0 -0.36081264065691698 0.0088330981789393002 0 -0.36175709916431592 -0.00070327302944183333 0 -0.35279133893119258 0.001604363420070106 0 -0.36081264065691698 0.0088330981789393002 0 -0.34131708496083762 -0.0016480315739079449 0 -0.35279133893119258 0.001604363420070106 0 -0.3478856601565305 0.012412498467515401 0 -0.3478856601565305 0.012412498467515401 0 -0.35894796006593482 0.018897760848473669 0 -0.36081264065691698 0.0088330981789393002 0 -0.3478856601565305 0.012412498467515401 0 -0.35894796006593482 0.018897760848473669 0 -0.35004339295411008 0.022611401406197159 0 -0.34121595868932841 0.024536586277541631 0 -0.3478856601565305 0.012412498467515401 0 -0.35004339295411008 0.022611401406197159 0 -0.34121595868932841 0.024536586277541631 0 -0.35004339295411008 0.022611401406197159 0 -0.34608600185876143 0.035092516241744399 0 -0.35004339295411008 0.022611401406197159 0 -0.35623084590818921 0.029782805900174601 0 -0.34608600185876143 0.035092516241744399 0 -0.35894796006593482 0.018897760848473669 0 -0.35004339295411008 0.022611401406197159 0 -0.35623084590818921 0.029782805900174601 0 -0.35894796006593482 0.018897760848473669 0 -0.35623084590818921 0.029782805900174601 0 -0.36984020686482411 0.025959641154479171 0 -0.38088627163784677 0.029694684817401989 0 -0.36984020686482411 0.025959641154479171 0 -0.37400361689354161 0.035854073194307327 0 -0.38319552690233349 0.01537500881018101 0 -0.36984020686482411 0.025959641154479171 0 -0.36911389909504883 0.0145959280844078 0 -0.35894796006593482 0.018897760848473669 0 -0.36984020686482411 0.025959641154479171 0 -0.36911389909504883 0.0145959280844078 0 -0.35894796006593482 0.018897760848473669 0 -0.36081264065691698 0.0088330981789393002 0 -0.36911389909504883 0.0145959280844078 0 -0.36081264065691698 0.0088330981789393002 0 -0.36911389909504883 0.0145959280844078 0 -0.3727731609852345 0.0039141314299658506 0 -0.36175709916431592 -0.00070327302944183333 0 -0.36081264065691698 0.0088330981789393002 0 -0.3727731609852345 0.0039141314299658506 0 -0.35314824542933099 0.056431349799879973 0 -0.35463084701415731 0.04290523438132017 0 -0.3636948685082797 0.050692928425973192 0 -0.35314824542933099 0.056431349799879973 0 -0.34453637180748148 0.056488628641481103 0 -0.34528474694659972 0.064399462891393311 0 -0.35314824542933099 0.056431349799879973 0 -0.34591305116686799 0.047226836373290122 0 -0.35463084701415731 0.04290523438132017 0 -0.35314824542933099 0.056431349799879973 0 -0.34453637180748148 0.056488628641481103 0 -0.34591305116686799 0.047226836373290122 0 -0.34591305116686799 0.047226836373290122 0 -0.34608600185876143 0.035092516241744399 0 -0.35463084701415731 0.04290523438132017 0 -0.35623084590818921 0.029782805900174601 0 -0.34608600185876143 0.035092516241744399 0 -0.35463084701415731 0.04290523438132017 0 -0.35623084590818921 0.029782805900174601 0 -0.35463084701415731 0.04290523438132017 0 -0.36271206921351451 0.038204969546858758 0 -0.36271206921351451 0.038204969546858758 0 -0.37261372632497258 0.045163334082492693 0 -0.3636948685082797 0.050692928425973192 0 -0.35463084701415731 0.04290523438132017 0 -0.36271206921351451 0.038204969546858758 0 -0.3636948685082797 0.050692928425973192 0 -0.35623084590818921 0.029782805900174601 0 -0.36984020686482411 0.025959641154479171 0 -0.36271206921351451 0.038204969546858758 0 -0.36984020686482411 0.025959641154479171 0 -0.36271206921351451 0.038204969546858758 0 -0.37400361689354161 0.035854073194307327 0 -0.36271206921351451 0.038204969546858758 0 -0.37400361689354161 0.035854073194307327 0 -0.37261372632497258 0.045163334082492693 0 -0.37261372632497258 0.045163334082492693 0 -0.3636948685082797 0.050692928425973192 0 -0.37275633896488181 0.055844264633964733 0 -0.35314824542933099 0.056431349799879973 0 -0.3636948685082797 0.050692928425973192 0 -0.36596149219828777 0.063641242421216909 0 -0.3636948685082797 0.050692928425973192 0 -0.37275633896488181 0.055844264633964733 0 -0.36596149219828777 0.063641242421216909 0 -0.37913465212212061 0.065675176532655838 0 -0.37275633896488181 0.055844264633964733 0 -0.36596149219828777 0.063641242421216909 0 -0.37913465212212061 0.065675176532655838 0 -0.36932962578096551 0.07529283399517811 0 -0.36596149219828777 0.063641242421216909 0 -0.36932962578096551 0.07529283399517811 0 -0.35596029391831852 0.070135781325325913 0 -0.3579790322537893 0.083191476064361114 0 -0.36932962578096551 0.07529283399517811 0 -0.36596149219828777 0.063641242421216909 0 -0.35596029391831852 0.070135781325325913 0 -0.35314824542933099 0.056431349799879973 0 -0.36596149219828777 0.063641242421216909 0 -0.35596029391831852 0.070135781325325913 0 -0.35596029391831852 0.070135781325325913 0 -0.34459659246603253 0.076405749861338801 0 -0.3579790322537893 0.083191476064361114 0 -0.35596029391831852 0.070135781325325913 0 -0.34459659246603253 0.076405749861338801 0 -0.34528474694659972 0.064399462891393311 0 -0.35314824542933099 0.056431349799879973 0 -0.35596029391831852 0.070135781325325913 0 -0.34528474694659972 0.064399462891393311 0 -0.34459659246603253 0.076405749861338801 0 -0.34549743914619618 0.089690393198553098 0 -0.3579790322537893 0.083191476064361114 0 -0.34549743914619618 0.089690393198553098 0 -0.3579790322537893 0.083191476064361114 0 -0.35708240093919302 0.095687145123152018 0 -0.37540784127202997 0.09193695288261873 0 -0.3579790322537893 0.083191476064361114 0 -0.35708240093919302 0.095687145123152018 0 -0.37540784127202997 0.09193695288261873 0 -0.36932962578096551 0.07529283399517811 0 -0.3579790322537893 0.083191476064361114 0 -0.37540784127202997 0.09193695288261873 0 -0.37241831463459241 0.109833280152714 0 -0.35708240093919302 0.095687145123152018 0 -0.37241831463459241 0.109833280152714 0 -0.35708240093919302 0.095687145123152018 0 -0.37241831463459241 0.109833280152714 0 -0.35708240093919302 0.095687145123152018 0 -0.35759966950390049 0.10804565306309311 0 -0.3705532687007751 0.1243771828620189 0 -0.37241831463459241 0.109833280152714 0 -0.36092395347428058 0.1184448244744339 0 -0.37241831463459241 0.109833280152714 0 -0.36092395347428058 0.1184448244744339 0 -0.35759966950390049 0.10804565306309311 0 -0.36377622842807927 0.1265985245479177 0 -0.35772781526045833 0.12831877189583021 0 -0.36092395347428058 0.1184448244744339 0 -0.36377622842807927 0.1265985245479177 0 -0.3705532687007751 0.1243771828620189 0 -0.36092395347428058 0.1184448244744339 0 -0.34790697226168998 0.1271606124109535 0 -0.34983409360854018 0.1143857347429961 0 -0.33842294026732078 0.10776507725144251 0 -0.35772781526045833 0.12831877189583021 0 -0.36092395347428058 0.1184448244744339 0 -0.35409820865124231 0.1220774858810534 0 -0.36092395347428058 0.1184448244744339 0 -0.35409820865124231 0.1220774858810534 0 -0.34983409360854018 0.1143857347429961 0 -0.36092395347428058 0.1184448244744339 0 -0.34983409360854018 0.1143857347429961 0 -0.35759966950390049 0.10804565306309311 0 -0.34790697226168998 0.1271606124109535 0 -0.35409820865124231 0.1220774858810534 0 -0.34983409360854018 0.1143857347429961 0 -0.34983409360854018 0.1143857347429961 0 -0.35759966950390049 0.10804565306309311 0 -0.34773958486289608 0.1018772808221696 0 -0.35708240093919302 0.095687145123152018 0 -0.35759966950390049 0.10804565306309311 0 -0.34773958486289608 0.1018772808221696 0 -0.34983409360854018 0.1143857347429961 0 -0.34773958486289608 0.1018772808221696 0 -0.33842294026732078 0.10776507725144251 0 -0.34549743914619618 0.089690393198553098 0 -0.35708240093919302 0.095687145123152018 0 -0.34773958486289608 0.1018772808221696 0 -0.33795649057576482 0.096095805089333353 0 -0.33842294026732078 0.10776507725144251 0 -0.32893890827295169 0.088369542091931569 0 -0.34549743914619618 0.089690393198553098 0 -0.34773958486289608 0.1018772808221696 0 -0.33795649057576482 0.096095805089333353 0 -0.33842294026732078 0.10776507725144251 0 -0.32893890827295169 0.088369542091931569 0 -0.33842294026732078 0.10776507725144251 0 -0.32823950384299139 0.1056059824513708 0 -0.32893890827295169 0.088369542091931569 0 -0.34773958486289608 0.1018772808221696 0 -0.33795649057576482 0.096095805089333353 0 -0.33842294026732078 0.10776507725144251 0 -0.33842294026732078 0.10776507725144251 0 -0.32823950384299139 0.1056059824513708 0 -0.33199723733766068 0.11024425731476439 0 -0.34790697226168998 0.1271606124109535 0 -0.33842294026732078 0.10776507725144251 0 -0.34790697226168998 0.1271606124109535 0 -0.33842294026732078 0.10776507725144251 0 -0.33880237102199379 0.1193046095610088 0 -0.33105715173259032 0.12742000821993699 0 -0.3424281453602408 0.1316138418000519 0 -0.32909427984373429 0.11546028957250611 0 -0.3424281453602408 0.1316138418000519 0 -0.33880237102199379 0.1193046095610088 0 -0.32909427984373429 0.11546028957250611 0 -0.3424281453602408 0.1316138418000519 0 -0.32909427984373429 0.11546028957250611 0 -0.33842294026732078 0.10776507725144251 0 -0.33880237102199379 0.1193046095610088 0 -0.33457920711767741 0.1131935584249304 0 -0.33199723733766068 0.11024425731476439 0 -0.32909427984373429 0.11546028957250611 0 -0.32370230531127081 0.1089715073674327 0 -0.33880237102199379 0.1193046095610088 0 -0.33457920711767741 0.1131935584249304 0 -0.32909427984373429 0.11546028957250611 0 -0.33842294026732078 0.10776507725144251 0 -0.33457920711767741 0.1131935584249304 0 -0.33199723733766068 0.11024425731476439 0 -0.33457920711767741 0.1131935584249304 0 -0.33199723733766068 0.11024425731476439 0 -0.32909427984373429 0.11546028957250611 0 -0.32009745676396362 0.1325942542879579 0 -0.31191079011188461 0.11681574969043509 0 -0.32009745676396362 0.1325942542879579 0 -0.31191079011188461 0.11681574969043509 0 -0.32370230531127081 0.1089715073674327 0 -0.32009745676396362 0.1325942542879579 0 -0.32909427984373429 0.11546028957250611 0 -0.32370230531127081 0.1089715073674327 0 -0.32009745676396362 0.1325942542879579 0 -0.32370230531127081 0.1089715073674327 0 -0.31191079011188461 0.11681574969043509 0 -0.32370230531127081 0.1089715073674327 0 -0.31368636461004729 0.1057713270745891 0 -0.32823950384299139 0.1056059824513708 0 -0.32730715385857723 0.08534876044690759 0 -0.32370230531127081 0.1089715073674327 0 -0.32730715385857723 0.08534876044690759 0 -0.32823950384299139 0.1056059824513708 0 -0.32370230531127081 0.1089715073674327 0 -0.32730715385857723 0.08534876044690759 0 -0.32370230531127081 0.1089715073674327 0 -0.31540823955722841 0.096260806147576289 0 -0.32730715385857723 0.08534876044690759 0 -0.32823950384299139 0.1056059824513708 0 -0.33199723733766068 0.11024425731476439 0 -0.32370230531127081 0.1089715073674327 0 -0.32370230531127081 0.1089715073674327 0 -0.31368636461004729 0.1057713270745891 0 -0.31540823955722841 0.096260806147576289 0 -0.307688944880806 0.090951253238497731 0 -0.31540823955722841 0.096260806147576289 0 -0.3164330422279541 0.084553538776195938 0 -0.31540823955722841 0.096260806147576289 0 -0.32730715385857723 0.08534876044690759 0 -0.3164330422279541 0.084553538776195938 0 -0.32730715385857723 0.08534876044690759 0 -0.3164330422279541 0.084553538776195938 0 -0.32655532550747879 0.069013742404307632 0 -0.3039851416384689 0.077557372927794618 0 -0.30938609838601339 0.061424361502435257 0 -0.32655532550747879 0.069013742404307632 0 -0.3039851416384689 0.077557372927794618 0 -0.3164330422279541 0.084553538776195938 0 -0.32655532550747879 0.069013742404307632 0 -0.32730715385857723 0.08534876044690759 0 -0.32655532550747879 0.069013742404307632 0 -0.32730715385857723 0.08534876044690759 0 -0.33491823107111118 0.076410977975897881 0 -0.33069172779919809 0.063169483680121291 0 -0.32730715385857723 0.08534876044690759 0 -0.32655532550747879 0.069013742404307632 0 -0.33069172779919809 0.063169483680121291 0 -0.32730715385857723 0.08534876044690759 0 -0.33069172779919809 0.063169483680121291 0 -0.33491823107111118 0.076410977975897881 0 -0.33069172779919809 0.063169483680121291 0 -0.33858127056365178 0.068127838489711975 0 -0.330522750360151 0.058919058473050533 0 -0.32655532550747879 0.069013742404307632 0 -0.33069172779919809 0.063169483680121291 0 -0.33949399603938413 0.061320183103352417 0 -0.33069172779919809 0.063169483680121291 0 -0.33858127056365178 0.068127838489711975 0 -0.34459659246603253 0.076405749861338801 0 -0.34528474694659972 0.064399462891393311 0 -0.33858127056365178 0.068127838489711975 0 -0.33949399603938413 0.061320183103352417 0 -0.34528474694659972 0.064399462891393311 0 -0.33858127056365178 0.068127838489711975 0 -0.34459659246603253 0.076405749861338801 0 -0.33491823107111118 0.076410977975897881 0 -0.33858127056365178 0.068127838489711975 0 -0.34459659246603253 0.076405749861338801 0 -0.33491823107111118 0.076410977975897881 0 -0.33890608055625771 0.084204270890369429 0 -0.34459659246603253 0.076405749861338801 0 -0.34549743914619618 0.089690393198553098 0 -0.33890608055625771 0.084204270890369429 0 -0.32823950384299139 0.1056059824513708 0 -0.32730715385857723 0.08534876044690759 0 -0.32893890827295169 0.088369542091931569 0 -0.34549743914619618 0.089690393198553098 0 -0.33890608055625771 0.084204270890369429 0 -0.33635016567034343 0.089116711276344518 0 -0.34549743914619618 0.089690393198553098 0 -0.33795649057576482 0.096095805089333353 0 -0.33635016567034343 0.089116711276344518 0 -0.33890608055625771 0.084204270890369429 0 -0.33635016567034343 0.089116711276344518 0 -0.33302663533263888 0.084920370043130647 0 -0.33795649057576482 0.096095805089333353 0 -0.33635016567034343 0.089116711276344518 0 -0.32893890827295169 0.088369542091931569 0 -0.33635016567034343 0.089116711276344518 0 -0.32893890827295169 0.088369542091931569 0 -0.33302663533263888 0.084920370043130647 0 -0.32730715385857723 0.08534876044690759 0 -0.32893890827295169 0.088369542091931569 0 -0.33302663533263888 0.084920370043130647 0 -0.33491823107111118 0.076410977975897881 0 -0.33890608055625771 0.084204270890369429 0 -0.33302663533263888 0.084920370043130647 0 -0.32730715385857723 0.08534876044690759 0 -0.33491823107111118 0.076410977975897881 0 -0.33302663533263888 0.084920370043130647 0 -0.39179089892670388 0.47500805262125673 0 -0.44027489081703941 0.5 0 -0.36446648900913542 0.50000000000000655 0 -0.39179089892670388 0.47500805262125673 0 -0.3838235505637641 0.45116939077247542 0 -0.36918850263259489 0.45994250207812609 0 -0.3838235505637641 0.45116939077247542 0 -0.38482963505711432 0.43248135162720752 0 -0.36732411939765641 0.44304650791368072 0 -0.3838235505637641 0.45116939077247542 0 -0.40146504159614949 0.43982445851902918 0 -0.38482963505711432 0.43248135162720752 0 -0.3838235505637641 0.45116939077247542 0 -0.40146504159614949 0.43982445851902918 0 -0.3838235505637641 0.45116939077247542 0 -0.40146504159614949 0.43982445851902918 0 -0.40509957304367089 0.45695693480554561 0 -0.39179089892670388 0.47500805262125673 0 -0.3838235505637641 0.45116939077247542 0 -0.40509957304367089 0.45695693480554561 0 -0.39179089892670388 0.47500805262125673 0 -0.40509957304367089 0.45695693480554561 0 -0.42687309022954317 0.46956191781955969 0 -0.40509957304367089 0.45695693480554561 0 -0.42297119595946597 0.44699292519099859 0 -0.42687309022954317 0.46956191781955969 0 -0.40146504159614949 0.43982445851902918 0 -0.40509957304367089 0.45695693480554561 0 -0.42297119595946597 0.44699292519099859 0 -0.40146504159614949 0.43982445851902918 0 -0.42297119595946597 0.44699292519099859 0 -0.41910653262853498 0.42847952626558311 0 -0.42297119595946597 0.44699292519099859 0 -0.44298375470648288 0.4558543500181238 0 -0.43993656501810829 0.44039916217439928 0 -0.42297119595946597 0.44699292519099859 0 -0.43993656501810829 0.44039916217439928 0 -0.42928617233366839 0.43166676907598478 0 -0.42297119595946597 0.44699292519099859 0 -0.42687309022954317 0.46956191781955969 0 -0.44298375470648288 0.4558543500181238 0 -0.39179089892670388 0.47500805262125673 0 -0.42687309022954317 0.46956191781955969 0 -0.44027489081703941 0.5 0 -0.42687309022954317 0.46956191781955969 0 -0.44027489081703941 0.5 0 -0.46154041686134939 0.47721221443085582 0 -0.44027489081703941 0.5 0 -0.46154041686134939 0.47721221443085582 0 -0.5 0.5 0 -0.5 0.5 0 -0.49003061702588352 0.46900097778261313 0 -0.5 0.45219990261887189 0 -0.46154041686134939 0.47721221443085582 0 -0.5 0.5 0 -0.49003061702588352 0.46900097778261313 0 -0.46154041686134939 0.47721221443085582 0 -0.49003061702588352 0.46900097778261313 0 -0.47256397304221281 0.46454400573676979 0 -0.5 0.45219990261887189 0 -0.48460962861866957 0.44389723962555527 0 -0.48899914965218222 0.43275130767935988 0 -0.5 0.45219990261887189 0 -0.48460962861866957 0.44389723962555527 0 -0.48263563115322911 0.45973354920565013 0 -0.49003061702588352 0.46900097778261313 0 -0.5 0.45219990261887189 0 -0.48263563115322911 0.45973354920565013 0 -0.49003061702588352 0.46900097778261313 0 -0.46898136788876849 0.44851120119933002 0 -0.49003061702588352 0.46900097778261313 0 -0.48263563115322911 0.45973354920565013 0 -0.46898136788876849 0.44851120119933002 0 -0.49003061702588352 0.46900097778261313 0 -0.47256397304221281 0.46454400573676979 0 -0.46898136788876849 0.44851120119933002 0 -0.48263563115322911 0.45973354920565013 0 -0.4692170098758402 0.44310854596884208 0 -0.48263563115322911 0.45973354920565013 0 -0.46898136788876849 0.44851120119933002 0 -0.4692170098758402 0.44310854596884208 0 -0.48460962861866957 0.44389723962555527 0 -0.48263563115322911 0.45973354920565013 0 -0.4692170098758402 0.44310854596884208 0 -0.48460962861866957 0.44389723962555527 0 -0.4692170098758402 0.44310854596884208 0 -0.47845612174374058 0.43403791757095361 0 -0.46898136788876849 0.44851120119933002 0 -0.45153780794412979 0.44573036605756122 0 -0.44793211875165462 0.42802142461604581 0 -0.46898136788876849 0.44851120119933002 0 -0.4692170098758402 0.44310854596884208 0 -0.44793211875165462 0.42802142461604581 0 -0.42687309022954317 0.46956191781955969 0 -0.46154041686134939 0.47721221443085582 0 -0.44298375470648288 0.4558543500181238 0 -0.46898136788876849 0.44851120119933002 0 -0.45969752623937482 0.45845828891551932 0 -0.45153780794412979 0.44573036605756122 0 -0.46898136788876849 0.44851120119933002 0 -0.44793211875165462 0.42802142461604581 0 -0.47256397304221281 0.46454400573676979 0 -0.46898136788876849 0.44851120119933002 0 -0.45969752623937482 0.45845828891551932 0 -0.46154041686134939 0.47721221443085582 0 -0.47256397304221281 0.46454400573676979 0 -0.45969752623937482 0.45845828891551932 0 -0.46154041686134939 0.47721221443085582 0 -0.45969752623937482 0.45845828891551932 0 -0.44298375470648288 0.4558543500181238 0 -0.45969752623937482 0.45845828891551932 0 -0.44298375470648288 0.4558543500181238 0 -0.45153780794412979 0.44573036605756122 0 -0.45153780794412979 0.44573036605756122 0 -0.43993656501810829 0.44039916217439928 0 -0.44793211875165462 0.42802142461604581 0 -0.44298375470648288 0.4558543500181238 0 -0.45153780794412979 0.44573036605756122 0 -0.43993656501810829 0.44039916217439928 0 -0.44793211875165462 0.42802142461604581 0 -0.44432148681510308 0.41226423321040839 0 -0.45579838859844929 0.4264835427320357 0 -0.44793211875165462 0.42802142461604581 0 -0.42928617233366839 0.43166676907598478 0 -0.43993656501810829 0.44039916217439928 0 -0.44793211875165462 0.42802142461604581 0 -0.42928617233366839 0.43166676907598478 0 -0.44793211875165462 0.42802142461604581 0 -0.43674802366092041 0.41713459401213671 0 -0.42928617233366839 0.43166676907598478 0 -0.44793211875165462 0.42802142461604581 0 -0.43674802366092041 0.41713459401213671 0 -0.44793211875165462 0.42802142461604581 0 -0.45579838859844929 0.4264835427320357 0 -0.44432148681510308 0.41226423321040839 0 -0.43298374143266111 0.39821733153662398 0 -0.43674802366092041 0.41713459401213671 0 -0.44793211875165462 0.42802142461604581 0 -0.44432148681510308 0.41226423321040839 0 -0.43674802366092041 0.41713459401213671 0 -0.44432148681510308 0.41226423321040839 0 -0.43674802366092041 0.41713459401213671 0 -0.44432148681510308 0.41226423321040839 0 -0.45579838859844929 0.4264835427320357 0 -0.44432148681510308 0.41226423321040839 0 -0.459885481745124 0.4144307042700433 0 -0.46389840540378741 0.39967466157430742 0 -0.459885481745124 0.4144307042700433 0 -0.47789919429922528 0.42216276180649392 0 -0.46389840540378741 0.39967466157430742 0 -0.459885481745124 0.4144307042700433 0 -0.45579838859844929 0.4264835427320357 0 -0.47789919429922528 0.42216276180649392 0 -0.44432148681510308 0.41226423321040839 0 -0.459885481745124 0.4144307042700433 0 -0.45579838859844929 0.4264835427320357 0 -0.4692170098758402 0.44310854596884208 0 -0.45579838859844929 0.4264835427320357 0 -0.4692170098758402 0.44310854596884208 0 -0.44793211875165462 0.42802142461604581 0 -0.45579838859844929 0.4264835427320357 0 -0.45579838859844929 0.4264835427320357 0 -0.47789919429922528 0.42216276180649392 0 -0.4692170098758402 0.44310854596884208 0 -0.45579838859844929 0.4264835427320357 0 -0.46954022447314792 0.4314613648275295 0 -0.45579838859844929 0.4264835427320357 0 -0.46954022447314792 0.4314613648275295 0 -0.47789919429922528 0.42216276180649392 0 -0.5 0.45219990261887189 0 -0.50000000000000111 0.4178419808809507 0 -0.48899914965218222 0.43275130767935988 0 -0.4692170098758402 0.44310854596884208 0 -0.46954022447314792 0.4314613648275295 0 -0.47845612174374058 0.43403791757095361 0 -0.48460962861866957 0.44389723962555527 0 -0.47845612174374058 0.43403791757095361 0 -0.48899914965218222 0.43275130767935988 0 -0.47845612174374058 0.43403791757095361 0 -0.47789919429922528 0.42216276180649392 0 -0.48899914965218222 0.43275130767935988 0 -0.46954022447314792 0.4314613648275295 0 -0.47845612174374058 0.43403791757095361 0 -0.47789919429922528 0.42216276180649392 0 -0.47789919429922528 0.42216276180649392 0 -0.4867909874498324 0.40378966281942269 0 -0.46389840540378741 0.39967466157430742 0 -0.47789919429922528 0.42216276180649392 0 -0.50000000000000111 0.4178419808809507 0 -0.4867909874498324 0.40378966281942269 0 -0.47789919429922528 0.42216276180649392 0 -0.50000000000000111 0.4178419808809507 0 -0.47789919429922528 0.42216276180649392 0 -0.50000000000000111 0.4178419808809507 0 -0.48899914965218222 0.43275130767935988 0 -0.5 0.39045689626944208 0 -0.48347532399247167 0.38708508993820617 0 -0.5 0.36307181165793362 0 -0.5 0.39045689626944208 0 -0.4867909874498324 0.40378966281942269 0 -0.48347532399247167 0.38708508993820617 0 -0.50000000000000111 0.4178419808809507 0 -0.5 0.39045689626944208 0 -0.4867909874498324 0.40378966281942269 0 -0.48347532399247167 0.38708508993820617 0 -0.46389840540378741 0.39967466157430742 0 -0.4867909874498324 0.40378966281942269 0 -0.48347532399247167 0.38708508993820617 0 -0.46389840540378741 0.39967466157430742 0 -0.48347532399247167 0.38708508993820617 0 -0.4676750501120116 0.38380273404388948 0 -0.46389840540378741 0.39967466157430742 0 -0.48347532399247167 0.38708508993820617 0 -0.4676750501120116 0.38380273404388948 0 -0.47352316120901361 0.36555838803570351 0 -0.4676750501120116 0.38380273404388948 0 -0.46389840540378741 0.39967466157430742 0 -0.45260671034266942 0.3848657702120768 0 -0.4676750501120116 0.38380273404388948 0 -0.45260671034266942 0.3848657702120768 0 -0.46013212160280448 0.37336195628337387 0 -0.45260671034266942 0.3848657702120768 0 -0.44749480610474479 0.37159192785939638 0 -0.46013212160280448 0.37336195628337387 0 -0.44432148681510308 0.41226423321040839 0 -0.46389840540378741 0.39967466157430742 0 -0.46389840540378741 0.39967466157430742 0 -0.44851976669939397 0.39727665860096723 0 -0.45260671034266942 0.3848657702120768 0 -0.44432148681510308 0.41226423321040839 0 -0.46389840540378741 0.39967466157430742 0 -0.44851976669939397 0.39727665860096723 0 -0.44851976669939397 0.39727665860096723 0 -0.4357347980953864 0.38362875667778001 0 -0.43298374143266111 0.39821733153662398 0 -0.44432148681510308 0.41226423321040839 0 -0.44851976669939397 0.39727665860096723 0 -0.43298374143266111 0.39821733153662398 0 -0.44432148681510308 0.41226423321040839 0 -0.43298374143266111 0.39821733153662398 0 -0.45260671034266942 0.3848657702120768 0 -0.4357347980953864 0.38362875667778001 0 -0.44749480610474479 0.37159192785939638 0 -0.44851976669939397 0.39727665860096723 0 -0.45260671034266942 0.3848657702120768 0 -0.4357347980953864 0.38362875667778001 0 -0.4357347980953864 0.38362875667778001 0 -0.42164599605021802 0.38417042986284039 0 -0.43298374143266111 0.39821733153662398 0 -0.42976694557768019 0.37636748047204149 0 -0.42164599605021802 0.38417042986284039 0 -0.42059607963555762 0.37430917687909759 0 -0.42976694557768019 0.37636748047204149 0 -0.4357347980953864 0.38362875667778001 0 -0.42164599605021802 0.38417042986284039 0 -0.39565168276554391 0.38651553483796619 0 -0.42059607963555762 0.37430917687909759 0 -0.42164599605021802 0.38417042986284039 0 -0.41145682899368968 0.39762346202840282 0 -0.39565168276554391 0.38651553483796619 0 -0.42164599605021802 0.38417042986284039 0 -0.39565168276554391 0.38651553483796619 0 -0.42059607963555762 0.37430917687909759 0 -0.41145682899368968 0.39762346202840282 0 -0.41526284250328083 0.40751853840280428 0 -0.40175085843842367 0.40991400216248602 0 -0.42164599605021802 0.38417042986284039 0 -0.41145682899368968 0.39762346202840282 0 -0.42185466372540958 0.39706165968205692 0 -0.41145682899368968 0.39762346202840282 0 -0.42185466372540958 0.39706165968205692 0 -0.41526284250328083 0.40751853840280428 0 -0.42185466372540958 0.39706165968205692 0 -0.42581483240809881 0.40649199841865952 0 -0.41526284250328083 0.40751853840280428 0 -0.42185466372540958 0.39706165968205692 0 -0.43298374143266111 0.39821733153662398 0 -0.42581483240809881 0.40649199841865952 0 -0.42164599605021802 0.38417042986284039 0 -0.42185466372540958 0.39706165968205692 0 -0.43298374143266111 0.39821733153662398 0 -0.42164599605021802 0.38417042986284039 0 -0.43298374143266111 0.39821733153662398 0 -0.43298374143266111 0.39821733153662398 0 -0.43674802366092041 0.41713459401213671 0 -0.42581483240809881 0.40649199841865952 0 -0.43674802366092041 0.41713459401213671 0 -0.42581483240809881 0.40649199841865952 0 -0.43674802366092041 0.41713459401213671 0 -0.41910653262853498 0.42847952626558311 0 -0.42181637658355853 0.41545552161715471 0 -0.43674802366092041 0.41713459401213671 0 -0.42581483240809881 0.40649199841865952 0 -0.42181637658355853 0.41545552161715471 0 -0.43674802366092041 0.41713459401213671 0 -0.42928617233366839 0.43166676907598478 0 -0.41910653262853498 0.42847952626558311 0 -0.42297119595946597 0.44699292519099859 0 -0.42928617233366839 0.43166676907598478 0 -0.41910653262853498 0.42847952626558311 0 -0.43674802366092041 0.41713459401213671 0 -0.41910653262853498 0.42847952626558311 0 -0.40146504159614949 0.43982445851902918 0 -0.41910653262853498 0.42847952626558311 0 -0.40009190405180162 0.42471731676311081 0 -0.40146504159614949 0.43982445851902918 0 -0.41910653262853498 0.42847952626558311 0 -0.41910653262853498 0.42847952626558311 0 -0.41157096202619708 0.41735727270031753 0 -0.40009190405180162 0.42471731676311081 0 -0.41526284250328083 0.40751853840280428 0 -0.42181637658355853 0.41545552161715471 0 -0.41157096202619708 0.41735727270031753 0 -0.42581483240809881 0.40649199841865952 0 -0.41526284250328083 0.40751853840280428 0 -0.42181637658355853 0.41545552161715471 0 -0.41910653262853498 0.42847952626558311 0 -0.42181637658355853 0.41545552161715471 0 -0.41157096202619708 0.41735727270031753 0 -0.41526284250328083 0.40751853840280428 0 -0.41157096202619708 0.41735727270031753 0 -0.40175085843842367 0.40991400216248602 0 -0.40175085843842367 0.40991400216248602 0 -0.40009190405180162 0.42471731676311081 0 -0.38364603400115699 0.41290722975278699 0 -0.41157096202619708 0.41735727270031753 0 -0.40175085843842367 0.40991400216248602 0 -0.40009190405180162 0.42471731676311081 0 -0.40146504159614949 0.43982445851902918 0 -0.40009190405180162 0.42471731676311081 0 -0.38482963505711432 0.43248135162720752 0 -0.38482963505711432 0.43248135162720752 0 -0.38364603400115699 0.41290722975278699 0 -0.3692385027538308 0.42659736265413661 0 -0.40009190405180162 0.42471731676311081 0 -0.38482963505711432 0.43248135162720752 0 -0.38364603400115699 0.41290722975278699 0 -0.38364603400115699 0.41290722975278699 0 -0.39565168276554391 0.38651553483796619 0 -0.37070728589553009 0.39872189279683479 0 -0.39565168276554391 0.38651553483796619 0 -0.37070728589553009 0.39872189279683479 0 -0.37594097329546711 0.37703181325911128 0 -0.39565168276554391 0.38651553483796619 0 -0.39611560852437999 0.3676825951429864 0 -0.37594097329546711 0.37703181325911128 0 -0.39565168276554391 0.38651553483796619 0 -0.37070728589553009 0.39872189279683479 0 -0.39565168276554391 0.38651553483796619 0 -0.39611560852437999 0.3676825951429864 0 -0.42059607963555762 0.37430917687909759 0 -0.41145682899368968 0.39762346202840282 0 -0.40175085843842367 0.40991400216248602 0 -0.39565168276554391 0.38651553483796619 0 -0.40175085843842367 0.40991400216248602 0 -0.38364603400115699 0.41290722975278699 0 -0.39565168276554391 0.38651553483796619 0 -0.39572808003859361 0.35014253964859787 0 -0.41058005383944579 0.33616551763068608 0 -0.41086615678233629 0.36152695473369828 0 -0.39572808003859361 0.35014253964859787 0 -0.39611560852437999 0.3676825951429864 0 -0.41086615678233629 0.36152695473369828 0 -0.37594097329546711 0.37703181325911128 0 -0.39611560852437999 0.3676825951429864 0 -0.37791067862878241 0.35656955149944719 0 -0.39572808003859361 0.35014253964859787 0 -0.39611560852437999 0.3676825951429864 0 -0.37791067862878241 0.35656955149944719 0 -0.39572808003859361 0.35014253964859787 0 -0.37791067862878241 0.35656955149944719 0 -0.38050482133986541 0.33872584420876928 0 -0.38050482133986541 0.33872584420876928 0 -0.38805953879506327 0.31815798136976181 0 -0.39576577097109461 0.33512080062324168 0 -0.38805953879506327 0.31815798136976181 0 -0.37390186212686272 0.30354935979809983 0 -0.36582512669357242 0.32551188221185151 0 -0.38805953879506327 0.31815798136976181 0 -0.36582512669357242 0.32551188221185151 0 -0.38050482133986541 0.33872584420876928 0 -0.38805953879506327 0.31815798136976181 0 -0.36582512669357242 0.32551188221185151 0 -0.38805953879506327 0.31815798136976181 0 -0.40218547565615509 0.32357788473777321 0 -0.41029395089655479 0.31080408052767378 0 -0.38805953879506327 0.31815798136976181 0 -0.41029395089655479 0.31080408052767378 0 -0.38805953879506327 0.31815798136976181 0 -0.40218547565615509 0.32357788473777321 0 -0.39576577097109461 0.33512080062324168 0 -0.39572808003859361 0.35014253964859787 0 -0.38050482133986541 0.33872584420876928 0 -0.39576577097109461 0.33512080062324168 0 -0.40218547565615509 0.32357788473777321 0 -0.39576577097109461 0.33512080062324168 0 -0.41058005383944579 0.33616551763068608 0 -0.39572808003859361 0.35014253964859787 0 -0.39576577097109461 0.33512080062324168 0 -0.41058005383944579 0.33616551763068608 0 -0.41058005383944579 0.33616551763068608 0 -0.42567335719313237 0.32573303618059068 0 -0.42322640412821971 0.33831194693217048 0 -0.41058005383944579 0.33616551763068608 0 -0.42322640412821971 0.33831194693217048 0 -0.42242839836846369 0.35167874100599827 0 -0.40218547565615509 0.32357788473777321 0 -0.41058005383944579 0.33616551763068608 0 -0.41029395089655479 0.31080408052767378 0 -0.41058005383944579 0.33616551763068608 0 -0.41978439852042387 0.31870900626332149 0 -0.42567335719313237 0.32573303618059068 0 -0.41058005383944579 0.33616551763068608 0 -0.41978439852042387 0.31870900626332149 0 -0.41029395089655479 0.31080408052767378 0 -0.41058005383944579 0.33616551763068608 0 -0.41029395089655479 0.31080408052767378 0 -0.43422380711183661 0.339670492911407 0 -0.43916042573484249 0.31236026352091961 0 -0.42567335719313237 0.32573303618059068 0 -0.43422380711183661 0.339670492911407 0 -0.43916042573484249 0.31236026352091961 0 -0.41978439852042387 0.31870900626332149 0 -0.42729887010664058 0.31492731293354831 0 -0.42507576056634577 0.30591508404410872 0 -0.41978439852042387 0.31870900626332149 0 -0.42729887010664058 0.31492731293354831 0 -0.42567335719313237 0.32573303618059068 0 -0.42729887010664058 0.31492731293354831 0 -0.42567335719313237 0.32573303618059068 0 -0.43916042573484249 0.31236026352091961 0 -0.42322640412821971 0.33831194693217048 0 -0.43422380711183661 0.339670492911407 0 -0.42242839836846369 0.35167874100599827 0 -0.42567335719313237 0.32573303618059068 0 -0.42322640412821971 0.33831194693217048 0 -0.43422380711183661 0.339670492911407 0 -0.43422380711183661 0.339670492911407 0 -0.4292871884888308 0.36698072230189421 0 -0.43901145663183988 0.35740720477015853 0 -0.43422380711183661 0.339670492911407 0 -0.4292871884888308 0.36698072230189421 0 -0.43422380711183661 0.339670492911407 0 -0.42242839836846369 0.35167874100599827 0 -0.4292871884888308 0.36698072230189421 0 -0.41058005383944579 0.33616551763068608 0 -0.42242839836846369 0.35167874100599827 0 -0.41086615678233629 0.36152695473369828 0 -0.41058005383944579 0.33616551763068608 0 -0.41086615678233629 0.36152695473369828 0 -0.42242839836846369 0.35167874100599827 0 -0.41086615678233629 0.36152695473369828 0 -0.42016277244658462 0.36443014360995912 0 -0.39611560852437999 0.3676825951429864 0 -0.41086615678233629 0.36152695473369828 0 -0.42059607963555762 0.37430917687909759 0 -0.41086615678233629 0.36152695473369828 0 -0.42016277244658462 0.36443014360995912 0 -0.42059607963555762 0.37430917687909759 0 -0.42976694557768019 0.37636748047204149 0 -0.4357347980953864 0.38362875667778001 0 -0.43901145663183988 0.35740720477015853 0 -0.42016277244658462 0.36443014360995912 0 -0.42059607963555762 0.37430917687909759 0 -0.4292871884888308 0.36698072230189421 0 -0.4357347980953864 0.38362875667778001 0 -0.43901145663183988 0.35740720477015853 0 -0.42976694557768019 0.37636748047204149 0 -0.4292871884888308 0.36698072230189421 0 -0.43901145663183988 0.35740720477015853 0 -0.42976694557768019 0.37636748047204149 0 -0.42059607963555762 0.37430917687909759 0 -0.4292871884888308 0.36698072230189421 0 -0.42242839836846369 0.35167874100599827 0 -0.42016277244658462 0.36443014360995912 0 -0.4292871884888308 0.36698072230189421 0 -0.44749480610474479 0.37159192785939638 0 -0.43901145663183988 0.35740720477015853 0 -0.45613420101849761 0.35983135866168808 0 -0.4357347980953864 0.38362875667778001 0 -0.44749480610474479 0.37159192785939638 0 -0.43901145663183988 0.35740720477015853 0 -0.43901145663183988 0.35740720477015853 0 -0.45139663531792018 0.34533797775678571 0 -0.44228811516829353 0.33118565286253687 0 -0.43901145663183988 0.35740720477015853 0 -0.44228811516829353 0.33118565286253687 0 -0.43901145663183988 0.35740720477015853 0 -0.45139663531792018 0.34533797775678571 0 -0.45613420101849761 0.35983135866168808 0 -0.46524702524466283 0.34573069726471128 0 -0.45613420101849761 0.35983135866168808 0 -0.47352316120901361 0.36555838803570351 0 -0.45139663531792018 0.34533797775678571 0 -0.46524702524466283 0.34573069726471128 0 -0.45613420101849761 0.35983135866168808 0 -0.4676750501120116 0.38380273404388948 0 -0.46013212160280448 0.37336195628337387 0 -0.47352316120901361 0.36555838803570351 0 -0.46013212160280448 0.37336195628337387 0 -0.45613420101849761 0.35983135866168808 0 -0.47352316120901361 0.36555838803570351 0 -0.44749480610474479 0.37159192785939638 0 -0.46013212160280448 0.37336195628337387 0 -0.45613420101849761 0.35983135866168808 0 -0.46524702524466283 0.34573069726471128 0 -0.47352316120901361 0.36555838803570351 0 -0.48181010218563119 0.34410162573635278 0 -0.48181010218563119 0.34410162573635278 0 -0.5 0.36307181165793362 0 -0.49999999999999889 0.3356867270464251 0 -0.47352316120901361 0.36555838803570351 0 -0.48181010218563119 0.34410162573635278 0 -0.5 0.36307181165793362 0 -0.48347532399247167 0.38708508993820617 0 -0.47352316120901361 0.36555838803570351 0 -0.5 0.36307181165793362 0 -0.49273699921418967 0.31857266701787601 0 -0.48209080823460843 0.31212933853659319 0 -0.49900675920346932 0.3082268667346415 0 -0.49273699921418967 0.31857266701787601 0 -0.49999999999999889 0.3356867270464251 0 -0.49999999999999961 0.3109611340792362 0 -0.49273699921418967 0.31857266701787601 0 -0.49999999999999889 0.3356867270464251 0 -0.48258742863287291 0.32585926869248311 0 -0.49273699921418967 0.31857266701787601 0 -0.48258742863287291 0.32585926869248311 0 -0.48209080823460843 0.31212933853659319 0 -0.49273699921418967 0.31857266701787601 0 -0.49999999999999961 0.3109611340792362 0 -0.49900675920346932 0.3082268667346415 0 -0.48181010218563119 0.34410162573635278 0 -0.49999999999999889 0.3356867270464251 0 -0.48258742863287291 0.32585926869248311 0 -0.49999999999999889 0.3356867270464251 0 -0.48258742863287291 0.32585926869248311 0 -0.46524702524466283 0.34573069726471128 0 -0.48181010218563119 0.34410162573635278 0 -0.47036426245938368 0.33282238788213442 0 -0.48181010218563119 0.34410162573635278 0 -0.47036426245938368 0.33282238788213442 0 -0.48258742863287291 0.32585926869248311 0 -0.4651748572657467 0.3160318103385415 0 -0.48209080823460843 0.31212933853659319 0 -0.47036426245938368 0.33282238788213442 0 -0.48258742863287291 0.32585926869248311 0 -0.4651748572657467 0.3160318103385415 0 -0.48258742863287291 0.32585926869248311 0 -0.4651748572657467 0.3160318103385415 0 -0.48258742863287291 0.32585926869248311 0 -0.4651748572657467 0.3160318103385415 0 -0.48209080823460843 0.31212933853659319 0 -0.4651748572657467 0.3160318103385415 0 -0.45700189896800431 0.33238853737858409 0 -0.45218336043298191 0.31902891940727279 0 -0.47036426245938368 0.33282238788213442 0 -0.4651748572657467 0.3160318103385415 0 -0.45700189896800431 0.33238853737858409 0 -0.4651748572657467 0.3160318103385415 0 -0.45218336043298191 0.31902891940727279 0 -0.44556477370474828 0.30496410095491538 0 -0.4651748572657467 0.3160318103385415 0 -0.45218336043298191 0.31902891940727279 0 -0.46524702524466283 0.34573069726471128 0 -0.47036426245938368 0.33282238788213442 0 -0.45700189896800431 0.33238853737858409 0 -0.45139663531792018 0.34533797775678571 0 -0.46524702524466283 0.34573069726471128 0 -0.45700189896800431 0.33238853737858409 0 -0.43422380711183661 0.339670492911407 0 -0.43901145663183988 0.35740720477015853 0 -0.44228811516829353 0.33118565286253687 0 -0.45139663531792018 0.34533797775678571 0 -0.45700189896800431 0.33238853737858409 0 -0.44228811516829353 0.33118565286253687 0 -0.44228811516829353 0.33118565286253687 0 -0.44556477370474828 0.30496410095491538 0 -0.44228811516829353 0.33118565286253687 0 -0.45218336043298191 0.31902891940727279 0 -0.44556477370474828 0.30496410095491538 0 -0.43422380711183661 0.339670492911407 0 -0.44228811516829353 0.33118565286253687 0 -0.43916042573484249 0.31236026352091961 0 -0.44228811516829353 0.33118565286253687 0 -0.43916042573484249 0.31236026352091961 0 -0.44556477370474828 0.30496410095491538 0 -0.45700189896800431 0.33238853737858409 0 -0.44228811516829353 0.33118565286253687 0 -0.45218336043298191 0.31902891940727279 0 -0.43916042573484249 0.31236026352091961 0 -0.44267757937931501 0.30333460113006061 0 -0.44409704435784841 0.28505003413043228 0 -0.43916042573484249 0.31236026352091961 0 -0.44267757937931501 0.30333460113006061 0 -0.44556477370474828 0.30496410095491538 0 -0.43916042573484249 0.31236026352091961 0 -0.43985757023613742 0.30102608756054527 0 -0.44409704435784841 0.28505003413043228 0 -0.44556477370474828 0.30496410095491538 0 -0.44805670153143018 0.28502237857814799 0 -0.45928134254650099 0.3035674002929909 0 -0.43916042573484249 0.31236026352091961 0 -0.44409704435784841 0.28505003413043228 0 -0.44267757937931501 0.30333460113006061 0 -0.44556477370474828 0.30496410095491538 0 -0.44805670153143018 0.28502237857814799 0 -0.44267757937931501 0.30333460113006061 0 -0.44556477370474828 0.30496410095491538 0 -0.44267757937931501 0.30333460113006061 0 -0.44409704435784841 0.28505003413043228 0 -0.44805670153143018 0.28502237857814799 0 -0.44556477370474828 0.30496410095491538 0 -0.44805670153143018 0.28502237857814799 0 -0.43985757023613742 0.30102608756054527 0 -0.44409704435784841 0.28505003413043228 0 -0.43692815459886492 0.2914473681132832 0 -0.44409704435784841 0.28505003413043228 0 -0.44134555059623243 0.28154646206512962 0 -0.44805670153143018 0.28502237857814799 0 -0.44134555059623243 0.28154646206512962 0 -0.43765873701210739 0.28473094597056481 0 -0.43418332479668048 0.27934680377034737 0 -0.44409704435784841 0.28505003413043228 0 -0.44134555059623243 0.28154646206512962 0 -0.43765873701210739 0.28473094597056481 0 -0.44409704435784841 0.28505003413043228 0 -0.43765873701210739 0.28473094597056481 0 -0.43692815459886492 0.2914473681132832 0 -0.46893694734034808 0.29372543252253702 0 -0.47417560043857537 0.27600799612601529 0 -0.46078831108262969 0.27648446987611031 0 -0.44805670153143018 0.28502237857814799 0 -0.46893694734034808 0.29372543252253702 0 -0.46078831108262969 0.27648446987611031 0 -0.44805670153143018 0.28502237857814799 0 -0.45928134254650099 0.3035674002929909 0 -0.46893694734034808 0.29372543252253702 0 -0.4651748572657467 0.3160318103385415 0 -0.45928134254650099 0.3035674002929909 0 -0.46893694734034808 0.29372543252253702 0 -0.4651748572657467 0.3160318103385415 0 -0.44556477370474828 0.30496410095491538 0 -0.4651748572657467 0.3160318103385415 0 -0.44556477370474828 0.30496410095491538 0 -0.45928134254650099 0.3035674002929909 0 -0.4651748572657467 0.3160318103385415 0 -0.48209080823460843 0.31212933853659319 0 -0.46893694734034808 0.29372543252253702 0 -0.48209080823460843 0.31212933853659319 0 -0.46893694734034808 0.29372543252253702 0 -0.49044097020086991 0.28464632389716138 0 -0.46893694734034808 0.29372543252253702 0 -0.49044097020086991 0.28464632389716138 0 -0.47417560043857537 0.27600799612601529 0 -0.49044097020086991 0.28464632389716138 0 -0.5 0.28265204285311679 0 -0.49900675920346932 0.3082268667346415 0 -0.49044097020086991 0.28464632389716138 0 -0.49900675920346932 0.3082268667346415 0 -0.48209080823460843 0.31212933853659319 0 -0.49900675920346932 0.3082268667346415 0 -0.48209080823460843 0.31212933853659319 0 -0.49044097020086991 0.28464632389716138 0 -0.49900675920346932 0.3082268667346415 0 -0.48853759105745842 0.2439447864997969 0 -0.49149142890325032 0.25983334302870392 0 -0.5 0.25730635738704971 0 -0.48853759105745842 0.2439447864997969 0 -0.49149142890325032 0.25983334302870392 0 -0.481875181198271 0.26106578105968098 0 -0.49149142890325032 0.25983334302870392 0 -0.49278876132218602 0.27002051411054218 0 -0.481875181198271 0.26106578105968098 0 -0.49149142890325032 0.25983334302870392 0 -0.481875181198271 0.26106578105968098 0 -0.49149142890325032 0.25983334302870392 0 -0.5 0.25730635738704971 0 -0.49278876132218602 0.27002051411054218 0 -0.49044097020086991 0.28464632389716138 0 -0.49278876132218602 0.27002051411054218 0 -0.481875181198271 0.26106578105968098 0 -0.49044097020086991 0.28464632389716138 0 -0.481875181198271 0.26106578105968098 0 -0.5 0.28265204285311679 0 -0.5 0.25730635738704971 0 -0.49278876132218602 0.27002051411054218 0 -0.49044097020086991 0.28464632389716138 0 -0.5 0.28265204285311679 0 -0.49278876132218602 0.27002051411054218 0 -0.47417560043857537 0.27600799612601529 0 -0.481875181198271 0.26106578105968098 0 -0.46621190527819278 0.26307321863053229 0 -0.49044097020086991 0.28464632389716138 0 -0.47417560043857537 0.27600799612601529 0 -0.481875181198271 0.26106578105968098 0 -0.481875181198271 0.26106578105968098 0 -0.46621190527819278 0.26307321863053229 0 -0.46721132042424712 0.24925519771351959 0 -0.481875181198271 0.26106578105968098 0 -0.46621190527819278 0.26307321863053229 0 -0.46721132042424712 0.24925519771351959 0 -0.46621190527819278 0.26307321863053229 0 -0.45809405788141028 0.25687988800899181 0 -0.46621190527819278 0.26307321863053229 0 -0.45054862935811418 0.26508065620138072 0 -0.46621190527819278 0.26307321863053229 0 -0.45809405788141028 0.25687988800899181 0 -0.45054862935811418 0.26508065620138072 0 -0.45922386110059349 0.2489550843189465 0 -0.46721132042424712 0.24925519771351959 0 -0.45809405788141028 0.25687988800899181 0 -0.45809405788141028 0.25687988800899181 0 -0.45110081554678289 0.26066177072772329 0 -0.45054862935811418 0.26508065620138072 0 -0.45426781558053098 0.25425340046184541 0 -0.45809405788141028 0.25687988800899181 0 -0.45110081554678289 0.26066177072772329 0 -0.45922386110059349 0.2489550843189465 0 -0.45426781558053098 0.25425340046184541 0 -0.45809405788141028 0.25687988800899181 0 -0.45304220878385493 0.2488068918788551 0 -0.45922386110059349 0.2489550843189465 0 -0.45426781558053098 0.25425340046184541 0 -0.46621190527819278 0.26307321863053229 0 -0.46078831108262969 0.27648446987611031 0 -0.45054862935811418 0.26508065620138072 0 -0.44805670153143018 0.28502237857814799 0 -0.46078831108262969 0.27648446987611031 0 -0.45054862935811418 0.26508065620138072 0 -0.47417560043857537 0.27600799612601529 0 -0.46621190527819278 0.26307321863053229 0 -0.46078831108262969 0.27648446987611031 0 -0.44273194528309512 0.27358214787615542 0 -0.45054862935811418 0.26508065620138072 0 -0.43277208908981851 0.26735893406588768 0 -0.44805670153143018 0.28502237857814799 0 -0.45054862935811418 0.26508065620138072 0 -0.45054862935811418 0.26508065620138072 0 -0.43277208908981851 0.26735893406588768 0 -0.44805670153143018 0.28502237857814799 0 -0.44273194528309512 0.27358214787615542 0 -0.45054862935811418 0.26508065620138072 0 -0.44134555059623243 0.28154646206512962 0 -0.44805670153143018 0.28502237857814799 0 -0.44273194528309512 0.27358214787615542 0 -0.44134555059623243 0.28154646206512962 0 -0.44273194528309512 0.27358214787615542 0 -0.43418332479668048 0.27934680377034737 0 -0.45054862935811418 0.26508065620138072 0 -0.44440934475565019 0.25949440426590992 0 -0.43277208908981851 0.26735893406588768 0 -0.44687395105772582 0.25319904646800412 0 -0.44988406672076242 0.25626115814760619 0 -0.44440934475565019 0.25949440426590992 0 -0.44687395105772582 0.25319904646800412 0 -0.45056188458569357 0.25237083086410622 0 -0.44988406672076242 0.25626115814760619 0 -0.44411788829099452 0.2499954126004221 0 -0.44874138078559411 0.2493336573642202 0 -0.44687395105772582 0.25319904646800412 0 -0.44874138078559411 0.2493336573642202 0 -0.44687395105772582 0.25319904646800412 0 -0.45056188458569357 0.25237083086410622 0 -0.45304220878385493 0.2488068918788551 0 -0.45426781558053098 0.25425340046184541 0 -0.45056188458569357 0.25237083086410622 0 -0.44874138078559411 0.2493336573642202 0 -0.45304220878385493 0.2488068918788551 0 -0.45056188458569357 0.25237083086410622 0 -0.45426781558053098 0.25425340046184541 0 -0.44988406672076242 0.25626115814760619 0 -0.45110081554678289 0.26066177072772329 0 -0.45426781558053098 0.25425340046184541 0 -0.45056188458569357 0.25237083086410622 0 -0.44988406672076242 0.25626115814760619 0 -0.45110081554678289 0.26066177072772329 0 -0.45054862935811418 0.26508065620138072 0 -0.45110081554678289 0.26066177072772329 0 -0.45054862935811418 0.26508065620138072 0 -0.44440934475565019 0.25949440426590992 0 -0.44988406672076242 0.25626115814760619 0 -0.45110081554678289 0.26066177072772329 0 -0.44440934475565019 0.25949440426590992 0 -0.44440934475565019 0.25949440426590992 0 -0.43753058109450133 0.25886759801150089 0 -0.43277208908981851 0.26735893406588768 0 -0.43753058109450133 0.25886759801150089 0 -0.44160375885911202 0.25433731037838431 0 -0.43634758690429709 0.25372271014442282 0 -0.44440934475565019 0.25949440426590992 0 -0.43753058109450133 0.25886759801150089 0 -0.44160375885911202 0.25433731037838431 0 -0.44687395105772582 0.25319904646800412 0 -0.44440934475565019 0.25949440426590992 0 -0.44160375885911202 0.25433731037838431 0 -0.4393666918235043 0.24905179489911561 0 -0.44411788829099452 0.2499954126004221 0 -0.44160375885911202 0.25433731037838431 0 -0.44411788829099452 0.2499954126004221 0 -0.44687395105772582 0.25319904646800412 0 -0.44160375885911202 0.25433731037838431 0 -0.4393666918235043 0.24905179489911561 0 -0.44160375885911202 0.25433731037838431 0 -0.43634758690429709 0.25372271014442282 0 -0.43682638659378958 0.2459742962434234 0 -0.43634758690429709 0.25372271014442282 0 -0.42596828457999802 0.25754828341777031 0 -0.43682638659378958 0.2459742962434234 0 -0.42596828457999802 0.25754828341777031 0 -0.42596828457999802 0.25754828341777031 0 -0.41499554882152229 0.26963721193039208 0 -0.43277208908981851 0.26735893406588768 0 -0.41944578727453108 0.24964648624219371 0 -0.43682638659378958 0.2459742962434234 0 -0.42596828457999802 0.25754828341777031 0 -0.43753058109450133 0.25886759801150089 0 -0.43634758690429709 0.25372271014442282 0 -0.42596828457999802 0.25754828341777031 0 -0.43753058109450133 0.25886759801150089 0 -0.42596828457999802 0.25754828341777031 0 -0.43277208908981851 0.26735893406588768 0 -0.41944578727453108 0.24964648624219371 0 -0.41499554882152229 0.26963721193039208 0 -0.41944578727453108 0.24964648624219371 0 -0.40977616780316428 0.26490548464685482 0 -0.41499554882152229 0.26963721193039208 0 -0.41944578727453108 0.24964648624219371 0 -0.42596828457999802 0.25754828341777031 0 -0.41499554882152229 0.26963721193039208 0 -0.42596828457999802 0.25754828341777031 0 -0.41499554882152229 0.26963721193039208 0 -0.41944578727453108 0.24964648624219371 0 -0.40977616780316428 0.26490548464685482 0 -0.40547633660232779 0.25186089584115789 0 -0.4098865505448569 0.27469030172147951 0 -0.41499554882152229 0.26963721193039208 0 -0.4100787074536516 0.29172394460223811 0 -0.41499554882152229 0.26963721193039208 0 -0.4100787074536516 0.29172394460223811 0 -0.4098865505448569 0.27469030172147951 0 -0.40983700474296242 0.27029834152084642 0 -0.40977616780316428 0.26490548464685482 0 -0.40983700474296242 0.27029834152084642 0 -0.40113279248011308 0.26349439015498899 0 -0.40977616780316428 0.26490548464685482 0 -0.40983700474296242 0.27029834152084642 0 -0.40977616780316428 0.26490548464685482 0 -0.40983700474296242 0.27029834152084642 0 -0.41499554882152229 0.26963721193039208 0 -0.40983700474296242 0.27029834152084642 0 -0.41499554882152229 0.26963721193039208 0 -0.4098865505448569 0.27469030172147951 0 -0.41499554882152229 0.26963721193039208 0 -0.4098865505448569 0.27469030172147951 0 -0.40983700474296242 0.27029834152084642 0 -0.41499554882152229 0.26963721193039208 0 -0.41499554882152229 0.26963721193039208 0 -0.42412128478902589 0.27742830568532401 0 -0.4197803407088781 0.28502879023925598 0 -0.41499554882152229 0.26963721193039208 0 -0.43277208908981851 0.26735893406588768 0 -0.42412128478902589 0.27742830568532401 0 -0.43418332479668048 0.27934680377034737 0 -0.42767420177297177 0.28361302058257187 0 -0.41499554882152229 0.26963721193039208 0 -0.42412128478902589 0.27742830568532401 0 -0.43277208908981851 0.26735893406588768 0 -0.44273194528309512 0.27358214787615542 0 -0.43277208908981851 0.26735893406588768 0 -0.43418332479668048 0.27934680377034737 0 -0.42412128478902589 0.27742830568532401 0 -0.43277208908981851 0.26735893406588768 0 -0.43418332479668048 0.27934680377034737 0 -0.43765873701210739 0.28473094597056481 0 -0.43418332479668048 0.27934680377034737 0 -0.43236820587999392 0.28735620267119022 0 -0.43418332479668048 0.27934680377034737 0 -0.43236820587999392 0.28735620267119022 0 -0.42767420177297177 0.28361302058257187 0 -0.43765873701210739 0.28473094597056481 0 -0.43236820587999392 0.28735620267119022 0 -0.43692815459886492 0.2914473681132832 0 -0.43985757023613742 0.30102608756054527 0 -0.43001632444725252 0.29546466694262702 0 -0.43692815459886492 0.2914473681132832 0 -0.43236820587999392 0.28735620267119022 0 -0.43001632444725252 0.29546466694262702 0 -0.43692815459886492 0.2914473681132832 0 -0.43236820587999392 0.28735620267119022 0 -0.43001632444725252 0.29546466694262702 0 -0.42572520974028011 0.29005305780800972 0 -0.43001632444725252 0.29546466694262702 0 -0.42572520974028011 0.29005305780800972 0 -0.41975681172989038 0.29696712584597013 0 -0.42412128478902589 0.27742830568532401 0 -0.42767420177297177 0.28361302058257187 0 -0.4197803407088781 0.28502879023925598 0 -0.42572520974028011 0.29005305780800972 0 -0.42767420177297177 0.28361302058257187 0 -0.4197803407088781 0.28502879023925598 0 -0.43236820587999392 0.28735620267119022 0 -0.42572520974028011 0.29005305780800972 0 -0.42767420177297177 0.28361302058257187 0 -0.42729887010664058 0.31492731293354831 0 -0.43916042573484249 0.31236026352091961 0 -0.42507576056634577 0.30591508404410872 0 -0.43916042573484249 0.31236026352091961 0 -0.43985757023613742 0.30102608756054527 0 -0.42507576056634577 0.30591508404410872 0 -0.43985757023613742 0.30102608756054527 0 -0.42507576056634577 0.30591508404410872 0 -0.43985757023613742 0.30102608756054527 0 -0.43001632444725252 0.29546466694262702 0 -0.42507576056634577 0.30591508404410872 0 -0.43001632444725252 0.29546466694262702 0 -0.42507576056634577 0.30591508404410872 0 -0.41975681172989038 0.29696712584597013 0 -0.41975681172989038 0.29696712584597013 0 -0.41029395089655479 0.31080408052767378 0 -0.4100787074536516 0.29172394460223811 0 -0.40866344625105239 0.29808137887841119 0 -0.41029395089655479 0.31080408052767378 0 -0.4100787074536516 0.29172394460223811 0 -0.41029395089655479 0.31080408052767378 0 -0.4100787074536516 0.29172394460223811 0 -0.42507576056634577 0.30591508404410872 0 -0.41029395089655479 0.31080408052767378 0 -0.41978439852042387 0.31870900626332149 0 -0.42507576056634577 0.30591508404410872 0 -0.41029395089655479 0.31080408052767378 0 -0.42507576056634577 0.30591508404410872 0 -0.41975681172989038 0.29696712584597013 0 -0.41029395089655479 0.31080408052767378 0 -0.41499554882152229 0.26963721193039208 0 -0.4197803407088781 0.28502879023925598 0 -0.4100787074536516 0.29172394460223811 0 -0.4098865505448569 0.27469030172147951 0 -0.4100787074536516 0.29172394460223811 0 -0.4098865505448569 0.27469030172147951 0 -0.4100787074536516 0.29172394460223811 0 -0.39883584702472968 0.28646958880563062 0 -0.41975681172989038 0.29696712584597013 0 -0.4197803407088781 0.28502879023925598 0 -0.4100787074536516 0.29172394460223811 0 -0.42572520974028011 0.29005305780800972 0 -0.41975681172989038 0.29696712584597013 0 -0.4197803407088781 0.28502879023925598 0 -0.40866344625105239 0.29808137887841119 0 -0.4100787074536516 0.29172394460223811 0 -0.4100787074536516 0.29172394460223811 0 -0.39883584702472968 0.28646958880563062 0 -0.39999486953806929 0.2959723426490794 0 -0.40866344625105239 0.29808137887841119 0 -0.4100787074536516 0.29172394460223811 0 -0.39999486953806929 0.2959723426490794 0 -0.39883584702472968 0.28646958880563062 0 -0.39999486953806929 0.2959723426490794 0 -0.38778514350460241 0.29824887588978172 0 -0.39883584702472968 0.28646958880563062 0 -0.38778514350460241 0.29824887588978172 0 -0.38805953879506327 0.31815798136976181 0 -0.39878546234343798 0.30429633159119729 0 -0.38778514350460241 0.29824887588978172 0 -0.38805953879506327 0.31815798136976181 0 -0.41029395089655479 0.31080408052767378 0 -0.39878546234343798 0.30429633159119729 0 -0.40866344625105239 0.29808137887841119 0 -0.39999486953806929 0.2959723426490794 0 -0.39878546234343798 0.30429633159119729 0 -0.40866344625105239 0.29808137887841119 0 -0.41029395089655479 0.31080408052767378 0 -0.39878546234343798 0.30429633159119729 0 -0.39999486953806929 0.2959723426490794 0 -0.39878546234343798 0.30429633159119729 0 -0.38778514350460241 0.29824887588978172 0 -0.38805953879506327 0.31815798136976181 0 -0.38778514350460241 0.29824887588978172 0 -0.37390186212686272 0.30354935979809983 0 -0.39883584702472968 0.28646958880563062 0 -0.38778514350460241 0.29824887588978172 0 -0.37885032983763839 0.28245127448899982 0 -0.38778514350460241 0.29824887588978172 0 -0.37885032983763839 0.28245127448899982 0 -0.37390186212686272 0.30354935979809983 0 -0.39883584702472968 0.28646958880563062 0 -0.37885032983763839 0.28245127448899982 0 -0.38818707761168242 0.27307304059090431 0 -0.37885032983763839 0.28245127448899982 0 -0.38818707761168242 0.27307304059090431 0 -0.37908994260607598 0.26034591691548697 0 -0.38565852741535661 0.2410386274744124 0 -0.37908994260607598 0.26034591691548697 0 -0.39238737564042891 0.25733418817518178 0 -0.38818707761168242 0.27307304059090431 0 -0.37908994260607598 0.26034591691548697 0 -0.39238737564042891 0.25733418817518178 0 -0.38565852741535661 0.2410386274744124 0 -0.39238737564042891 0.25733418817518178 0 -0.40547633660232779 0.25186089584115789 0 -0.38818707761168242 0.27307304059090431 0 -0.39238737564042891 0.25733418817518178 0 -0.40113279248011308 0.26349439015498899 0 -0.39238737564042891 0.25733418817518178 0 -0.40547633660232779 0.25186089584115789 0 -0.40113279248011308 0.26349439015498899 0 -0.40977616780316428 0.26490548464685482 0 -0.40547633660232779 0.25186089584115789 0 -0.40113279248011308 0.26349439015498899 0 -0.4098865505448569 0.27469030172147951 0 -0.39883584702472968 0.28646958880563062 0 -0.38818707761168242 0.27307304059090431 0 -0.40983700474296242 0.27029834152084642 0 -0.38818707761168242 0.27307304059090431 0 -0.4098865505448569 0.27469030172147951 0 -0.40983700474296242 0.27029834152084642 0 -0.38818707761168242 0.27307304059090431 0 -0.40983700474296242 0.27029834152084642 0 -0.38818707761168242 0.27307304059090431 0 -0.40113279248011308 0.26349439015498899 0 -0.4098865505448569 0.27469030172147951 0 -0.39883584702472968 0.28646958880563062 0 -0.35020819596071018 0.27591501741299601 0 -0.36350651679038692 0.26172228249429669 0 -0.34070516367402492 0.26420160059202868 0 -0.35020819596071018 0.27591501741299601 0 -0.36350651679038692 0.26172228249429669 0 -0.36233340848902612 0.28519807291543309 0 -0.34792270048794438 0.24647785674207751 0 -0.36350651679038692 0.26172228249429669 0 -0.34070516367402492 0.26420160059202868 0 -0.36467962509174767 0.2382464920731604 0 -0.37908994260607598 0.26034591691548697 0 -0.36350651679038692 0.26172228249429669 0 -0.36350651679038692 0.26172228249429669 0 -0.36233340848902612 0.28519807291543309 0 -0.37885032983763839 0.28245127448899982 0 -0.37908994260607598 0.26034591691548697 0 -0.36350651679038692 0.26172228249429669 0 -0.37885032983763839 0.28245127448899982 0 -0.36350651679038692 0.26172228249429669 0 -0.36233340848902612 0.28519807291543309 0 -0.37885032983763839 0.28245127448899982 0 -0.36233340848902612 0.28519807291543309 0 -0.37390186212686272 0.30354935979809983 0 -0.36233340848902612 0.28519807291543309 0 -0.37390186212686272 0.30354935979809983 0 -0.36116030018766532 0.30867386333656938 0 -0.36233340848902612 0.28519807291543309 0 -0.36116030018766532 0.30867386333656938 0 -0.36233340848902612 0.28519807291543309 0 -0.36116030018766532 0.30867386333656938 0 -0.35121111869610477 0.29826194578923831 0 -0.36116030018766532 0.30867386333656938 0 -0.34187511917070162 0.30591268705493302 0 -0.34788872650396968 0.32174080570569558 0 -0.36116030018766532 0.30867386333656938 0 -0.35121111869610477 0.29826194578923831 0 -0.34187511917070162 0.30591268705493302 0 -0.36233340848902612 0.28519807291543309 0 -0.35121111869610477 0.29826194578923831 0 -0.34628285294820232 0.28859375868195108 0 -0.35020819596071018 0.27591501741299601 0 -0.36233340848902612 0.28519807291543309 0 -0.34628285294820232 0.28859375868195108 0 -0.35121111869610477 0.29826194578923831 0 -0.34628285294820232 0.28859375868195108 0 -0.33753022500820568 0.29731109237554521 0 -0.35020819596071018 0.27591501741299601 0 -0.34628285294820232 0.28859375868195108 0 -0.3382130379019106 0.27985937238127029 0 -0.33812645963722998 0.28973234938448239 0 -0.33428207927187847 0.28586439375230738 0 -0.3382130379019106 0.27985937238127029 0 -0.34628285294820232 0.28859375868195108 0 -0.33812645963722998 0.28973234938448239 0 -0.3382130379019106 0.27985937238127029 0 -0.34628285294820232 0.28859375868195108 0 -0.33812645963722998 0.28973234938448239 0 -0.33753022500820568 0.29731109237554521 0 -0.33812645963722998 0.28973234938448239 0 -0.33398284468732897 0.2903107767943624 0 -0.33753022500820568 0.29731109237554521 0 -0.33398284468732897 0.2903107767943624 0 -0.33030035890555159 0.2922965818171599 0 -0.33753022500820568 0.29731109237554521 0 -0.33030035890555159 0.2922965818171599 0 -0.33753022500820568 0.29731109237554521 0 -0.33009263835176628 0.29973154255737422 0 -0.33030035890555159 0.2922965818171599 0 -0.33009263835176628 0.29973154255737422 0 -0.32557729981113032 0.29542836065828132 0 -0.33398284468732897 0.2903107767943624 0 -0.33030035890555159 0.2922965818171599 0 -0.3298973156978624 0.28940934682049257 0 -0.3298973156978624 0.28940934682049257 0 -0.33218484940252041 0.28238852395615088 0 -0.32646096828974408 0.27469373523007717 0 -0.33218484940252041 0.28238852395615088 0 -0.33428207927187847 0.28586439375230738 0 -0.3382130379019106 0.27985937238127029 0 -0.3298973156978624 0.28940934682049257 0 -0.33218484940252041 0.28238852395615088 0 -0.33428207927187847 0.28586439375230738 0 -0.33812645963722998 0.28973234938448239 0 -0.33398284468732897 0.2903107767943624 0 -0.33428207927187847 0.28586439375230738 0 -0.33398284468732897 0.2903107767943624 0 -0.3298973156978624 0.28940934682049257 0 -0.33428207927187847 0.28586439375230738 0 -0.34187511917070162 0.30591268705493302 0 -0.3243159466118658 0.30923666901800478 0 -0.34788872650396968 0.32174080570569558 0 -0.34187511917070162 0.30591268705493302 0 -0.33009263835176628 0.29973154255737422 0 -0.3243159466118658 0.30923666901800478 0 -0.34187511917070162 0.30591268705493302 0 -0.33753022500820568 0.29731109237554521 0 -0.33009263835176628 0.29973154255737422 0 -0.35121111869610477 0.29826194578923831 0 -0.34187511917070162 0.30591268705493302 0 -0.33753022500820568 0.29731109237554521 0 -0.33009263835176628 0.29973154255737422 0 -0.32109807480442237 0.29909072360956851 0 -0.32557729981113032 0.29542836065828132 0 -0.33009263835176628 0.29973154255737422 0 -0.3243159466118658 0.30923666901800478 0 -0.32109807480442237 0.29909072360956851 0 -0.32109807480442237 0.29909072360956851 0 -0.31286713120496368 0.30701005073815651 0 -0.31273234736189892 0.29494293862524262 0 -0.3243159466118658 0.30923666901800478 0 -0.32109807480442237 0.29909072360956851 0 -0.31286713120496368 0.30701005073815651 0 -0.33030035890555159 0.2922965818171599 0 -0.31414073335172887 0.27735433444257362 0 -0.33030035890555159 0.2922965818171599 0 -0.32081812718278091 0.29059459464902249 0 -0.31414073335172887 0.27735433444257362 0 -0.33030035890555159 0.2922965818171599 0 -0.3298973156978624 0.28940934682049257 0 -0.31414073335172887 0.27735433444257362 0 -0.32109807480442237 0.29909072360956851 0 -0.32081812718278091 0.29059459464902249 0 -0.32557729981113032 0.29542836065828132 0 -0.33030035890555159 0.2922965818171599 0 -0.32081812718278091 0.29059459464902249 0 -0.32557729981113032 0.29542836065828132 0 -0.32109807480442237 0.29909072360956851 0 -0.32081812718278091 0.29059459464902249 0 -0.31273234736189892 0.29494293862524262 0 -0.32081812718278091 0.29059459464902249 0 -0.31273234736189892 0.29494293862524262 0 -0.31329437934719712 0.28780096647150222 0 -0.32081812718278091 0.29059459464902249 0 -0.31329437934719712 0.28780096647150222 0 -0.31414073335172887 0.27735433444257362 0 -0.3298973156978624 0.28940934682049257 0 -0.3137689139904466 0.26649193874071431 0 -0.32646096828974408 0.27469373523007717 0 -0.3298973156978624 0.28940934682049257 0 -0.31414073335172887 0.27735433444257362 0 -0.3137689139904466 0.26649193874071431 0 -0.3298973156978624 0.28940934682049257 0 -0.3137689139904466 0.26649193874071431 0 -0.3137689139904466 0.26649193874071431 0 -0.32646096828974408 0.27469373523007717 0 -0.32585520976260951 0.26150823799518502 0 -0.33218484940252041 0.28238852395615088 0 -0.32646096828974408 0.27469373523007717 0 -0.3382130379019106 0.27985937238127029 0 -0.35020819596071018 0.27591501741299601 0 -0.3382130379019106 0.27985937238127029 0 -0.34070516367402492 0.26420160059202868 0 -0.32646096828974408 0.27469373523007717 0 -0.3382130379019106 0.27985937238127029 0 -0.34070516367402492 0.26420160059202868 0 -0.32646096828974408 0.27469373523007717 0 -0.34070516367402492 0.26420160059202868 0 -0.32585520976260951 0.26150823799518502 0 -0.34792270048794438 0.24647785674207751 0 -0.34070516367402492 0.26420160059202868 0 -0.33307362564710052 0.25025060098100299 0 -0.34070516367402492 0.26420160059202868 0 -0.33307362564710052 0.25025060098100299 0 -0.32585520976260951 0.26150823799518502 0 -0.31798041098099572 0.24980595228124089 0 -0.3137689139904466 0.26649193874071431 0 -0.32585520976260951 0.26150823799518502 0 -0.31798041098099572 0.24980595228124089 0 -0.33307362564710052 0.25025060098100299 0 -0.32585520976260951 0.26150823799518502 0 -0.31798041098099572 0.24980595228124089 0 -0.29764051228303129 0.24357453066093579 0 -0.3137689139904466 0.26649193874071431 0 -0.29764051228303129 0.24357453066093579 0 -0.3137689139904466 0.26649193874071431 0 -0.29798110779790637 0.26241208706798669 0 -0.29764051228303129 0.24357453066093579 0 -0.3137689139904466 0.26649193874071431 0 -0.29764051228303129 0.24357453066093579 0 -0.29798110779790637 0.26241208706798669 0 -0.31414073335172887 0.27735433444257362 0 -0.29798110779790637 0.26241208706798669 0 -0.29832176499678398 0.28125305507565418 0 -0.31414073335172887 0.27735433444257362 0 -0.3137689139904466 0.26649193874071431 0 -0.29798110779790637 0.26241208706798669 0 -0.31414073335172887 0.27735433444257362 0 -0.29798110779790637 0.26241208706798669 0 -0.29798110779790637 0.26241208706798669 0 -0.29832176499678398 0.28125305507565418 0 -0.29798110779790637 0.26241208706798669 0 -0.28539782725794749 0.27153923254745133 0 -0.29832176499678398 0.28125305507565418 0 -0.28539782725794749 0.27153923254745133 0 -0.28548046186736298 0.28598390868815521 0 -0.29832176499678398 0.28125305507565418 0 -0.28539782725794749 0.27153923254745133 0 -0.27876782919970561 0.27826030355013848 0 -0.28548046186736298 0.28598390868815521 0 -0.29764051228303129 0.24357453066093579 0 -0.29798110779790637 0.26241208706798669 0 -0.28597606986012142 0.25131144330553112 0 -0.29798110779790637 0.26241208706798669 0 -0.28597606986012142 0.25131144330553112 0 -0.29798110779790637 0.26241208706798669 0 -0.28539782725794749 0.27153923254745133 0 -0.28535611031934238 0.26124942274660401 0 -0.29798110779790637 0.26241208706798669 0 -0.28535611031934238 0.26124942274660401 0 -0.28597606986012142 0.25131144330553112 0 -0.27397103192233668 0.24021079954307489 0 -0.28597606986012142 0.25131144330553112 0 -0.27206943636139391 0.25973492806544668 0 -0.28535611031934238 0.26124942274660401 0 -0.28597606986012142 0.25131144330553112 0 -0.27206943636139391 0.25973492806544668 0 -0.27397103192233668 0.24021079954307489 0 -0.27206943636139391 0.25973492806544668 0 -0.26461162009013628 0.25229248681512639 0 -0.27206943636139391 0.25973492806544668 0 -0.26461162009013628 0.25229248681512639 0 -0.26223940998930262 0.2604042423389118 0 -0.27206943636139391 0.25973492806544668 0 -0.26387215948099091 0.26969386058243511 0 -0.26223940998930262 0.2604042423389118 0 -0.28539782725794749 0.27153923254745133 0 -0.28535611031934238 0.26124942274660401 0 -0.27206943636139391 0.25973492806544668 0 -0.28539782725794749 0.27153923254745133 0 -0.27206943636139391 0.25973492806544668 0 -0.27876782919970561 0.27826030355013848 0 -0.27206943636139391 0.25973492806544668 0 -0.27016784080045098 0.27925905658781858 0 -0.27206943636139391 0.25973492806544668 0 -0.27876782919970561 0.27826030355013848 0 -0.27016784080045098 0.27925905658781858 0 -0.27206943636139391 0.25973492806544668 0 -0.27016784080045098 0.27925905658781858 0 -0.26387215948099091 0.26969386058243511 0 -0.27016784080045098 0.27925905658781858 0 -0.26387215948099091 0.26969386058243511 0 -0.26306969973751448 0.2802348796866711 0 -0.26387215948099091 0.26969386058243511 0 -0.25718480170479657 0.26573852044155588 0 -0.25776136224053697 0.27288269771629758 0 -0.26387215948099091 0.26969386058243511 0 -0.26306969973751448 0.2802348796866711 0 -0.25776136224053697 0.27288269771629758 0 -0.26306969973751448 0.2802348796866711 0 -0.25776136224053697 0.27288269771629758 0 -0.24980756385378261 0.27703951666319931 0 -0.25776136224053697 0.27288269771629758 0 -0.249510482404631 0.26888349453658988 0 -0.24980756385378261 0.27703951666319931 0 -0.25718480170479657 0.26573852044155588 0 -0.25776136224053697 0.27288269771629758 0 -0.249510482404631 0.26888349453658988 0 -0.25718480170479657 0.26573852044155588 0 -0.25032707105427437 0.2613477018387691 0 -0.249510482404631 0.26888349453658988 0 -0.25718480170479657 0.26573852044155588 0 -0.2560001465660402 0.26042202823417371 0 -0.25032707105427437 0.2613477018387691 0 -0.2560001465660402 0.26042202823417371 0 -0.25324789832927608 0.257632237344188 0 -0.25776681205796947 0.2560095368707711 0 -0.25032707105427437 0.2613477018387691 0 -0.25324789832927608 0.257632237344188 0 -0.24942362600732659 0.25638949904060621 0 -0.2560001465660402 0.26042202823417371 0 -0.25032707105427437 0.2613477018387691 0 -0.25324789832927608 0.257632237344188 0 -0.25324789832927608 0.257632237344188 0 -0.25211228116027018 0.25379200559499321 0 -0.24942362600732659 0.25638949904060621 0 -0.25211228116027018 0.25379200559499321 0 -0.24983282503825879 0.25351502519239982 0 -0.24942362600732659 0.25638949904060621 0 -0.25345825858859389 0.2481284265953756 0 -0.2510180080839442 0.24995211331417111 0 -0.25211228116027018 0.25379200559499321 0 -0.2510180080839442 0.24995211331417111 0 -0.25211228116027018 0.25379200559499321 0 -0.24983282503825879 0.25351502519239982 0 -0.25345825858859389 0.2481284265953756 0 -0.25743903152381431 0.24999539547972571 0 -0.25211228116027018 0.25379200559499321 0 -0.25743903152381431 0.24999539547972571 0 -0.25211228116027018 0.25379200559499321 0 -0.25776681205796947 0.2560095368707711 0 -0.25324789832927608 0.257632237344188 0 -0.25211228116027018 0.25379200559499321 0 -0.25776681205796947 0.2560095368707711 0 -0.25776681205796947 0.2560095368707711 0 -0.26461162009013628 0.25229248681512639 0 -0.26223940998930262 0.2604042423389118 0 -0.25743903152381431 0.24999539547972571 0 -0.25776681205796947 0.2560095368707711 0 -0.26461162009013628 0.25229248681512639 0 -0.26387215948099091 0.26969386058243511 0 -0.25718480170479657 0.26573852044155588 0 -0.26223940998930262 0.2604042423389118 0 -0.25718480170479657 0.26573852044155588 0 -0.2560001465660402 0.26042202823417371 0 -0.26223940998930262 0.2604042423389118 0 -0.2560001465660402 0.26042202823417371 0 -0.25776681205796947 0.2560095368707711 0 -0.26223940998930262 0.2604042423389118 0 -0.25905990257650452 0.28858132422565502 0 -0.24445249500357569 0.31268895395594748 0 -0.26113103582063341 0.30621461939682448 0 -0.25905990257650452 0.28858132422565502 0 -0.24445249500357569 0.31268895395594748 0 -0.26306969973751448 0.2802348796866711 0 -0.25905990257650452 0.28858132422565502 0 -0.23690030378167129 0.28992633898321563 0 -0.26113103582063341 0.30621461939682448 0 -0.25905990257650452 0.28858132422565502 0 -0.266255575883797 0.29565607895735663 0 -0.26306969973751448 0.2802348796866711 0 -0.25905990257650452 0.28858132422565502 0 -0.26806917663542013 0.28828771271890941 0 -0.25905990257650452 0.28858132422565502 0 -0.266255575883797 0.29565607895735663 0 -0.26806917663542013 0.28828771271890941 0 -0.266255575883797 0.29565607895735663 0 -0.26806917663542013 0.28828771271890941 0 -0.2767621885026299 0.29954065948803749 0 -0.27016784080045098 0.27925905658781858 0 -0.26806917663542013 0.28828771271890941 0 -0.27584949940111392 0.28626632820661169 0 -0.27016784080045098 0.27925905658781858 0 -0.26306969973751448 0.2802348796866711 0 -0.26806917663542013 0.28828771271890941 0 -0.27876782919970561 0.27826030355013848 0 -0.27584949940111392 0.28626632820661169 0 -0.28548046186736298 0.28598390868815521 0 -0.27876782919970561 0.27826030355013848 0 -0.27016784080045098 0.27925905658781858 0 -0.27584949940111392 0.28626632820661169 0 -0.27584949940111392 0.28626632820661169 0 -0.2767621885026299 0.29954065948803749 0 -0.28548046186736298 0.28598390868815521 0 -0.26806917663542013 0.28828771271890941 0 -0.27584949940111392 0.28626632820661169 0 -0.2767621885026299 0.29954065948803749 0 -0.26113103582063341 0.30621461939682448 0 -0.266255575883797 0.29565607895735663 0 -0.2767621885026299 0.29954065948803749 0 -0.26113103582063341 0.30621461939682448 0 -0.2767621885026299 0.29954065948803749 0 -0.26880631609854672 0.32303554392038192 0 -0.2767621885026299 0.29954065948803749 0 -0.29866242219566103 0.30009402308332173 0 -0.28736239297372729 0.31622730784522712 0 -0.29866242219566103 0.30009402308332173 0 -0.30208167085907828 0.31437467945082193 0 -0.28736239297372729 0.31622730784522712 0 -0.28548046186736298 0.28598390868815521 0 -0.29832176499678398 0.28125305507565418 0 -0.29866242219566103 0.30009402308332173 0 -0.2767621885026299 0.29954065948803749 0 -0.28548046186736298 0.28598390868815521 0 -0.29866242219566103 0.30009402308332173 0 -0.29832176499678398 0.28125305507565418 0 -0.29866242219566103 0.30009402308332173 0 -0.29832176499678398 0.28125305507565418 0 -0.30599235383803619 0.28830602809693162 0 -0.29866242219566103 0.30009402308332173 0 -0.31414073335172887 0.27735433444257362 0 -0.29832176499678398 0.28125305507565418 0 -0.30599235383803619 0.28830602809693162 0 -0.31273234736189892 0.29494293862524262 0 -0.30599235383803619 0.28830602809693162 0 -0.29866242219566103 0.30009402308332173 0 -0.31273234736189892 0.29494293862524262 0 -0.31329437934719712 0.28780096647150222 0 -0.30599235383803619 0.28830602809693162 0 -0.31329437934719712 0.28780096647150222 0 -0.31414073335172887 0.27735433444257362 0 -0.30599235383803619 0.28830602809693162 0 -0.31286713120496368 0.30701005073815651 0 -0.29866242219566103 0.30009402308332173 0 -0.30208167085907828 0.31437467945082193 0 -0.31286713120496368 0.30701005073815651 0 -0.31273234736189892 0.29494293862524262 0 -0.29866242219566103 0.30009402308332173 0 -0.31286713120496368 0.30701005073815651 0 -0.30208167085907828 0.31437467945082193 0 -0.31478393738685451 0.32277247697675998 0 -0.30208167085907828 0.31437467945082193 0 -0.30169076037834852 0.32857879308415311 0 -0.31478393738685451 0.32277247697675998 0 -0.30208167085907828 0.31437467945082193 0 -0.30169076037834852 0.32857879308415311 0 -0.28736239297372729 0.31622730784522712 0 -0.30169076037834852 0.32857879308415311 0 -0.31416187570623882 0.34274940780123181 0 -0.31478393738685451 0.32277247697675998 0 -0.30169076037834852 0.32857879308415311 0 -0.29590036297641092 0.34583101850253978 0 -0.31416187570623882 0.34274940780123181 0 -0.30169076037834852 0.32857879308415311 0 -0.28829556596738809 0.33151378463725761 0 -0.29590036297641092 0.34583101850253978 0 -0.28829556596738809 0.33151378463725761 0 -0.2778600372706938 0.34487534845677759 0 -0.29590036297641092 0.34583101850253978 0 -0.28829556596738809 0.33151378463725761 0 -0.28736239297372729 0.31622730784522712 0 -0.26880631609854672 0.32303554392038192 0 -0.30169076037834852 0.32857879308415311 0 -0.28829556596738809 0.33151378463725761 0 -0.28736239297372729 0.31622730784522712 0 -0.2767621885026299 0.29954065948803749 0 -0.28736239297372729 0.31622730784522712 0 -0.26880631609854672 0.32303554392038192 0 -0.28829556596738809 0.33151378463725761 0 -0.26880631609854672 0.32303554392038192 0 -0.2778600372706938 0.34487534845677759 0 -0.26880631609854672 0.32303554392038192 0 -0.25491254072672342 0.34444932004996509 0 -0.2778600372706938 0.34487534845677759 0 -0.26880631609854672 0.32303554392038192 0 -0.25193576336242363 0.32745179617609171 0 -0.25491254072672342 0.34444932004996509 0 -0.26113103582063341 0.30621461939682448 0 -0.25193576336242363 0.32745179617609171 0 -0.24445249500357569 0.31268895395594748 0 -0.26113103582063341 0.30621461939682448 0 -0.26880631609854672 0.32303554392038192 0 -0.25193576336242363 0.32745179617609171 0 -0.2524444675713638 0.36373399870478168 0 -0.26197635092498078 0.37892625379163802 0 -0.23818237636831799 0.37936511208325108 0 -0.2524444675713638 0.36373399870478168 0 -0.26765467792002468 0.35993002217013681 0 -0.26197635092498078 0.37892625379163802 0 -0.2524444675713638 0.36373399870478168 0 -0.25491254072672342 0.34444932004996509 0 -0.26765467792002468 0.35993002217013681 0 -0.25491254072672342 0.34444932004996509 0 -0.2778600372706938 0.34487534845677759 0 -0.26765467792002468 0.35993002217013681 0 -0.2778600372706938 0.34487534845677759 0 -0.26765467792002468 0.35993002217013681 0 -0.287119095586578 0.36843974592479628 0 -0.26765467792002468 0.35993002217013681 0 -0.287119095586578 0.36843974592479628 0 -0.26197635092498078 0.37892625379163802 0 -0.2778600372706938 0.34487534845677759 0 -0.287119095586578 0.36843974592479628 0 -0.29590036297641092 0.34583101850253978 0 -0.287119095586578 0.36843974592479628 0 -0.29590036297641092 0.34583101850253978 0 -0.30627484294921808 0.35882903111102238 0 -0.29590036297641092 0.34583101850253978 0 -0.30627484294921808 0.35882903111102238 0 -0.31416187570623882 0.34274940780123181 0 -0.30627484294921808 0.35882903111102238 0 -0.30654963712693739 0.37439612975290149 0 -0.32361611066566681 0.36217722357201398 0 -0.287119095586578 0.36843974592479628 0 -0.30627484294921808 0.35882903111102238 0 -0.30654963712693739 0.37439612975290149 0 -0.30654963712693739 0.37439612975290149 0 -0.32361611066566681 0.36217722357201398 0 -0.32125143277010582 0.38414759847201291 0 -0.32361611066566681 0.36217722357201398 0 -0.33660157088858611 0.37769761912705901 0 -0.32125143277010582 0.38414759847201291 0 -0.32361611066566681 0.36217722357201398 0 -0.34492248661113339 0.36130437721567499 0 -0.33660157088858611 0.37769761912705901 0 -0.33461921661149963 0.33527052311683991 0 -0.34492248661113339 0.36130437721567499 0 -0.32361611066566681 0.36217722357201398 0 -0.33461921661149963 0.33527052311683991 0 -0.34492248661113339 0.36130437721567499 0 -0.30627484294921808 0.35882903111102238 0 -0.32361611066566681 0.36217722357201398 0 -0.31416187570623882 0.34274940780123181 0 -0.32361611066566681 0.36217722357201398 0 -0.31416187570623882 0.34274940780123181 0 -0.33461921661149963 0.33527052311683991 0 -0.31416187570623882 0.34274940780123181 0 -0.31478393738685451 0.32277247697675998 0 -0.33461921661149963 0.33527052311683991 0 -0.3243159466118658 0.30923666901800478 0 -0.31286713120496368 0.30701005073815651 0 -0.31478393738685451 0.32277247697675998 0 -0.3243159466118658 0.30923666901800478 0 -0.31478393738685451 0.32277247697675998 0 -0.33461921661149963 0.33527052311683991 0 -0.3243159466118658 0.30923666901800478 0 -0.33461921661149963 0.33527052311683991 0 -0.3243159466118658 0.30923666901800478 0 -0.33461921661149963 0.33527052311683991 0 -0.34788872650396968 0.32174080570569558 0 -0.33461921661149963 0.33527052311683991 0 -0.35913110549948801 0.34340619533937128 0 -0.34788872650396968 0.32174080570569558 0 -0.35913110549948801 0.34340619533937128 0 -0.34788872650396968 0.32174080570569558 0 -0.36582512669357242 0.32551188221185151 0 -0.36116030018766532 0.30867386333656938 0 -0.34788872650396968 0.32174080570569558 0 -0.36582512669357242 0.32551188221185151 0 -0.37390186212686272 0.30354935979809983 0 -0.36116030018766532 0.30867386333656938 0 -0.36582512669357242 0.32551188221185151 0 -0.38050482133986541 0.33872584420876928 0 -0.35913110549948801 0.34340619533937128 0 -0.36582512669357242 0.32551188221185151 0 -0.37791067862878241 0.35656955149944719 0 -0.38050482133986541 0.33872584420876928 0 -0.35913110549948801 0.34340619533937128 0 -0.37791067862878241 0.35656955149944719 0 -0.35913110549948801 0.34340619533937128 0 -0.36262620012912761 0.36513003372562292 0 -0.37594097329546711 0.37703181325911128 0 -0.37791067862878241 0.35656955149944719 0 -0.36262620012912761 0.36513003372562292 0 -0.36262620012912761 0.36513003372562292 0 -0.34492248661113339 0.36130437721567499 0 -0.35522575661076722 0.38733823131451001 0 -0.34492248661113339 0.36130437721567499 0 -0.35522575661076722 0.38733823131451001 0 -0.35913110549948801 0.34340619533937128 0 -0.36262620012912761 0.36513003372562292 0 -0.34492248661113339 0.36130437721567499 0 -0.33461921661149963 0.33527052311683991 0 -0.35913110549948801 0.34340619533937128 0 -0.34492248661113339 0.36130437721567499 0 -0.35522575661076722 0.38733823131451001 0 -0.34576288902551661 0.41092825075570322 0 -0.33799206778525731 0.39352066506108307 0 -0.37070728589553009 0.39872189279683479 0 -0.34576288902551661 0.41092825075570322 0 -0.35522575661076722 0.38733823131451001 0 -0.37070728589553009 0.39872189279683479 0 -0.34576288902551661 0.41092825075570322 0 -0.34492248661113339 0.36130437721567499 0 -0.35522575661076722 0.38733823131451001 0 -0.33660157088858611 0.37769761912705901 0 -0.37594097329546711 0.37703181325911128 0 -0.35522575661076722 0.38733823131451001 0 -0.37070728589553009 0.39872189279683479 0 -0.37594097329546711 0.37703181325911128 0 -0.36262620012912761 0.36513003372562292 0 -0.35522575661076722 0.38733823131451001 0 -0.37070728589553009 0.39872189279683479 0 -0.36440614151959849 0.41475026052380082 0 -0.34576288902551661 0.41092825075570322 0 -0.38364603400115699 0.41290722975278699 0 -0.37070728589553009 0.39872189279683479 0 -0.36440614151959849 0.41475026052380082 0 -0.38364603400115699 0.41290722975278699 0 -0.36440614151959849 0.41475026052380082 0 -0.3692385027538308 0.42659736265413661 0 -0.38482963505711432 0.43248135162720752 0 -0.3692385027538308 0.42659736265413661 0 -0.36732411939765641 0.44304650791368072 0 -0.3692385027538308 0.42659736265413661 0 -0.35540826241264017 0.42991166338655701 0 -0.36732411939765641 0.44304650791368072 0 -0.36440614151959849 0.41475026052380082 0 -0.3692385027538308 0.42659736265413661 0 -0.35540826241264017 0.42991166338655701 0 -0.35540826241264017 0.42991166338655701 0 -0.34576288902551661 0.41092825075570322 0 -0.33853745526571682 0.43048855908321071 0 -0.36440614151959849 0.41475026052380082 0 -0.35540826241264017 0.42991166338655701 0 -0.34576288902551661 0.41092825075570322 0 -0.32989444401791129 0.40731807877761178 0 -0.33853745526571682 0.43048855908321071 0 -0.34576288902551661 0.41092825075570322 0 -0.32989444401791129 0.40731807877761178 0 -0.33853745526571682 0.43048855908321071 0 -0.32989444401791129 0.40731807877761178 0 -0.33853745526571682 0.43048855908321071 0 -0.32554451454933392 0.42245860435926602 0 -0.33853745526571682 0.43048855908321071 0 -0.32554451454933392 0.42245860435926602 0 -0.32697239239069359 0.43983694450884281 0 -0.31663723918457359 0.42811637328151803 0 -0.30874400510258548 0.44064457528375323 0 -0.32697239239069359 0.43983694450884281 0 -0.32554451454933392 0.42245860435926602 0 -0.31663723918457359 0.42811637328151803 0 -0.32697239239069359 0.43983694450884281 0 -0.31663723918457359 0.42811637328151803 0 -0.31480423851768757 0.41464299376068531 0 -0.30664091781692571 0.42473990056517408 0 -0.32989444401791129 0.40731807877761178 0 -0.31480423851768757 0.41464299376068531 0 -0.30828060904268278 0.40274325558106522 0 -0.32989444401791129 0.40731807877761178 0 -0.32554451454933392 0.42245860435926602 0 -0.31480423851768757 0.41464299376068531 0 -0.32554451454933392 0.42245860435926602 0 -0.31663723918457359 0.42811637328151803 0 -0.31480423851768757 0.41464299376068531 0 -0.32989444401791129 0.40731807877761178 0 -0.32125143277010582 0.38414759847201291 0 -0.32989444401791129 0.40731807877761178 0 -0.32125143277010582 0.38414759847201291 0 -0.30828060904268278 0.40274325558106522 0 -0.32989444401791129 0.40731807877761178 0 -0.33799206778525731 0.39352066506108307 0 -0.32125143277010582 0.38414759847201291 0 -0.34576288902551661 0.41092825075570322 0 -0.32989444401791129 0.40731807877761178 0 -0.33799206778525731 0.39352066506108307 0 -0.33799206778525731 0.39352066506108307 0 -0.33660157088858611 0.37769761912705901 0 -0.32125143277010582 0.38414759847201291 0 -0.35522575661076722 0.38733823131451001 0 -0.33799206778525731 0.39352066506108307 0 -0.33660157088858611 0.37769761912705901 0 -0.30654963712693739 0.37439612975290149 0 -0.32125143277010582 0.38414759847201291 0 -0.29864302129986159 0.38883456303877251 0 -0.287119095586578 0.36843974592479628 0 -0.30654963712693739 0.37439612975290149 0 -0.29864302129986159 0.38883456303877251 0 -0.32125143277010582 0.38414759847201291 0 -0.29864302129986159 0.38883456303877251 0 -0.30828060904268278 0.40274325558106522 0 -0.29864302129986159 0.38883456303877251 0 -0.30828060904268278 0.40274325558106522 0 -0.28871767600194542 0.40764052545339979 0 -0.29864302129986159 0.38883456303877251 0 -0.2779137508828648 0.39274953998833712 0 -0.28871767600194542 0.40764052545339979 0 -0.287119095586578 0.36843974592479628 0 -0.29864302129986159 0.38883456303877251 0 -0.2779137508828648 0.39274953998833712 0 -0.287119095586578 0.36843974592479628 0 -0.2779137508828648 0.39274953998833712 0 -0.26197635092498078 0.37892625379163802 0 -0.2779137508828648 0.39274953998833712 0 -0.26972768512016398 0.41801239432935061 0 -0.28871767600194542 0.40764052545339979 0 -0.2779137508828648 0.39274953998833712 0 -0.26972768512016398 0.41801239432935061 0 -0.2779137508828648 0.39274953998833712 0 -0.25596279774235731 0.41150988383411963 0 -0.24978981762798499 0.39759409841712517 0 -0.2779137508828648 0.39274953998833712 0 -0.26197635092498078 0.37892625379163802 0 -0.24978981762798499 0.39759409841712517 0 -0.25967911077317329 0.42488645209020559 0 -0.26972768512016398 0.41801239432935061 0 -0.26154161935746317 0.44327524867036411 0 -0.25967911077317329 0.42488645209020559 0 -0.25148434087270899 0.42674828152698829 0 -0.26154161935746317 0.44327524867036411 0 -0.25148434087270899 0.42674828152698829 0 -0.26154161935746317 0.44327524867036411 0 -0.24659885204431151 0.43943954593563322 0 -0.25967911077317329 0.42488645209020559 0 -0.25148434087270899 0.42674828152698829 0 -0.25596279774235731 0.41150988383411963 0 -0.25148434087270899 0.42674828152698829 0 -0.25596279774235731 0.41150988383411963 0 -0.24343376243861559 0.41536183427070877 0 -0.25967911077317329 0.42488645209020559 0 -0.25596279774235731 0.41150988383411963 0 -0.26972768512016398 0.41801239432935061 0 -0.26972768512016398 0.41801239432935061 0 -0.28871767600194542 0.40764052545339979 0 -0.28290329849363322 0.41912733134967062 0 -0.2779137508828648 0.39274953998833712 0 -0.25596279774235731 0.41150988383411963 0 -0.26972768512016398 0.41801239432935061 0 -0.26972768512016398 0.41801239432935061 0 -0.27228083810263309 0.42666766362036579 0 -0.28290329849363322 0.41912733134967062 0 -0.26972768512016398 0.41801239432935061 0 -0.26154161935746317 0.44327524867036411 0 -0.26972768512016398 0.41801239432935061 0 -0.27228083810263309 0.42666766362036579 0 -0.26154161935746317 0.44327524867036411 0 -0.27228083810263309 0.42666766362036579 0 -0.29314381121378491 0.42647198118053758 0 -0.28290329849363322 0.41912733134967062 0 -0.27228083810263309 0.42666766362036579 0 -0.29314381121378491 0.42647198118053758 0 -0.29487197030161327 0.44582392274868299 0 -0.27228083810263309 0.42666766362036579 0 -0.29487197030161327 0.44582392274868299 0 -0.28871767600194542 0.40764052545339979 0 -0.28290329849363322 0.41912733134967062 0 -0.29064648202963828 0.41684409216469931 0 -0.29314381121378491 0.42647198118053758 0 -0.28290329849363322 0.41912733134967062 0 -0.29064648202963828 0.41684409216469931 0 -0.29314381121378491 0.42647198118053758 0 -0.29064648202963828 0.41684409216469931 0 -0.29987529506599681 0.41382357931937641 0 -0.28871767600194542 0.40764052545339979 0 -0.29064648202963828 0.41684409216469931 0 -0.29987529506599681 0.41382357931937641 0 -0.30828060904268278 0.40274325558106522 0 -0.28871767600194542 0.40764052545339979 0 -0.29987529506599681 0.41382357931937641 0 -0.29314381121378491 0.42647198118053758 0 -0.29987529506599681 0.41382357931937641 0 -0.30664091781692571 0.42473990056517408 0 -0.31480423851768757 0.41464299376068531 0 -0.29987529506599681 0.41382357931937641 0 -0.30664091781692571 0.42473990056517408 0 -0.31480423851768757 0.41464299376068531 0 -0.30828060904268278 0.40274325558106522 0 -0.29987529506599681 0.41382357931937641 0 -0.31663723918457359 0.42811637328151803 0 -0.30664091781692571 0.42473990056517408 0 -0.30874400510258548 0.44064457528375323 0 -0.29314381121378491 0.42647198118053758 0 -0.30664091781692571 0.42473990056517408 0 -0.30874400510258548 0.44064457528375323 0 -0.29314381121378491 0.42647198118053758 0 -0.30874400510258548 0.44064457528375323 0 -0.29487197030161327 0.44582392274868299 0 -0.30874400510258548 0.44064457528375323 0 -0.29487197030161327 0.44582392274868299 0 -0.31746310250059229 0.46498018187700157 0 -0.29487197030161327 0.44582392274868299 0 -0.31746310250059229 0.46498018187700157 0 -0.29862263131960598 0.4684065207845714 0 -0.29487197030161327 0.44582392274868299 0 -0.31746310250059229 0.46498018187700157 0 -0.29862263131960598 0.4684065207845714 0 -0.28473848633595272 0.46166795202397698 0 -0.29487197030161327 0.44582392274868299 0 -0.29862263131960598 0.4684065207845714 0 -0.28473848633595272 0.46166795202397698 0 -0.28867352700241983 0.47596457544880072 0 -0.27228083810263309 0.42666766362036579 0 -0.29487197030161327 0.44582392274868299 0 -0.27734952855351241 0.44803491677920743 0 -0.28473848633595272 0.46166795202397698 0 -0.29487197030161327 0.44582392274868299 0 -0.27734952855351241 0.44803491677920743 0 -0.27734952855351241 0.44803491677920743 0 -0.27304768837851862 0.45902676372529139 0 -0.26154161935746317 0.44327524867036411 0 -0.27228083810263309 0.42666766362036579 0 -0.27734952855351241 0.44803491677920743 0 -0.26154161935746317 0.44327524867036411 0 -0.28473848633595272 0.46166795202397698 0 -0.27734952855351241 0.44803491677920743 0 -0.27304768837851862 0.45902676372529139 0 -0.27304768837851862 0.45902676372529139 0 -0.26489448117817499 0.46440195596604528 0 -0.26154161935746317 0.44327524867036411 0 -0.28473848633595272 0.46166795202397698 0 -0.27304768837851862 0.45902676372529139 0 -0.27586557246004562 0.47275101265730812 0 -0.27304768837851862 0.45902676372529139 0 -0.26489448117817499 0.46440195596604528 0 -0.27586557246004562 0.47275101265730812 0 -0.26489448117817499 0.46440195596604528 0 -0.25335555359476231 0.46853810301137772 0 -0.26154161935746317 0.44327524867036411 0 -0.25335555359476231 0.46853810301137772 0 -0.26154161935746317 0.44327524867036411 0 -0.25335555359476231 0.46853810301137772 0 -0.26154161935746317 0.44327524867036411 0 -0.2449073654422127 0.45307979403087162 0 -0.26154161935746317 0.44327524867036411 0 -0.24659885204431151 0.43943954593563322 0 -0.2449073654422127 0.45307979403087162 0 -0.25771509740208132 0.48881716704241918 0 -0.26066197210008529 0.47841865176588511 0 -0.24332975086440101 0.48600599984684251 0 -0.25771509740208132 0.48881716704241918 0 -0.26066197210008529 0.47841865176588511 0 -0.26954836829841589 0.49084401655694893 0 -0.2573202983454228 0.5 0 -0.25771509740208132 0.48881716704241918 0 -0.26954836829841589 0.49084401655694893 0 -0.2573202983454228 0.5 0 -0.25771509740208132 0.48881716704241918 0 -0.24332975086440101 0.48600599984684251 0 -0.25335555359476231 0.46853810301137772 0 -0.26066197210008529 0.47841865176588511 0 -0.2366739490398577 0.46829515441426262 0 -0.26489448117817499 0.46440195596604528 0 -0.25335555359476231 0.46853810301137772 0 -0.26066197210008529 0.47841865176588511 0 -0.26066197210008529 0.47841865176588511 0 -0.27586557246004562 0.47275101265730812 0 -0.28464999516031297 0.48854214911750748 0 -0.26066197210008529 0.47841865176588511 0 -0.28464999516031297 0.48854214911750748 0 -0.26489448117817499 0.46440195596604528 0 -0.26066197210008529 0.47841865176588511 0 -0.27586557246004562 0.47275101265730812 0 -0.26066197210008529 0.47841865176588511 0 -0.26954836829841589 0.49084401655694893 0 -0.28464999516031297 0.48854214911750748 0 -0.2573202983454228 0.5 0 -0.26954836829841589 0.49084401655694893 0 -0.28404433331329398 0.5 0 -0.26954836829841589 0.49084401655694893 0 -0.28404433331329398 0.5 0 -0.28464999516031297 0.48854214911750748 0 -0.28404433331329398 0.5 0 -0.28464999516031297 0.48854214911750748 0 -0.2992239094448006 0.48474220955328351 0 -0.27586557246004562 0.47275101265730812 0 -0.28464999516031297 0.48854214911750748 0 -0.28867352700241983 0.47596457544880072 0 -0.29862263131960598 0.4684065207845714 0 -0.28867352700241983 0.47596457544880072 0 -0.2992239094448006 0.48474220955328351 0 -0.28473848633595272 0.46166795202397698 0 -0.27586557246004562 0.47275101265730812 0 -0.28867352700241983 0.47596457544880072 0 -0.28464999516031297 0.48854214911750748 0 -0.28867352700241983 0.47596457544880072 0 -0.2992239094448006 0.48474220955328351 0 -0.29862263131960598 0.4684065207845714 0 -0.30735634466396938 0.47515475078833941 0 -0.2992239094448006 0.48474220955328351 0 -0.29862263131960598 0.4684065207845714 0 -0.30735634466396938 0.47515475078833941 0 -0.31746310250059229 0.46498018187700157 0 -0.30735634466396938 0.47515475078833941 0 -0.2992239094448006 0.48474220955328351 0 -0.31411573539087861 0.48249009093850131 0 -0.28404433331329398 0.5 0 -0.31076836828116539 0.50000000000000111 0 -0.2992239094448006 0.48474220955328351 0 -0.31076836828116539 0.50000000000000111 0 -0.2992239094448006 0.48474220955328351 0 -0.31411573539087861 0.48249009093850131 0 -0.31076836828116539 0.50000000000000111 0 -0.31411573539087861 0.48249009093850131 0 -0.31076836828116539 0.50000000000000111 0 -0.32420126464920901 0.49043754777484933 0 -0.31411573539087861 0.48249009093850131 0 -0.31076836828116539 0.50000000000000111 0 -0.32420126464920901 0.49043754777484933 0 -0.33761742864515037 0.5 0 -0.33761742864515037 0.5 0 -0.33430352627964172 0.47926010016089587 0 -0.35582347776132778 0.47682951969440851 0 -0.32420126464920901 0.49043754777484933 0 -0.33761742864515037 0.5 0 -0.33430352627964172 0.47926010016089587 0 -0.33430352627964172 0.47926010016089587 0 -0.33258806857419149 0.46001859137288997 0 -0.35582347776132778 0.47682951969440851 0 -0.33430352627964172 0.47926010016089587 0 -0.31746310250059229 0.46498018187700157 0 -0.30735634466396938 0.47515475078833941 0 -0.31411573539087861 0.48249009093850131 0 -0.31746310250059229 0.46498018187700157 0 -0.31411573539087861 0.48249009093850131 0 -0.31746310250059229 0.46498018187700157 0 -0.32420126464920901 0.49043754777484933 0 -0.33430352627964172 0.47926010016089587 0 -0.31411573539087861 0.48249009093850131 0 -0.33430352627964172 0.47926010016089587 0 -0.31411573539087861 0.48249009093850131 0 -0.31746310250059229 0.46498018187700157 0 -0.33430352627964172 0.47926010016089587 0 -0.31746310250059229 0.46498018187700157 0 -0.33258806857419149 0.46001859137288997 0 -0.31746310250059229 0.46498018187700157 0 -0.32035976614661599 0.44982787997486823 0 -0.31746310250059229 0.46498018187700157 0 -0.32035976614661599 0.44982787997486823 0 -0.33258806857419149 0.46001859137288997 0 -0.32697239239069359 0.43983694450884281 0 -0.32035976614661599 0.44982787997486823 0 -0.33258806857419149 0.46001859137288997 0 -0.30874400510258548 0.44064457528375323 0 -0.32697239239069359 0.43983694450884281 0 -0.32035976614661599 0.44982787997486823 0 -0.30874400510258548 0.44064457528375323 0 -0.31746310250059229 0.46498018187700157 0 -0.32035976614661599 0.44982787997486823 0 -0.32697239239069359 0.43983694450884281 0 -0.33258806857419149 0.46001859137288997 0 -0.3471804665135223 0.45365903938880958 0 -0.33853745526571682 0.43048855908321071 0 -0.32697239239069359 0.43983694450884281 0 -0.3471804665135223 0.45365903938880958 0 -0.33853745526571682 0.43048855908321071 0 -0.3471804665135223 0.45365903938880958 0 -0.3471804665135223 0.45365903938880958 0 -0.35582347776132778 0.47682951969440851 0 -0.3471804665135223 0.45365903938880958 0 -0.36918850263259489 0.45994250207812609 0 -0.35582347776132778 0.47682951969440851 0 -0.33258806857419149 0.46001859137288997 0 -0.3471804665135223 0.45365903938880958 0 -0.35582347776132778 0.47682951969440851 0 -0.35540826241264017 0.42991166338655701 0 -0.3471804665135223 0.45365903938880958 0 -0.36732411939765641 0.44304650791368072 0 -0.35540826241264017 0.42991166338655701 0 -0.33853745526571682 0.43048855908321071 0 -0.3471804665135223 0.45365903938880958 0 -0.3471804665135223 0.45365903938880958 0 -0.36732411939765641 0.44304650791368072 0 -0.36918850263259489 0.45994250207812609 0 -0.3838235505637641 0.45116939077247542 0 -0.36732411939765641 0.44304650791368072 0 -0.36918850263259489 0.45994250207812609 0 -0.39179089892670388 0.47500805262125673 0 -0.36446648900913542 0.50000000000000655 0 -0.35582347776132778 0.47682951969440851 0 -0.39179089892670388 0.47500805262125673 0 -0.36918850263259489 0.45994250207812609 0 -0.35582347776132778 0.47682951969440851 0 -0.36446648900913542 0.50000000000000655 0 -0.35582347776132778 0.47682951969440851 0 -0.33761742864515037 0.5 0 -0.36446648900913542 0.50000000000000655 0 -0.35582347776132778 0.47682951969440851 0 -0.14387621026532421 0.4779774340368953 0 -0.1537193791454223 0.48784123657635708 0 -0.16968479154269039 0.48116480918439258 0 -0.1537193791454223 0.48784123657635708 0 -0.1504995714572438 0.49897897563390958 0 -0.1631956414750684 0.49076269537401968 0 -0.14387621026532421 0.4779774340368953 0 -0.1537193791454223 0.48784123657635708 0 -0.14028434082995059 0.48940986193652969 0 -0.1537193791454223 0.48784123657635708 0 -0.1504995714572438 0.49897897563390958 0 -0.14028434082995059 0.48940986193652969 0 -0.1504995714572438 0.49897897563390958 0 -0.14028434082995059 0.48940986193652969 0 -0.1237001235060662 0.5 0 -0.14028434082995059 0.48940986193652969 0 -0.1299475470605988 0.482433497162845 0 -0.1237001235060662 0.5 0 -0.14387621026532421 0.4779774340368953 0 -0.12958584092853809 0.46802644155149598 0 -0.14554060177360389 0.4603507276309966 0 -0.1299475470605988 0.482433497162845 0 -0.12958584092853809 0.46802644155149598 0 -0.11685379623700171 0.4793372418876154 0 -0.14387621026532421 0.4779774340368953 0 -0.14028434082995059 0.48940986193652969 0 -0.1299475470605988 0.482433497162845 0 -0.14387621026532421 0.4779774340368953 0 -0.1299475470605988 0.482433497162845 0 -0.12958584092853809 0.46802644155149598 0 -0.12958584092853809 0.46802644155149598 0 -0.12922206600913511 0.45061654278572932 0 -0.14554060177360389 0.4603507276309966 0 -0.12922206600913511 0.45061654278572932 0 -0.1345204767206129 0.43428943632650269 0 -0.1136662413935354 0.43826813695937111 0 -0.12922206600913511 0.45061654278572932 0 -0.1510916098467425 0.44353831295658003 0 -0.1345204767206129 0.43428943632650269 0 -0.12922206600913511 0.45061654278572932 0 -0.1510916098467425 0.44353831295658003 0 -0.12922206600913511 0.45061654278572932 0 -0.1510916098467425 0.44353831295658003 0 -0.14554060177360389 0.4603507276309966 0 -0.1510916098467425 0.44353831295658003 0 -0.14554060177360389 0.4603507276309966 0 -0.1642600166974158 0.46176617132377762 0 -0.14387621026532421 0.4779774340368953 0 -0.14554060177360389 0.4603507276309966 0 -0.1642600166974158 0.46176617132377762 0 -0.1510916098467425 0.44353831295658003 0 -0.1642600166974158 0.46176617132377762 0 -0.17296115368434989 0.43646008312743068 0 -0.1510916098467425 0.44353831295658003 0 -0.17296115368434989 0.43646008312743068 0 -0.1642600166974158 0.46176617132377762 0 -0.1831105563555421 0.45793606088909722 0 -0.17296115368434989 0.43646008312743068 0 -0.1831105563555421 0.45793606088909722 0 -0.19786433764663269 0.44745903389553332 0 -0.17296115368434989 0.43646008312743068 0 -0.1642600166974158 0.46176617132377762 0 -0.1831105563555421 0.45793606088909722 0 -0.18184194131089679 0.47116305486310589 0 -0.1831105563555421 0.45793606088909722 0 -0.18184194131089679 0.47116305486310589 0 -0.19726661630070741 0.46707232218997408 0 -0.1642600166974158 0.46176617132377762 0 -0.18184194131089679 0.47116305486310589 0 -0.16968479154269039 0.48116480918439258 0 -0.18184194131089679 0.47116305486310589 0 -0.16968479154269039 0.48116480918439258 0 -0.1954933728200566 0.48435218433188998 0 -0.16968479154269039 0.48116480918439258 0 -0.1954933728200566 0.48435218433188998 0 -0.14387621026532421 0.4779774340368953 0 -0.16968479154269039 0.48116480918439258 0 -0.14387621026532421 0.4779774340368953 0 -0.1642600166974158 0.46176617132377762 0 -0.16968479154269039 0.48116480918439258 0 -0.1537193791454223 0.48784123657635708 0 -0.16968479154269039 0.48116480918439258 0 -0.1631956414750684 0.49076269537401968 0 -0.1504995714572438 0.49897897563390958 0 -0.17729901940842141 0.49795795126781922 0 -0.1504995714572438 0.49897897563390958 0 -0.1771481934418089 0.5 0 -0.17729901940842141 0.49795795126781922 0 -0.1504995714572438 0.49897897563390958 0 -0.1631956414750684 0.49076269537401968 0 -0.16618085853742609 0.49447334460620812 0 -0.1504995714572438 0.49897897563390958 0 -0.16618085853742609 0.49447334460620812 0 -0.17729901940842141 0.49795795126781922 0 -0.16968479154269039 0.48116480918439258 0 -0.1631956414750684 0.49076269537401968 0 -0.1737292018089707 0.490193756149084 0 -0.1631956414750684 0.49076269537401968 0 -0.16618085853742609 0.49447334460620812 0 -0.1737292018089707 0.490193756149084 0 -0.16968479154269039 0.48116480918439258 0 -0.1737292018089707 0.490193756149084 0 -0.1954933728200566 0.48435218433188998 0 -0.16618085853742609 0.49447334460620812 0 -0.17729901940842141 0.49795795126781922 0 -0.1737292018089707 0.490193756149084 0 -0.1771481934418089 0.5 0 -0.17729901940842141 0.49795795126781922 0 -0.2038722284096802 0.5 0 -0.17729901940842141 0.49795795126781922 0 -0.1737292018089707 0.490193756149084 0 -0.1954933728200566 0.48435218433188998 0 -0.17729901940842141 0.49795795126781922 0 -0.1954933728200566 0.48435218433188998 0 -0.20409846735959911 0.49693692690172869 0 -0.17729901940842141 0.49795795126781922 0 -0.2038722284096802 0.5 0 -0.20409846735959911 0.49693692690172869 0 -0.17729901940842141 0.49795795126781922 0 -0.20409846735959911 0.49693692690172869 0 -0.18184194131089679 0.47116305486310589 0 -0.1954933728200566 0.48435218433188998 0 -0.19726661630070741 0.46707232218997408 0 -0.1954933728200566 0.48435218433188998 0 -0.2140571168801147 0.47489499874622237 0 -0.19726661630070741 0.46707232218997408 0 -0.1954933728200566 0.48435218433188998 0 -0.2140571168801147 0.47489499874622237 0 -0.22130195409742259 0.48753955947938732 0 -0.1954933728200566 0.48435218433188998 0 -0.20409846735959911 0.49693692690172869 0 -0.22130195409742259 0.48753955947938732 0 -0.2038722284096802 0.5 0 -0.20409846735959911 0.49693692690172869 0 -0.22130195409742259 0.48753955947938732 0 -0.2038722284096802 0.5 0 -0.23059626337755151 0.5 0 -0.22130195409742259 0.48753955947938732 0 -0.1954933728200566 0.48435218433188998 0 -0.22130195409742259 0.48753955947938732 0 -0.23059626337755151 0.5 0 -0.22130195409742259 0.48753955947938732 0 -0.23088699360802009 0.48135371134715121 0 -0.2140571168801147 0.47489499874622237 0 -0.23088699360802009 0.48135371134715121 0 -0.2366739490398577 0.46829515441426262 0 -0.2140571168801147 0.47489499874622237 0 -0.22130195409742259 0.48753955947938732 0 -0.23088699360802009 0.48135371134715121 0 -0.26066197210008529 0.47841865176588511 0 -0.24332975086440101 0.48600599984684251 0 -0.2366739490398577 0.46829515441426262 0 -0.26066197210008529 0.47841865176588511 0 -0.2366739490398577 0.46829515441426262 0 -0.23088699360802009 0.48135371134715121 0 -0.24332975086440101 0.48600599984684251 0 -0.2366739490398577 0.46829515441426262 0 -0.2573202983454228 0.5 0 -0.23059626337755151 0.5 0 -0.24332975086440101 0.48600599984684251 0 -0.23059626337755151 0.5 0 -0.23088699360802009 0.48135371134715121 0 -0.24332975086440101 0.48600599984684251 0 -0.23692953218967849 0.44368104898858368 0 -0.2449073654422127 0.45307979403087162 0 -0.23099702062069899 0.45400608446541951 0 -0.23692953218967849 0.44368104898858368 0 -0.24659885204431151 0.43943954593563322 0 -0.23813140235949401 0.43041335646135842 0 -0.23692953218967849 0.44368104898858368 0 -0.24659885204431151 0.43943954593563322 0 -0.2449073654422127 0.45307979403087162 0 -0.25335555359476231 0.46853810301137772 0 -0.2449073654422127 0.45307979403087162 0 -0.2366739490398577 0.46829515441426262 0 -0.2449073654422127 0.45307979403087162 0 -0.2366739490398577 0.46829515441426262 0 -0.23099702062069899 0.45400608446541951 0 -0.2366739490398577 0.46829515441426262 0 -0.23099702062069899 0.45400608446541951 0 -0.2126859259796301 0.45817165706264013 0 -0.2366739490398577 0.46829515441426262 0 -0.2126859259796301 0.45817165706264013 0 -0.2140571168801147 0.47489499874622237 0 -0.2366739490398577 0.46829515441426262 0 -0.2126859259796301 0.45817165706264013 0 -0.23692953218967849 0.44368104898858368 0 -0.23099702062069899 0.45400608446541951 0 -0.21909576501890071 0.43752967416744121 0 -0.23099702062069899 0.45400608446541951 0 -0.21909576501890071 0.43752967416744121 0 -0.2126859259796301 0.45817165706264013 0 -0.21909576501890071 0.43752967416744121 0 -0.19786433764663269 0.44745903389553332 0 -0.19483069752195731 0.42938185329828138 0 -0.21909576501890071 0.43752967416744121 0 -0.2126859259796301 0.45817165706264013 0 -0.19786433764663269 0.44745903389553332 0 -0.2140571168801147 0.47489499874622237 0 -0.2126859259796301 0.45817165706264013 0 -0.19726661630070741 0.46707232218997408 0 -0.2126859259796301 0.45817165706264013 0 -0.19726661630070741 0.46707232218997408 0 -0.19786433764663269 0.44745903389553332 0 -0.1831105563555421 0.45793606088909722 0 -0.19726661630070741 0.46707232218997408 0 -0.19786433764663269 0.44745903389553332 0 -0.19786433764663269 0.44745903389553332 0 -0.19483069752195731 0.42938185329828138 0 -0.17296115368434989 0.43646008312743068 0 -0.19483069752195731 0.42938185329828138 0 -0.19088681868214499 0.40969003284437749 0 -0.2128482783620588 0.41137608338991422 0 -0.21909576501890071 0.43752967416744121 0 -0.19483069752195731 0.42938185329828138 0 -0.2128482783620588 0.41137608338991422 0 -0.21909576501890071 0.43752967416744121 0 -0.2285740146187967 0.42042699077873752 0 -0.23813140235949401 0.43041335646135842 0 -0.21909576501890071 0.43752967416744121 0 -0.2128482783620588 0.41137608338991422 0 -0.2285740146187967 0.42042699077873752 0 -0.23692953218967849 0.44368104898858368 0 -0.21909576501890071 0.43752967416744121 0 -0.23813140235949401 0.43041335646135842 0 -0.2128482783620588 0.41137608338991422 0 -0.2285740146187967 0.42042699077873752 0 -0.23306551486109989 0.40452059772549492 0 -0.25596279774235731 0.41150988383411963 0 -0.24343376243861559 0.41536183427070877 0 -0.24978981762798499 0.39759409841712517 0 -0.2285740146187967 0.42042699077873752 0 -0.24343376243861559 0.41536183427070877 0 -0.23306551486109989 0.40452059772549492 0 -0.25148434087270899 0.42674828152698829 0 -0.24343376243861559 0.41536183427070877 0 -0.23813140235949401 0.43041335646135842 0 -0.25148434087270899 0.42674828152698829 0 -0.24659885204431151 0.43943954593563322 0 -0.23813140235949401 0.43041335646135842 0 -0.2285740146187967 0.42042699077873752 0 -0.24343376243861559 0.41536183427070877 0 -0.23813140235949401 0.43041335646135842 0 -0.26197635092498078 0.37892625379163802 0 -0.23818237636831799 0.37936511208325108 0 -0.24978981762798499 0.39759409841712517 0 -0.24343376243861559 0.41536183427070877 0 -0.24978981762798499 0.39759409841712517 0 -0.23306551486109989 0.40452059772549492 0 -0.23818237636831799 0.37936511208325108 0 -0.24978981762798499 0.39759409841712517 0 -0.23306551486109989 0.40452059772549492 0 -0.23818237636831799 0.37936511208325108 0 -0.23306551486109989 0.40452059772549492 0 -0.22102845540667701 0.39090531090650971 0 -0.2128482783620588 0.41137608338991422 0 -0.23306551486109989 0.40452059772549492 0 -0.22102845540667701 0.39090531090650971 0 -0.23818237636831799 0.37936511208325108 0 -0.22102845540667701 0.39090531090650971 0 -0.215237679857718 0.36090421341653278 0 -0.22102845540667701 0.39090531090650971 0 -0.20063027228478911 0.38501184314682541 0 -0.215237679857718 0.36090421341653278 0 -0.2128482783620588 0.41137608338991422 0 -0.22102845540667701 0.39090531090650971 0 -0.20063027228478911 0.38501184314682541 0 -0.19088681868214499 0.40969003284437749 0 -0.20063027228478911 0.38501184314682541 0 -0.1789388462480834 0.38157708018046649 0 -0.19088681868214499 0.40969003284437749 0 -0.2128482783620588 0.41137608338991422 0 -0.20063027228478911 0.38501184314682541 0 -0.1789388462480834 0.38157708018046649 0 -0.15765948445416941 0.37510653254539988 0 -0.17053649263033691 0.40375944749290771 0 -0.15765948445416941 0.37510653254539988 0 -0.17053649263033691 0.40375944749290771 0 -0.1429950701006247 0.39616040068339042 0 -0.19088681868214499 0.40969003284437749 0 -0.1789388462480834 0.38157708018046649 0 -0.17053649263033691 0.40375944749290771 0 -0.17053649263033691 0.40375944749290771 0 -0.17296115368434989 0.43646008312743068 0 -0.15029181060657129 0.42180992010945267 0 -0.19088681868214499 0.40969003284437749 0 -0.17053649263033691 0.40375944749290771 0 -0.17296115368434989 0.43646008312743068 0 -0.19483069752195731 0.42938185329828138 0 -0.19088681868214499 0.40969003284437749 0 -0.17296115368434989 0.43646008312743068 0 -0.19483069752195731 0.42938185329828138 0 -0.17296115368434989 0.43646008312743068 0 -0.1510916098467425 0.44353831295658003 0 -0.17296115368434989 0.43646008312743068 0 -0.15029181060657129 0.42180992010945267 0 -0.17053649263033691 0.40375944749290771 0 -0.15029181060657129 0.42180992010945267 0 -0.1429950701006247 0.39616040068339042 0 -0.1510916098467425 0.44353831295658003 0 -0.15029181060657129 0.42180992010945267 0 -0.1345204767206129 0.43428943632650269 0 -0.1345204767206129 0.43428943632650269 0 -0.12833065574708011 0.41721426882138068 0 -0.1136662413935354 0.43826813695937111 0 -0.15029181060657129 0.42180992010945267 0 -0.1345204767206129 0.43428943632650269 0 -0.12833065574708011 0.41721426882138068 0 -0.12833065574708011 0.41721426882138068 0 -0.1429950701006247 0.39616040068339042 0 -0.15029181060657129 0.42180992010945267 0 -0.12833065574708011 0.41721426882138068 0 -0.1429950701006247 0.39616040068339042 0 -0.12833065574708011 0.41721426882138068 0 -0.1429950701006247 0.39616040068339042 0 -0.1133549966166007 0.40841286899670382 0 -0.1384464033698658 0.37748610277467548 0 -0.1249864394467665 0.36647929680744551 0 -0.11289166349545959 0.38913131912180049 0 -0.1384464033698658 0.37748610277467548 0 -0.1429950701006247 0.39616040068339042 0 -0.11289166349545959 0.38913131912180049 0 -0.15765948445416941 0.37510653254539988 0 -0.1429950701006247 0.39616040068339042 0 -0.15765948445416941 0.37510653254539988 0 -0.1384464033698658 0.37748610277467548 0 -0.1429950701006247 0.39616040068339042 0 -0.1452806524534003 0.35580435937836791 0 -0.13390447050268811 0.33494085341255442 0 -0.1249864394467665 0.36647929680744551 0 -0.15765948445416941 0.37510653254539988 0 -0.1384464033698658 0.37748610277467548 0 -0.1452806524534003 0.35580435937836791 0 -0.1384464033698658 0.37748610277467548 0 -0.1452806524534003 0.35580435937836791 0 -0.1249864394467665 0.36647929680744551 0 -0.13390447050268811 0.33494085341255442 0 -0.13470116639839139 0.30725362320868782 0 -0.1126956602783636 0.32231410595511878 0 -0.13390447050268811 0.33494085341255442 0 -0.15844610220492439 0.3370299005708966 0 -0.15959979100456881 0.31238638181595318 0 -0.13390447050268811 0.33494085341255442 0 -0.15959979100456881 0.31238638181595318 0 -0.13470116639839139 0.30725362320868782 0 -0.1452806524534003 0.35580435937836791 0 -0.13390447050268811 0.33494085341255442 0 -0.15844610220492439 0.3370299005708966 0 -0.15844610220492439 0.3370299005708966 0 -0.17860641272978911 0.3314216832705667 0 -0.1661721455277464 0.35678606689798398 0 -0.15844610220492439 0.3370299005708966 0 -0.17860641272978911 0.3314216832705667 0 -0.15959979100456881 0.31238638181595318 0 -0.17860641272978911 0.3314216832705667 0 -0.1845615118699849 0.30930925757630462 0 -0.15959979100456881 0.31238638181595318 0 -0.17860641272978911 0.3314216832705667 0 -0.1661721455277464 0.35678606689798398 0 -0.1880889266668907 0.35774537933312761 0 -0.1452806524534003 0.35580435937836791 0 -0.15844610220492439 0.3370299005708966 0 -0.1661721455277464 0.35678606689798398 0 -0.15765948445416941 0.37510653254539988 0 -0.1452806524534003 0.35580435937836791 0 -0.1661721455277464 0.35678606689798398 0 -0.1789388462480834 0.38157708018046649 0 -0.15765948445416941 0.37510653254539988 0 -0.1661721455277464 0.35678606689798398 0 -0.1789388462480834 0.38157708018046649 0 -0.1661721455277464 0.35678606689798398 0 -0.1880889266668907 0.35774537933312761 0 -0.20063027228478911 0.38501184314682541 0 -0.1880889266668907 0.35774537933312761 0 -0.215237679857718 0.36090421341653278 0 -0.20063027228478911 0.38501184314682541 0 -0.1789388462480834 0.38157708018046649 0 -0.1880889266668907 0.35774537933312761 0 -0.1880889266668907 0.35774537933312761 0 -0.215237679857718 0.36090421341653278 0 -0.2044785921844692 0.33020232104043612 0 -0.20063027228478911 0.38501184314682541 0 -0.215237679857718 0.36090421341653278 0 -0.23818237636831799 0.37936511208325108 0 -0.215237679857718 0.36090421341653278 0 -0.2360362130599428 0.35639321523019307 0 -0.215237679857718 0.36090421341653278 0 -0.22984508743064691 0.33679658368624021 0 -0.215237679857718 0.36090421341653278 0 -0.2360362130599428 0.35639321523019307 0 -0.22984508743064691 0.33679658368624021 0 -0.2524444675713638 0.36373399870478168 0 -0.25491254072672342 0.34444932004996509 0 -0.2360362130599428 0.35639321523019307 0 -0.25491254072672342 0.34444932004996509 0 -0.2360362130599428 0.35639321523019307 0 -0.22984508743064691 0.33679658368624021 0 -0.2524444675713638 0.36373399870478168 0 -0.23818237636831799 0.37936511208325108 0 -0.2360362130599428 0.35639321523019307 0 -0.24445249500357569 0.31268895395594748 0 -0.22984508743064691 0.33679658368624021 0 -0.25193576336242363 0.32745179617609171 0 -0.24445249500357569 0.31268895395594748 0 -0.22984508743064691 0.33679658368624021 0 -0.25193576336242363 0.32745179617609171 0 -0.25491254072672342 0.34444932004996509 0 -0.22984508743064691 0.33679658368624021 0 -0.22984508743064691 0.33679658368624021 0 -0.2235743028414803 0.31651765144061289 0 -0.2044785921844692 0.33020232104043612 0 -0.24445249500357569 0.31268895395594748 0 -0.22984508743064691 0.33679658368624021 0 -0.2235743028414803 0.31651765144061289 0 -0.2235743028414803 0.31651765144061289 0 -0.2044785921844692 0.33020232104043612 0 -0.2107309078258281 0.29961779827976009 0 -0.215237679857718 0.36090421341653278 0 -0.22984508743064691 0.33679658368624021 0 -0.2044785921844692 0.33020232104043612 0 -0.17860641272978911 0.3314216832705667 0 -0.1880889266668907 0.35774537933312761 0 -0.2044785921844692 0.33020232104043612 0 -0.2044785921844692 0.33020232104043612 0 -0.2107309078258281 0.29961779827976009 0 -0.1845615118699849 0.30930925757630462 0 -0.17860641272978911 0.3314216832705667 0 -0.2044785921844692 0.33020232104043612 0 -0.1845615118699849 0.30930925757630462 0 -0.2107309078258281 0.29961779827976009 0 -0.1845615118699849 0.30930925757630462 0 -0.19398374313416181 0.28164967385802159 0 -0.2107309078258281 0.29961779827976009 0 -0.1845615118699849 0.30930925757630462 0 -0.19398374313416181 0.28164967385802159 0 -0.2107309078258281 0.29961779827976009 0 -0.22240525769334879 0.26990894470168142 0 -0.2235743028414803 0.31651765144061289 0 -0.2107309078258281 0.29961779827976009 0 -0.23690030378167129 0.28992633898321563 0 -0.2107309078258281 0.29961779827976009 0 -0.23690030378167129 0.28992633898321563 0 -0.22240525769334879 0.26990894470168142 0 -0.2107309078258281 0.29961779827976009 0 -0.23690030378167129 0.28992633898321563 0 -0.26306969973751448 0.2802348796866711 0 -0.23690030378167129 0.28992633898321563 0 -0.26306969973751448 0.2802348796866711 0 -0.23690030378167129 0.28992633898321563 0 -0.24980756385378261 0.27703951666319931 0 -0.25905990257650452 0.28858132422565502 0 -0.24445249500357569 0.31268895395594748 0 -0.23690030378167129 0.28992633898321563 0 -0.24445249500357569 0.31268895395594748 0 -0.2235743028414803 0.31651765144061289 0 -0.23690030378167129 0.28992633898321563 0 -0.24109930165997989 0.26282992870568078 0 -0.244880050983068 0.25740356110519008 0 -0.23817330056300279 0.24564094886558641 0 -0.244880050983068 0.25740356110519008 0 -0.24550721988085539 0.25195218833350869 0 -0.24677738490149409 0.25392648281982888 0 -0.244880050983068 0.25740356110519008 0 -0.24550721988085539 0.25195218833350869 0 -0.23817330056300279 0.24564094886558641 0 -0.2510180080839442 0.24995211331417111 0 -0.24983282503825879 0.25351502519239982 0 -0.24677738490149409 0.25392648281982888 0 -0.244880050983068 0.25740356110519008 0 -0.24677738490149409 0.25392648281982888 0 -0.24942362600732659 0.25638949904060621 0 -0.24983282503825879 0.25351502519239982 0 -0.24677738490149409 0.25392648281982888 0 -0.24942362600732659 0.25638949904060621 0 -0.25032707105427437 0.2613477018387691 0 -0.24109930165997989 0.26282992870568078 0 -0.249510482404631 0.26888349453658988 0 -0.25032707105427437 0.2613477018387691 0 -0.244880050983068 0.25740356110519008 0 -0.24942362600732659 0.25638949904060621 0 -0.25032707105427437 0.2613477018387691 0 -0.24109930165997989 0.26282992870568078 0 -0.244880050983068 0.25740356110519008 0 -0.249510482404631 0.26888349453658988 0 -0.24980756385378261 0.27703951666319931 0 -0.24050539357510201 0.27326389572572601 0 -0.23690030378167129 0.28992633898321563 0 -0.24980756385378261 0.27703951666319931 0 -0.24050539357510201 0.27326389572572601 0 -0.24109930165997989 0.26282992870568078 0 -0.249510482404631 0.26888349453658988 0 -0.24050539357510201 0.27326389572572601 0 -0.24109930165997989 0.26282992870568078 0 -0.24050539357510201 0.27326389572572601 0 -0.22240525769334879 0.26990894470168142 0 -0.23690030378167129 0.28992633898321563 0 -0.24050539357510201 0.27326389572572601 0 -0.22240525769334879 0.26990894470168142 0 -0.22240525769334879 0.26990894470168142 0 -0.23817330056300279 0.24564094886558641 0 -0.24109930165997989 0.26282992870568078 0 -0.22240525769334879 0.26990894470168142 0 -0.23817330056300279 0.24564094886558641 0 -0.22240525769334879 0.26990894470168142 0 -0.23817330056300279 0.24564094886558641 0 -0.2172950635181766 0.24814309065104331 0 -0.22240525769334879 0.26990894470168142 0 -0.20090719330429591 0.25791897438927047 0 -0.2172950635181766 0.24814309065104331 0 -0.19398374313416181 0.28164967385802159 0 -0.22240525769334879 0.26990894470168142 0 -0.20090719330429591 0.25791897438927047 0 -0.19398374313416181 0.28164967385802159 0 -0.20090719330429591 0.25791897438927047 0 -0.16993119203683801 0.26505837646512509 0 -0.16993119203683801 0.26505837646512509 0 -0.1875462048560613 0.24396075309334389 0 -0.16993119203683801 0.26505837646512509 0 -0.1875462048560613 0.24396075309334389 0 -0.1662046459983213 0.24389980386596899 0 -0.20090719330429591 0.25791897438927047 0 -0.16993119203683801 0.26505837646512509 0 -0.1875462048560613 0.24396075309334389 0 -0.16993119203683801 0.26505837646512509 0 -0.13963411097210321 0.25468706613692149 0 -0.1662046459983213 0.24389980386596899 0 -0.16993119203683801 0.26505837646512509 0 -0.15231617921761481 0.28615599983690632 0 -0.16993119203683801 0.26505837646512509 0 -0.15231617921761481 0.28615599983690632 0 -0.14718636188813361 0.27133304123968671 0 -0.16993119203683801 0.26505837646512509 0 -0.17368888963485801 0.28952716427398528 0 -0.15231617921761481 0.28615599983690632 0 -0.19398374313416181 0.28164967385802159 0 -0.16993119203683801 0.26505837646512509 0 -0.17368888963485801 0.28952716427398528 0 -0.19398374313416181 0.28164967385802159 0 -0.17368888963485801 0.28952716427398528 0 -0.1845615118699849 0.30930925757630462 0 -0.17368888963485801 0.28952716427398528 0 -0.1845615118699849 0.30930925757630462 0 -0.15959979100456881 0.31238638181595318 0 -0.17368888963485801 0.28952716427398528 0 -0.15959979100456881 0.31238638181595318 0 -0.15231617921761481 0.28615599983690632 0 -0.15231617921761481 0.28615599983690632 0 -0.13470116639839139 0.30725362320868782 0 -0.15959979100456881 0.31238638181595318 0 -0.15231617921761481 0.28615599983690632 0 -0.13470116639839139 0.30725362320868782 0 -0.15231617921761481 0.28615599983690632 0 -0.13470116639839139 0.30725362320868782 0 -0.12686396532597841 0.27943072251979378 0 -0.13470116639839139 0.30725362320868782 0 -0.12686396532597841 0.27943072251979378 0 -0.1163235528094044 0.29025224164442143 0 -0.12686396532597841 0.27943072251979378 0 -0.13963411097210321 0.25468706613692149 0 -0.12686396532597841 0.27943072251979378 0 -0.13963411097210321 0.25468706613692149 0 -0.14718636188813361 0.27133304123968671 0 -0.12686396532597841 0.27943072251979378 0 -0.13963411097210321 0.25468706613692149 0 -0.1226752702717786 0.26566494202487612 0 -0.12511982810348229 0.255505276965593 0 -0.13963411097210321 0.25468706613692149 0 -0.1226752702717786 0.26566494202487612 0 -0.12511982810348229 0.255505276965593 0 -0.13963411097210321 0.25468706613692149 0 -0.1247585453905037 0.24701425862917981 0 -0.16993119203683801 0.26505837646512509 0 -0.13963411097210321 0.25468706613692149 0 -0.14718636188813361 0.27133304123968671 0 -0.15231617921761481 0.28615599983690632 0 -0.12686396532597841 0.27943072251979378 0 -0.14718636188813361 0.27133304123968671 0 -0.1053626134357349 0.26255183313858699 0 -0.1103874885831634 0.27315175042794532 0 -0.091938456063519067 0.27158763392658558 0 -0.1103874885831634 0.27315175042794532 0 -0.099465581281735091 0.2888537284895602 0 -0.091938456063519067 0.27158763392658558 0 -0.09540204667947795 0.25789114518248868 0 -0.1053626134357349 0.26255183313858699 0 -0.091938456063519067 0.27158763392658558 0 -0.09540204667947795 0.25789114518248868 0 -0.1060268277603225 0.25199338735995153 0 -0.092742149930258533 0.24685310800178609 0 -0.1060268277603225 0.25199338735995153 0 -0.1053626134357349 0.26255183313858699 0 -0.1134113857795436 0.2546548410713948 0 -0.09540204667947795 0.25789114518248868 0 -0.1060268277603225 0.25199338735995153 0 -0.1053626134357349 0.26255183313858699 0 -0.1134113857795436 0.2546548410713948 0 -0.1103874885831634 0.27315175042794532 0 -0.1226752702717786 0.26566494202487612 0 -0.1053626134357349 0.26255183313858699 0 -0.1134113857795436 0.2546548410713948 0 -0.1103874885831634 0.27315175042794532 0 -0.1134113857795436 0.2546548410713948 0 -0.1103874885831634 0.27315175042794532 0 -0.12511982810348229 0.255505276965593 0 -0.1134113857795436 0.2546548410713948 0 -0.1247585453905037 0.24701425862917981 0 -0.12511982810348229 0.255505276965593 0 -0.1134113857795436 0.2546548410713948 0 -0.1226752702717786 0.26566494202487612 0 -0.12686396532597841 0.27943072251979378 0 -0.1103874885831634 0.27315175042794532 0 -0.1226752702717786 0.26566494202487612 0 -0.12686396532597841 0.27943072251979378 0 -0.1103874885831634 0.27315175042794532 0 -0.1163235528094044 0.29025224164442143 0 -0.13470116639839139 0.30725362320868782 0 -0.1163235528094044 0.29025224164442143 0 -0.1101995624577537 0.3025713835761199 0 -0.13470116639839139 0.30725362320868782 0 -0.1101995624577537 0.3025713835761199 0 -0.1126956602783636 0.32231410595511878 0 -0.1101995624577537 0.3025713835761199 0 -0.092680422749592983 0.30728774496511257 0 -0.1126956602783636 0.32231410595511878 0 -0.1101995624577537 0.3025713835761199 0 -0.099465581281735091 0.2888537284895602 0 -0.092680422749592983 0.30728774496511257 0 -0.1103874885831634 0.27315175042794532 0 -0.1163235528094044 0.29025224164442143 0 -0.099465581281735091 0.2888537284895602 0 -0.1163235528094044 0.29025224164442143 0 -0.1101995624577537 0.3025713835761199 0 -0.099465581281735091 0.2888537284895602 0 -0.099465581281735091 0.2888537284895602 0 -0.08189015913316916 0.29260880043469217 0 -0.091938456063519067 0.27158763392658558 0 -0.099465581281735091 0.2888537284895602 0 -0.08189015913316916 0.29260880043469217 0 -0.092680422749592983 0.30728774496511257 0 -0.08189015913316916 0.29260880043469217 0 -0.092680422749592983 0.30728774496511257 0 -0.073680920793270807 0.30655715433588288 0 -0.073680920793270807 0.30655715433588288 0 -0.060263961813426838 0.28958447794497721 0 -0.056248914024603622 0.30769054685742869 0 -0.08189015913316916 0.29260880043469217 0 -0.073680920793270807 0.30655715433588288 0 -0.060263961813426838 0.28958447794497721 0 -0.08189015913316916 0.29260880043469217 0 -0.069228155570821001 0.26994642851326878 0 -0.08189015913316916 0.29260880043469217 0 -0.069228155570821001 0.26994642851326878 0 -0.060263961813426838 0.28958447794497721 0 -0.069228155570821001 0.26994642851326878 0 -0.091938456063519067 0.27158763392658558 0 -0.080940186207554693 0.25646976348553319 0 -0.08189015913316916 0.29260880043469217 0 -0.069228155570821001 0.26994642851326878 0 -0.091938456063519067 0.27158763392658558 0 -0.09540204667947795 0.25789114518248868 0 -0.080940186207554693 0.25646976348553319 0 -0.092742149930258533 0.24685310800178609 0 -0.09540204667947795 0.25789114518248868 0 -0.091938456063519067 0.27158763392658558 0 -0.080940186207554693 0.25646976348553319 0 -0.069228155570821001 0.26994642851326878 0 -0.056566152008472863 0.24728405659184541 0 -0.069228155570821001 0.26994642851326878 0 -0.080940186207554693 0.25646976348553319 0 -0.056566152008472863 0.24728405659184541 0 -0.069228155570821001 0.26994642851326878 0 -0.05175680577343128 0.26814828244538158 0 -0.056566152008472863 0.24728405659184541 0 -0.05175680577343128 0.26814828244538158 0 -0.044458616170019172 0.25490355438970741 0 -0.056566152008472863 0.24728405659184541 0 -0.05175680577343128 0.26814828244538158 0 -0.04301082883300078 0.27947224350635991 0 -0.060263961813426838 0.28958447794497721 0 -0.069228155570821001 0.26994642851326878 0 -0.05175680577343128 0.26814828244538158 0 -0.060263961813426838 0.28958447794497721 0 -0.05175680577343128 0.26814828244538158 0 -0.04301082883300078 0.27947224350635991 0 -0.035893429891307921 0.26644229658718838 0 -0.04301082883300078 0.27947224350635991 0 -0.035893429891307921 0.26644229658718838 0 -0.027531565769756971 0.27218095116956548 0 -0.035893429891307921 0.26644229658718838 0 -0.027531565769756971 0.27218095116956548 0 -0.033628923157772828 0.2486282092534311 0 -0.05175680577343128 0.26814828244538158 0 -0.035893429891307921 0.26644229658718838 0 -0.044458616170019172 0.25490355438970741 0 -0.035893429891307921 0.26644229658718838 0 -0.033628923157772828 0.2486282092534311 0 -0.035893429891307921 0.26644229658718838 0 -0.044458616170019172 0.25490355438970741 0 -0.033628923157772828 0.2486282092534311 0 -0.027531565769756971 0.27218095116956548 0 -0.014935831604940889 0.26220204275931291 0 -0.016048994506473908 0.24539805405009571 0 -0.027531565769756971 0.27218095116956548 0 -0.016048994506473908 0.24539805405009571 0 -0.027531565769756971 0.27218095116956548 0 -0.016048994506473908 0.24539805405009571 0 -0.02547624844103389 0.24484213932061269 0 -0.027531565769756971 0.27218095116956548 0 -0.033628923157772828 0.2486282092534311 0 -0.02547624844103389 0.24484213932061269 0 -0.027531565769756971 0.27218095116956548 0 -0.019284535983537961 0.27449719272894718 0 -0.02313455336299769 0.28666891496531127 0 -0.019284535983537961 0.27449719272894718 0 -0.011536193196456299 0.27693686202159928 0 -0.02313455336299769 0.28666891496531127 0 -0.027531565769756971 0.27218095116956548 0 -0.019284535983537961 0.27449719272894718 0 -0.014935831604940889 0.26220204275931291 0 -0.019284535983537961 0.27449719272894718 0 -0.011536193196456299 0.27693686202159928 0 -0.014935831604940889 0.26220204275931291 0 -0.011536193196456299 0.27693686202159928 0 -0.00081125852079886869 0.26339025224063167 0 -0.014935831604940889 0.26220204275931291 0 -0.011536193196456299 0.27693686202159928 0 -0.00081125852079886869 0.26339025224063167 0 0.0033861736390128402 0.27570980191385019 0 -0.00081125852079886869 0.26339025224063167 0 -0.0050525179201023037 0.2511486427858825 0 -0.014935831604940889 0.26220204275931291 0 -0.0050525179201023037 0.2511486427858825 0 -0.014935831604940889 0.26220204275931291 0 -0.016048994506473908 0.24539805405009571 0 -0.014310148848530021 0.29924644409217133 0 -0.021775370321793681 0.31748715797570293 0 0.0018198491859377911 0.32054153057843171 0 -0.014310148848530021 0.29924644409217133 0 0.0018198491859377911 0.32054153057843171 0 0.0077795116371697833 0.29488035072294749 0 -0.011536193196456299 0.27693686202159928 0 0.0077795116371697833 0.29488035072294749 0 0.0033861736390128402 0.27570980191385019 0 -0.011536193196456299 0.27693686202159928 0 -0.014310148848530021 0.29924644409217133 0 0.0077795116371697833 0.29488035072294749 0 -0.011536193196456299 0.27693686202159928 0 0.0077795116371697833 0.29488035072294749 0 -0.014310148848530021 0.29924644409217133 0 -0.02313455336299769 0.28666891496531127 0 -0.039014137033040047 0.29896384828903538 0 -0.011536193196456299 0.27693686202159928 0 -0.014310148848530021 0.29924644409217133 0 -0.02313455336299769 0.28666891496531127 0 -0.027531565769756971 0.27218095116956548 0 -0.02313455336299769 0.28666891496531127 0 -0.039014137033040047 0.29896384828903538 0 -0.014310148848530021 0.29924644409217133 0 -0.039014137033040047 0.29896384828903538 0 -0.021775370321793681 0.31748715797570293 0 -0.039014137033040047 0.29896384828903538 0 -0.050496708296323023 0.32574674540850501 0 -0.027531565769756971 0.27218095116956548 0 -0.039014137033040047 0.29896384828903538 0 -0.04301082883300078 0.27947224350635991 0 -0.027531565769756971 0.27218095116956548 0 -0.039014137033040047 0.29896384828903538 0 -0.04301082883300078 0.27947224350635991 0 -0.039014137033040047 0.29896384828903538 0 -0.060263961813426838 0.28958447794497721 0 -0.039014137033040047 0.29896384828903538 0 -0.056248914024603622 0.30769054685742869 0 -0.050496708296323023 0.32574674540850501 0 -0.039014137033040047 0.29896384828903538 0 -0.060263961813426838 0.28958447794497721 0 -0.056248914024603622 0.30769054685742869 0 -0.056248914024603622 0.30769054685742869 0 -0.050496708296323023 0.32574674540850501 0 -0.069687684274615108 0.32692641390781568 0 -0.050496708296323023 0.32574674540850501 0 -0.059268484066169948 0.34444984375043058 0 -0.069687684274615108 0.32692641390781568 0 -0.050496708296323023 0.32574674540850501 0 -0.03608490487891685 0.35073723778640492 0 -0.059268484066169948 0.34444984375043058 0 -0.050496708296323023 0.32574674540850501 0 -0.026449956683109479 0.33568098290281689 0 -0.03608490487891685 0.35073723778640492 0 -0.050496708296323023 0.32574674540850501 0 -0.021775370321793681 0.31748715797570293 0 -0.026449956683109479 0.33568098290281689 0 -0.039014137033040047 0.29896384828903538 0 -0.050496708296323023 0.32574674540850501 0 -0.021775370321793681 0.31748715797570293 0 -0.026449956683109479 0.33568098290281689 0 -0.0094503940930963232 0.33958654802237659 0 -0.016775859638137498 0.35142967202213399 0 -0.021775370321793681 0.31748715797570293 0 -0.026449956683109479 0.33568098290281689 0 -0.0094503940930963232 0.33958654802237659 0 -0.0094503940930963232 0.33958654802237659 0 0.0040105375304049472 0.34378788268439048 0 0.0018198491859377911 0.32054153057843171 0 -0.021775370321793681 0.31748715797570293 0 -0.0094503940930963232 0.33958654802237659 0 0.0018198491859377911 0.32054153057843171 0 -0.017465500974350422 0.37016749042914998 0 -0.0084583514666562998 0.3806248500013989 0 0.011517074606192661 0.37267337460899502 0 -0.017465500974350422 0.37016749042914998 0 0.011517074606192661 0.37267337460899502 0 -0.017465500974350422 0.37016749042914998 0 0.0010333402565479361 0.35612996131568597 0 0.011517074606192661 0.37267337460899502 0 -0.016775859638137498 0.35142967202213399 0 -0.017465500974350422 0.37016749042914998 0 0.0010333402565479361 0.35612996131568597 0 -0.0094503940930963232 0.33958654802237659 0 0.0010333402565479361 0.35612996131568597 0 -0.0094503940930963232 0.33958654802237659 0 0.0040105375304049472 0.34378788268439048 0 0.0010333402565479361 0.35612996131568597 0 -0.0094503940930963232 0.33958654802237659 0 -0.016775859638137498 0.35142967202213399 0 0.0010333402565479361 0.35612996131568597 0 -0.016775859638137498 0.35142967202213399 0 -0.017465500974350422 0.37016749042914998 0 -0.03608490487891685 0.35073723778640492 0 -0.026449956683109479 0.33568098290281689 0 -0.016775859638137498 0.35142967202213399 0 -0.03608490487891685 0.35073723778640492 0 -0.017465500974350422 0.37016749042914998 0 -0.037473703846408121 0.37039885832331371 0 -0.02720440187499765 0.38295499126181459 0 -0.017465500974350422 0.37016749042914998 0 -0.037473703846408121 0.37039885832331371 0 -0.03608490487891685 0.35073723778640492 0 -0.037473703846408121 0.37039885832331371 0 -0.03608490487891685 0.35073723778640492 0 -0.055118590609045309 0.36468813144184331 0 -0.037473703846408121 0.37039885832331371 0 -0.055118590609045309 0.36468813144184331 0 -0.046899387178939017 0.38793695058112282 0 -0.03608490487891685 0.35073723778640492 0 -0.059268484066169948 0.34444984375043058 0 -0.055118590609045309 0.36468813144184331 0 -0.055118590609045309 0.36468813144184331 0 -0.081124808920191194 0.35352862296022891 0 -0.069360782648663646 0.38210399084163449 0 -0.081124808920191194 0.35352862296022891 0 -0.090190813100151188 0.37718884731207603 0 -0.069360782648663646 0.38210399084163449 0 -0.081124808920191194 0.35352862296022891 0 -0.105102879505081 0.3659159392586569 0 -0.090190813100151188 0.37718884731207603 0 -0.059268484066169948 0.34444984375043058 0 -0.055118590609045309 0.36468813144184331 0 -0.081124808920191194 0.35352862296022891 0 -0.059268484066169948 0.34444984375043058 0 -0.081124808920191194 0.35352862296022891 0 -0.069687684274615108 0.32692641390781568 0 -0.073680920793270807 0.30655715433588288 0 -0.056248914024603622 0.30769054685742869 0 -0.069687684274615108 0.32692641390781568 0 -0.073680920793270807 0.30655715433588288 0 -0.069687684274615108 0.32692641390781568 0 -0.090782760344436025 0.32653120182640383 0 -0.073680920793270807 0.30655715433588288 0 -0.090782760344436025 0.32653120182640383 0 -0.092680422749592983 0.30728774496511257 0 -0.073680920793270807 0.30655715433588288 0 -0.090782760344436025 0.32653120182640383 0 -0.081124808920191194 0.35352862296022891 0 -0.069687684274615108 0.32692641390781568 0 -0.090782760344436025 0.32653120182640383 0 -0.081124808920191194 0.35352862296022891 0 -0.090782760344436025 0.32653120182640383 0 -0.1078845998956013 0.34650524931692472 0 -0.090782760344436025 0.32653120182640383 0 -0.1126956602783636 0.32231410595511878 0 -0.1078845998956013 0.34650524931692472 0 -0.090782760344436025 0.32653120182640383 0 -0.1078845998956013 0.34650524931692472 0 -0.092680422749592983 0.30728774496511257 0 -0.090782760344436025 0.32653120182640383 0 -0.1126956602783636 0.32231410595511878 0 -0.13390447050268811 0.33494085341255442 0 -0.1126956602783636 0.32231410595511878 0 -0.1078845998956013 0.34650524931692472 0 -0.1249864394467665 0.36647929680744551 0 -0.1078845998956013 0.34650524931692472 0 -0.13390447050268811 0.33494085341255442 0 -0.1249864394467665 0.36647929680744551 0 -0.1078845998956013 0.34650524931692472 0 -0.1249864394467665 0.36647929680744551 0 -0.105102879505081 0.3659159392586569 0 -0.11289166349545959 0.38913131912180049 0 -0.1249864394467665 0.36647929680744551 0 -0.105102879505081 0.3659159392586569 0 -0.1078845998956013 0.34650524931692472 0 -0.081124808920191194 0.35352862296022891 0 -0.105102879505081 0.3659159392586569 0 -0.1078845998956013 0.34650524931692472 0 -0.11289166349545959 0.38913131912180049 0 -0.1133549966166007 0.40841286899670382 0 -0.097158748568742848 0.41025510441578222 0 -0.11289166349545959 0.38913131912180049 0 -0.097158748568742848 0.41025510441578222 0 -0.085875720100825406 0.39552507993969771 0 -0.105102879505081 0.3659159392586569 0 -0.11289166349545959 0.38913131912180049 0 -0.090190813100151188 0.37718884731207603 0 -0.11289166349545959 0.38913131912180049 0 -0.085875720100825406 0.39552507993969771 0 -0.090190813100151188 0.37718884731207603 0 -0.1429950701006247 0.39616040068339042 0 -0.11289166349545959 0.38913131912180049 0 -0.1133549966166007 0.40841286899670382 0 -0.12833065574708011 0.41721426882138068 0 -0.1133549966166007 0.40841286899670382 0 -0.10118177319353 0.42554972699776039 0 -0.12833065574708011 0.41721426882138068 0 -0.10118177319353 0.42554972699776039 0 -0.1136662413935354 0.43826813695937111 0 -0.12833065574708011 0.41721426882138068 0 -0.1136662413935354 0.43826813695937111 0 -0.10118177319353 0.42554972699776039 0 -0.095561493187976382 0.44312334279998228 0 -0.1136662413935354 0.43826813695937111 0 -0.1133549966166007 0.40841286899670382 0 -0.10118177319353 0.42554972699776039 0 -0.097158748568742848 0.41025510441578222 0 -0.10118177319353 0.42554972699776039 0 -0.097158748568742848 0.41025510441578222 0 -0.082883339377433612 0.41507255115089547 0 -0.097158748568742848 0.41025510441578222 0 -0.082883339377433612 0.41507255115089547 0 -0.085875720100825406 0.39552507993969771 0 -0.10118177319353 0.42554972699776039 0 -0.082883339377433612 0.41507255115089547 0 -0.08050888849517121 0.43477443809608918 0 -0.10118177319353 0.42554972699776039 0 -0.08050888849517121 0.43477443809608918 0 -0.095561493187976382 0.44312334279998228 0 -0.082883339377433612 0.41507255115089547 0 -0.08050888849517121 0.43477443809608918 0 -0.066917732069781299 0.42201406895441501 0 -0.08050888849517121 0.43477443809608918 0 -0.066917732069781299 0.42201406895441501 0 -0.061907234667540528 0.44344527228822389 0 -0.082883339377433612 0.41507255115089547 0 -0.066917732069781299 0.42201406895441501 0 -0.065657173836550953 0.40231688850162872 0 -0.065657173836550953 0.40231688850162872 0 -0.085875720100825406 0.39552507993969771 0 -0.069360782648663646 0.38210399084163449 0 -0.082883339377433612 0.41507255115089547 0 -0.065657173836550953 0.40231688850162872 0 -0.085875720100825406 0.39552507993969771 0 -0.085875720100825406 0.39552507993969771 0 -0.090190813100151188 0.37718884731207603 0 -0.069360782648663646 0.38210399084163449 0 -0.055118590609045309 0.36468813144184331 0 -0.069360782648663646 0.38210399084163449 0 -0.046899387178939017 0.38793695058112282 0 -0.065657173836550953 0.40231688850162872 0 -0.069360782648663646 0.38210399084163449 0 -0.046899387178939017 0.38793695058112282 0 -0.065657173836550953 0.40231688850162872 0 -0.046899387178939017 0.38793695058112282 0 -0.046930682451458781 0.4111868277106015 0 -0.046899387178939017 0.38793695058112282 0 -0.031146065957916861 0.39726582547973022 0 -0.046930682451458781 0.4111868277106015 0 -0.037473703846408121 0.37039885832331371 0 -0.046899387178939017 0.38793695058112282 0 -0.02720440187499765 0.38295499126181459 0 -0.046899387178939017 0.38793695058112282 0 -0.02720440187499765 0.38295499126181459 0 -0.031146065957916861 0.39726582547973022 0 -0.02720440187499765 0.38295499126181459 0 -0.01718604140281673 0.39216388841127547 0 -0.0084583514666562998 0.3806248500013989 0 -0.017465500974350422 0.37016749042914998 0 -0.02720440187499765 0.38295499126181459 0 -0.0084583514666562998 0.3806248500013989 0 -0.02720440187499765 0.38295499126181459 0 -0.031146065957916861 0.39726582547973022 0 -0.01718604140281673 0.39216388841127547 0 -0.031146065957916861 0.39726582547973022 0 -0.01964625454725984 0.40541217525957302 0 -0.030164404891159052 0.41207899217099969 0 -0.031146065957916861 0.39726582547973022 0 -0.01964625454725984 0.40541217525957302 0 -0.01718604140281673 0.39216388841127547 0 -0.01718604140281673 0.39216388841127547 0 -0.007217321944251954 0.40158103994770239 0 -0.0061232900107382722 0.39051945075981842 0 -0.01964625454725984 0.40541217525957302 0 -0.01718604140281673 0.39216388841127547 0 -0.007217321944251954 0.40158103994770239 0 -0.0009127015893094551 0.386216404550625 0 -0.0061232900107382722 0.39051945075981842 0 0.003524189319681958 0.39647542768506899 0 -0.007217321944251954 0.40158103994770239 0 -0.0061232900107382722 0.39051945075981842 0 0.003524189319681958 0.39647542768506899 0 -0.0009127015893094551 0.386216404550625 0 -0.0061232900107382722 0.39051945075981842 0 -0.0084583514666562998 0.3806248500013989 0 -0.0009127015893094551 0.386216404550625 0 -0.0084583514666562998 0.3806248500013989 0 0.0052189749371674473 0.38154505598380267 0 -0.01718604140281673 0.39216388841127547 0 -0.0061232900107382722 0.39051945075981842 0 -0.0084583514666562998 0.3806248500013989 0 -0.003699379230397658 0.42806434010588768 0 -0.019875290336984531 0.41963294826564718 0 -0.01966237714545974 0.433876574167537 0 -0.003699379230397658 0.42806434010588768 0 -0.01966237714545974 0.433876574167537 0 -0.0093929656639097549 0.44779877631524562 0 -0.003699379230397658 0.42806434010588768 0 -0.0087465114379578074 0.41304202040899762 0 0.0063497644604423526 0.4132448034643626 0 -0.003699379230397658 0.42806434010588768 0 -0.0087465114379578074 0.41304202040899762 0 -0.019875290336984531 0.41963294826564718 0 -0.007217321944251954 0.40158103994770239 0 -0.0087465114379578074 0.41304202040899762 0 0.0063497644604423526 0.4132448034643626 0 -0.01964625454725984 0.40541217525957302 0 -0.007217321944251954 0.40158103994770239 0 -0.0087465114379578074 0.41304202040899762 0 -0.019875290336984531 0.41963294826564718 0 -0.030164404891159052 0.41207899217099969 0 -0.035857026722809701 0.42669511378376968 0 -0.01964625454725984 0.40541217525957302 0 -0.019875290336984531 0.41963294826564718 0 -0.030164404891159052 0.41207899217099969 0 -0.01964625454725984 0.40541217525957302 0 -0.0087465114379578074 0.41304202040899762 0 -0.019875290336984531 0.41963294826564718 0 -0.019875290336984531 0.41963294826564718 0 -0.01966237714545974 0.433876574167537 0 -0.035857026722809701 0.42669511378376968 0 -0.01966237714545974 0.433876574167537 0 -0.035857026722809701 0.42669511378376968 0 -0.029274893918104949 0.4491950449621861 0 -0.035857026722809701 0.42669511378376968 0 -0.051435145316325932 0.43075272208384802 0 -0.046000123144442233 0.44256061654207107 0 -0.035857026722809701 0.42669511378376968 0 -0.046930682451458781 0.4111868277106015 0 -0.051435145316325932 0.43075272208384802 0 -0.030164404891159052 0.41207899217099969 0 -0.035857026722809701 0.42669511378376968 0 -0.046930682451458781 0.4111868277106015 0 -0.031146065957916861 0.39726582547973022 0 -0.030164404891159052 0.41207899217099969 0 -0.046930682451458781 0.4111868277106015 0 -0.066917732069781299 0.42201406895441501 0 -0.065657173836550953 0.40231688850162872 0 -0.046930682451458781 0.4111868277106015 0 -0.066917732069781299 0.42201406895441501 0 -0.046930682451458781 0.4111868277106015 0 -0.051435145316325932 0.43075272208384802 0 -0.066917732069781299 0.42201406895441501 0 -0.051435145316325932 0.43075272208384802 0 -0.061907234667540528 0.44344527228822389 0 -0.061907234667540528 0.44344527228822389 0 -0.051526315097430053 0.46271492959232791 0 -0.046000123144442233 0.44256061654207107 0 -0.051435145316325932 0.43075272208384802 0 -0.061907234667540528 0.44344527228822389 0 -0.046000123144442233 0.44256061654207107 0 -0.051526315097430053 0.46271492959232791 0 -0.029274893918104949 0.4491950449621861 0 -0.051526315097430053 0.46271492959232791 0 -0.034141190194073787 0.46597902671138519 0 -0.029274893918104949 0.4491950449621861 0 -0.035857026722809701 0.42669511378376968 0 -0.046000123144442233 0.44256061654207107 0 -0.029274893918104949 0.4491950449621861 0 -0.051526315097430053 0.46271492959232791 0 -0.046000123144442233 0.44256061654207107 0 -0.029274893918104949 0.4491950449621861 0 -0.01966237714545974 0.433876574167537 0 -0.029274893918104949 0.4491950449621861 0 -0.0093929656639097549 0.44779877631524562 0 -0.029274893918104949 0.4491950449621861 0 -0.016669999671377739 0.46635370593768161 0 -0.0093929656639097549 0.44779877631524562 0 -0.034141190194073787 0.46597902671138519 0 -0.029274893918104949 0.4491950449621861 0 -0.016669999671377739 0.46635370593768161 0 -0.016669999671377739 0.46635370593768161 0 -0.0093929656639097549 0.44779877631524562 0 0.01363128095964335 0.45906120889350499 0 -0.003699379230397658 0.42806434010588768 0 -0.0093929656639097549 0.44779877631524562 0 0.0058653050938953528 0.44291189908383849 0 -0.004319816814104982 0.5 0 -0.016049126577534462 0.48629276486614459 0 0.0050705476439347752 0.48187304735734721 0 -0.016669999671377739 0.46635370593768161 0 -0.016049126577534462 0.48629276486614459 0 0.0050705476439347752 0.48187304735734721 0 -0.034141190194073787 0.46597902671138519 0 -0.016669999671377739 0.46635370593768161 0 -0.037242424596900033 0.483176852968842 0 -0.016669999671377739 0.46635370593768161 0 -0.037242424596900033 0.483176852968842 0 -0.016669999671377739 0.46635370593768161 0 -0.016049126577534462 0.48629276486614459 0 -0.037242424596900033 0.483176852968842 0 -0.004319816814104982 0.5 0 -0.016049126577534462 0.48629276486614459 0 -0.031067333168264041 0.5 0 -0.016049126577534462 0.48629276486614459 0 -0.031067333168264041 0.5 0 -0.037242424596900033 0.483176852968842 0 -0.031067333168264041 0.5 0 -0.037242424596900033 0.483176852968842 0 -0.057814849522422988 0.50000000000000144 0 -0.051526315097430053 0.46271492959232791 0 -0.034141190194073787 0.46597902671138519 0 -0.037242424596900033 0.483176852968842 0 -0.051526315097430053 0.46271492959232791 0 -0.037242424596900033 0.483176852968842 0 -0.055090331373377072 0.4805316491959099 0 -0.051526315097430053 0.46271492959232791 0 -0.055090331373377072 0.4805316491959099 0 -0.073777736276755226 0.47623481422246972 0 -0.055090331373377072 0.4805316491959099 0 -0.057814849522422988 0.50000000000000144 0 -0.073777736276755226 0.47623481422246972 0 -0.037242424596900033 0.483176852968842 0 -0.057814849522422988 0.50000000000000144 0 -0.037242424596900033 0.483176852968842 0 -0.055090331373377072 0.4805316491959099 0 -0.057814849522422988 0.50000000000000144 0 -0.057814849522422988 0.50000000000000144 0 -0.079776607516970688 0.5 0 -0.073777736276755226 0.47623481422246972 0 -0.079776607516970688 0.5 0 -0.10173836551151851 0.5 0 -0.096029157456080261 0.48975469885261153 0 -0.079776607516970688 0.5 0 -0.073777736276755226 0.47623481422246972 0 -0.096029157456080261 0.48975469885261153 0 -0.073777736276755226 0.47623481422246972 0 -0.096029157456080261 0.48975469885261153 0 -0.092414584703302868 0.46959752079904638 0 -0.073777736276755226 0.47623481422246972 0 -0.096029157456080261 0.48975469885261153 0 -0.051526315097430053 0.46271492959232791 0 -0.073777736276755226 0.47623481422246972 0 -0.051526315097430053 0.46271492959232791 0 -0.073777736276755226 0.47623481422246972 0 -0.077295703853220793 0.45647090006726071 0 -0.061907234667540528 0.44344527228822389 0 -0.051526315097430053 0.46271492959232791 0 -0.077295703853220793 0.45647090006726071 0 -0.08050888849517121 0.43477443809608918 0 -0.061907234667540528 0.44344527228822389 0 -0.077295703853220793 0.45647090006726071 0 -0.08050888849517121 0.43477443809608918 0 -0.077295703853220793 0.45647090006726071 0 -0.095561493187976382 0.44312334279998228 0 -0.092414584703302868 0.46959752079904638 0 -0.077295703853220793 0.45647090006726071 0 -0.095561493187976382 0.44312334279998228 0 -0.092414584703302868 0.46959752079904638 0 -0.073777736276755226 0.47623481422246972 0 -0.077295703853220793 0.45647090006726071 0 -0.092414584703302868 0.46959752079904638 0 -0.1073525221715276 0.45769477261487862 0 -0.1026478629545189 0.47829010030510483 0 -0.092414584703302868 0.46959752079904638 0 -0.1073525221715276 0.45769477261487862 0 -0.095561493187976382 0.44312334279998228 0 -0.1073525221715276 0.45769477261487862 0 -0.095561493187976382 0.44312334279998228 0 -0.1136662413935354 0.43826813695937111 0 -0.12922206600913511 0.45061654278572932 0 -0.1073525221715276 0.45769477261487862 0 -0.1136662413935354 0.43826813695937111 0 -0.12958584092853809 0.46802644155149598 0 -0.12922206600913511 0.45061654278572932 0 -0.1073525221715276 0.45769477261487862 0 -0.12922206600913511 0.45061654278572932 0 -0.1073525221715276 0.45769477261487862 0 -0.12958584092853809 0.46802644155149598 0 -0.1073525221715276 0.45769477261487862 0 -0.11685379623700171 0.4793372418876154 0 -0.11685379623700171 0.4793372418876154 0 -0.1087869882401887 0.48935876279239082 0 -0.1026478629545189 0.47829010030510483 0 -0.1237001235060662 0.5 0 -0.1087869882401887 0.48935876279239082 0 -0.10173836551151851 0.5 0 -0.1299475470605988 0.482433497162845 0 -0.11685379623700171 0.4793372418876154 0 -0.1237001235060662 0.5 0 -0.11685379623700171 0.4793372418876154 0 -0.1237001235060662 0.5 0 -0.1087869882401887 0.48935876279239082 0 -0.1087869882401887 0.48935876279239082 0 -0.096029157456080261 0.48975469885261153 0 -0.1026478629545189 0.47829010030510483 0 -0.1087869882401887 0.48935876279239082 0 -0.10173836551151851 0.5 0 -0.096029157456080261 0.48975469885261153 0 -0.092414584703302868 0.46959752079904638 0 -0.096029157456080261 0.48975469885261153 0 -0.1026478629545189 0.47829010030510483 0 -0.1073525221715276 0.45769477261487862 0 -0.11685379623700171 0.4793372418876154 0 -0.1026478629545189 0.47829010030510483 0 -0.16142617354588301 0.084888484620330468 0 -0.16441723393359001 0.068071683910946992 0 -0.1451361735214067 0.083712047760289593 0 -0.16142617354588301 0.084888484620330468 0 -0.17329344683901771 0.07727081598037587 0 -0.17352633975230031 0.08638850302290374 0 -0.16142617354588301 0.084888484620330468 0 -0.17352633975230031 0.08638850302290374 0 -0.16934887103016 0.097356515867331156 0 -0.16142617354588301 0.084888484620330468 0 -0.16441723393359001 0.068071683910946992 0 -0.17329344683901771 0.07727081598037587 0 -0.16441723393359001 0.068071683910946992 0 -0.17329344683901771 0.07727081598037587 0 -0.1753208278408164 0.069385197802807039 0 -0.17329344683901771 0.07727081598037587 0 -0.1753208278408164 0.069385197802807039 0 -0.18114944734182251 0.075051400140519711 0 -0.17329344683901771 0.07727081598037587 0 -0.18114944734182251 0.075051400140519711 0 -0.18162309111624381 0.082015278718426746 0 -0.16441723393359001 0.068071683910946992 0 -0.1753208278408164 0.069385197802807039 0 -0.18369829434577389 0.052431320061605252 0 -0.18318582904261371 0.069301856694293687 0 -0.18746506259141371 0.062711873972726359 0 -0.18596932449387821 0.07294721698785972 0 -0.1753208278408164 0.069385197802807039 0 -0.18268071184092671 0.065523782355066701 0 -0.18318582904261371 0.069301856694293687 0 -0.18268071184092671 0.065523782355066701 0 -0.18318582904261371 0.069301856694293687 0 -0.18746506259141371 0.062711873972726359 0 -0.18268071184092671 0.065523782355066701 0 -0.18746506259141371 0.062711873972726359 0 -0.1753208278408164 0.069385197802807039 0 -0.18318582904261371 0.069301856694293687 0 -0.18114944734182251 0.075051400140519711 0 -0.18746506259141371 0.062711873972726359 0 -0.18596932449387821 0.07294721698785972 0 -0.1887424216393043 0.077288715178403578 0 -0.18318582904261371 0.069301856694293687 0 -0.18114944734182251 0.075051400140519711 0 -0.18596932449387821 0.07294721698785972 0 -0.18596932449387821 0.07294721698785972 0 -0.18525998936546029 0.078021048522642772 0 -0.1887424216393043 0.077288715178403578 0 -0.18114944734182251 0.075051400140519711 0 -0.18596932449387821 0.07294721698785972 0 -0.18525998936546029 0.078021048522642772 0 -0.18525998936546029 0.078021048522642772 0 -0.18762966876771731 0.081844489425770134 0 -0.1887424216393043 0.077288715178403578 0 -0.18525998936546029 0.078021048522642772 0 -0.18162309111624381 0.082015278718426746 0 -0.18762966876771731 0.081844489425770134 0 -0.18162309111624381 0.082015278718426746 0 -0.1874859600529665 0.086364106473277247 0 -0.18762966876771731 0.081844489425770134 0 -0.18114944734182251 0.075051400140519711 0 -0.18525998936546029 0.078021048522642772 0 -0.18162309111624381 0.082015278718426746 0 -0.17329344683901771 0.07727081598037587 0 -0.18162309111624381 0.082015278718426746 0 -0.17352633975230031 0.08638850302290374 0 -0.17352633975230031 0.08638850302290374 0 -0.18194011623019701 0.090411419928054515 0 -0.16934887103016 0.097356515867331156 0 -0.18162309111624381 0.082015278718426746 0 -0.17352633975230031 0.08638850302290374 0 -0.18194011623019701 0.090411419928054515 0 -0.18162309111624381 0.082015278718426746 0 -0.18194011623019701 0.090411419928054515 0 -0.1874859600529665 0.086364106473277247 0 -0.18194011623019701 0.090411419928054515 0 -0.1874859600529665 0.086364106473277247 0 -0.18727381232560669 0.090395616219498126 0 -0.18194011623019701 0.090411419928054515 0 -0.18727381232560669 0.090395616219498126 0 -0.18766816598617861 0.094566797386045592 0 -0.18194011623019701 0.090411419928054515 0 -0.18054297493819871 0.1007249915466407 0 -0.18766816598617861 0.094566797386045592 0 -0.18054297493819871 0.1007249915466407 0 -0.17624300573152371 0.1146615541106233 0 -0.16934887103016 0.097356515867331156 0 -0.18054297493819871 0.1007249915466407 0 -0.18766816598617861 0.094566797386045592 0 -0.18991072588347471 0.099567037662485453 0 -0.18054297493819871 0.1007249915466407 0 -0.18886628844027459 0.1069735286288445 0 -0.18991072588347471 0.099567037662485453 0 -0.18054297493819871 0.1007249915466407 0 -0.17624300573152371 0.1146615541106233 0 -0.18886628844027459 0.1069735286288445 0 -0.18194011623019701 0.090411419928054515 0 -0.18054297493819871 0.1007249915466407 0 -0.16934887103016 0.097356515867331156 0 -0.17624300573152371 0.1146615541106233 0 -0.16172714422600559 0.12271785696539581 0 -0.18703615942337029 0.13061376105572481 0 -0.17624300573152371 0.1146615541106233 0 -0.18886628844027459 0.1069735286288445 0 -0.18703615942337029 0.13061376105572481 0 -0.17624300573152371 0.1146615541106233 0 -0.16172714422600559 0.12271785696539581 0 -0.16934887103016 0.097356515867331156 0 -0.16172714422600559 0.12271785696539581 0 -0.16934887103016 0.097356515867331156 0 -0.14810308360738361 0.10394970143469839 0 -0.16142617354588301 0.084888484620330468 0 -0.16934887103016 0.097356515867331156 0 -0.14810308360738361 0.10394970143469839 0 -0.14810308360738361 0.10394970143469839 0 -0.14563727765195869 0.1242339937316463 0 -0.12848186121880881 0.1191960057663058 0 -0.16172714422600559 0.12271785696539581 0 -0.14810308360738361 0.10394970143469839 0 -0.14563727765195869 0.1242339937316463 0 -0.14810308360738361 0.10394970143469839 0 -0.1258551131092234 0.099352411609632166 0 -0.1451361735214067 0.083712047760289593 0 -0.14810308360738361 0.10394970143469839 0 -0.12848186121880881 0.1191960057663058 0 -0.1258551131092234 0.099352411609632166 0 -0.1258551131092234 0.099352411609632166 0 -0.12787215364192681 0.081824817451553344 0 -0.1451361735214067 0.083712047760289593 0 -0.1258551131092234 0.099352411609632166 0 -0.1451361735214067 0.083712047760289593 0 -0.16142617354588301 0.084888484620330468 0 -0.14810308360738361 0.10394970143469839 0 -0.1451361735214067 0.083712047760289593 0 -0.16441723393359001 0.068071683910946992 0 -0.1451361735214067 0.083712047760289593 0 -0.1412625358048559 0.06544809958728727 0 -0.16441723393359001 0.068071683910946992 0 -0.1451361735214067 0.083712047760289593 0 -0.12787215364192681 0.081824817451553344 0 -0.1412625358048559 0.06544809958728727 0 -0.12621163995807361 0.067523727763660002 0 -0.12787215364192681 0.081824817451553344 0 -0.1451361735214067 0.083712047760289593 0 -0.1412625358048559 0.06544809958728727 0 -0.1412625358048559 0.06544809958728727 0 -0.12621163995807361 0.067523727763660002 0 -0.1250013385225705 0.052760308561482797 0 -0.1412625358048559 0.06544809958728727 0 -0.1250013385225705 0.052760308561482797 0 -0.15286312113920739 0.046973833054157151 0 -0.1250013385225705 0.052760308561482797 0 -0.15286312113920739 0.046973833054157151 0 -0.1250013385225705 0.052760308561482797 0 -0.13117867541555539 0.042068160617499462 0 -0.119143022142652 0.046496453498476857 0 -0.13734937414825699 0.029252366131538868 0 -0.1249386459198932 0.032991929406970169 0 -0.119143022142652 0.046496453498476857 0 -0.13117867541555539 0.042068160617499462 0 -0.13734937414825699 0.029252366131538868 0 -0.119143022142652 0.046496453498476857 0 -0.1250013385225705 0.052760308561482797 0 -0.13117867541555539 0.042068160617499462 0 -0.14322096684874219 0.039763514278499321 0 -0.1250013385225705 0.052760308561482797 0 -0.14322096684874219 0.039763514278499321 0 -0.15286312113920739 0.046973833054157151 0 -0.13734937414825699 0.029252366131538868 0 -0.119143022142652 0.046496453498476857 0 -0.13117867541555539 0.042068160617499462 0 -0.14322096684874219 0.039763514278499321 0 -0.13734937414825699 0.029252366131538868 0 -0.14322096684874219 0.039763514278499321 0 -0.15317491805700831 0.031434753667794912 0 -0.13734937414825699 0.029252366131538868 0 -0.14322096684874219 0.039763514278499321 0 -0.15317491805700831 0.031434753667794912 0 -0.15286312113920739 0.046973833054157151 0 -0.16441723393359001 0.068071683910946992 0 -0.1412625358048559 0.06544809958728727 0 -0.15286312113920739 0.046973833054157151 0 -0.1310346792272262 0.0069050339284476266 0 -0.13885496357669261 0.01617046398672423 0 -0.1221542009995211 0.02033264920884429 0 -0.1310346792272262 0.0069050339284476266 0 -0.13885496357669261 0.01617046398672423 0 -0.14358443493233539 0.0034656691008575231 0 -0.13885496357669261 0.01617046398672423 0 -0.12717826490815259 0.020224994949682159 0 -0.1221542009995211 0.02033264920884429 0 -0.13885496357669261 0.01617046398672423 0 -0.1221542009995211 0.02033264920884429 0 -0.13885496357669261 0.01617046398672423 0 -0.12717826490815259 0.020224994949682159 0 -0.13135164746501751 0.025354812758994962 0 -0.13135164746501751 0.025354812758994962 0 -0.13734937414825699 0.029252366131538868 0 -0.1249386459198932 0.032991929406970169 0 -0.12717826490815259 0.020224994949682159 0 -0.13135164746501751 0.025354812758994962 0 -0.1247971214817015 0.026387194697490152 0 -0.13135164746501751 0.025354812758994962 0 -0.1247971214817015 0.026387194697490152 0 -0.1249386459198932 0.032991929406970169 0 -0.13885496357669261 0.01617046398672423 0 -0.13135164746501751 0.025354812758994962 0 -0.13734937414825699 0.029252366131538868 0 -0.13885496357669261 0.01617046398672423 0 -0.13734937414825699 0.029252366131538868 0 -0.15555572615386359 0.012008278764602641 0 -0.13734937414825699 0.029252366131538868 0 -0.15555572615386359 0.012008278764602641 0 -0.15317491805700831 0.031434753667794912 0 -0.13734937414825699 0.029252366131538868 0 -0.15555572615386359 0.012008278764602641 0 -0.13885496357669261 0.01617046398672423 0 -0.15555572615386359 0.012008278764602641 0 -0.14358443493233539 0.0034656691008575231 0 -0.15185808719984281 -0.007541206200570195 0 -0.15555572615386359 0.012008278764602641 0 -0.14358443493233539 0.0034656691008575231 0 -0.13885496357669261 0.01617046398672423 0 -0.15555572615386359 0.012008278764602641 0 -0.15555572615386359 0.012008278764602641 0 -0.16707107062926779 0.023979094052662291 0 -0.17326829122588661 0.0075939308419908256 0 -0.17596746689752399 -0.0073246354065978347 0 -0.15555572615386359 0.012008278764602641 0 -0.17326829122588661 0.0075939308419908256 0 -0.17596746689752399 -0.0073246354065978347 0 -0.15555572615386359 0.012008278764602641 0 -0.15555572615386359 0.012008278764602641 0 -0.17326829122588661 0.0075939308419908256 0 -0.15317491805700831 0.031434753667794912 0 -0.15555572615386359 0.012008278764602641 0 -0.16707107062926779 0.023979094052662291 0 -0.15317491805700831 0.031434753667794912 0 -0.16707107062926779 0.023979094052662291 0 -0.16365903452746169 0.037298218909382133 0 -0.16707107062926779 0.023979094052662291 0 -0.1797425631698904 0.02317115660848201 0 -0.17326829122588661 0.0075939308419908256 0 -0.16707107062926779 0.023979094052662291 0 -0.1797425631698904 0.02317115660848201 0 -0.17811004437755781 0.037179437991702431 0 -0.1797425631698904 0.02317115660848201 0 -0.1913012234147726 0.020497879759982251 0 -0.18783519482170111 0.030872355141888189 0 -0.1797425631698904 0.02317115660848201 0 -0.17811004437755781 0.037179437991702431 0 -0.18783519482170111 0.030872355141888189 0 -0.1797425631698904 0.02317115660848201 0 -0.18382323352711469 0.013610637532458029 0 -0.1913012234147726 0.020497879759982251 0 -0.17326829122588661 0.0075939308419908256 0 -0.19098085629790901 0.0031795829193770331 0 -0.17596746689752399 -0.0073246354065978347 0 -0.17326829122588661 0.0075939308419908256 0 -0.19098085629790901 0.0031795829193770331 0 -0.18382323352711469 0.013610637532458029 0 -0.17326829122588661 0.0075939308419908256 0 -0.19098085629790901 0.0031795829193770331 0 -0.1797425631698904 0.02317115660848201 0 -0.18382323352711469 0.013610637532458029 0 -0.17326829122588661 0.0075939308419908256 0 -0.16441723393359001 0.068071683910946992 0 -0.15286312113920739 0.046973833054157151 0 -0.16841558864376791 0.048257542148743657 0 -0.15286312113920739 0.046973833054157151 0 -0.16841558864376791 0.048257542148743657 0 -0.16365903452746169 0.037298218909382133 0 -0.15317491805700831 0.031434753667794912 0 -0.15286312113920739 0.046973833054157151 0 -0.16365903452746169 0.037298218909382133 0 -0.16707107062926779 0.023979094052662291 0 -0.16365903452746169 0.037298218909382133 0 -0.17811004437755781 0.037179437991702431 0 -0.16841558864376791 0.048257542148743657 0 -0.16365903452746169 0.037298218909382133 0 -0.17811004437755781 0.037179437991702431 0 -0.16841558864376791 0.048257542148743657 0 -0.17811004437755781 0.037179437991702431 0 -0.18369829434577389 0.052431320061605252 0 -0.17811004437755781 0.037179437991702431 0 -0.19362567238838241 0.0409880222617659 0 -0.18783519482170111 0.030872355141888189 0 -0.17811004437755781 0.037179437991702431 0 -0.18369829434577389 0.052431320061605252 0 -0.19362567238838241 0.0409880222617659 0 -0.17811004437755781 0.037179437991702431 0 -0.18369829434577389 0.052431320061605252 0 -0.16441723393359001 0.068071683910946992 0 -0.18369829434577389 0.052431320061605252 0 -0.16441723393359001 0.068071683910946992 0 -0.16841558864376791 0.048257542148743657 0 -0.18369829434577389 0.052431320061605252 0 -0.1753208278408164 0.069385197802807039 0 -0.18268071184092671 0.065523782355066701 0 -0.18369829434577389 0.052431320061605252 0 -0.18268071184092671 0.065523782355066701 0 -0.18746506259141371 0.062711873972726359 0 -0.18369829434577389 0.052431320061605252 0 -0.18746506259141371 0.062711873972726359 0 -0.18369829434577389 0.052431320061605252 0 -0.18746506259141371 0.062711873972726359 0 -0.18369829434577389 0.052431320061605252 0 -0.2105040008591241 0.049171189559356683 0 -0.18746506259141371 0.062711873972726359 0 -0.2105040008591241 0.049171189559356683 0 -0.20329988647308389 0.072357196750967967 0 -0.18746506259141371 0.062711873972726359 0 -0.2105040008591241 0.049171189559356683 0 -0.18369829434577389 0.052431320061605252 0 -0.19362567238838241 0.0409880222617659 0 -0.2002606004875204 0.038996348711297417 0 -0.18369829434577389 0.052431320061605252 0 -0.2002606004875204 0.038996348711297417 0 -0.2105040008591241 0.049171189559356683 0 -0.18369829434577389 0.052431320061605252 0 -0.2002606004875204 0.038996348711297417 0 -0.19362567238838241 0.0409880222617659 0 -0.18783519482170111 0.030872355141888189 0 -0.1995765644326099 0.027891127582129881 0 -0.19362567238838241 0.0409880222617659 0 -0.2002606004875204 0.038996348711297417 0 -0.1995765644326099 0.027891127582129881 0 -0.19362567238838241 0.0409880222617659 0 -0.2002606004875204 0.038996348711297417 0 -0.2002606004875204 0.038996348711297417 0 -0.2105040008591241 0.049171189559356683 0 -0.22842123894103231 0.030543084721955931 0 -0.2002606004875204 0.038996348711297417 0 -0.22842123894103231 0.030543084721955931 0 -0.2105040008591241 0.049171189559356683 0 -0.22747005703862971 0.055223239247164053 0 -0.21572749053649681 0.062964600466050513 0 -0.2105040008591241 0.049171189559356683 0 -0.20329988647308389 0.072357196750967967 0 -0.21572749053649681 0.062964600466050513 0 -0.18382323352711469 0.013610637532458029 0 -0.19098085629790901 0.0031795829193770331 0 -0.1913012234147726 0.020497879759982251 0 -0.19098085629790901 0.0031795829193770331 0 -0.1913012234147726 0.020497879759982251 0 -0.20406244456216069 0.01331155311132058 0 -0.1913012234147726 0.020497879759982251 0 -0.1995765644326099 0.027891127582129881 0 -0.20406244456216069 0.01331155311132058 0 -0.1913012234147726 0.020497879759982251 0 -0.18783519482170111 0.030872355141888189 0 -0.1995765644326099 0.027891127582129881 0 -0.2002606004875204 0.038996348711297417 0 -0.1995765644326099 0.027891127582129881 0 -0.22037425092111951 0.022680606506522032 0 -0.2002606004875204 0.038996348711297417 0 -0.22842123894103231 0.030543084721955931 0 -0.22037425092111951 0.022680606506522032 0 -0.2002606004875204 0.038996348711297417 0 -0.22037425092111951 0.022680606506522032 0 -0.1995765644326099 0.027891127582129881 0 -0.20406244456216069 0.01331155311132058 0 -0.22037425092111951 0.022680606506522032 0 -0.21653070785467701 -0.0076046726051159702 0 -0.19098085629790901 0.0031795829193770331 0 -0.20406244456216069 0.01331155311132058 0 -0.21653070785467701 -0.0076046726051159702 0 -0.20406244456216069 0.01331155311132058 0 -0.22037425092111951 0.022680606506522032 0 -0.21653070785467701 -0.0076046726051159702 0 -0.22037425092111951 0.022680606506522032 0 -0.2404879013547162 0.0063648643017436444 0 -0.22037425092111951 0.022680606506522032 0 -0.2404879013547162 0.0063648643017436444 0 -0.22842123894103231 0.030543084721955931 0 -0.22037425092111951 0.022680606506522032 0 -0.2404879013547162 0.0063648643017436444 0 -0.25658187739454541 0.022089820732618261 0 -0.22842123894103231 0.030543084721955931 0 -0.2335429391268348 0.035630505145987389 0 -0.25658187739454541 0.022089820732618261 0 -0.22842123894103231 0.030543084721955931 0 -0.2404879013547162 0.0063648643017436444 0 -0.25658187739454541 0.022089820732618261 0 -0.2335429391268348 0.035630505145987389 0 -0.25209852891777262 0.033340039531665713 0 -0.25658187739454541 0.022089820732618261 0 -0.2335429391268348 0.035630505145987389 0 -0.25658187739454541 0.022089820732618261 0 -0.22842123894103231 0.030543084721955931 0 -0.2105040008591241 0.049171189559356683 0 -0.22747005703862971 0.055223239247164053 0 -0.2335429391268348 0.035630505145987389 0 -0.2105040008591241 0.049171189559356683 0 -0.2335429391268348 0.035630505145987389 0 -0.2105040008591241 0.049171189559356683 0 -0.22842123894103231 0.030543084721955931 0 -0.2335429391268348 0.035630505145987389 0 -0.22747005703862971 0.055223239247164053 0 -0.2335429391268348 0.035630505145987389 0 -0.2394993364746287 0.04841722946596444 0 -0.25218349060199152 0.043488663219768867 0 -0.25209852891777262 0.033340039531665713 0 -0.2335429391268348 0.035630505145987389 0 -0.25218349060199152 0.043488663219768867 0 -0.2335429391268348 0.035630505145987389 0 -0.2394993364746287 0.04841722946596444 0 -0.25218349060199152 0.043488663219768867 0 -0.2394993364746287 0.04841722946596444 0 -0.24582713713657239 0.06026394233603409 0 -0.22747005703862971 0.055223239247164053 0 -0.2394993364746287 0.04841722946596444 0 -0.24582713713657239 0.06026394233603409 0 -0.25027064784529479 0.070822807096282081 0 -0.24582713713657239 0.06026394233603409 0 -0.23545786901247959 0.084828932539959809 0 -0.25027064784529479 0.070822807096282081 0 -0.23545786901247959 0.084828932539959809 0 -0.25214779925332598 0.085224491904434957 0 -0.25027064784529479 0.070822807096282081 0 -0.23545786901247959 0.084828932539959809 0 -0.25214779925332598 0.085224491904434957 0 -0.23545786901247959 0.084828932539959809 0 -0.24773794056051049 0.095093727021387617 0 -0.23545786901247959 0.084828932539959809 0 -0.2164840048084509 0.089567133156400136 0 -0.22064509017966441 0.098835057983637523 0 -0.23545786901247959 0.084828932539959809 0 -0.2216360177751498 0.075106776306713349 0 -0.2164840048084509 0.089567133156400136 0 -0.23545786901247959 0.084828932539959809 0 -0.22064509017966441 0.098835057983637523 0 -0.24582713713657239 0.06026394233603409 0 -0.23545786901247959 0.084828932539959809 0 -0.2216360177751498 0.075106776306713349 0 -0.22747005703862971 0.055223239247164053 0 -0.24582713713657239 0.06026394233603409 0 -0.2216360177751498 0.075106776306713349 0 -0.22747005703862971 0.055223239247164053 0 -0.2216360177751498 0.075106776306713349 0 -0.21572749053649681 0.062964600466050513 0 -0.24582713713657239 0.06026394233603409 0 -0.2216360177751498 0.075106776306713349 0 -0.2216360177751498 0.075106776306713349 0 -0.20329988647308389 0.072357196750967967 0 -0.21572749053649681 0.062964600466050513 0 -0.2216360177751498 0.075106776306713349 0 -0.2164840048084509 0.089567133156400136 0 -0.19744489841372789 0.089949610277393885 0 -0.2216360177751498 0.075106776306713349 0 -0.20329988647308389 0.072357196750967967 0 -0.19744489841372789 0.089949610277393885 0 -0.2164840048084509 0.089567133156400136 0 -0.19744489841372789 0.089949610277393885 0 -0.20928288260833311 0.098174544057789401 0 -0.2216360177751498 0.075106776306713349 0 -0.19744489841372789 0.089949610277393885 0 -0.18746506259141371 0.062711873972726359 0 -0.19744489841372789 0.089949610277393885 0 -0.19167681798898489 0.082332124210667795 0 -0.19562157224416291 0.08958832837048554 0 -0.19744489841372789 0.089949610277393885 0 -0.19393369466093091 0.08990757906427943 0 -0.19562157224416291 0.08958832837048554 0 -0.19744489841372789 0.089949610277393885 0 -0.19478978201666211 0.087855035143243748 0 -0.19744489841372789 0.089949610277393885 0 -0.19388407524143739 0.091767505221994686 0 -0.19389421993578451 0.094822681041718399 0 -0.19388407524143739 0.091767505221994686 0 -0.19139047248370369 0.09169867178495586 0 -0.19389421993578451 0.094822681041718399 0 -0.19744489841372789 0.089949610277393885 0 -0.19388407524143739 0.091767505221994686 0 -0.19393369466093091 0.08990757906427943 0 -0.19388407524143739 0.091767505221994686 0 -0.19393369466093091 0.08990757906427943 0 -0.19139047248370369 0.09169867178495586 0 -0.19393369466093091 0.08990757906427943 0 -0.19050714397281751 0.088370695116559386 0 -0.19139047248370369 0.09169867178495586 0 -0.19744489841372789 0.089949610277393885 0 -0.19478978201666211 0.087855035143243748 0 -0.19167681798898489 0.082332124210667795 0 -0.19393369466093091 0.08990757906427943 0 -0.19287589138296449 0.086709850704281832 0 -0.19050714397281751 0.088370695116559386 0 -0.19562157224416291 0.08958832837048554 0 -0.19393369466093091 0.08990757906427943 0 -0.19478978201666211 0.087855035143243748 0 -0.19393369466093091 0.08990757906427943 0 -0.19478978201666211 0.087855035143243748 0 -0.19287589138296449 0.086709850704281832 0 -0.1874859600529665 0.086364106473277247 0 -0.18727381232560669 0.090395616219498126 0 -0.19050714397281751 0.088370695116559386 0 -0.19287589138296449 0.086709850704281832 0 -0.19050714397281751 0.088370695116559386 0 -0.1906294489927802 0.085030348451272608 0 -0.1874859600529665 0.086364106473277247 0 -0.19050714397281751 0.088370695116559386 0 -0.1906294489927802 0.085030348451272608 0 -0.18727381232560669 0.090395616219498126 0 -0.19139047248370369 0.09169867178495586 0 -0.18766816598617861 0.094566797386045592 0 -0.19139047248370369 0.09169867178495586 0 -0.18766816598617861 0.094566797386045592 0 -0.19389421993578451 0.094822681041718399 0 -0.18727381232560669 0.090395616219498126 0 -0.19050714397281751 0.088370695116559386 0 -0.19139047248370369 0.09169867178495586 0 -0.19287589138296449 0.086709850704281832 0 -0.19167681798898489 0.082332124210667795 0 -0.1906294489927802 0.085030348451272608 0 -0.19478978201666211 0.087855035143243748 0 -0.19287589138296449 0.086709850704281832 0 -0.19167681798898489 0.082332124210667795 0 -0.1874859600529665 0.086364106473277247 0 -0.1906294489927802 0.085030348451272608 0 -0.18762966876771731 0.081844489425770134 0 -0.19167681798898489 0.082332124210667795 0 -0.1906294489927802 0.085030348451272608 0 -0.18762966876771731 0.081844489425770134 0 -0.19167681798898489 0.082332124210667795 0 -0.18762966876771731 0.081844489425770134 0 -0.1887424216393043 0.077288715178403578 0 -0.18746506259141371 0.062711873972726359 0 -0.19167681798898489 0.082332124210667795 0 -0.1887424216393043 0.077288715178403578 0 -0.18746506259141371 0.062711873972726359 0 -0.19744489841372789 0.089949610277393885 0 -0.18746506259141371 0.062711873972726359 0 -0.20329988647308389 0.072357196750967967 0 -0.19744489841372789 0.089949610277393885 0 -0.2058323113468494 0.11284118342731531 0 -0.2108392947402753 0.12650662800778101 0 -0.18703615942337029 0.13061376105572481 0 -0.18886628844027459 0.1069735286288445 0 -0.2058323113468494 0.11284118342731531 0 -0.18703615942337029 0.13061376105572481 0 -0.2058323113468494 0.11284118342731531 0 -0.18703615942337029 0.13061376105572481 0 -0.19744489841372789 0.089949610277393885 0 -0.2058323113468494 0.11284118342731531 0 -0.18886628844027459 0.1069735286288445 0 -0.19562420737906319 0.099256726906057163 0 -0.2058323113468494 0.11284118342731531 0 -0.19744489841372789 0.089949610277393885 0 -0.19562420737906319 0.099256726906057163 0 -0.2058323113468494 0.11284118342731531 0 -0.18886628844027459 0.1069735286288445 0 -0.18991072588347471 0.099567037662485453 0 -0.19562420737906319 0.099256726906057163 0 -0.18766816598617861 0.094566797386045592 0 -0.18991072588347471 0.099567037662485453 0 -0.19389421993578451 0.094822681041718399 0 -0.18991072588347471 0.099567037662485453 0 -0.19389421993578451 0.094822681041718399 0 -0.19562420737906319 0.099256726906057163 0 -0.19744489841372789 0.089949610277393885 0 -0.19389421993578451 0.094822681041718399 0 -0.19562420737906319 0.099256726906057163 0 -0.19744489841372789 0.089949610277393885 0 -0.20928288260833311 0.098174544057789401 0 -0.2058323113468494 0.11284118342731531 0 -0.2164840048084509 0.089567133156400136 0 -0.20928288260833311 0.098174544057789401 0 -0.22064509017966441 0.098835057983637523 0 -0.2058323113468494 0.11284118342731531 0 -0.22064509017966441 0.098835057983637523 0 -0.20928288260833311 0.098174544057789401 0 -0.2058323113468494 0.11284118342731531 0 -0.22064509017966441 0.098835057983637523 0 -0.2058323113468494 0.11284118342731531 0 -0.21759142525530631 0.1172177227290906 0 -0.22064509017966441 0.098835057983637523 0 -0.2058323113468494 0.11284118342731531 0 -0.2108392947402753 0.12650662800778101 0 -0.2058323113468494 0.11284118342731531 0 -0.21759142525530631 0.1172177227290906 0 -0.2108392947402753 0.12650662800778101 0 -0.21759142525530631 0.1172177227290906 0 -0.23018651432404799 0.11664447462628991 0 -0.2231396668931141 0.1321473232255298 0 -0.21759142525530631 0.1172177227290906 0 -0.23018651432404799 0.11664447462628991 0 -0.22064509017966441 0.098835057983637523 0 -0.23545786901247959 0.084828932539959809 0 -0.22064509017966441 0.098835057983637523 0 -0.2379902001648326 0.1032952531210649 0 -0.23018651432404799 0.11664447462628991 0 -0.22064509017966441 0.098835057983637523 0 -0.2379902001648326 0.1032952531210649 0 -0.23545786901247959 0.084828932539959809 0 -0.2379902001648326 0.1032952531210649 0 -0.24773794056051049 0.095093727021387617 0 -0.25325518930097451 0.10634209692029679 0 -0.2379902001648326 0.1032952531210649 0 -0.24552691285969419 0.11763658175782279 0 -0.25325518930097451 0.10634209692029679 0 -0.2379902001648326 0.1032952531210649 0 -0.24773794056051049 0.095093727021387617 0 -0.23018651432404799 0.11664447462628991 0 -0.24552691285969419 0.11763658175782279 0 -0.23956976505053421 0.1316100566079369 0 -0.23018651432404799 0.11664447462628991 0 -0.2379902001648326 0.1032952531210649 0 -0.24552691285969419 0.11763658175782279 0 -0.25239466005469258 0.1297106402418553 0 -0.24552691285969419 0.11763658175782279 0 -0.23956976505053421 0.1316100566079369 0 -0.25292610413596778 0.1426645308384252 0 -0.23956976505053421 0.1316100566079369 0 -0.23661180912604851 0.1450364933449621 0 -0.25292610413596778 0.1426645308384252 0 -0.25239466005469258 0.1297106402418553 0 -0.23956976505053421 0.1316100566079369 0 -0.23018651432404799 0.11664447462628991 0 -0.23956976505053421 0.1316100566079369 0 -0.2231396668931141 0.1321473232255298 0 -0.23956976505053421 0.1316100566079369 0 -0.2231396668931141 0.1321473232255298 0 -0.23661180912604851 0.1450364933449621 0 -0.22215344767293579 0.14623483953643321 0 -0.23227769012376639 0.1588410861135304 0 -0.21459854172101561 0.15717546479970909 0 -0.2231396668931141 0.1321473232255298 0 -0.22215344767293579 0.14623483953643321 0 -0.23661180912604851 0.1450364933449621 0 -0.22215344767293579 0.14623483953643321 0 -0.23661180912604851 0.1450364933449621 0 -0.23227769012376639 0.1588410861135304 0 -0.25054121279168012 0.15807604024564451 0 -0.23661180912604851 0.1450364933449621 0 -0.23227769012376639 0.1588410861135304 0 -0.25054121279168012 0.15807604024564451 0 -0.25292610413596778 0.1426645308384252 0 -0.23661180912604851 0.1450364933449621 0 -0.25054121279168012 0.15807604024564451 0 -0.25527036347879578 0.17125863002391209 0 -0.23888631381389089 0.17142962723276969 0 -0.25054121279168012 0.15807604024564451 0 -0.23888631381389089 0.17142962723276969 0 -0.23227769012376639 0.1588410861135304 0 -0.25527036347879578 0.17125863002391209 0 -0.23888631381389089 0.17142962723276969 0 -0.24995958464222839 0.1804303709041902 0 -0.24995958464222839 0.1804303709041902 0 -0.23765181575966249 0.1826102851661067 0 -0.24531288127584511 0.19295358905630319 0 -0.23888631381389089 0.17142962723276969 0 -0.24995958464222839 0.1804303709041902 0 -0.23765181575966249 0.1826102851661067 0 -0.23888631381389089 0.17142962723276969 0 -0.2261669550883495 0.18048334181414241 0 -0.2217164625151424 0.16869579294217499 0 -0.23765181575966249 0.1826102851661067 0 -0.2261669550883495 0.18048334181414241 0 -0.22902653473926571 0.19124942257601671 0 -0.23888631381389089 0.17142962723276969 0 -0.23765181575966249 0.1826102851661067 0 -0.2261669550883495 0.18048334181414241 0 -0.2261669550883495 0.18048334181414241 0 -0.2217164625151424 0.16869579294217499 0 -0.21174325899894589 0.17902110676093691 0 -0.2261669550883495 0.18048334181414241 0 -0.22902653473926571 0.19124942257601671 0 -0.21679005465924431 0.19016623946289599 0 -0.23227769012376639 0.1588410861135304 0 -0.2217164625151424 0.16869579294217499 0 -0.21459854172101561 0.15717546479970909 0 -0.23888631381389089 0.17142962723276969 0 -0.23227769012376639 0.1588410861135304 0 -0.2217164625151424 0.16869579294217499 0 -0.21459854172101561 0.15717546479970909 0 -0.20737496583751081 0.16789265787193181 0 -0.19836140953086809 0.1589526426041877 0 -0.2217164625151424 0.16869579294217499 0 -0.20737496583751081 0.16789265787193181 0 -0.21174325899894589 0.17902110676093691 0 -0.2217164625151424 0.16869579294217499 0 -0.21459854172101561 0.15717546479970909 0 -0.20737496583751081 0.16789265787193181 0 -0.21174325899894589 0.17902110676093691 0 -0.21679005465924431 0.19016623946289599 0 -0.20114141077228229 0.1920818003904724 0 -0.21174325899894589 0.17902110676093691 0 -0.19726970512114619 0.1748068080840037 0 -0.20114141077228229 0.1920818003904724 0 -0.2261669550883495 0.18048334181414241 0 -0.21174325899894589 0.17902110676093691 0 -0.21679005465924431 0.19016623946289599 0 -0.20737496583751081 0.16789265787193181 0 -0.21174325899894589 0.17902110676093691 0 -0.19726970512114619 0.1748068080840037 0 -0.19726970512114619 0.1748068080840037 0 -0.20114141077228229 0.1920818003904724 0 -0.17794454791047781 0.1804560969883047 0 -0.20737496583751081 0.16789265787193181 0 -0.19726970512114619 0.1748068080840037 0 -0.19836140953086809 0.1589526426041877 0 -0.19836140953086809 0.1589526426041877 0 -0.18815482164960601 0.14866642253682669 0 -0.18142925714803071 0.16294360061009019 0 -0.19726970512114619 0.1748068080840037 0 -0.19836140953086809 0.1589526426041877 0 -0.18142925714803071 0.16294360061009019 0 -0.19836140953086809 0.1589526426041877 0 -0.18815482164960601 0.14866642253682669 0 -0.20570727464586969 0.14243576972999619 0 -0.18815482164960601 0.14866642253682669 0 -0.20570727464586969 0.14243576972999619 0 -0.18703615942337029 0.13061376105572481 0 -0.2108392947402753 0.12650662800778101 0 -0.20570727464586969 0.14243576972999619 0 -0.18703615942337029 0.13061376105572481 0 -0.2231396668931141 0.1321473232255298 0 -0.22215344767293579 0.14623483953643321 0 -0.20570727464586969 0.14243576972999619 0 -0.2231396668931141 0.1321473232255298 0 -0.2108392947402753 0.12650662800778101 0 -0.20570727464586969 0.14243576972999619 0 -0.21759142525530631 0.1172177227290906 0 -0.2231396668931141 0.1321473232255298 0 -0.2108392947402753 0.12650662800778101 0 -0.21459854172101561 0.15717546479970909 0 -0.19836140953086809 0.1589526426041877 0 -0.20570727464586969 0.14243576972999619 0 -0.22215344767293579 0.14623483953643321 0 -0.21459854172101561 0.15717546479970909 0 -0.20570727464586969 0.14243576972999619 0 -0.23817330056300279 0.24564094886558641 0 -0.22020025175180299 0.23017415544995359 0 -0.2172950635181766 0.24814309065104331 0 -0.23817330056300279 0.24564094886558641 0 -0.23740942657282249 0.2305066332110049 0 -0.22020025175180299 0.23017415544995359 0 -0.23817330056300279 0.24564094886558641 0 -0.22020025175180299 0.23017415544995359 0 -0.25410549206993133 0.23188419476496769 0 -0.24677738490149409 0.25392648281982888 0 -0.24831087900044929 0.2412774439807705 0 -0.23817330056300279 0.24564094886558641 0 -0.24831087900044929 0.2412774439807705 0 -0.24980344990068479 0.22774142778784581 0 -0.23817330056300279 0.24564094886558641 0 -0.24980344990068479 0.22774142778784581 0 -0.23817330056300279 0.24564094886558641 0 -0.23740942657282249 0.2305066332110049 0 -0.24980344990068479 0.22774142778784581 0 -0.24550721988085539 0.25195218833350869 0 -0.23817330056300279 0.24564094886558641 0 -0.24550721988085539 0.25195218833350869 0 -0.24677738490149409 0.25392648281982888 0 -0.24831087900044929 0.2412774439807705 0 -0.24550721988085539 0.25195218833350869 0 -0.23817330056300279 0.24564094886558641 0 -0.24831087900044929 0.2412774439807705 0 -0.23740942657282249 0.2305066332110049 0 -0.24980344990068479 0.22774142778784581 0 -0.24086887208736851 0.22133965883320639 0 -0.24980344990068479 0.22774142778784581 0 -0.24086887208736851 0.22133965883320639 0 -0.24812016991408711 0.21420852213256489 0 -0.23740942657282249 0.2305066332110049 0 -0.24086887208736851 0.22133965883320639 0 -0.23143278182280921 0.22101623345860791 0 -0.23740942657282249 0.2305066332110049 0 -0.23143278182280921 0.22101623345860791 0 -0.22020025175180299 0.23017415544995359 0 -0.23143278182280921 0.22101623345860791 0 -0.22020025175180299 0.23017415544995359 0 -0.22156434331804881 0.20674720500356089 0 -0.22156434331804881 0.20674720500356089 0 -0.23651138189523499 0.21157183286295811 0 -0.2341179776319442 0.2013569490802114 0 -0.23143278182280921 0.22101623345860791 0 -0.22156434331804881 0.20674720500356089 0 -0.23651138189523499 0.21157183286295811 0 -0.24086887208736851 0.22133965883320639 0 -0.23143278182280921 0.22101623345860791 0 -0.23651138189523499 0.21157183286295811 0 -0.24086887208736851 0.22133965883320639 0 -0.23651138189523499 0.21157183286295811 0 -0.24812016991408711 0.21420852213256489 0 -0.23651138189523499 0.21157183286295811 0 -0.24812016991408711 0.21420852213256489 0 -0.24395113557142559 0.20476343689004881 0 -0.25175489277710938 0.200311357044932 0 -0.25268540181145172 0.20627527203672269 0 -0.24395113557142559 0.20476343689004881 0 -0.25268540181145172 0.20627527203672269 0 -0.24812016991408711 0.21420852213256489 0 -0.24395113557142559 0.20476343689004881 0 -0.23651138189523499 0.21157183286295811 0 -0.24395113557142559 0.20476343689004881 0 -0.2341179776319442 0.2013569490802114 0 -0.24531288127584511 0.19295358905630319 0 -0.22902653473926571 0.19124942257601671 0 -0.2341179776319442 0.2013569490802114 0 -0.23765181575966249 0.1826102851661067 0 -0.24531288127584511 0.19295358905630319 0 -0.22902653473926571 0.19124942257601671 0 -0.24395113557142559 0.20476343689004881 0 -0.24531288127584511 0.19295358905630319 0 -0.2341179776319442 0.2013569490802114 0 -0.25175489277710938 0.200311357044932 0 -0.24395113557142559 0.20476343689004881 0 -0.24531288127584511 0.19295358905630319 0 -0.22156434331804881 0.20674720500356089 0 -0.22902653473926571 0.19124942257601671 0 -0.21679005465924431 0.19016623946289599 0 -0.22156434331804881 0.20674720500356089 0 -0.22902653473926571 0.19124942257601671 0 -0.2341179776319442 0.2013569490802114 0 -0.22156434331804881 0.20674720500356089 0 -0.21679005465924431 0.19016623946289599 0 -0.20114141077228229 0.1920818003904724 0 -0.20114141077228229 0.1920818003904724 0 -0.18425415412940321 0.19924056861868819 0 -0.17794454791047781 0.1804560969883047 0 -0.20114141077228229 0.1920818003904724 0 -0.20222720294060309 0.21470736203432089 0 -0.18425415412940321 0.19924056861868819 0 -0.20222720294060309 0.21470736203432089 0 -0.18425415412940321 0.19924056861868819 0 -0.20222720294060309 0.21470736203432089 0 -0.180094798630696 0.22438049792064241 0 -0.18425415412940321 0.19924056861868819 0 -0.22020025175180299 0.23017415544995359 0 -0.22156434331804881 0.20674720500356089 0 -0.20222720294060309 0.21470736203432089 0 -0.22156434331804881 0.20674720500356089 0 -0.20114141077228229 0.1920818003904724 0 -0.20222720294060309 0.21470736203432089 0 -0.22020025175180299 0.23017415544995359 0 -0.20222720294060309 0.21470736203432089 0 -0.20194648969301321 0.23390670188568949 0 -0.22020025175180299 0.23017415544995359 0 -0.20222720294060309 0.21470736203432089 0 -0.20194648969301321 0.23390670188568949 0 -0.1875462048560613 0.24396075309334389 0 -0.180094798630696 0.22438049792064241 0 -0.20222720294060309 0.21470736203432089 0 -0.20194648969301321 0.23390670188568949 0 -0.180094798630696 0.22438049792064241 0 -0.20090719330429591 0.25791897438927047 0 -0.20194648969301321 0.23390670188568949 0 -0.1875462048560613 0.24396075309334389 0 -0.22020025175180299 0.23017415544995359 0 -0.20194648969301321 0.23390670188568949 0 -0.2172950635181766 0.24814309065104331 0 -0.20090719330429591 0.25791897438927047 0 -0.20194648969301321 0.23390670188568949 0 -0.2172950635181766 0.24814309065104331 0 -0.1875462048560613 0.24396075309334389 0 -0.1662046459983213 0.24389980386596899 0 -0.180094798630696 0.22438049792064241 0 -0.1662046459983213 0.24389980386596899 0 -0.180094798630696 0.22438049792064241 0 -0.1524042566182281 0.2299434097540492 0 -0.180094798630696 0.22438049792064241 0 -0.16517440226435301 0.20519975337117691 0 -0.1524042566182281 0.2299434097540492 0 -0.16517440226435301 0.20519975337117691 0 -0.1524042566182281 0.2299434097540492 0 -0.180094798630696 0.22438049792064241 0 -0.16517440226435301 0.20519975337117691 0 -0.18425415412940321 0.19924056861868819 0 -0.16517440226435301 0.20519975337117691 0 -0.18425415412940321 0.19924056861868819 0 -0.17794454791047781 0.1804560969883047 0 -0.16517440226435301 0.20519975337117691 0 -0.16068217205135679 0.190022371961027 0 -0.17794454791047781 0.1804560969883047 0 -0.16517440226435301 0.20519975337117691 0 -0.17794454791047781 0.1804560969883047 0 -0.16517440226435301 0.20519975337117691 0 -0.16068217205135679 0.190022371961027 0 -0.1522026542896629 0.19946893566515869 0 -0.13591287267002891 0.19140448071386079 0 -0.138701722262109 0.20228170278489019 0 -0.14972368356305771 0.18551285710242479 0 -0.138701722262109 0.20228170278489019 0 -0.14972368356305771 0.18551285710242479 0 -0.1522026542896629 0.19946893566515869 0 -0.138701722262109 0.20228170278489019 0 -0.14972368356305771 0.18551285710242479 0 -0.16068217205135679 0.190022371961027 0 -0.1522026542896629 0.19946893566515869 0 -0.14972368356305771 0.18551285710242479 0 -0.13591287267002891 0.19140448071386079 0 -0.1286654350562286 0.19079520984290479 0 -0.1328563755623372 0.1806948221475918 0 -0.13591287267002891 0.19140448071386079 0 -0.1286654350562286 0.19079520984290479 0 -0.1296171469064118 0.1977378116914921 0 -0.1286654350562286 0.19079520984290479 0 -0.1296171469064118 0.1977378116914921 0 -0.1230799263140033 0.19551324125440581 0 -0.1296171469064118 0.1977378116914921 0 -0.1254861677981767 0.205642460844674 0 -0.12241124817434861 0.19960348577485579 0 -0.1296171469064118 0.1977378116914921 0 -0.138701722262109 0.20228170278489019 0 -0.1254861677981767 0.205642460844674 0 -0.1296171469064118 0.1977378116914921 0 -0.1230799263140033 0.19551324125440581 0 -0.12241124817434861 0.19960348577485579 0 -0.13591287267002891 0.19140448071386079 0 -0.1296171469064118 0.1977378116914921 0 -0.138701722262109 0.20228170278489019 0 -0.138701722262109 0.20228170278489019 0 -0.13017625840974081 0.2198200555530537 0 -0.12767976096116071 0.21905054846735589 0 -0.138701722262109 0.20228170278489019 0 -0.1254861677981767 0.205642460844674 0 -0.12767976096116071 0.21905054846735589 0 -0.138701722262109 0.20228170278489019 0 -0.12767976096116071 0.21905054846735589 0 -0.138701722262109 0.20228170278489019 0 -0.14643821590252701 0.21388752056084681 0 -0.13017625840974081 0.2198200555530537 0 -0.16517440226435301 0.20519975337117691 0 -0.14643821590252701 0.21388752056084681 0 -0.1524042566182281 0.2299434097540492 0 -0.16517440226435301 0.20519975337117691 0 -0.1522026542896629 0.19946893566515869 0 -0.14643821590252701 0.21388752056084681 0 -0.1522026542896629 0.19946893566515869 0 -0.138701722262109 0.20228170278489019 0 -0.14643821590252701 0.21388752056084681 0 -0.1524042566182281 0.2299434097540492 0 -0.13911671265132061 0.22622108702860369 0 -0.13446364831976371 0.2373733298136893 0 -0.14643821590252701 0.21388752056084681 0 -0.1524042566182281 0.2299434097540492 0 -0.13911671265132061 0.22622108702860369 0 -0.13911671265132061 0.22622108702860369 0 -0.13017625840974081 0.2198200555530537 0 -0.12957433266358179 0.22772459051550931 0 -0.12957433266358179 0.22772459051550931 0 -0.13446364831976371 0.2373733298136893 0 -0.11643528297592361 0.2361579317148442 0 -0.14643821590252701 0.21388752056084681 0 -0.13911671265132061 0.22622108702860369 0 -0.13017625840974081 0.2198200555530537 0 -0.13017625840974081 0.2198200555530537 0 -0.12767976096116071 0.21905054846735589 0 -0.12957433266358179 0.22772459051550931 0 -0.13017625840974081 0.2198200555530537 0 -0.12767976096116071 0.21905054846735589 0 -0.13911671265132061 0.22622108702860369 0 -0.12957433266358179 0.22772459051550931 0 -0.13446364831976371 0.2373733298136893 0 -0.13963411097210321 0.25468706613692149 0 -0.13446364831976371 0.2373733298136893 0 -0.1247585453905037 0.24701425862917981 0 -0.13446364831976371 0.2373733298136893 0 -0.1247585453905037 0.24701425862917981 0 -0.11643528297592361 0.2361579317148442 0 -0.13963411097210321 0.25468706613692149 0 -0.1524042566182281 0.2299434097540492 0 -0.13963411097210321 0.25468706613692149 0 -0.1524042566182281 0.2299434097540492 0 -0.13446364831976371 0.2373733298136893 0 -0.13963411097210321 0.25468706613692149 0 -0.1662046459983213 0.24389980386596899 0 -0.1524042566182281 0.2299434097540492 0 -0.16824000749989121 0.14838633868413451 0 -0.14944385557641229 0.16615891631254401 0 -0.15246709917353049 0.1450543935871253 0 -0.16172714422600559 0.12271785696539581 0 -0.16824000749989121 0.14838633868413451 0 -0.15246709917353049 0.1450543935871253 0 -0.16824000749989121 0.14838633868413451 0 -0.18703615942337029 0.13061376105572481 0 -0.16172714422600559 0.12271785696539581 0 -0.16824000749989121 0.14838633868413451 0 -0.18703615942337029 0.13061376105572481 0 -0.18815482164960601 0.14866642253682669 0 -0.16824000749989121 0.14838633868413451 0 -0.18142925714803071 0.16294360061009019 0 -0.18815482164960601 0.14866642253682669 0 -0.16824000749989121 0.14838633868413451 0 -0.18703615942337029 0.13061376105572481 0 -0.18142925714803071 0.16294360061009019 0 -0.17794454791047781 0.1804560969883047 0 -0.16389797691723029 0.168179240064531 0 -0.19726970512114619 0.1748068080840037 0 -0.18142925714803071 0.16294360061009019 0 -0.17794454791047781 0.1804560969883047 0 -0.16068217205135679 0.190022371961027 0 -0.17794454791047781 0.1804560969883047 0 -0.1577794214194102 0.17859327158721369 0 -0.17794454791047781 0.1804560969883047 0 -0.1577794214194102 0.17859327158721369 0 -0.16389797691723029 0.168179240064531 0 -0.1577794214194102 0.17859327158721369 0 -0.16389797691723029 0.168179240064531 0 -0.14889624519352271 0.1727739283036108 0 -0.16824000749989121 0.14838633868413451 0 -0.16389797691723029 0.168179240064531 0 -0.14944385557641229 0.16615891631254401 0 -0.16824000749989121 0.14838633868413451 0 -0.14944385557641229 0.16615891631254401 0 -0.16824000749989121 0.14838633868413451 0 -0.18142925714803071 0.16294360061009019 0 -0.16389797691723029 0.168179240064531 0 -0.16389797691723029 0.168179240064531 0 -0.14944385557641229 0.16615891631254401 0 -0.14889624519352271 0.1727739283036108 0 -0.14481025123861499 0.16804268701182809 0 -0.14186194693663259 0.15719594378606949 0 -0.13927658523242231 0.16864741181382481 0 -0.14481025123861499 0.16804268701182809 0 -0.14889624519352271 0.1727739283036108 0 -0.13927658523242231 0.16864741181382481 0 -0.14944385557641229 0.16615891631254401 0 -0.14481025123861499 0.16804268701182809 0 -0.14889624519352271 0.1727739283036108 0 -0.14944385557641229 0.16615891631254401 0 -0.14481025123861499 0.16804268701182809 0 -0.14186194693663259 0.15719594378606949 0 -0.14889624519352271 0.1727739283036108 0 -0.1328563755623372 0.1806948221475918 0 -0.14972368356305771 0.18551285710242479 0 -0.14889624519352271 0.1727739283036108 0 -0.1328563755623372 0.1806948221475918 0 -0.16068217205135679 0.190022371961027 0 -0.1577794214194102 0.17859327158721369 0 -0.14972368356305771 0.18551285710242479 0 -0.1577794214194102 0.17859327158721369 0 -0.14972368356305771 0.18551285710242479 0 -0.14889624519352271 0.1727739283036108 0 -0.14889624519352271 0.1727739283036108 0 -0.1328563755623372 0.1806948221475918 0 -0.13927658523242231 0.16864741181382481 0 -0.1286654350562286 0.19079520984290479 0 -0.1328563755623372 0.1806948221475918 0 -0.1168165059311516 0.1886157159915729 0 -0.13591287267002891 0.19140448071386079 0 -0.14972368356305771 0.18551285710242479 0 -0.1328563755623372 0.1806948221475918 0 -0.1328563755623372 0.1806948221475918 0 -0.13927658523242231 0.16864741181382481 0 -0.13005716985641169 0.1702653923578881 0 -0.1328563755623372 0.1806948221475918 0 -0.13005716985641169 0.1702653923578881 0 -0.12189173771323029 0.17406428445506661 0 -0.14186194693663259 0.15719594378606949 0 -0.13927658523242231 0.16864741181382481 0 -0.1315778832391232 0.16157422554829229 0 -0.13927658523242231 0.16864741181382481 0 -0.13005716985641169 0.1702653923578881 0 -0.1315778832391232 0.16157422554829229 0 -0.13005716985641169 0.1702653923578881 0 -0.1315778832391232 0.16157422554829229 0 -0.1217299656883933 0.1632191400219325 0 -0.1315778832391232 0.16157422554829229 0 -0.12609964414448521 0.1483931273126031 0 -0.1217299656883933 0.1632191400219325 0 -0.14186194693663259 0.15719594378606949 0 -0.1315778832391232 0.16157422554829229 0 -0.12609964414448521 0.1483931273126031 0 -0.14186194693663259 0.15719594378606949 0 -0.12609964414448521 0.1483931273126031 0 -0.13795193949566431 0.13650995371232871 0 -0.14186194693663259 0.15719594378606949 0 -0.15246709917353049 0.1450543935871253 0 -0.13795193949566431 0.13650995371232871 0 -0.14944385557641229 0.16615891631254401 0 -0.14186194693663259 0.15719594378606949 0 -0.15246709917353049 0.1450543935871253 0 -0.14563727765195869 0.1242339937316463 0 -0.15246709917353049 0.1450543935871253 0 -0.13795193949566431 0.13650995371232871 0 -0.16172714422600559 0.12271785696539581 0 -0.14563727765195869 0.1242339937316463 0 -0.15246709917353049 0.1450543935871253 0 -0.12848186121880881 0.1191960057663058 0 -0.13795193949566431 0.13650995371232871 0 -0.11932339300788219 0.13275204616534439 0 -0.14563727765195869 0.1242339937316463 0 -0.12848186121880881 0.1191960057663058 0 -0.13795193949566431 0.13650995371232871 0 -0.12609964414448521 0.1483931273126031 0 -0.13795193949566431 0.13650995371232871 0 -0.11932339300788219 0.13275204616534439 0 -0.11932339300788219 0.13275204616534439 0 -0.1063027262618836 0.13394956868361421 0 -0.10657405269704009 0.11499277545897479 0 -0.11932339300788219 0.13275204616534439 0 -0.1063027262618836 0.13394956868361421 0 -0.11081800406712319 0.14438660185257149 0 -0.094210697629163634 0.13584884191189339 0 -0.087292992284855889 0.13063313930831619 0 -0.10657405269704009 0.11499277545897479 0 -0.1063027262618836 0.13394956868361421 0 -0.094210697629163634 0.13584884191189339 0 -0.10657405269704009 0.11499277545897479 0 -0.1063027262618836 0.13394956868361421 0 -0.1001874374572324 0.14161115049897799 0 -0.11081800406712319 0.14438660185257149 0 -0.1063027262618836 0.13394956868361421 0 -0.094210697629163634 0.13584884191189339 0 -0.1001874374572324 0.14161115049897799 0 -0.094210697629163634 0.13584884191189339 0 -0.1001874374572324 0.14161115049897799 0 -0.091459866159018827 0.13881665319603001 0 -0.099332269759346947 0.15427762613122831 0 -0.1001874374572324 0.14161115049897799 0 -0.091459866159018827 0.13881665319603001 0 -0.099332269759346947 0.15427762613122831 0 -0.091459866159018827 0.13881665319603001 0 -0.099332269759346947 0.15427762613122831 0 -0.1001874374572324 0.14161115049897799 0 -0.11081800406712319 0.14438660185257149 0 -0.099332269759346947 0.15427762613122831 0 -0.1136625537719092 0.15533609232366061 0 -0.099332269759346947 0.15427762613122831 0 -0.1136625537719092 0.15533609232366061 0 -0.11081800406712319 0.14438660185257149 0 -0.12609964414448521 0.1483931273126031 0 -0.1136625537719092 0.15533609232366061 0 -0.11081800406712319 0.14438660185257149 0 -0.12609964414448521 0.1483931273126031 0 -0.11932339300788219 0.13275204616534439 0 -0.11081800406712319 0.14438660185257149 0 -0.12609964414448521 0.1483931273126031 0 -0.1136625537719092 0.15533609232366061 0 -0.1217299656883933 0.1632191400219325 0 -0.1136625537719092 0.15533609232366061 0 -0.1217299656883933 0.1632191400219325 0 -0.1080743878452492 0.17144667106140071 0 -0.13005716985641169 0.1702653923578881 0 -0.1217299656883933 0.1632191400219325 0 -0.12189173771323029 0.17406428445506661 0 -0.1217299656883933 0.1632191400219325 0 -0.12189173771323029 0.17406428445506661 0 -0.1080743878452492 0.17144667106140071 0 -0.1328563755623372 0.1806948221475918 0 -0.1168165059311516 0.1886157159915729 0 -0.12189173771323029 0.17406428445506661 0 -0.1080743878452492 0.17144667106140071 0 -0.1168165059311516 0.1886157159915729 0 -0.1328563755623372 0.1806948221475918 0 -0.12189173771323029 0.17406428445506661 0 -0.1168165059311516 0.1886157159915729 0 -0.1080743878452492 0.17144667106140071 0 -0.1168165059311516 0.1886157159915729 0 -0.098237276210280805 0.1823598079881284 0 -0.1080743878452492 0.17144667106140071 0 -0.1168165059311516 0.1886157159915729 0 -0.098237276210280805 0.1823598079881284 0 -0.1080743878452492 0.17144667106140071 0 -0.086729013453174311 0.17078636624488361 0 -0.099332269759346947 0.15427762613122831 0 -0.1136625537719092 0.15533609232366061 0 -0.1080743878452492 0.17144667106140071 0 -0.099332269759346947 0.15427762613122831 0 -0.1080743878452492 0.17144667106140071 0 -0.086729013453174311 0.17078636624488361 0 -0.099332269759346947 0.15427762613122831 0 -0.1080743878452492 0.17144667106140071 0 -0.099332269759346947 0.15427762613122831 0 -0.086729013453174311 0.17078636624488361 0 -0.078551926175868453 0.1527427443988866 0 -0.098237276210280805 0.1823598079881284 0 -0.086729013453174311 0.17078636624488361 0 -0.080118004894293965 0.18880656028087581 0 -0.080118004894293965 0.18880656028087581 0 -0.062386701763780382 0.19892496342912239 0 -0.060118522642617273 0.17263013612199851 0 -0.086729013453174311 0.17078636624488361 0 -0.080118004894293965 0.18880656028087581 0 -0.060118522642617273 0.17263013612199851 0 -0.086729013453174311 0.17078636624488361 0 -0.078551926175868453 0.1527427443988866 0 -0.060118522642617273 0.17263013612199851 0 -0.078551926175868453 0.1527427443988866 0 -0.060118522642617273 0.17263013612199851 0 -0.078551926175868453 0.1527427443988866 0 -0.061582012721358832 0.15148930938919231 0 -0.060118522642617273 0.17263013612199851 0 -0.074437502503107822 0.14106122434875479 0 -0.053133454951741863 0.14186814901552561 0 -0.061582012721358832 0.15148930938919231 0 -0.074437502503107822 0.14106122434875479 0 -0.078551926175868453 0.1527427443988866 0 -0.061582012721358832 0.15148930938919231 0 -0.078551926175868453 0.1527427443988866 0 -0.061582012721358832 0.15148930938919231 0 -0.074437502503107822 0.14106122434875479 0 -0.061582012721358832 0.15148930938919231 0 -0.074437502503107822 0.14106122434875479 0 -0.087292992284855889 0.13063313930831619 0 -0.0699800363792763 0.1236144180326101 0 -0.074437502503107822 0.14106122434875479 0 -0.056265865088609202 0.12898839703587359 0 -0.0699800363792763 0.1236144180326101 0 -0.074437502503107822 0.14106122434875479 0 -0.087292992284855889 0.13063313930831619 0 -0.074437502503107822 0.14106122434875479 0 -0.087292992284855889 0.13063313930831619 0 -0.091459866159018827 0.13881665319603001 0 -0.087292992284855889 0.13063313930831619 0 -0.091459866159018827 0.13881665319603001 0 -0.094210697629163634 0.13584884191189339 0 -0.087292992284855889 0.13063313930831619 0 -0.091459866159018827 0.13881665319603001 0 -0.094210697629163634 0.13584884191189339 0 -0.091459866159018827 0.13881665319603001 0 -0.099332269759346947 0.15427762613122831 0 -0.078551926175868453 0.1527427443988866 0 -0.074437502503107822 0.14106122434875479 0 -0.091459866159018827 0.13881665319603001 0 -0.078551926175868453 0.1527427443988866 0 -0.099332269759346947 0.15427762613122831 0 -0.091459866159018827 0.13881665319603001 0 -0.078551926175868453 0.1527427443988866 0 -0.091459866159018827 0.13881665319603001 0 -0.078551926175868453 0.1527427443988866 0 -0.1060268277603225 0.25199338735995153 0 -0.1020250226442185 0.23736357252172249 0 -0.11643528297592361 0.2361579317148442 0 -0.1060268277603225 0.25199338735995153 0 -0.1020250226442185 0.23736357252172249 0 -0.092742149930258533 0.24685310800178609 0 -0.1020250226442185 0.23736357252172249 0 -0.087768633447988784 0.2332876663260898 0 -0.092742149930258533 0.24685310800178609 0 -0.1060268277603225 0.25199338735995153 0 -0.1134113857795436 0.2546548410713948 0 -0.11643528297592361 0.2361579317148442 0 -0.1134113857795436 0.2546548410713948 0 -0.11643528297592361 0.2361579317148442 0 -0.1134113857795436 0.2546548410713948 0 -0.1247585453905037 0.24701425862917981 0 -0.11643528297592361 0.2361579317148442 0 -0.1060268277603225 0.25199338735995153 0 -0.11643528297592361 0.2361579317148442 0 -0.11643528297592361 0.2361579317148442 0 -0.1073962657995864 0.22477940861792459 0 -0.11963728383799201 0.2165715781257925 0 -0.11643528297592361 0.2361579317148442 0 -0.11963728383799201 0.2165715781257925 0 -0.12767976096116071 0.21905054846735589 0 -0.11643528297592361 0.2361579317148442 0 -0.11963728383799201 0.2165715781257925 0 -0.12767976096116071 0.21905054846735589 0 -0.12957433266358179 0.22772459051550931 0 -0.11643528297592361 0.2361579317148442 0 -0.12767976096116071 0.21905054846735589 0 -0.11643528297592361 0.2361579317148442 0 -0.1073962657995864 0.22477940861792459 0 -0.095638265960889007 0.2222849069487004 0 -0.1032454735789088 0.2115190537785637 0 -0.1020250226442185 0.23736357252172249 0 -0.11643528297592361 0.2361579317148442 0 -0.1073962657995864 0.22477940861792459 0 -0.1020250226442185 0.23736357252172249 0 -0.1073962657995864 0.22477940861792459 0 -0.095638265960889007 0.2222849069487004 0 -0.1020250226442185 0.23736357252172249 0 -0.095638265960889007 0.2222849069487004 0 -0.087768633447988784 0.2332876663260898 0 -0.1032454735789088 0.2115190537785637 0 -0.086853663319825386 0.20646652943133539 0 -0.1032454735789088 0.2115190537785637 0 -0.099930985855912077 0.19695421344147371 0 -0.086853663319825386 0.20646652943133539 0 -0.095638265960889007 0.2222849069487004 0 -0.1032454735789088 0.2115190537785637 0 -0.086853663319825386 0.20646652943133539 0 -0.1032454735789088 0.2115190537785637 0 -0.11240829947566271 0.2026528094224517 0 -0.099930985855912077 0.19695421344147371 0 -0.1073962657995864 0.22477940861792459 0 -0.1032454735789088 0.2115190537785637 0 -0.11963728383799201 0.2165715781257925 0 -0.1254861677981767 0.205642460844674 0 -0.11963728383799201 0.2165715781257925 0 -0.12241124817434861 0.19960348577485579 0 -0.1032454735789088 0.2115190537785637 0 -0.11963728383799201 0.2165715781257925 0 -0.11963728383799201 0.2165715781257925 0 -0.11240829947566271 0.2026528094224517 0 -0.12241124817434861 0.19960348577485579 0 -0.11963728383799201 0.2165715781257925 0 -0.12241124817434861 0.19960348577485579 0 -0.1032454735789088 0.2115190537785637 0 -0.11963728383799201 0.2165715781257925 0 -0.11240829947566271 0.2026528094224517 0 -0.12767976096116071 0.21905054846735589 0 -0.11963728383799201 0.2165715781257925 0 -0.1254861677981767 0.205642460844674 0 -0.12767976096116071 0.21905054846735589 0 -0.11963728383799201 0.2165715781257925 0 -0.11240829947566271 0.2026528094224517 0 -0.1168165059311516 0.1886157159915729 0 -0.099930985855912077 0.19695421344147371 0 -0.11240829947566271 0.2026528094224517 0 -0.12241124817434861 0.19960348577485579 0 -0.1168165059311516 0.1886157159915729 0 -0.1230799263140033 0.19551324125440581 0 -0.12241124817434861 0.19960348577485579 0 -0.1254861677981767 0.205642460844674 0 -0.12241124817434861 0.19960348577485579 0 -0.1230799263140033 0.19551324125440581 0 -0.12241124817434861 0.19960348577485579 0 -0.1168165059311516 0.1886157159915729 0 -0.1286654350562286 0.19079520984290479 0 -0.1230799263140033 0.19551324125440581 0 -0.1168165059311516 0.1886157159915729 0 -0.12241124817434861 0.19960348577485579 0 -0.1168165059311516 0.1886157159915729 0 -0.098237276210280805 0.1823598079881284 0 -0.1168165059311516 0.1886157159915729 0 -0.099930985855912077 0.19695421344147371 0 -0.1168165059311516 0.1886157159915729 0 -0.099930985855912077 0.19695421344147371 0 -0.099930985855912077 0.19695421344147371 0 -0.083045465780672567 0.2052927108913746 0 -0.086853663319825386 0.20646652943133539 0 -0.099930985855912077 0.19695421344147371 0 -0.083045465780672567 0.2052927108913746 0 -0.099930985855912077 0.19695421344147371 0 -0.080118004894293965 0.18880656028087581 0 -0.083045465780672567 0.2052927108913746 0 -0.098237276210280805 0.1823598079881284 0 -0.099930985855912077 0.19695421344147371 0 -0.080118004894293965 0.18880656028087581 0 -0.080118004894293965 0.18880656028087581 0 -0.083045465780672567 0.2052927108913746 0 -0.062386701763780382 0.19892496342912239 0 -0.083045465780672567 0.2052927108913746 0 -0.062386701763780382 0.19892496342912239 0 -0.069034963662343948 0.21221145166245839 0 -0.070939062431920483 0.21279836093243909 0 -0.083045465780672567 0.2052927108913746 0 -0.069034963662343948 0.21221145166245839 0 -0.070939062431920483 0.21279836093243909 0 -0.055024461544015371 0.2191301924335424 0 -0.070939062431920483 0.21279836093243909 0 -0.055024461544015371 0.2191301924335424 0 -0.069034963662343948 0.21221145166245839 0 -0.083045465780672567 0.2052927108913746 0 -0.070939062431920483 0.21279836093243909 0 -0.066321496313509351 0.22263780301932429 0 -0.055024461544015371 0.2191301924335424 0 -0.069034963662343948 0.21221145166245839 0 -0.083045465780672567 0.2052927108913746 0 -0.062386701763780382 0.19892496342912239 0 -0.069034963662343948 0.21221145166245839 0 -0.059014050489135092 0.20956408357709699 0 -0.062386701763780382 0.19892496342912239 0 -0.070939062431920483 0.21279836093243909 0 -0.083045465780672567 0.2052927108913746 0 -0.086853663319825386 0.20646652943133539 0 -0.070939062431920483 0.21279836093243909 0 -0.086853663319825386 0.20646652943133539 0 -0.080394712039612889 0.22094916768983799 0 -0.070939062431920483 0.21279836093243909 0 -0.086853663319825386 0.20646652943133539 0 -0.095638265960889007 0.2222849069487004 0 -0.086853663319825386 0.20646652943133539 0 -0.080394712039612889 0.22094916768983799 0 -0.083045465780672567 0.2052927108913746 0 -0.086853663319825386 0.20646652943133539 0 -0.087768633447988784 0.2332876663260898 0 -0.080394712039612889 0.22094916768983799 0 -0.069731118679408774 0.23176206043279921 0 -0.095638265960889007 0.2222849069487004 0 -0.087768633447988784 0.2332876663260898 0 -0.080394712039612889 0.22094916768983799 0 -0.070939062431920483 0.21279836093243909 0 -0.080394712039612889 0.22094916768983799 0 -0.066321496313509351 0.22263780301932429 0 -0.080394712039612889 0.22094916768983799 0 -0.066321496313509351 0.22263780301932429 0 -0.069731118679408774 0.23176206043279921 0 -0.066321496313509351 0.22263780301932429 0 -0.069731118679408774 0.23176206043279921 0 -0.058309475398305659 0.22908715942958699 0 -0.069731118679408774 0.23176206043279921 0 -0.077793132412821195 0.24227104422685319 0 -0.056566152008472863 0.24728405659184541 0 -0.080940186207554693 0.25646976348553319 0 -0.077793132412821195 0.24227104422685319 0 -0.056566152008472863 0.24728405659184541 0 -0.087768633447988784 0.2332876663260898 0 -0.069731118679408774 0.23176206043279921 0 -0.077793132412821195 0.24227104422685319 0 -0.080940186207554693 0.25646976348553319 0 -0.077793132412821195 0.24227104422685319 0 -0.092742149930258533 0.24685310800178609 0 -0.087768633447988784 0.2332876663260898 0 -0.077793132412821195 0.24227104422685319 0 -0.092742149930258533 0.24685310800178609 0 -0.033628923157772828 0.2486282092534311 0 -0.042208389312032718 0.24150165279280489 0 -0.031364416424238498 0.23081412191967371 0 -0.033628923157772828 0.2486282092534311 0 -0.031364416424238498 0.23081412191967371 0 -0.044458616170019172 0.25490355438970741 0 -0.033628923157772828 0.2486282092534311 0 -0.042208389312032718 0.24150165279280489 0 -0.042208389312032718 0.24150165279280489 0 -0.056566152008472863 0.24728405659184541 0 -0.043416352201808679 0.22374863011344079 0 -0.044458616170019172 0.25490355438970741 0 -0.042208389312032718 0.24150165279280489 0 -0.056566152008472863 0.24728405659184541 0 -0.056566152008472863 0.24728405659184541 0 -0.043416352201808679 0.22374863011344079 0 -0.069731118679408774 0.23176206043279921 0 -0.056566152008472863 0.24728405659184541 0 -0.058309475398305659 0.22908715942958699 0 -0.056566152008472863 0.24728405659184541 0 -0.058309475398305659 0.22908715942958699 0 -0.043416352201808679 0.22374863011344079 0 -0.066321496313509351 0.22263780301932429 0 -0.058309475398305659 0.22908715942958699 0 -0.055024461544015371 0.2191301924335424 0 -0.058309475398305659 0.22908715942958699 0 -0.055024461544015371 0.2191301924335424 0 -0.043416352201808679 0.22374863011344079 0 -0.055024461544015371 0.2191301924335424 0 -0.043416352201808679 0.22374863011344079 0 -0.055024461544015371 0.2191301924335424 0 -0.043416352201808679 0.22374863011344079 0 -0.047536769512473161 0.21428284021008001 0 -0.043416352201808679 0.22374863011344079 0 -0.039043441316241427 0.21592202254853729 0 -0.042208389312032718 0.24150165279280489 0 -0.043416352201808679 0.22374863011344079 0 -0.031364416424238498 0.23081412191967371 0 -0.043416352201808679 0.22374863011344079 0 -0.031364416424238498 0.23081412191967371 0 -0.043416352201808679 0.22374863011344079 0 -0.031364416424238498 0.23081412191967371 0 -0.031089691062895289 0.2286529529960907 0 -0.043416352201808679 0.22374863011344079 0 -0.039043441316241427 0.21592202254853729 0 -0.031089691062895289 0.2286529529960907 0 -0.043416352201808679 0.22374863011344079 0 -0.031089691062895289 0.2286529529960907 0 -0.039043441316241427 0.21592202254853729 0 -0.02832806026666964 0.2069281634607229 0 -0.031089691062895289 0.2286529529960907 0 -0.039043441316241427 0.21592202254853729 0 -0.040003131068963867 0.20642819293329359 0 -0.02832806026666964 0.2069281634607229 0 -0.040003131068963867 0.20642819293329359 0 -0.047536769512473161 0.21428284021008001 0 -0.049419289066352547 0.2056439034990567 0 -0.043416352201808679 0.22374863011344079 0 -0.039043441316241427 0.21592202254853729 0 -0.047536769512473161 0.21428284021008001 0 -0.039043441316241427 0.21592202254853729 0 -0.040003131068963867 0.20642819293329359 0 -0.047536769512473161 0.21428284021008001 0 -0.055024461544015371 0.2191301924335424 0 -0.047536769512473161 0.21428284021008001 0 -0.059014050489135092 0.20956408357709699 0 -0.069034963662343948 0.21221145166245839 0 -0.055024461544015371 0.2191301924335424 0 -0.069034963662343948 0.21221145166245839 0 -0.055024461544015371 0.2191301924335424 0 -0.059014050489135092 0.20956408357709699 0 -0.059014050489135092 0.20956408357709699 0 -0.049419289066352547 0.2056439034990567 0 -0.062386701763780382 0.19892496342912239 0 -0.047536769512473161 0.21428284021008001 0 -0.059014050489135092 0.20956408357709699 0 -0.049419289066352547 0.2056439034990567 0 -0.062386701763780382 0.19892496342912239 0 -0.041727937746888218 0.1925572159668702 0 -0.049419289066352547 0.2056439034990567 0 -0.062386701763780382 0.19892496342912239 0 -0.041727937746888218 0.1925572159668702 0 -0.062386701763780382 0.19892496342912239 0 -0.041727937746888218 0.1925572159668702 0 -0.060118522642617273 0.17263013612199851 0 -0.041727937746888218 0.1925572159668702 0 -0.02832806026666964 0.2069281634607229 0 -0.025047978310962549 0.18112489886652569 0 -0.040003131068963867 0.20642819293329359 0 -0.049419289066352547 0.2056439034990567 0 -0.041727937746888218 0.1925572159668702 0 -0.041727937746888218 0.1925572159668702 0 -0.02832806026666964 0.2069281634607229 0 -0.040003131068963867 0.20642819293329359 0 -0.041727937746888218 0.1925572159668702 0 -0.02832806026666964 0.2069281634607229 0 -0.02832806026666964 0.2069281634607229 0 -0.025047978310962549 0.18112489886652569 0 -0.01150983624110352 0.1921067361353288 0 -0.013678428738756059 0.20534416713760109 0 -0.02832806026666964 0.2069281634607229 0 -0.01150983624110352 0.1921067361353288 0 -0.02832806026666964 0.2069281634607229 0 -0.025047978310962549 0.18112489886652569 0 -0.01150983624110352 0.1921067361353288 0 -0.013678428738756059 0.20534416713760109 0 0.002028305828750911 0.20308857340413761 0 -0.01150983624110352 0.1921067361353288 0 0.002028305828750911 0.20308857340413761 0 0.0022357670800216469 0.18808268537775791 0 -0.01150983624110352 0.1921067361353288 0 0.002028305828750911 0.20308857340413761 0 -0.01690412427600526 0.21925319555021869 0 0.002028305828750911 0.20308857340413761 0 -0.01690412427600526 0.21925319555021869 0 9.6939961395259299e-06 0.21847586000843319 0 0.002028305828750911 0.20308857340413761 0 -0.013678428738756059 0.20534416713760109 0 -0.01690412427600526 0.21925319555021869 0 0.002028305828750911 0.20308857340413761 0 -0.02832806026666964 0.2069281634607229 0 -0.01690412427600526 0.21925319555021869 0 -0.02832806026666964 0.2069281634607229 0 -0.031089691062895289 0.2286529529960907 0 -0.02832806026666964 0.2069281634607229 0 -0.02479568364245259 0.22599105617328119 0 -0.01690412427600526 0.21925319555021869 0 -0.013678428738756059 0.20534416713760109 0 -0.02832806026666964 0.2069281634607229 0 -0.01690412427600526 0.21925319555021869 0 -0.031089691062895289 0.2286529529960907 0 -0.01295186956057123 0.2358693218110379 0 -0.02832806026666964 0.2069281634607229 0 -0.02479568364245259 0.22599105617328119 0 -0.031089691062895289 0.2286529529960907 0 -0.031089691062895289 0.2286529529960907 0 -0.01295186956057123 0.2358693218110379 0 -0.020546811004087649 0.23615612943902009 0 -0.02479568364245259 0.22599105617328119 0 -0.031089691062895289 0.2286529529960907 0 -0.01295186956057123 0.2358693218110379 0 -0.031364416424238498 0.23081412191967371 0 -0.020546811004087649 0.23615612943902009 0 -0.031364416424238498 0.23081412191967371 0 -0.031089691062895289 0.2286529529960907 0 -0.020546811004087649 0.23615612943902009 0 -0.031364416424238498 0.23081412191967371 0 -0.031089691062895289 0.2286529529960907 0 -0.02479568364245259 0.22599105617328119 0 -0.01512769091153883 0.22807075415565989 0 -0.01295186956057123 0.2358693218110379 0 -0.02479568364245259 0.22599105617328119 0 -0.01690412427600526 0.21925319555021869 0 -0.01512769091153883 0.22807075415565989 0 -0.02479568364245259 0.22599105617328119 0 -0.01690412427600526 0.21925319555021869 0 -0.01690412427600526 0.21925319555021869 0 -0.0058590861671261249 0.23116944308810181 0 -0.01512769091153883 0.22807075415565989 0 -0.01690412427600526 0.21925319555021869 0 -0.0058590861671261249 0.23116944308810181 0 -0.01690412427600526 0.21925319555021869 0 -0.0058590861671261249 0.23116944308810181 0 9.6939961395259299e-06 0.21847586000843319 0 -0.0058590861671261249 0.23116944308810181 0 -0.01512769091153883 0.22807075415565989 0 -0.01295186956057123 0.2358693218110379 0 -0.01295186956057123 0.2358693218110379 0 0.005185951941752991 0.24308569062598501 0 -0.0058590861671261249 0.23116944308810181 0 -0.01295186956057123 0.2358693218110379 0 0.005185951941752991 0.24308569062598501 0 -0.0050525179201023037 0.2511486427858825 0 -0.01295186956057123 0.2358693218110379 0 0.005185951941752991 0.24308569062598501 0 -0.0058590861671261249 0.23116944308810181 0 0.005185951941752991 0.24308569062598501 0 -0.0050525179201023037 0.2511486427858825 0 -0.01295186956057123 0.2358693218110379 0 -0.016048994506473908 0.24539805405009571 0 -0.033628923157772828 0.2486282092534311 0 -0.031364416424238498 0.23081412191967371 0 -0.02547624844103389 0.24484213932061269 0 -0.016048994506473908 0.24539805405009571 0 -0.020546811004087649 0.23615612943902009 0 -0.02547624844103389 0.24484213932061269 0 -0.01295186956057123 0.2358693218110379 0 -0.016048994506473908 0.24539805405009571 0 -0.020546811004087649 0.23615612943902009 0 -0.031364416424238498 0.23081412191967371 0 -0.020546811004087649 0.23615612943902009 0 -0.02547624844103389 0.24484213932061269 0 -0.043363013189069897 0.15014361414351729 0 -0.032777182339960881 0.1590597273454889 0 -0.025144013656781011 0.14879791889784261 0 -0.043363013189069897 0.15014361414351729 0 -0.040056593890650638 0.13535661309446961 0 -0.025144013656781011 0.14879791889784261 0 -0.043363013189069897 0.15014361414351729 0 -0.025144013656781011 0.14879791889784261 0 -0.043363013189069897 0.15014361414351729 0 -0.040056593890650638 0.13535661309446961 0 -0.053133454951741863 0.14186814901552561 0 -0.040056593890650638 0.13535661309446961 0 -0.056265865088609202 0.12898839703587359 0 -0.04272715440807253 0.12183612010871731 0 -0.040056593890650638 0.13535661309446961 0 -0.025901439427360382 0.12518424982302051 0 -0.04272715440807253 0.12183612010871731 0 -0.040056593890650638 0.13535661309446961 0 -0.056265865088609202 0.12898839703587359 0 -0.053133454951741863 0.14186814901552561 0 -0.074437502503107822 0.14106122434875479 0 -0.056265865088609202 0.12898839703587359 0 -0.053133454951741863 0.14186814901552561 0 -0.043363013189069897 0.15014361414351729 0 -0.061582012721358832 0.15148930938919231 0 -0.043363013189069897 0.15014361414351729 0 -0.061582012721358832 0.15148930938919231 0 -0.043314995516159097 0.16630710412785699 0 -0.043363013189069897 0.15014361414351729 0 -0.053133454951741863 0.14186814901552561 0 -0.061582012721358832 0.15148930938919231 0 -0.061582012721358832 0.15148930938919231 0 -0.060118522642617273 0.17263013612199851 0 -0.043314995516159097 0.16630710412785699 0 -0.061582012721358832 0.15148930938919231 0 -0.043314995516159097 0.16630710412785699 0 -0.041727937746888218 0.1925572159668702 0 -0.060118522642617273 0.17263013612199851 0 -0.041727937746888218 0.1925572159668702 0 -0.060118522642617273 0.17263013612199851 0 -0.043314995516159097 0.16630710412785699 0 -0.043314995516159097 0.16630710412785699 0 -0.025047978310962549 0.18112489886652569 0 -0.041727937746888218 0.1925572159668702 0 -0.043314995516159097 0.16630710412785699 0 -0.025047978310962549 0.18112489886652569 0 -0.043363013189069897 0.15014361414351729 0 -0.043314995516159097 0.16630710412785699 0 -0.032777182339960881 0.1590597273454889 0 -0.043314995516159097 0.16630710412785699 0 -0.032777182339960881 0.1590597273454889 0 -0.023340412281333569 0.1676920704586107 0 -0.032777182339960881 0.1590597273454889 0 -0.023340412281333569 0.1676920704586107 0 -0.025144013656781011 0.14879791889784261 0 -0.043314995516159097 0.16630710412785699 0 -0.023340412281333569 0.1676920704586107 0 -0.025047978310962549 0.18112489886652569 0 -0.023340412281333569 0.1676920704586107 0 -0.0085245964043452402 0.15734267806885821 0 -0.025144013656781011 0.14879791889784261 0 -0.01150983624110352 0.1921067361353288 0 -0.025047978310962549 0.18112489886652569 0 -0.011426894867534501 0.17614134140154081 0 -0.023340412281333569 0.1676920704586107 0 -0.025047978310962549 0.18112489886652569 0 -0.023340412281333569 0.1676920704586107 0 -0.025047978310962549 0.18112489886652569 0 -0.011426894867534501 0.17614134140154081 0 -0.01150983624110352 0.1921067361353288 0 -0.025047978310962549 0.18112489886652569 0 -0.01150983624110352 0.1921067361353288 0 -0.011426894867534501 0.17614134140154081 0 0.0022357670800216469 0.18808268537775791 0 -0.011426894867534501 0.17614134140154081 0 0.0034908987170386191 0.1731181711682746 0 0.0022357670800216469 0.18808268537775791 0 -0.023340412281333569 0.1676920704586107 0 -0.011426894867534501 0.17614134140154081 0 -0.0085245964043452402 0.15734267806885821 0 -0.011426894867534501 0.17614134140154081 0 -0.0085245964043452402 0.15734267806885821 0 0.0034908987170386191 0.1731181711682746 0 -0.0085245964043452402 0.15734267806885821 0 -0.01176643429668537 0.13504181974382989 0 0.0018966282430957181 0.14511084914645481 0 -0.0085245964043452402 0.15734267806885821 0 -0.025144013656781011 0.14879791889784261 0 -0.01176643429668537 0.13504181974382989 0 -0.040056593890650638 0.13535661309446961 0 -0.025144013656781011 0.14879791889784261 0 -0.025901439427360382 0.12518424982302051 0 -0.025144013656781011 0.14879791889784261 0 -0.025901439427360382 0.12518424982302051 0 -0.01176643429668537 0.13504181974382989 0 -0.01176643429668537 0.13504181974382989 0 -0.0072492257809743457 0.1188042418321298 0 0.0005792269352365918 0.13251240775484061 0 -0.025901439427360382 0.12518424982302051 0 -0.01176643429668537 0.13504181974382989 0 -0.0072492257809743457 0.1188042418321298 0 -0.01176643429668537 0.13504181974382989 0 0.0005792269352365918 0.13251240775484061 0 0.0018966282430957181 0.14511084914645481 0 -0.0072492257809743457 0.1188042418321298 0 -0.0042395615555078561 0.1017161044440508 0 0.0049179822891485493 0.1113457965673794 0 -0.0072492257809743457 0.1188042418321298 0 -0.0042395615555078561 0.1017161044440508 0 -0.0072492257809743457 0.1188042418321298 0 -0.011326827856903979 0.1045925215820092 0 -0.020104613289094141 0.1081408662903916 0 -0.0042395615555078561 0.1017161044440508 0 -0.001229897330041686 0.084627967055971795 0 0.002892838501618204 0.100438587452972 0 -0.0072492257809743457 0.1188042418321298 0 -0.0042395615555078561 0.1017161044440508 0 -0.011326827856903979 0.1045925215820092 0 -0.0042395615555078561 0.1017161044440508 0 -0.0083350265453964317 0.096995811469546334 0 -0.0068354799001402542 0.09040285002768543 0 -0.0083350265453964317 0.096995811469546334 0 -0.011326827856903979 0.1045925215820092 0 -0.01969086178006229 0.097042091458738808 0 -0.0042395615555078561 0.1017161044440508 0 -0.0083350265453964317 0.096995811469546334 0 -0.011326827856903979 0.1045925215820092 0 -0.011326827856903979 0.1045925215820092 0 -0.020104613289094141 0.1081408662903916 0 -0.01969086178006229 0.097042091458738808 0 -0.020104613289094141 0.1081408662903916 0 -0.01969086178006229 0.097042091458738808 0 -0.028818422467261351 0.096908983651716657 0 -0.020104613289094141 0.1081408662903916 0 -0.028818422467261351 0.096908983651716657 0 -0.034854106550163987 0.10875929899805201 0 -0.025901439427360382 0.12518424982302051 0 -0.0072492257809743457 0.1188042418321298 0 -0.020104613289094141 0.1081408662903916 0 -0.025901439427360382 0.12518424982302051 0 -0.020104613289094141 0.1081408662903916 0 -0.034854106550163987 0.10875929899805201 0 -0.0089714376167529773 0.060049647350557879 0 0.0043237534210089426 0.053095696367321803 0 5.7050995178676992e-05 0.077320989218824826 0 -0.0070849900269596448 0.077431320450179864 0 -0.0089714376167529773 0.060049647350557879 0 5.7050995178676992e-05 0.077320989218824826 0 -0.0070849900269596448 0.077431320450179864 0 -0.02590519166256932 0.054298921488753371 0 -0.0089714376167529773 0.060049647350557879 0 -0.0070849900269596448 0.077431320450179864 0 5.7050995178676992e-05 0.077320989218824826 0 -0.0070849900269596448 0.077431320450179864 0 -0.016852904602546469 0.077582216537105106 0 -0.0042395615555078561 0.1017161044440508 0 -0.001229897330041686 0.084627967055971795 0 -0.0068354799001402542 0.09040285002768543 0 -0.0042395615555078561 0.1017161044440508 0 -0.001229897330041686 0.084627967055971795 0 -0.0070849900269596448 0.077431320450179864 0 -0.008029463689756159 0.08318220763203521 0 -0.016852904602546469 0.077582216537105106 0 -0.0134485566407638 0.085393600444083062 0 -0.008029463689756159 0.08318220763203521 0 -0.016852904602546469 0.077582216537105106 0 -0.0070849900269596448 0.077431320450179864 0 -0.008029463689756159 0.08318220763203521 0 -0.001229897330041686 0.084627967055971795 0 -0.0070849900269596448 0.077431320450179864 0 -0.001229897330041686 0.084627967055971795 0 -0.0070849900269596448 0.077431320450179864 0 -0.001229897330041686 0.084627967055971795 0 5.7050995178676992e-05 0.077320989218824826 0 -0.001229897330041686 0.084627967055971795 0 5.7050995178676992e-05 0.077320989218824826 0 -0.008029463689756159 0.08318220763203521 0 -0.001229897330041686 0.084627967055971795 0 -0.0068354799001402542 0.09040285002768543 0 -0.0083350265453964317 0.096995811469546334 0 -0.0134485566407638 0.085393600444083062 0 -0.0068354799001402542 0.09040285002768543 0 -0.0134485566407638 0.085393600444083062 0 -0.008029463689756159 0.08318220763203521 0 -0.0068354799001402542 0.09040285002768543 0 -0.0083350265453964317 0.096995811469546334 0 -0.0134485566407638 0.085393600444083062 0 -0.029869418741655551 0.078572274300030179 0 -0.0083350265453964317 0.096995811469546334 0 -0.01969086178006229 0.097042091458738808 0 -0.029869418741655551 0.078572274300030179 0 -0.0134485566407638 0.085393600444083062 0 -0.029869418741655551 0.078572274300030179 0 -0.016852904602546469 0.077582216537105106 0 -0.01969086178006229 0.097042091458738808 0 -0.028818422467261351 0.096908983651716657 0 -0.029869418741655551 0.078572274300030179 0 -0.0083350265453964317 0.096995811469546334 0 -0.029869418741655551 0.078572274300030179 0 -0.0070849900269596448 0.077431320450179864 0 -0.016852904602546469 0.077582216537105106 0 -0.02493788189592339 0.067973893583465547 0 -0.0070849900269596448 0.077431320450179864 0 -0.02493788189592339 0.067973893583465547 0 -0.02590519166256932 0.054298921488753371 0 -0.0070849900269596448 0.077431320450179864 0 -0.02590519166256932 0.054298921488753371 0 -0.029869418741655551 0.078572274300030179 0 -0.016852904602546469 0.077582216537105106 0 -0.02493788189592339 0.067973893583465547 0 -0.029869418741655551 0.078572274300030179 0 -0.02493788189592339 0.067973893583465547 0 -0.051403810937914629 0.060148737130513767 0 -0.029869418741655551 0.078572274300030179 0 -0.0469743284336658 0.078667611885137712 0 -0.051403810937914629 0.060148737130513767 0 -0.029869418741655551 0.078572274300030179 0 -0.051403810937914629 0.060148737130513767 0 -0.028818422467261351 0.096908983651716657 0 -0.029869418741655551 0.078572274300030179 0 -0.043257212668200429 0.092305898253557409 0 -0.029869418741655551 0.078572274300030179 0 -0.043257212668200429 0.092305898253557409 0 -0.0469743284336658 0.078667611885137712 0 -0.043257212668200429 0.092305898253557409 0 -0.0469743284336658 0.078667611885137712 0 -0.063366871386892454 0.083643537856449318 0 -0.063366871386892454 0.083643537856449318 0 -0.069277773289296796 0.064333259576134116 0 -0.051403810937914629 0.060148737130513767 0 -0.063366871386892454 0.083643537856449318 0 -0.051403810937914629 0.060148737130513767 0 -0.0469743284336658 0.078667611885137712 0 -0.063366871386892454 0.083643537856449318 0 -0.051403810937914629 0.060148737130513767 0 -0.025901439427360382 0.12518424982302051 0 -0.04272715440807253 0.12183612010871731 0 -0.034854106550163987 0.10875929899805201 0 -0.04272715440807253 0.12183612010871731 0 -0.034854106550163987 0.10875929899805201 0 -0.055529394982868213 0.1096927329952307 0 -0.028818422467261351 0.096908983651716657 0 -0.043257212668200429 0.092305898253557409 0 -0.034854106550163987 0.10875929899805201 0 -0.043257212668200429 0.092305898253557409 0 -0.034854106550163987 0.10875929899805201 0 -0.055529394982868213 0.1096927329952307 0 -0.043257212668200429 0.092305898253557409 0 -0.055529394982868213 0.1096927329952307 0 -0.063366871386892454 0.083643537856449318 0 -0.056265865088609202 0.12898839703587359 0 -0.04272715440807253 0.12183612010871731 0 -0.055529394982868213 0.1096927329952307 0 -0.056265865088609202 0.12898839703587359 0 -0.055529394982868213 0.1096927329952307 0 -0.0699800363792763 0.1236144180326101 0 -0.055529394982868213 0.1096927329952307 0 -0.0699800363792763 0.1236144180326101 0 -0.07532993183587107 0.1071383385823844 0 -0.087292992284855889 0.13063313930831619 0 -0.0699800363792763 0.1236144180326101 0 -0.07532993183587107 0.1071383385823844 0 -0.087292992284855889 0.13063313930831619 0 -0.07532993183587107 0.1071383385823844 0 -0.087292992284855889 0.13063313930831619 0 -0.092668855230947311 0.10375575682778709 0 -0.07532993183587107 0.1071383385823844 0 -0.092668855230947311 0.10375575682778709 0 -0.07532993183587107 0.1071383385823844 0 -0.091550128945749487 0.084837791650283045 0 -0.055529394982868213 0.1096927329952307 0 -0.07532993183587107 0.1071383385823844 0 -0.063366871386892454 0.083643537856449318 0 -0.07532993183587107 0.1071383385823844 0 -0.063366871386892454 0.083643537856449318 0 -0.07532993183587107 0.1071383385823844 0 -0.063366871386892454 0.083643537856449318 0 -0.077716548987921519 0.078106289836741866 0 -0.063366871386892454 0.083643537856449318 0 -0.069277773289296796 0.064333259576134116 0 -0.077716548987921519 0.078106289836741866 0 -0.069277773289296796 0.064333259576134116 0 -0.077716548987921519 0.078106289836741866 0 -0.097139555905933664 0.058546784068808463 0 -0.077716548987921519 0.078106289836741866 0 -0.091550128945749487 0.084837791650283045 0 -0.097139555905933664 0.058546784068808463 0 -0.07532993183587107 0.1071383385823844 0 -0.077716548987921519 0.078106289836741866 0 -0.091550128945749487 0.084837791650283045 0 -0.091550128945749487 0.084837791650283045 0 -0.10862159540675639 0.093318638662448633 0 -0.1108567104051925 0.074868881996728975 0 -0.091550128945749487 0.084837791650283045 0 -0.1108567104051925 0.074868881996728975 0 -0.097139555905933664 0.058546784068808463 0 -0.1148023111979426 0.063424925597670059 0 -0.1108567104051925 0.074868881996728975 0 -0.097139555905933664 0.058546784068808463 0 -0.12787215364192681 0.081824817451553344 0 -0.12621163995807361 0.067523727763660002 0 -0.1108567104051925 0.074868881996728975 0 -0.12621163995807361 0.067523727763660002 0 -0.1148023111979426 0.063424925597670059 0 -0.1108567104051925 0.074868881996728975 0 -0.12787215364192681 0.081824817451553344 0 -0.10862159540675639 0.093318638662448633 0 -0.1108567104051925 0.074868881996728975 0 -0.1258551131092234 0.099352411609632166 0 -0.12787215364192681 0.081824817451553344 0 -0.10862159540675639 0.093318638662448633 0 -0.1258551131092234 0.099352411609632166 0 -0.10862159540675639 0.093318638662448633 0 -0.10657405269704009 0.11499277545897479 0 -0.1258551131092234 0.099352411609632166 0 -0.10657405269704009 0.11499277545897479 0 -0.12848186121880881 0.1191960057663058 0 -0.1258551131092234 0.099352411609632166 0 -0.10657405269704009 0.11499277545897479 0 -0.12848186121880881 0.1191960057663058 0 -0.11932339300788219 0.13275204616534439 0 -0.10657405269704009 0.11499277545897479 0 -0.087292992284855889 0.13063313930831619 0 -0.10657405269704009 0.11499277545897479 0 -0.087292992284855889 0.13063313930831619 0 -0.092668855230947311 0.10375575682778709 0 -0.10657405269704009 0.11499277545897479 0 -0.092668855230947311 0.10375575682778709 0 -0.10862159540675639 0.093318638662448633 0 -0.10657405269704009 0.11499277545897479 0 -0.092668855230947311 0.10375575682778709 0 -0.091550128945749487 0.084837791650283045 0 -0.10862159540675639 0.093318638662448633 0 -0.1050726684275867 0.02458973041178494 0 -0.097320964058152742 0.020864768977652059 0 -0.087991135855652214 0.02884681161472543 0 -0.1050726684275867 0.02458973041178494 0 -0.097320964058152742 0.020864768977652059 0 -0.1221542009995211 0.02033264920884429 0 -0.1050726684275867 0.02458973041178494 0 -0.087991135855652214 0.02884681161472543 0 -0.1050726684275867 0.02458973041178494 0 -0.099248786053088262 0.036136182562634032 0 -0.087991135855652214 0.02884681161472543 0 -0.097320964058152742 0.020864768977652059 0 -0.11571833404873361 0.0051250802623291356 0 -0.097320964058152742 0.020864768977652059 0 -0.1000252883819376 0.0054039767755358001 0 -0.085533497645448472 0.011235352742999 0 -0.097320964058152742 0.020864768977652059 0 -0.1000252883819376 0.0054039767755358001 0 -0.11571833404873361 0.0051250802623291356 0 -0.10232618472210959 -0.01012198025123094 0 -0.1000252883819376 0.0054039767755358001 0 -0.11571833404873361 0.0051250802623291356 0 -0.097320964058152742 0.020864768977652059 0 -0.11571833404873361 0.0051250802623291356 0 -0.1221542009995211 0.02033264920884429 0 -0.1233175976785533 -0.0013763948974506749 0 -0.1310346792272262 0.0069050339284476266 0 -0.11571833404873361 0.0051250802623291356 0 -0.1233175976785533 -0.0013763948974506749 0 -0.11571833404873361 0.0051250802623291356 0 -0.1310346792272262 0.0069050339284476266 0 -0.11571833404873361 0.0051250802623291356 0 -0.1221542009995211 0.02033264920884429 0 -0.1050726684275867 0.02458973041178494 0 -0.1221542009995211 0.02033264920884429 0 -0.117884652613774 0.029969023056401839 0 -0.1050726684275867 0.02458973041178494 0 -0.1221542009995211 0.02033264920884429 0 -0.097320964058152742 0.020864768977652059 0 -0.1221542009995211 0.02033264920884429 0 -0.12717826490815259 0.020224994949682159 0 -0.1221542009995211 0.02033264920884429 0 -0.12717826490815259 0.020224994949682159 0 -0.1221542009995211 0.02033264920884429 0 -0.1247971214817015 0.026387194697490152 0 -0.1050726684275867 0.02458973041178494 0 -0.117884652613774 0.029969023056401839 0 -0.110933692141287 0.036896815265589182 0 -0.1221542009995211 0.02033264920884429 0 -0.117884652613774 0.029969023056401839 0 -0.1247971214817015 0.026387194697490152 0 -0.117884652613774 0.029969023056401839 0 -0.1247971214817015 0.026387194697490152 0 -0.1249386459198932 0.032991929406970169 0 -0.1249386459198932 0.032991929406970169 0 -0.1182250032044015 0.036588555306859498 0 -0.119143022142652 0.046496453498476857 0 -0.117884652613774 0.029969023056401839 0 -0.1249386459198932 0.032991929406970169 0 -0.1182250032044015 0.036588555306859498 0 -0.1182250032044015 0.036588555306859498 0 -0.119143022142652 0.046496453498476857 0 -0.110933692141287 0.036896815265589182 0 -0.119143022142652 0.046496453498476857 0 -0.110933692141287 0.036896815265589182 0 -0.1053980994734332 0.047512654231926167 0 -0.117884652613774 0.029969023056401839 0 -0.1182250032044015 0.036588555306859498 0 -0.110933692141287 0.036896815265589182 0 -0.1250013385225705 0.052760308561482797 0 -0.119143022142652 0.046496453498476857 0 -0.1053980994734332 0.047512654231926167 0 -0.1250013385225705 0.052760308561482797 0 -0.1148023111979426 0.063424925597670059 0 -0.097139555905933664 0.058546784068808463 0 -0.1250013385225705 0.052760308561482797 0 -0.097139555905933664 0.058546784068808463 0 -0.12621163995807361 0.067523727763660002 0 -0.1250013385225705 0.052760308561482797 0 -0.1148023111979426 0.063424925597670059 0 -0.1250013385225705 0.052760308561482797 0 -0.097139555905933664 0.058546784068808463 0 -0.1053980994734332 0.047512654231926167 0 -0.097139555905933664 0.058546784068808463 0 -0.1053980994734332 0.047512654231926167 0 -0.086462369390733901 0.045576684854267781 0 -0.1053980994734332 0.047512654231926167 0 -0.099248786053088262 0.036136182562634032 0 -0.086462369390733901 0.045576684854267781 0 -0.1050726684275867 0.02458973041178494 0 -0.110933692141287 0.036896815265589182 0 -0.099248786053088262 0.036136182562634032 0 -0.110933692141287 0.036896815265589182 0 -0.1053980994734332 0.047512654231926167 0 -0.099248786053088262 0.036136182562634032 0 -0.086462369390733901 0.045576684854267781 0 -0.069697473396783255 0.044497774372619397 0 -0.087991135855652214 0.02884681161472543 0 -0.099248786053088262 0.036136182562634032 0 -0.086462369390733901 0.045576684854267781 0 -0.087991135855652214 0.02884681161472543 0 -0.069697473396783255 0.044497774372619397 0 -0.087991135855652214 0.02884681161472543 0 -0.069277773289296796 0.064333259576134116 0 -0.097139555905933664 0.058546784068808463 0 -0.069277773289296796 0.064333259576134116 0 -0.097139555905933664 0.058546784068808463 0 -0.086462369390733901 0.045576684854267781 0 -0.069277773289296796 0.064333259576134116 0 -0.069697473396783255 0.044497774372619397 0 -0.051403810937914629 0.060148737130513767 0 -0.069277773289296796 0.064333259576134116 0 -0.086462369390733901 0.045576684854267781 0 -0.069697473396783255 0.044497774372619397 0 -0.069697473396783255 0.044497774372619397 0 -0.066429133194125717 0.034220521253577108 0 -0.087991135855652214 0.02884681161472543 0 -0.066429133194125717 0.034220521253577108 0 -0.087991135855652214 0.02884681161472543 0 -0.069697473396783255 0.044497774372619397 0 -0.066429133194125717 0.034220521253577108 0 -0.05486668201292532 0.042664167748592829 0 -0.066429133194125717 0.034220521253577108 0 -0.072486536997237172 0.02139691424801295 0 -0.087991135855652214 0.02884681161472543 0 -0.066429133194125717 0.034220521253577108 0 -0.072486536997237172 0.02139691424801295 0 -0.05611504045245054 0.031255079022482063 0 -0.097320964058152742 0.020864768977652059 0 -0.072486536997237172 0.02139691424801295 0 -0.087991135855652214 0.02884681161472543 0 -0.097320964058152742 0.020864768977652059 0 -0.072486536997237172 0.02139691424801295 0 -0.085533497645448472 0.011235352742999 0 -0.097320964058152742 0.020864768977652059 0 -0.072486536997237172 0.02139691424801295 0 -0.097320964058152742 0.020864768977652059 0 -0.087991135855652214 0.02884681161472543 0 -0.083185712721567245 -0.00052073779233788493 0 -0.1000252883819376 0.0054039767755358001 0 -0.085533497645448472 0.011235352742999 0 -0.083185712721567245 -0.00052073779233788493 0 -0.085533497645448472 0.011235352742999 0 -0.074648986068347606 0.0090318415061323674 0 -0.072486536997237172 0.02139691424801295 0 -0.062971457059756569 0.003398427010444498 0 -0.074648986068347606 0.0090318415061323674 0 -0.083185712721567245 -0.00052073779233788493 0 -0.062971457059756569 0.003398427010444498 0 -0.074648986068347606 0.0090318415061323674 0 -0.072486536997237172 0.02139691424801295 0 -0.085533497645448472 0.011235352742999 0 -0.074648986068347606 0.0090318415061323674 0 -0.062971457059756569 0.003398427010444498 0 -0.048822800540527178 0.0068164500232252116 0 -0.047652109936321567 0.02192905951837415 0 -0.072486536997237172 0.02139691424801295 0 -0.062971457059756569 0.003398427010444498 0 -0.047652109936321567 0.02192905951837415 0 -0.04449598534487504 -0.0077107710636280802 0 -0.062971457059756569 0.003398427010444498 0 -0.048822800540527178 0.0068164500232252116 0 -0.072486536997237172 0.02139691424801295 0 -0.047652109936321567 0.02192905951837415 0 -0.072486536997237172 0.02139691424801295 0 -0.047652109936321567 0.02192905951837415 0 -0.05611504045245054 0.031255079022482063 0 -0.047652109936321567 0.02192905951837415 0 -0.05611504045245054 0.031255079022482063 0 -0.039140740121642897 0.03606473234385326 0 -0.039140740121642897 0.03606473234385326 0 -0.02687766930537195 0.01198072755719223 0 -0.047652109936321567 0.02192905951837415 0 -0.039140740121642897 0.03606473234385326 0 -0.02687766930537195 0.01198072755719223 0 -0.048822800540527178 0.0068164500232252116 0 -0.047652109936321567 0.02192905951837415 0 -0.02687766930537195 0.01198072755719223 0 -0.04449598534487504 -0.0077107710636280802 0 -0.048822800540527178 0.0068164500232252116 0 -0.02687766930537195 0.01198072755719223 0 -0.069697473396783255 0.044497774372619397 0 -0.051403810937914629 0.060148737130513767 0 -0.05486668201292532 0.042664167748592829 0 -0.069697473396783255 0.044497774372619397 0 -0.051403810937914629 0.060148737130513767 0 -0.051403810937914629 0.060148737130513767 0 -0.05486668201292532 0.042664167748592829 0 -0.039140740121642897 0.03606473234385326 0 -0.05486668201292532 0.042664167748592829 0 -0.05611504045245054 0.031255079022482063 0 -0.039140740121642897 0.03606473234385326 0 -0.066429133194125717 0.034220521253577108 0 -0.05486668201292532 0.042664167748592829 0 -0.05611504045245054 0.031255079022482063 0 -0.051403810937914629 0.060148737130513767 0 -0.039140740121642897 0.03606473234385326 0 -0.051403810937914629 0.060148737130513767 0 -0.039140740121642897 0.03606473234385326 0 -0.02590519166256932 0.054298921488753371 0 -0.02493788189592339 0.067973893583465547 0 -0.051403810937914629 0.060148737130513767 0 -0.02590519166256932 0.054298921488753371 0 -0.02590519166256932 0.054298921488753371 0 -0.013189643104008169 0.036224560379828921 0 -0.0089714376167529773 0.060049647350557879 0 -0.039140740121642897 0.03606473234385326 0 -0.02590519166256932 0.054298921488753371 0 -0.013189643104008169 0.036224560379828921 0 -0.013189643104008169 0.036224560379828921 0 0.0085904558468380757 0.028870403515818679 0 0.0043237534210089426 0.053095696367321803 0 -0.013189643104008169 0.036224560379828921 0 -0.0089714376167529773 0.060049647350557879 0 0.0043237534210089426 0.053095696367321803 0 -0.039140740121642897 0.03606473234385326 0 -0.013189643104008169 0.036224560379828921 0 -0.02687766930537195 0.01198072755719223 0 -0.013189643104008169 0.036224560379828921 0 -0.0013666425693502891 0.0097628382489691745 0 0.0085904558468380757 0.028870403515818679 0 -0.013189643104008169 0.036224560379828921 0 -0.02687766930537195 0.01198072755719223 0 -0.0013666425693502891 0.0097628382489691745 0 -0.01461459848910099 -0.01210327722946879 0 -0.02687766930537195 0.01198072755719223 0 -0.0013666425693502891 0.0097628382489691745 0 -0.0013666425693502891 0.0097628382489691745 0 0.018897784983221661 0.015270052044687109 0 0.018391145462340101 -0.0025103805534233978 0 -0.0013666425693502891 0.0097628382489691745 0 0.018391145462340101 -0.0025103805534233978 0 0.0039791465726569976 -0.0051270665085446556 0 -0.0013666425693502891 0.0097628382489691745 0 0.0085904558468380757 0.028870403515818679 0 0.018897784983221661 0.015270052044687109 0 0.018897784983221661 0.015270052044687109 0 0.02666000379675372 0.036947277719941107 0 0.036022349708605302 0.01807317292724122 0 0.0085904558468380757 0.028870403515818679 0 0.018897784983221661 0.015270052044687109 0 0.02666000379675372 0.036947277719941107 0 0.018897784983221661 0.015270052044687109 0 0.036691164956592158 0.0020929491879979321 0 0.018391145462340101 -0.0025103805534233978 0 0.018897784983221661 0.015270052044687109 0 0.036691164956592158 0.0020929491879979321 0 0.036022349708605302 0.01807317292724122 0 0.0043237534210089426 0.053095696367321803 0 0.025168226097222031 0.056302317478691438 0 0.01484778668492596 0.06948200269264046 0 0.0085904558468380757 0.028870403515818679 0 0.0043237534210089426 0.053095696367321803 0 0.0085904558468380757 0.028870403515818679 0 0.0043237534210089426 0.053095696367321803 0 0.02666000379675372 0.036947277719941107 0 0.0043237534210089426 0.053095696367321803 0 0.02666000379675372 0.036947277719941107 0 0.025168226097222031 0.056302317478691438 0 0.025168226097222031 0.056302317478691438 0 0.03294770892400354 0.063293204482949783 0 0.025291971885283461 0.067296507783563025 0 0.042967510365249442 0.046685019141878621 0 0.03294770892400354 0.063293204482949783 0 0.042813981126508159 0.063123328410760737 0 0.025168226097222031 0.056302317478691438 0 0.042967510365249442 0.046685019141878621 0 0.03294770892400354 0.063293204482949783 0 0.042967510365249442 0.046685019141878621 0 0.052292668574979259 0.054763314216980663 0 0.042813981126508159 0.063123328410760737 0 0.02666000379675372 0.036947277719941107 0 0.042967510365249442 0.046685019141878621 0 0.045418933505764897 0.02909652209764697 0 0.02666000379675372 0.036947277719941107 0 0.025168226097222031 0.056302317478691438 0 0.042967510365249442 0.046685019141878621 0 0.042967510365249442 0.046685019141878621 0 0.058285697088388953 0.038389290789609003 0 0.045418933505764897 0.02909652209764697 0 0.042967510365249442 0.046685019141878621 0 0.058285697088388953 0.038389290789609003 0 0.052292668574979259 0.054763314216980663 0 0.058285697088388953 0.038389290789609003 0 0.052292668574979259 0.054763314216980663 0 0.067560913618665064 0.048720417756598008 0 0.052292668574979259 0.054763314216980663 0 0.067560913618665064 0.048720417756598008 0 0.061957687887457598 0.063581769796501111 0 0.052292668574979259 0.054763314216980663 0 0.050344612439955583 0.067572549205354521 0 0.061957687887457598 0.063581769796501111 0 0.052292668574979259 0.054763314216980663 0 0.050344612439955583 0.067572549205354521 0 0.042813981126508159 0.063123328410760737 0 0.036691164956592158 0.0020929491879979321 0 0.036022349708605302 0.01807317292724122 0 0.04924372524146034 0.0078888802168881542 0 0.036022349708605302 0.01807317292724122 0 0.045418933505764897 0.02909652209764697 0 0.04924372524146034 0.0078888802168881542 0 0.02666000379675372 0.036947277719941107 0 0.036022349708605302 0.01807317292724122 0 0.045418933505764897 0.02909652209764697 0 0.058285697088388953 0.038389290789609003 0 0.045418933505764897 0.02909652209764697 0 0.064862141988251229 0.017347034663206459 0 0.045418933505764897 0.02909652209764697 0 0.04924372524146034 0.0078888802168881542 0 0.064862141988251229 0.017347034663206459 0 0.04924372524146034 0.0078888802168881542 0 0.064862141988251229 0.017347034663206459 0 0.064486286323592698 -0.0091377794792813893 0 0.064862141988251229 0.017347034663206459 0 0.084650064378087003 -0.0066406269762908504 0 0.064486286323592698 -0.0091377794792813893 0 0.091257223091943507 0.016363685049326941 0 0.064862141988251229 0.017347034663206459 0 0.084650064378087003 -0.0066406269762908504 0 0.091257223091943507 0.016363685049326941 0 0.084650064378087003 -0.0066406269762908504 0 0.091257223091943507 0.016363685049326941 0 0.078168459171290117 0.032088035250897887 0 0.096468659693143985 0.034508476005311067 0 0.091257223091943507 0.016363685049326941 0 0.064862141988251229 0.017347034663206459 0 0.078168459171290117 0.032088035250897887 0 0.091257223091943507 0.016363685049326941 0 0.064862141988251229 0.017347034663206459 0 0.058285697088388953 0.038389290789609003 0 0.064862141988251229 0.017347034663206459 0 0.078168459171290117 0.032088035250897887 0 0.067560913618665064 0.048720417756598008 0 0.084202221983972994 0.048184961432974037 0 0.078168459171290117 0.032088035250897887 0 0.058285697088388953 0.038389290789609003 0 0.067560913618665064 0.048720417756598008 0 0.078168459171290117 0.032088035250897887 0 0.067560913618665064 0.048720417756598008 0 0.073200292649212337 0.061122618769943571 0 0.084202221983972994 0.048184961432974037 0 0.067560913618665064 0.048720417756598008 0 0.073200292649212337 0.061122618769943571 0 0.061957687887457598 0.063581769796501111 0 0.10168009629434881 0.052653266961294028 0 0.085614092795448488 0.062885248698366744 0 0.084202221983972994 0.048184961432974037 0 0.10168009629434881 0.052653266961294028 0 0.085614092795448488 0.062885248698366744 0 0.073200292649212337 0.061122618769943571 0 0.084202221983972994 0.048184961432974037 0 0.085614092795448488 0.062885248698366744 0 0.084202221983972994 0.048184961432974037 0 0.078168459171290117 0.032088035250897887 0 0.096468659693143985 0.034508476005311067 0 0.096468659693143985 0.034508476005311067 0 0.10168009629434881 0.052653266961294028 0 0.1181283088798579 0.042177867102583082 0 0.084202221983972994 0.048184961432974037 0 0.096468659693143985 0.034508476005311067 0 0.10168009629434881 0.052653266961294028 0 0.096468659693143985 0.034508476005311067 0 0.1181283088798579 0.042177867102583082 0 0.11046984413571879 0.029386718439524218 0 0.096468659693143985 0.034508476005311067 0 0.10168009629434881 0.052653266961294028 0 0.10168009629434881 0.052653266961294028 0 0.11764259782775401 0.057799704685429582 0 0.1068043987907363 0.070494680895155384 0 0.10168009629434881 0.052653266961294028 0 0.1068043987907363 0.070494680895155384 0 0.10168009629434881 0.052653266961294028 0 0.096230974346088322 0.067141272311567204 0 0.085614092795448488 0.062885248698366744 0 0.11764259782775401 0.057799704685429582 0 0.1181283088798579 0.042177867102583082 0 0.13764439127720429 0.053397031217183852 0 0.10168009629434881 0.052653266961294028 0 0.11764259782775401 0.057799704685429582 0 0.1181283088798579 0.042177867102583082 0 0.10168009629434881 0.052653266961294028 0 0.1181283088798579 0.042177867102583082 0 0.1181283088798579 0.042177867102583082 0 0.11046984413571879 0.029386718439524218 0 0.13457652146536711 0.031702467243872413 0 0.11046984413571879 0.029386718439524218 0 0.1157661009645744 0.0154506059988005 0 0.13457652146536711 0.031702467243872413 0 0.1157661009645744 0.0154506059988005 0 0.1061001943303819 -0.0038864985403933238 0 0.12880624959034009 -0.002636456239975347 0 0.091257223091943507 0.016363685049326941 0 0.084650064378087003 -0.0066406269762908504 0 0.1061001943303819 -0.0038864985403933238 0 0.091257223091943507 0.016363685049326941 0 0.1157661009645744 0.0154506059988005 0 0.1061001943303819 -0.0038864985403933238 0 0.091257223091943507 0.016363685049326941 0 0.096468659693143985 0.034508476005311067 0 0.11046984413571879 0.029386718439524218 0 0.091257223091943507 0.016363685049326941 0 0.1157661009645744 0.0154506059988005 0 0.091257223091943507 0.016363685049326941 0 0.096468659693143985 0.034508476005311067 0 0.091257223091943507 0.016363685049326941 0 0.11046984413571879 0.029386718439524218 0 0.1157661009645744 0.0154506059988005 0 0.10037315141162161 0.096876933021246253 0 0.096903680176538831 0.11023875871203399 0 0.11847665839745899 0.111134283130551 0 0.10037315141162161 0.096876933021246253 0 0.096903680176538831 0.11023875871203399 0 0.088449424849558811 0.099347256066212281 0 0.096903680176538831 0.11023875871203399 0 0.088772024155295212 0.1218924152958035 0 0.1065249974174754 0.1251997292665139 0 0.096903680176538831 0.11023875871203399 0 0.11847665839745899 0.111134283130551 0 0.1065249974174754 0.1251997292665139 0 0.11847665839745899 0.111134283130551 0 0.1250246155077944 0.13393247143208531 0 0.11847665839745899 0.111134283130551 0 0.1065249974174754 0.1251997292665139 0 0.1250246155077944 0.13393247143208531 0 0.11847665839745899 0.111134283130551 0 0.1119287012871229 0.088336094829017081 0 0.1291881647559921 0.088801072322534064 0 0.10037315141162161 0.096876933021246253 0 0.11847665839745899 0.111134283130551 0 0.1119287012871229 0.088336094829017081 0 0.11847665839745899 0.111134283130551 0 0.1119287012871229 0.088336094829017081 0 0.1119287012871229 0.088336094829017081 0 0.1291881647559921 0.088801072322534064 0 0.1119287012871229 0.088336094829017081 0 0.1239557938966226 0.070275677250931534 0 0.1291881647559921 0.088801072322534064 0 0.11764259782775401 0.057799704685429582 0 0.1239557938966226 0.070275677250931534 0 0.1068043987907363 0.070494680895155384 0 0.1119287012871229 0.088336094829017081 0 0.1239557938966226 0.070275677250931534 0 0.1068043987907363 0.070494680895155384 0 0.10168009629434881 0.052653266961294028 0 0.1068043987907363 0.070494680895155384 0 0.096230974346088322 0.067141272311567204 0 0.1068043987907363 0.070494680895155384 0 0.098676507300214475 0.077867682356330375 0 0.096230974346088322 0.067141272311567204 0 0.098676507300214475 0.077867682356330375 0 0.096230974346088322 0.067141272311567204 0 0.089506704873202295 0.075939158671213994 0 0.1119287012871229 0.088336094829017081 0 0.088991073668133455 0.087718145110208118 0 0.1119287012871229 0.088336094829017081 0 0.1068043987907363 0.070494680895155384 0 0.1119287012871229 0.088336094829017081 0 0.1068043987907363 0.070494680895155384 0 0.098676507300214475 0.077867682356330375 0 0.1119287012871229 0.088336094829017081 0 0.098676507300214475 0.077867682356330375 0 0.088991073668133455 0.087718145110208118 0 0.10037315141162161 0.096876933021246253 0 0.1119287012871229 0.088336094829017081 0 0.088991073668133455 0.087718145110208118 0 0.098676507300214475 0.077867682356330375 0 0.088991073668133455 0.087718145110208118 0 0.089506704873202295 0.075939158671213994 0 0.088991073668133455 0.087718145110208118 0 0.089506704873202295 0.075939158671213994 0 0.076060344542751915 0.081789317006642256 0 0.089506704873202295 0.075939158671213994 0 0.085614092795448488 0.062885248698366744 0 0.069548089296548377 0.07311723043543969 0 0.096230974346088322 0.067141272311567204 0 0.089506704873202295 0.075939158671213994 0 0.085614092795448488 0.062885248698366744 0 0.073200292649212337 0.061122618769943571 0 0.085614092795448488 0.062885248698366744 0 0.069548089296548377 0.07311723043543969 0 0.089506704873202295 0.075939158671213994 0 0.069548089296548377 0.07311723043543969 0 0.059690153580527663 0.076399768853750855 0 0.089506704873202295 0.075939158671213994 0 0.076060344542751915 0.081789317006642256 0 0.059690153580527663 0.076399768853750855 0 0.085614092795448488 0.062885248698366744 0 0.069548089296548377 0.07311723043543969 0 0.089506704873202295 0.075939158671213994 0 0.059690153580527663 0.076399768853750855 0 0.069548089296548377 0.07311723043543969 0 0.061957687887457598 0.063581769796501111 0 0.059690153580527663 0.076399768853750855 0 0.073200292649212337 0.061122618769943571 0 0.069548089296548377 0.07311723043543969 0 0.061957687887457598 0.063581769796501111 0 0.088991073668133455 0.087718145110208118 0 0.076060344542751915 0.081789317006642256 0 0.066053446049144288 0.087100195391396115 0 0.088991073668133455 0.087718145110208118 0 0.066053446049144288 0.087100195391396115 0 0.088991073668133455 0.087718145110208118 0 0.066053446049144288 0.087100195391396115 0 0.077678807250775195 0.096318556929654631 0 0.076060344542751915 0.081789317006642256 0 0.066053446049144288 0.087100195391396115 0 0.059690153580527663 0.076399768853750855 0 0.066053446049144288 0.087100195391396115 0 0.067002167284905115 0.099420321187282196 0 0.077678807250775195 0.096318556929654631 0 0.066053446049144288 0.087100195391396115 0 0.067002167284905115 0.099420321187282196 0 0.055113703439656957 0.09829669766722024 0 0.067002167284905115 0.099420321187282196 0 0.078901199515871878 0.1081651100457916 0 0.063470626014979409 0.11004880281473441 0 0.067002167284905115 0.099420321187282196 0 0.077678807250775195 0.096318556929654631 0 0.078901199515871878 0.1081651100457916 0 0.088991073668133455 0.087718145110208118 0 0.077678807250775195 0.096318556929654631 0 0.088449424849558811 0.099347256066212281 0 0.077678807250775195 0.096318556929654631 0 0.078901199515871878 0.1081651100457916 0 0.088449424849558811 0.099347256066212281 0 0.096903680176538831 0.11023875871203399 0 0.078901199515871878 0.1081651100457916 0 0.088449424849558811 0.099347256066212281 0 0.10037315141162161 0.096876933021246253 0 0.088991073668133455 0.087718145110208118 0 0.088449424849558811 0.099347256066212281 0 0.096903680176538831 0.11023875871203399 0 0.078901199515871878 0.1081651100457916 0 0.088772024155295212 0.1218924152958035 0 0.078901199515871878 0.1081651100457916 0 0.088772024155295212 0.1218924152958035 0 0.069995200013773823 0.12285290009470259 0 0.078901199515871878 0.1081651100457916 0 0.063470626014979409 0.11004880281473441 0 0.069995200013773823 0.12285290009470259 0 0.063470626014979409 0.11004880281473441 0 0.069995200013773823 0.12285290009470259 0 0.053223800682382097 0.118001128399432 0 0.069995200013773823 0.12285290009470259 0 0.053223800682382097 0.118001128399432 0 0.061766546672597261 0.13399991016542109 0 0.063470626014979409 0.11004880281473441 0 0.053223800682382097 0.118001128399432 0 0.048030175602690572 0.1073184337497306 0 0.067002167284905115 0.099420321187282196 0 0.063470626014979409 0.11004880281473441 0 0.055113703439656957 0.09829669766722024 0 0.063470626014979409 0.11004880281473441 0 0.055113703439656957 0.09829669766722024 0 0.048030175602690572 0.1073184337497306 0 0.055113703439656957 0.09829669766722024 0 0.048030175602690572 0.1073184337497306 0 0.041718799733666503 0.099663007665812819 0 0.048030175602690572 0.1073184337497306 0 0.041718799733666503 0.099663007665812819 0 0.037264231603349809 0.1122735053464631 0 0.055113703439656957 0.09829669766722024 0 0.041718799733666503 0.099663007665812819 0 0.043115818430155127 0.086482245672584113 0 0.041718799733666503 0.099663007665812819 0 0.03160954731108348 0.095119803806720721 0 0.033148563504080818 0.1029529582984085 0 0.041718799733666503 0.099663007665812819 0 0.03160954731108348 0.095119803806720721 0 0.043115818430155127 0.086482245672584113 0 0.041718799733666503 0.099663007665812819 0 0.033148563504080818 0.1029529582984085 0 0.037264231603349809 0.1122735053464631 0 0.053223800682382097 0.118001128399432 0 0.037264231603349809 0.1122735053464631 0 0.040059063205919607 0.1242342012468398 0 0.053223800682382097 0.118001128399432 0 0.048030175602690572 0.1073184337497306 0 0.037264231603349809 0.1122735053464631 0 0.037264231603349809 0.1122735053464631 0 0.040059063205919607 0.1242342012468398 0 0.02515208414979022 0.1291589033542071 0 0.050344612439955583 0.067572549205354521 0 0.061957687887457598 0.063581769796501111 0 0.059690153580527663 0.076399768853750855 0 0.066053446049144288 0.087100195391396115 0 0.055113703439656957 0.09829669766722024 0 0.043115818430155127 0.086482245672584113 0 0.066053446049144288 0.087100195391396115 0 0.043115818430155127 0.086482245672584113 0 0.066053446049144288 0.087100195391396115 0 0.059690153580527663 0.076399768853750855 0 0.043115818430155127 0.086482245672584113 0 0.059690153580527663 0.076399768853750855 0 0.043115818430155127 0.086482245672584113 0 0.029873602287853029 0.076860379036287729 0 0.03160954731108348 0.095119803806720721 0 0.043115818430155127 0.086482245672584113 0 0.019572958672446839 0.085942429724559885 0 0.043115818430155127 0.086482245672584113 0 0.019572958672446839 0.085942429724559885 0 0.050344612439955583 0.067572549205354521 0 0.042813981126508159 0.063123328410760737 0 0.029873602287853029 0.076860379036287729 0 0.059690153580527663 0.076399768853750855 0 0.029873602287853029 0.076860379036287729 0 0.050344612439955583 0.067572549205354521 0 0.059690153580527663 0.076399768853750855 0 0.029873602287853029 0.076860379036287729 0 0.03294770892400354 0.063293204482949783 0 0.042813981126508159 0.063123328410760737 0 0.029873602287853029 0.076860379036287729 0 0.025168226097222031 0.056302317478691438 0 0.025291971885283461 0.067296507783563025 0 0.01484778668492596 0.06948200269264046 0 0.03294770892400354 0.063293204482949783 0 0.025291971885283461 0.067296507783563025 0 0.029873602287853029 0.076860379036287729 0 0.025291971885283461 0.067296507783563025 0 0.029873602287853029 0.076860379036287729 0 0.01484778668492596 0.06948200269264046 0 0.029873602287853029 0.076860379036287729 0 0.018851266586656749 0.080352129395067445 0 5.7050995178676992e-05 0.077320989218824826 0 0.043115818430155127 0.086482245672584113 0 0.029873602287853029 0.076860379036287729 0 0.019572958672446839 0.085942429724559885 0 0.029873602287853029 0.076860379036287729 0 0.018851266586656749 0.080352129395067445 0 0.019572958672446839 0.085942429724559885 0 0.018851266586656749 0.080352129395067445 0 0.019572958672446839 0.085942429724559885 0 0.018851266586656749 0.080352129395067445 0 0.019572958672446839 0.085942429724559885 0 0.0151343459022637 0.092470457553115976 0 0.018851266586656749 0.080352129395067445 0 0.0088633774194291776 0.085334067326821 0 5.7050995178676992e-05 0.077320989218824826 0 0.018851266586656749 0.080352129395067445 0 0.0151343459022637 0.092470457553115976 0 0.0088633774194291776 0.085334067326821 0 0.0151343459022637 0.092470457553115976 0 0.0088633774194291776 0.085334067326821 0 0.010821064234745411 0.099440117115938198 0 -0.001229897330041686 0.084627967055971795 0 0.0088633774194291776 0.085334067326821 0 0.010821064234745411 0.099440117115938198 0 -0.001229897330041686 0.084627967055971795 0 0.010821064234745411 0.099440117115938198 0 -0.001229897330041686 0.084627967055971795 0 0.0088633774194291776 0.085334067326821 0 5.7050995178676992e-05 0.077320989218824826 0 0.029873602287853029 0.076860379036287729 0 5.7050995178676992e-05 0.077320989218824826 0 0.0043237534210089426 0.053095696367321803 0 5.7050995178676992e-05 0.077320989218824826 0 0.029873602287853029 0.076860379036287729 0 5.7050995178676992e-05 0.077320989218824826 0 0.01484778668492596 0.06948200269264046 0 0.0043237534210089426 0.053095696367321803 0 5.7050995178676992e-05 0.077320989218824826 0 0.01484778668492596 0.06948200269264046 0 0.037264231603349809 0.1122735053464631 0 0.023221849063740019 0.11420710597412211 0 0.02515208414979022 0.1291589033542071 0 0.023221849063740019 0.11420710597412211 0 0.010821064234745411 0.099440117115938198 0 0.01343999936672954 0.1156097170219737 0 0.01343999936672954 0.1156097170219737 0 0.0089828363448438732 0.12465804266426241 0 0.02515208414979022 0.1291589033542071 0 0.023221849063740019 0.11420710597412211 0 0.022001675368223481 0.1047555163746373 0 0.023221849063740019 0.11420710597412211 0 0.01343999936672954 0.1156097170219737 0 0.02515208414979022 0.1291589033542071 0 0.023221849063740019 0.11420710597412211 0 0.02515208414979022 0.1291589033542071 0 0.037264231603349809 0.1122735053464631 0 0.023221849063740019 0.11420710597412211 0 0.022001675368223481 0.1047555163746373 0 0.03160954731108348 0.095119803806720721 0 0.019572958672446839 0.085942429724559885 0 0.022001675368223481 0.1047555163746373 0 0.019572958672446839 0.085942429724559885 0 0.022001675368223481 0.1047555163746373 0 0.033148563504080818 0.1029529582984085 0 0.037264231603349809 0.1122735053464631 0 0.022001675368223481 0.1047555163746373 0 0.019572958672446839 0.085942429724559885 0 0.0151343459022637 0.092470457553115976 0 0.022001675368223481 0.1047555163746373 0 0.03160954731108348 0.095119803806720721 0 0.033148563504080818 0.1029529582984085 0 0.022001675368223481 0.1047555163746373 0 0.0151343459022637 0.092470457553115976 0 0.022001675368223481 0.1047555163746373 0 0.010821064234745411 0.099440117115938198 0 0.023221849063740019 0.11420710597412211 0 0.022001675368223481 0.1047555163746373 0 0.010821064234745411 0.099440117115938198 0 0.023221849063740019 0.11420710597412211 0 0.010821064234745411 0.099440117115938198 0 -0.001229897330041686 0.084627967055971795 0 0.010821064234745411 0.099440117115938198 0 0.002892838501618204 0.100438587452972 0 0.010821064234745411 0.099440117115938198 0 0.0049179822891485493 0.1113457965673794 0 0.01343999936672954 0.1156097170219737 0 -0.0042395615555078561 0.1017161044440508 0 0.002892838501618204 0.100438587452972 0 0.0049179822891485493 0.1113457965673794 0 0.010821064234745411 0.099440117115938198 0 0.002892838501618204 0.100438587452972 0 0.0049179822891485493 0.1113457965673794 0 -0.0072492257809743457 0.1188042418321298 0 0.0049179822891485493 0.1113457965673794 0 0.0089828363448438732 0.12465804266426241 0 0.0049179822891485493 0.1113457965673794 0 0.01343999936672954 0.1156097170219737 0 0.0089828363448438732 0.12465804266426241 0 0.0089828363448438732 0.12465804266426241 0 0.0005792269352365918 0.13251240775484061 0 0.01408871319296626 0.14107439795852919 0 -0.0072492257809743457 0.1188042418321298 0 0.0089828363448438732 0.12465804266426241 0 0.0005792269352365918 0.13251240775484061 0 0.0005792269352365918 0.13251240775484061 0 0.01408871319296626 0.14107439795852919 0 0.0018966282430957181 0.14511084914645481 0 0.0089828363448438732 0.12465804266426241 0 0.02515208414979022 0.1291589033542071 0 0.01408871319296626 0.14107439795852919 0 0.02515208414979022 0.1291589033542071 0 0.028302492931356941 0.1535622903337768 0 0.01408871319296626 0.14107439795852919 0 0.02515208414979022 0.1291589033542071 0 0.028302492931356941 0.1535622903337768 0 0.028302492931356941 0.1535622903337768 0 0.01408871319296626 0.14107439795852919 0 0.011369425726991979 0.15843155665495229 0 -0.0085245964043452402 0.15734267806885821 0 0.0018966282430957181 0.14511084914645481 0 0.011369425726991979 0.15843155665495229 0 0.01408871319296626 0.14107439795852919 0 0.0018966282430957181 0.14511084914645481 0 0.011369425726991979 0.15843155665495229 0 0.011369425726991979 0.15843155665495229 0 0.0034908987170386191 0.1731181711682746 0 0.01628152161881484 0.17509299733729999 0 -0.0085245964043452402 0.15734267806885821 0 0.011369425726991979 0.15843155665495229 0 0.0034908987170386191 0.1731181711682746 0 0.0034908987170386191 0.1731181711682746 0 0.010449471263747271 0.1829903610342144 0 0.0022357670800216469 0.18808268537775791 0 0.0034908987170386191 0.1731181711682746 0 0.010449471263747271 0.1829903610342144 0 0.01628152161881484 0.17509299733729999 0 0.010449471263747271 0.1829903610342144 0 0.0022357670800216469 0.18808268537775791 0 0.01674060377084256 0.19052712535874741 0 0.010449471263747271 0.1829903610342144 0 0.01628152161881484 0.17509299733729999 0 0.01674060377084256 0.19052712535874741 0 0.031452901712924967 0.17796567731334639 0 0.01674060377084256 0.19052712535874741 0 0.032760348068024921 0.18809328981406359 0 0.01628152161881484 0.17509299733729999 0 0.031452901712924967 0.17796567731334639 0 0.01674060377084256 0.19052712535874741 0 0.031452901712924967 0.17796567731334639 0 0.01674060377084256 0.19052712535874741 0 0.028302492931356941 0.1535622903337768 0 0.011369425726991979 0.15843155665495229 0 0.01628152161881484 0.17509299733729999 0 0.028302492931356941 0.1535622903337768 0 0.031452901712924967 0.17796567731334639 0 0.028302492931356941 0.1535622903337768 0 0.01628152161881484 0.17509299733729999 0 0.031452901712924967 0.17796567731334639 0 0.031452901712924967 0.17796567731334639 0 0.047476701088026291 0.16428446149427109 0 0.028302492931356941 0.1535622903337768 0 0.031452901712924967 0.17796567731334639 0 0.047476701088026291 0.16428446149427109 0 0.028302492931356941 0.1535622903337768 0 0.047476701088026291 0.16428446149427109 0 0.044953244478029952 0.151300957627404 0 0.031452901712924967 0.17796567731334639 0 0.042834967360269427 0.18164448465528479 0 0.047476701088026291 0.16428446149427109 0 0.031452901712924967 0.17796567731334639 0 0.042834967360269427 0.18164448465528479 0 0.032760348068024921 0.18809328981406359 0 0.031452901712924967 0.17796567731334639 0 0.032760348068024921 0.18809328981406359 0 0.055741423627289198 0.18408016227775109 0 0.047476701088026291 0.16428446149427109 0 0.073852174888560954 0.17177518746214629 0 0.042834967360269427 0.18164448465528479 0 0.055741423627289198 0.18408016227775109 0 0.047476701088026291 0.16428446149427109 0 0.042834967360269427 0.18164448465528479 0 0.055741423627289198 0.18408016227775109 0 0.044618192160597488 0.1938288333342216 0 0.047476701088026291 0.16428446149427109 0 0.063500500463126136 0.15060324567519379 0 0.047476701088026291 0.16428446149427109 0 0.063500500463126136 0.15060324567519379 0 0.073852174888560954 0.17177518746214629 0 0.061766546672597261 0.13399991016542109 0 0.044596136388156321 0.1375032678872572 0 0.063500500463126136 0.15060324567519379 0 0.044596136388156321 0.1375032678872572 0 0.044953244478029952 0.151300957627404 0 0.063500500463126136 0.15060324567519379 0 0.047476701088026291 0.16428446149427109 0 0.044953244478029952 0.151300957627404 0 0.063500500463126136 0.15060324567519379 0 0.053223800682382097 0.118001128399432 0 0.061766546672597261 0.13399991016542109 0 0.044596136388156321 0.1375032678872572 0 0.040059063205919607 0.1242342012468398 0 0.02515208414979022 0.1291589033542071 0 0.044596136388156321 0.1375032678872572 0 0.02515208414979022 0.1291589033542071 0 0.028302492931356941 0.1535622903337768 0 0.044596136388156321 0.1375032678872572 0 0.053223800682382097 0.118001128399432 0 0.040059063205919607 0.1242342012468398 0 0.044596136388156321 0.1375032678872572 0 0.028302492931356941 0.1535622903337768 0 0.044596136388156321 0.1375032678872572 0 0.044953244478029952 0.151300957627404 0 0.02982242795561595 0.24375396596102189 0 0.021529171890753311 0.23463043061066191 0 0.02029788507632263 0.2490981702940589 0 0.02982242795561595 0.24375396596102189 0 0.02029788507632263 0.2490981702940589 0 0.027722323234509759 0.25634646474611822 0 0.021529171890753311 0.23463043061066191 0 0.02029788507632263 0.2490981702940589 0 0.01430560558228155 0.2393686401929595 0 0.02029788507632263 0.2490981702940589 0 0.005185951941752991 0.24308569062598501 0 0.01430560558228155 0.2393686401929595 0 0.02029788507632263 0.2490981702940589 0 0.005185951941752991 0.24308569062598501 0 0.005185951941752991 0.24308569062598501 0 0.01430560558228155 0.2393686401929595 0 0.0094104846993746383 0.22819939754270049 0 0.0094104846993746383 0.22819939754270049 0 9.6939961395259299e-06 0.21847586000843319 0 0.01137288989570223 0.21066869045700901 0 0.0094104846993746383 0.22819939754270049 0 0.018345492354313979 0.219695178029539 0 0.01137288989570223 0.21066869045700901 0 0.021529171890753311 0.23463043061066191 0 0.01430560558228155 0.2393686401929595 0 0.0094104846993746383 0.22819939754270049 0 -0.0058590861671261249 0.23116944308810181 0 0.005185951941752991 0.24308569062598501 0 0.0094104846993746383 0.22819939754270049 0 -0.0058590861671261249 0.23116944308810181 0 0.0094104846993746383 0.22819939754270049 0 9.6939961395259299e-06 0.21847586000843319 0 0.02982242795561595 0.24375396596102189 0 0.021529171890753311 0.23463043061066191 0 0.03090499880953583 0.22305133589650619 0 0.021529171890753311 0.23463043061066191 0 0.0094104846993746383 0.22819939754270049 0 0.018345492354313979 0.219695178029539 0 0.021529171890753311 0.23463043061066191 0 0.018345492354313979 0.219695178029539 0 0.03090499880953583 0.22305133589650619 0 0.018345492354313979 0.219695178029539 0 0.01137288989570223 0.21066869045700901 0 0.0185099164762039 0.20192603564081749 0 0.03090499880953583 0.22305133589650619 0 0.0185099164762039 0.20192603564081749 0 0.035238701898113102 0.20490321630722891 0 0.03090499880953583 0.22305133589650619 0 0.0185099164762039 0.20192603564081749 0 0.018345492354313979 0.219695178029539 0 0.03090499880953583 0.22305133589650619 0 0.0185099164762039 0.20192603564081749 0 0.01137288989570223 0.21066869045700901 0 0.002028305828750911 0.20308857340413761 0 9.6939961395259299e-06 0.21847586000843319 0 0.01137288989570223 0.21066869045700901 0 0.002028305828750911 0.20308857340413761 0 0.01137288989570223 0.21066869045700901 0 0.01216292899287524 0.2015526062151774 0 0.002028305828750911 0.20308857340413761 0 0.01137288989570223 0.21066869045700901 0 0.01216292899287524 0.2015526062151774 0 0.0185099164762039 0.20192603564081749 0 0.01216292899287524 0.2015526062151774 0 0.002028305828750911 0.20308857340413761 0 0.01674060377084256 0.19052712535874741 0 0.002028305828750911 0.20308857340413761 0 0.01674060377084256 0.19052712535874741 0 0.002028305828750911 0.20308857340413761 0 0.0022357670800216469 0.18808268537775791 0 0.01674060377084256 0.19052712535874741 0 0.01674060377084256 0.19052712535874741 0 0.025612898497779091 0.19498675759463729 0 0.032760348068024921 0.18809328981406359 0 0.025612898497779091 0.19498675759463729 0 0.032760348068024921 0.18809328981406359 0 0.035238701898113102 0.20490321630722891 0 0.0185099164762039 0.20192603564081749 0 0.025612898497779091 0.19498675759463729 0 0.035238701898113102 0.20490321630722891 0 0.01674060377084256 0.19052712535874741 0 0.0185099164762039 0.20192603564081749 0 0.025612898497779091 0.19498675759463729 0 0.01216292899287524 0.2015526062151774 0 0.01674060377084256 0.19052712535874741 0 0.0185099164762039 0.20192603564081749 0 0.032760348068024921 0.18809328981406359 0 0.044618192160597488 0.1938288333342216 0 0.035238701898113102 0.20490321630722891 0 0.044618192160597488 0.1938288333342216 0 0.055851530876150718 0.20522234316813739 0 0.035238701898113102 0.20490321630722891 0 0.042834967360269427 0.18164448465528479 0 0.032760348068024921 0.18809328981406359 0 0.044618192160597488 0.1938288333342216 0 0.055741423627289198 0.18408016227775109 0 0.055851530876150718 0.20522234316813739 0 0.070005979014167358 0.18740319209366571 0 0.055741423627289198 0.18408016227775109 0 0.044618192160597488 0.1938288333342216 0 0.055851530876150718 0.20522234316813739 0 0.055851530876150718 0.20522234316813739 0 0.035238701898113102 0.20490321630722891 0 0.047050472852524949 0.2265074289187424 0 0.03090499880953583 0.22305133589650619 0 0.035238701898113102 0.20490321630722891 0 0.047050472852524949 0.2265074289187424 0 0.03090499880953583 0.22305133589650619 0 0.043300081142867777 0.24417663615219501 0 0.03090499880953583 0.22305133589650619 0 0.047050472852524949 0.2265074289187424 0 0.043300081142867777 0.24417663615219501 0 0.047050472852524949 0.2265074289187424 0 0.063182818261261764 0.243923724446931 0 0.062887572691196852 0.22513631309583729 0 0.055851530876150718 0.20522234316813739 0 0.047050472852524949 0.2265074289187424 0 0.062887572691196852 0.22513631309583729 0 0.047050472852524949 0.2265074289187424 0 0.043300081142867777 0.24417663615219501 0 0.063182818261261764 0.243923724446931 0 0.02982242795561595 0.24375396596102189 0 0.03090499880953583 0.22305133589650619 0 0.043300081142867777 0.24417663615219501 0 0.02982242795561595 0.24375396596102189 0 0.043300081142867777 0.24417663615219501 0 0.035814808694323512 0.25706731832956742 0 0.076225534266606096 0.2385315881307353 0 0.095983434050471592 0.24063061832718571 0 0.077802345948890711 0.25329666417118257 0 0.076225534266606096 0.2385315881307353 0 0.079594755078414542 0.22542654107794149 0 0.095983434050471592 0.24063061832718571 0 0.063182818261261764 0.243923724446931 0 0.076225534266606096 0.2385315881307353 0 0.062887572691196852 0.22513631309583729 0 0.063182818261261764 0.243923724446931 0 0.076225534266606096 0.2385315881307353 0 0.077802345948890711 0.25329666417118257 0 0.076225534266606096 0.2385315881307353 0 0.062887572691196852 0.22513631309583729 0 0.079594755078414542 0.22542654107794149 0 0.062887572691196852 0.22513631309583729 0 0.079594755078414542 0.22542654107794149 0 0.070663415394002019 0.21301399765911069 0 0.079594755078414542 0.22542654107794149 0 0.093697813425842408 0.22107927201922459 0 0.095983434050471592 0.24063061832718571 0 0.079594755078414542 0.22542654107794149 0 0.093697813425842408 0.22107927201922459 0 0.083245675482336731 0.2130617549913158 0 0.083245675482336731 0.2130617549913158 0 0.078036260475474142 0.19962601332810109 0 0.094236133037950545 0.20616295087220091 0 0.093697813425842408 0.22107927201922459 0 0.083245675482336731 0.2130617549913158 0 0.094236133037950545 0.20616295087220091 0 0.079594755078414542 0.22542654107794149 0 0.083245675482336731 0.2130617549913158 0 0.070663415394002019 0.21301399765911069 0 0.055851530876150718 0.20522234316813739 0 0.062887572691196852 0.22513631309583729 0 0.070663415394002019 0.21301399765911069 0 0.055851530876150718 0.20522234316813739 0 0.070663415394002019 0.21301399765911069 0 0.078036260475474142 0.19962601332810109 0 0.083245675482336731 0.2130617549913158 0 0.070663415394002019 0.21301399765911069 0 0.078036260475474142 0.19962601332810109 0 0.055851530876150718 0.20522234316813739 0 0.078036260475474142 0.19962601332810109 0 0.070005979014167358 0.18740319209366571 0 0.078036260475474142 0.19962601332810109 0 0.070005979014167358 0.18740319209366571 0 0.091227692054173706 0.18712456427383131 0 0.078036260475474142 0.19962601332810109 0 0.094236133037950545 0.20616295087220091 0 0.091227692054173706 0.18712456427383131 0 0.1098110754046687 0.20019422017232541 0 0.091227692054173706 0.18712456427383131 0 0.1157135009182533 0.17773658609754611 0 0.1098110754046687 0.20019422017232541 0 0.094236133037950545 0.20616295087220091 0 0.091227692054173706 0.18712456427383131 0 0.1098110754046687 0.20019422017232541 0 0.1157135009182533 0.17773658609754611 0 0.12650810982439181 0.19678478993021509 0 0.1098110754046687 0.20019422017232541 0 0.1183728122898574 0.21249796387072081 0 0.1043410190047914 0.2132222461600056 0 0.1098110754046687 0.20019422017232541 0 0.1183728122898574 0.21249796387072081 0 0.12650810982439181 0.19678478993021509 0 0.1183728122898574 0.21249796387072081 0 0.12250174625748809 0.22247909103008731 0 0.1322233898567369 0.21392810469318541 0 0.1183728122898574 0.21249796387072081 0 0.1043410190047914 0.2132222461600056 0 0.1055872608656377 0.2261768238655564 0 0.1098110754046687 0.20019422017232541 0 0.1043410190047914 0.2132222461600056 0 0.094236133037950545 0.20616295087220091 0 0.093697813425842408 0.22107927201922459 0 0.1043410190047914 0.2132222461600056 0 0.094236133037950545 0.20616295087220091 0 0.093697813425842408 0.22107927201922459 0 0.1055872608656377 0.2261768238655564 0 0.095983434050471592 0.24063061832718571 0 0.093697813425842408 0.22107927201922459 0 0.1043410190047914 0.2132222461600056 0 0.1055872608656377 0.2261768238655564 0 0.1055872608656377 0.2261768238655564 0 0.10987120286508489 0.23569334145310231 0 0.095983434050471592 0.24063061832718571 0 0.1055872608656377 0.2261768238655564 0 0.12250174625748809 0.22247909103008731 0 0.1198815366472661 0.23320709098561709 0 0.1183728122898574 0.21249796387072081 0 0.1055872608656377 0.2261768238655564 0 0.12250174625748809 0.22247909103008731 0 0.1055872608656377 0.2261768238655564 0 0.1198815366472661 0.23320709098561709 0 0.10987120286508489 0.23569334145310231 0 0.1198815366472661 0.23320709098561709 0 0.10987120286508489 0.23569334145310231 0 0.11403412967974499 0.2452634149316332 0 0.1198815366472661 0.23320709098561709 0 0.1242458873878312 0.24444454293608919 0 0.11403412967974499 0.2452634149316332 0 0.1242458873878312 0.24444454293608919 0 0.11403412967974499 0.2452634149316332 0 0.12212097558245399 0.25442275067918219 0 0.10987120286508489 0.23569334145310231 0 0.11403412967974499 0.2452634149316332 0 0.095983434050471592 0.24063061832718571 0 0.11403412967974499 0.2452634149316332 0 0.095983434050471592 0.24063061832718571 0 0.1098905271920545 0.25730276495954979 0 0.083098340212458099 0.1544950254837113 0 0.079524299838225995 0.13692202985611659 0 0.1003447777361829 0.14348323990169279 0 0.083098340212458099 0.1544950254837113 0 0.097268055300248846 0.16773480144218761 0 0.1003447777361829 0.14348323990169279 0 0.088772024155295212 0.1218924152958035 0 0.069995200013773823 0.12285290009470259 0 0.079524299838225995 0.13692202985611659 0 0.088772024155295212 0.1218924152958035 0 0.079524299838225995 0.13692202985611659 0 0.1003447777361829 0.14348323990169279 0 0.061766546672597261 0.13399991016542109 0 0.079524299838225995 0.13692202985611659 0 0.063500500463126136 0.15060324567519379 0 0.069995200013773823 0.12285290009470259 0 0.061766546672597261 0.13399991016542109 0 0.079524299838225995 0.13692202985611659 0 0.079524299838225995 0.13692202985611659 0 0.063500500463126136 0.15060324567519379 0 0.083098340212458099 0.1544950254837113 0 0.079524299838225995 0.13692202985611659 0 0.063500500463126136 0.15060324567519379 0 0.083098340212458099 0.1544950254837113 0 0.063500500463126136 0.15060324567519379 0 0.073852174888560954 0.17177518746214629 0 0.055741423627289198 0.18408016227775109 0 0.073852174888560954 0.17177518746214629 0 0.070005979014167358 0.18740319209366571 0 0.073852174888560954 0.17177518746214629 0 0.070005979014167358 0.18740319209366571 0 0.091227692054173706 0.18712456427383131 0 0.073852174888560954 0.17177518746214629 0 0.091227692054173706 0.18712456427383131 0 0.097268055300248846 0.16773480144218761 0 0.083098340212458099 0.1544950254837113 0 0.073852174888560954 0.17177518746214629 0 0.097268055300248846 0.16773480144218761 0 0.097268055300248846 0.16773480144218761 0 0.1157135009182533 0.17773658609754611 0 0.1139712747096563 0.1566904364208116 0 0.091227692054173706 0.18712456427383131 0 0.097268055300248846 0.16773480144218761 0 0.1157135009182533 0.17773658609754611 0 0.1157135009182533 0.17773658609754611 0 0.1139712747096563 0.1566904364208116 0 0.13157257261812971 0.15673065973361969 0 0.1139712747096563 0.1566904364208116 0 0.1003447777361829 0.14348323990169279 0 0.1250246155077944 0.13393247143208531 0 0.1139712747096563 0.1566904364208116 0 0.1250246155077944 0.13393247143208531 0 0.13157257261812971 0.15673065973361969 0 0.097268055300248846 0.16773480144218761 0 0.1139712747096563 0.1566904364208116 0 0.1003447777361829 0.14348323990169279 0 0.088772024155295212 0.1218924152958035 0 0.1003447777361829 0.14348323990169279 0 0.1065249974174754 0.1251997292665139 0 0.1003447777361829 0.14348323990169279 0 0.1065249974174754 0.1251997292665139 0 0.1250246155077944 0.13393247143208531 0 0.1250246155077944 0.13393247143208531 0 0.1501065500324899 0.14034652757836191 0 0.13314177713784481 0.1200686308522427 0 0.1501065500324899 0.14034652757836191 0 0.13314177713784481 0.1200686308522427 0 0.14861328320115499 0.1177427360774262 0 0.1501065500324899 0.14034652757836191 0 0.14861328320115499 0.1177427360774262 0 0.1648290935124655 0.1186307311173893 0 0.1501065500324899 0.14034652757836191 0 0.13157257261812971 0.15673065973361969 0 0.14638914578905421 0.1637333682407339 0 0.1250246155077944 0.13393247143208531 0 0.1501065500324899 0.14034652757836191 0 0.13157257261812971 0.15673065973361969 0 0.1250246155077944 0.13393247143208531 0 0.13157257261812971 0.15673065973361969 0 0.13157257261812971 0.15673065973361969 0 0.13567366737886979 0.17582106412438281 0 0.14638914578905421 0.1637333682407339 0 0.1157135009182533 0.17773658609754611 0 0.13157257261812971 0.15673065973361969 0 0.13567366737886979 0.17582106412438281 0 0.1157135009182533 0.17773658609754611 0 0.13567366737886979 0.17582106412438281 0 0.12650810982439181 0.19678478993021509 0 0.13567366737886979 0.17582106412438281 0 0.14638914578905421 0.1637333682407339 0 0.15644380807842431 0.1817377897409683 0 0.13567366737886979 0.17582106412438281 0 0.15644380807842431 0.1817377897409683 0 0.14725421309796491 0.20053080062313011 0 0.1501065500324899 0.14034652757836191 0 0.14638914578905421 0.1637333682407339 0 0.16469913547758541 0.1654648253351855 0 0.14638914578905421 0.1637333682407339 0 0.16469913547758541 0.1654648253351855 0 0.15644380807842431 0.1817377897409683 0 0.16469913547758541 0.1654648253351855 0 0.15644380807842431 0.1817377897409683 0 0.17452808696897121 0.18640394074725281 0 0.16469913547758541 0.1654648253351855 0 0.17452808696897121 0.18640394074725281 0 0.18774720787620289 0.1711946755705312 0 0.17452808696897121 0.18640394074725281 0 0.1896896979663982 0.19681875563305731 0 0.18774720787620289 0.1711946755705312 0 0.1749242402515562 0.14930597266514831 0 0.19239488694264009 0.14982418411593659 0 0.18774720787620289 0.1711946755705312 0 0.16469913547758541 0.1654648253351855 0 0.1749242402515562 0.14930597266514831 0 0.18774720787620289 0.1711946755705312 0 0.1749242402515562 0.14930597266514831 0 0.1743094423726988 0.1319745592618202 0 0.19239488694264009 0.14982418411593659 0 0.1743094423726988 0.1319745592618202 0 0.194395558493487 0.13307890533830169 0 0.1914667683276797 0.11710171356226221 0 0.1743094423726988 0.1319745592618202 0 0.194395558493487 0.13307890533830169 0 0.19239488694264009 0.14982418411593659 0 0.1501065500324899 0.14034652757836191 0 0.1743094423726988 0.1319745592618202 0 0.1648290935124655 0.1186307311173893 0 0.1501065500324899 0.14034652757836191 0 0.1749242402515562 0.14930597266514831 0 0.1743094423726988 0.1319745592618202 0 0.1501065500324899 0.14034652757836191 0 0.16469913547758541 0.1654648253351855 0 0.1749242402515562 0.14930597266514831 0 0.15540188400162469 0.2429649036995187 0 0.14628268489569229 0.2390985716863917 0 0.1458261318057136 0.25021520115658868 0 0.15540188400162469 0.2429649036995187 0 0.14628268489569229 0.2390985716863917 0 0.15016138863932091 0.23187264271775099 0 0.14628268489569229 0.2390985716863917 0 0.14080489863575121 0.2336139519213862 0 0.15016138863932091 0.23187264271775099 0 0.14628268489569229 0.2390985716863917 0 0.13942907880058461 0.24357578627548701 0 0.14080489863575121 0.2336139519213862 0 0.14628268489569229 0.2390985716863917 0 0.13942907880058461 0.24357578627548701 0 0.1458261318057136 0.25021520115658868 0 0.13942907880058461 0.24357578627548701 0 0.1314641838905844 0.23831152764817021 0 0.13372861113910661 0.2510179304358432 0 0.13942907880058461 0.24357578627548701 0 0.1458261318057136 0.25021520115658868 0 0.13372861113910661 0.2510179304358432 0 0.1242458873878312 0.24444454293608919 0 0.12212097558245399 0.25442275067918219 0 0.13372861113910661 0.2510179304358432 0 0.1242458873878312 0.24444454293608919 0 0.1314641838905844 0.23831152764817021 0 0.13372861113910661 0.2510179304358432 0 0.1198815366472661 0.23320709098561709 0 0.1242458873878312 0.24444454293608919 0 0.1314641838905844 0.23831152764817021 0 0.13942907880058461 0.24357578627548701 0 0.1314641838905844 0.23831152764817021 0 0.14080489863575121 0.2336139519213862 0 0.13289798071778111 0.22694093215640779 0 0.14470429463704931 0.22123955511187879 0 0.14080489863575121 0.2336139519213862 0 0.1314641838905844 0.23831152764817021 0 0.13289798071778111 0.22694093215640779 0 0.14080489863575121 0.2336139519213862 0 0.1198815366472661 0.23320709098561709 0 0.1314641838905844 0.23831152764817021 0 0.13289798071778111 0.22694093215640779 0 0.12250174625748809 0.22247909103008731 0 0.1198815366472661 0.23320709098561709 0 0.13289798071778111 0.22694093215640779 0 0.12250174625748809 0.22247909103008731 0 0.13289798071778111 0.22694093215640779 0 0.1322233898567369 0.21392810469318541 0 0.13289798071778111 0.22694093215640779 0 0.14470429463704931 0.22123955511187879 0 0.1322233898567369 0.21392810469318541 0 0.15540188400162469 0.2429649036995187 0 0.15016138863932091 0.23187264271775099 0 0.15883475881705991 0.2252405371218773 0 0.14470429463704931 0.22123955511187879 0 0.14080489863575121 0.2336139519213862 0 0.15016138863932091 0.23187264271775099 0 0.14470429463704931 0.22123955511187879 0 0.15016138863932091 0.23187264271775099 0 0.15883475881705991 0.2252405371218773 0 0.14470429463704931 0.22123955511187879 0 0.14725421309796491 0.20053080062313011 0 0.15883475881705991 0.2252405371218773 0 0.14470429463704931 0.22123955511187879 0 0.1322233898567369 0.21392810469318541 0 0.14725421309796491 0.20053080062313011 0 0.14725421309796491 0.20053080062313011 0 0.15883475881705991 0.2252405371218773 0 0.1322233898567369 0.21392810469318541 0 0.12650810982439181 0.19678478993021509 0 0.14725421309796491 0.20053080062313011 0 0.1183728122898574 0.21249796387072081 0 0.1322233898567369 0.21392810469318541 0 0.12650810982439181 0.19678478993021509 0 0.13567366737886979 0.17582106412438281 0 0.12650810982439181 0.19678478993021509 0 0.14725421309796491 0.20053080062313011 0 0.13567366737886979 0.17582106412438281 0 0.14725421309796491 0.20053080062313011 0 0.15644380807842431 0.1817377897409683 0 0.14725421309796491 0.20053080062313011 0 0.17038706880840879 0.20475783741617951 0 0.15644380807842431 0.1817377897409683 0 0.17452808696897121 0.18640394074725281 0 0.17038706880840879 0.20475783741617951 0 0.17452808696897121 0.18640394074725281 0 0.17038706880840879 0.20475783741617951 0 0.1896896979663982 0.19681875563305731 0 0.17038706880840879 0.20475783741617951 0 0.18711158831368269 0.22128924088617319 0 0.1896896979663982 0.19681875563305731 0 0.17038706880840879 0.20475783741617951 0 0.1717030837296695 0.21974925002414761 0 0.18711158831368269 0.22128924088617319 0 0.14725421309796491 0.20053080062313011 0 0.17038706880840879 0.20475783741617951 0 0.15883475881705991 0.2252405371218773 0 0.17038706880840879 0.20475783741617951 0 0.15883475881705991 0.2252405371218773 0 0.1717030837296695 0.21974925002414761 0 0.15540188400162469 0.2429649036995187 0 0.15883475881705991 0.2252405371218773 0 0.16185628423739931 0.23168765099473609 0 0.15883475881705991 0.2252405371218773 0 0.16185628423739931 0.23168765099473609 0 0.15883475881705991 0.2252405371218773 0 0.16185628423739931 0.23168765099473609 0 0.1717030837296695 0.21974925002414761 0 0.16185628423739931 0.23168765099473609 0 0.18711158831368269 0.22128924088617319 0 0.16185628423739931 0.23168765099473609 0 0.18711158831368269 0.22128924088617319 0 0.18020192862001849 0.2386083826115607 0 0.16185628423739931 0.23168765099473609 0 0.1717030837296695 0.21974925002414761 0 0.18711158831368269 0.22128924088617319 0 0.18020192862001849 0.2386083826115607 0 0.17041530453615489 0.24995027362062461 0 0.18639543198176509 0.25752953137691131 0 0.15540188400162469 0.2429649036995187 0 0.16185628423739931 0.23168765099473609 0 0.17041530453615489 0.24995027362062461 0 0.16185628423739931 0.23168765099473609 0 0.17041530453615489 0.24995027362062461 0 0.16185628423739931 0.23168765099473609 0 0.18020192862001849 0.2386083826115607 0 0.17041530453615489 0.24995027362062461 0 0.19929332561434901 0.2392305478664204 0 0.21868910716838161 0.2336087045207027 0 0.2182867976608302 0.25319790737669667 0 0.18020192862001849 0.2386083826115607 0 0.19929332561434901 0.2392305478664204 0 0.18639543198176509 0.25752953137691131 0 0.18711158831368269 0.22128924088617319 0 0.18020192862001849 0.2386083826115607 0 0.19929332561434901 0.2392305478664204 0 0.18711158831368269 0.22128924088617319 0 0.19929332561434901 0.2392305478664204 0 0.21206086068257021 0.21103425659597841 0 0.19929332561434901 0.2392305478664204 0 0.21868910716838161 0.2336087045207027 0 0.21206086068257021 0.21103425659597841 0 0.18711158831368269 0.22128924088617319 0 0.21206086068257021 0.21103425659597841 0 0.1896896979663982 0.19681875563305731 0 0.18711158831368269 0.22128924088617319 0 0.21206086068257021 0.21103425659597841 0 0.21206086068257021 0.21103425659597841 0 0.1896896979663982 0.19681875563305731 0 0.20630337514855371 0.18623258258222861 0 0.21206086068257021 0.21103425659597841 0 0.22050134384250589 0.19609210459982149 0 0.20630337514855371 0.18623258258222861 0 0.22050134384250589 0.19609210459982149 0 0.20630337514855371 0.18623258258222861 0 0.23159948673581651 0.1830023801348423 0 0.21206086068257021 0.21103425659597841 0 0.22050134384250589 0.19609210459982149 0 0.23701013305145779 0.20077927230578349 0 0.22050134384250589 0.19609210459982149 0 0.23701013305145779 0.20077927230578349 0 0.23159948673581651 0.1830023801348423 0 0.23701013305145779 0.20077927230578349 0 0.24467274315590151 0.18618091698556069 0 0.2619594054203454 0.1905242880155886 0 0.23701013305145779 0.20077927230578349 0 0.2619594054203454 0.1905242880155886 0 0.23701013305145779 0.20077927230578349 0 0.23159948673581651 0.1830023801348423 0 0.24467274315590151 0.18618091698556069 0 0.23701013305145779 0.20077927230578349 0 0.24158094432660121 0.20953501689820889 0 0.25723858746686118 0.20401458323071489 0 0.23701013305145779 0.20077927230578349 0 0.24158094432660121 0.20953501689820889 0 0.23104053860035551 0.21292947531010481 0 0.24158094432660121 0.20953501689820889 0 0.2384618677762613 0.22085812459168611 0 0.25118861121634251 0.2177712711195518 0 0.24158094432660121 0.20953501689820889 0 0.23104053860035551 0.21292947531010481 0 0.2384618677762613 0.22085812459168611 0 0.23104053860035551 0.21292947531010481 0 0.22608888716488729 0.22244070615886699 0 0.2384618677762613 0.22085812459168611 0 0.21206086068257021 0.21103425659597841 0 0.23104053860035551 0.21292947531010481 0 0.22608888716488729 0.22244070615886699 0 0.21206086068257021 0.21103425659597841 0 0.23701013305145779 0.20077927230578349 0 0.23104053860035551 0.21292947531010481 0 0.21206086068257021 0.21103425659597841 0 0.23701013305145779 0.20077927230578349 0 0.21868910716838161 0.2336087045207027 0 0.21206086068257021 0.21103425659597841 0 0.22608888716488729 0.22244070615886699 0 0.21868910716838161 0.2336087045207027 0 0.22608888716488729 0.22244070615886699 0 0.23280991918118929 0.233224578300681 0 0.22608888716488729 0.22244070615886699 0 0.23280991918118929 0.233224578300681 0 0.2384618677762613 0.22085812459168611 0 0.2384618677762613 0.22085812459168611 0 0.25562002392340932 0.226510414300509 0 0.25118861121634251 0.2177712711195518 0 0.2384618677762613 0.22085812459168611 0 0.24515090742476439 0.23966848062391871 0 0.25562002392340932 0.226510414300509 0 0.23280991918118929 0.233224578300681 0 0.2384618677762613 0.22085812459168611 0 0.24515090742476439 0.23966848062391871 0 0.2384618677762613 0.22085812459168611 0 0.24515090742476439 0.23966848062391871 0 0.23280991918118929 0.233224578300681 0 0.24515090742476439 0.23966848062391871 0 0.2361521253300356 0.24937519897154711 0 0.24515090742476439 0.23966848062391871 0 0.25183994707326618 0.25847883665615179 0 0.24515090742476439 0.23966848062391871 0 0.2361521253300356 0.24937519897154711 0 0.25183994707326618 0.25847883665615179 0 0.21868910716838161 0.2336087045207027 0 0.23280991918118929 0.233224578300681 0 0.2361521253300356 0.24937519897154711 0 0.21868910716838161 0.2336087045207027 0 0.2361521253300356 0.24937519897154711 0 0.2182867976608302 0.25319790737669667 0 0.2128509192916696 0.14669417435857321 0 0.19239488694264009 0.14982418411593659 0 0.2101419533702262 0.16669681750124521 0 0.2128509192916696 0.14669417435857321 0 0.2100813069432266 0.1269041609265808 0 0.22855394967217979 0.137684162933329 0 0.2128509192916696 0.14669417435857321 0 0.2100813069432266 0.1269041609265808 0 0.194395558493487 0.13307890533830169 0 0.2100813069432266 0.1269041609265808 0 0.194395558493487 0.13307890533830169 0 0.1914667683276797 0.11710171356226221 0 0.2128509192916696 0.14669417435857321 0 0.194395558493487 0.13307890533830169 0 0.19239488694264009 0.14982418411593659 0 0.19239488694264009 0.14982418411593659 0 0.18774720787620289 0.1711946755705312 0 0.2101419533702262 0.16669681750124521 0 0.18774720787620289 0.1711946755705312 0 0.20630337514855371 0.18623258258222861 0 0.2101419533702262 0.16669681750124521 0 0.1896896979663982 0.19681875563305731 0 0.18774720787620289 0.1711946755705312 0 0.20630337514855371 0.18623258258222861 0 0.20630337514855371 0.18623258258222861 0 0.2101419533702262 0.16669681750124521 0 0.23159948673581651 0.1830023801348423 0 0.2128509192916696 0.14669417435857321 0 0.2101419533702262 0.16669681750124521 0 0.22948418119042149 0.1612390392017897 0 0.2101419533702262 0.16669681750124521 0 0.22948418119042149 0.1612390392017897 0 0.23159948673581651 0.1830023801348423 0 0.23159948673581651 0.1830023801348423 0 0.2481219474159862 0.17041772748602829 0 0.23159948673581651 0.1830023801348423 0 0.24467274315590151 0.18618091698556069 0 0.2481219474159862 0.17041772748602829 0 0.22948418119042149 0.1612390392017897 0 0.23159948673581651 0.1830023801348423 0 0.2481219474159862 0.17041772748602829 0 0.22948418119042149 0.1612390392017897 0 0.2481219474159862 0.17041772748602829 0 0.24179733327775951 0.14862601562764949 0 0.24179733327775951 0.14862601562764949 0 0.24363673082372869 0.13041656242538599 0 0.25803538347896532 0.14346215459876019 0 0.2481219474159862 0.17041772748602829 0 0.24179733327775951 0.14862601562764949 0 0.25803538347896532 0.14346215459876019 0 0.2128509192916696 0.14669417435857321 0 0.22948418119042149 0.1612390392017897 0 0.22855394967217979 0.137684162933329 0 0.22948418119042149 0.1612390392017897 0 0.24179733327775951 0.14862601562764949 0 0.22855394967217979 0.137684162933329 0 0.22855394967217979 0.137684162933329 0 0.24363673082372869 0.13041656242538599 0 0.22948668219278159 0.1213281320049419 0 0.2100813069432266 0.1269041609265808 0 0.22855394967217979 0.137684162933329 0 0.22948668219278159 0.1213281320049419 0 0.24179733327775951 0.14862601562764949 0 0.22855394967217979 0.137684162933329 0 0.24363673082372869 0.13041656242538599 0 0.24580103785783761 0.111544873705254 0 0.23300120164790589 0.1023824890335763 0 0.22948668219278159 0.1213281320049419 0 0.24363673082372869 0.13041656242538599 0 0.24580103785783761 0.111544873705254 0 0.22948668219278159 0.1213281320049419 0 0.24363673082372869 0.13041656242538599 0 0.24580103785783761 0.111544873705254 0 0.25776502136866952 0.1207239809179458 0 0.24580103785783761 0.111544873705254 0 0.2490841133515064 0.097505850465394062 0 0.23300120164790589 0.1023824890335763 0 0.2490841133515064 0.097505850465394062 0 0.23300120164790589 0.1023824890335763 0 0.24096139038032841 0.088502806727783045 0 0.23300120164790589 0.1023824890335763 0 0.20862409428266079 0.1022288678627042 0 0.22578142023764181 0.087356022163146141 0 0.23300120164790589 0.1023824890335763 0 0.22948668219278159 0.1213281320049419 0 0.20862409428266079 0.1022288678627042 0 0.2100813069432266 0.1269041609265808 0 0.20862409428266079 0.1022288678627042 0 0.1914667683276797 0.11710171356226221 0 0.2100813069432266 0.1269041609265808 0 0.22948668219278159 0.1213281320049419 0 0.20862409428266079 0.1022288678627042 0 0.20862409428266079 0.1022288678627042 0 0.22578142023764181 0.087356022163146141 0 0.20862409428266079 0.1022288678627042 0 0.1914667683276797 0.11710171356226221 0 0.18670244819089649 0.094057331601748895 0 0.20862409428266079 0.1022288678627042 0 0.20254168160107491 0.085801008405892457 0 0.18670244819089649 0.094057331601748895 0 0.20862409428266079 0.1022288678627042 0 0.1914667683276797 0.11710171356226221 0 0.213193684744995 0.071893990775077854 0 0.18344772112887089 0.071354552933695747 0 0.20254168160107491 0.085801008405892457 0 0.213193684744995 0.071893990775077854 0 0.18344772112887089 0.071354552933695747 0 0.213193684744995 0.071893990775077854 0 0.18810023338977189 0.051387932565068913 0 0.18344772112887089 0.071354552933695747 0 0.20254168160107491 0.085801008405892457 0 0.18670244819089649 0.094057331601748895 0 0.18344772112887089 0.071354552933695747 0 0.20254168160107491 0.085801008405892457 0 0.213193684744995 0.071893990775077854 0 0.22578142023764181 0.087356022163146141 0 0.20862409428266079 0.1022288678627042 0 0.20254168160107491 0.085801008405892457 0 0.22578142023764181 0.087356022163146141 0 0.213193684744995 0.071893990775077854 0 0.24293874619262279 0.072483176463588109 0 0.213193684744995 0.071893990775077854 0 0.24293874619262279 0.072483176463588109 0 0.2285134066805857 0.049612118622746233 0 0.213193684744995 0.071893990775077854 0 0.22578142023764181 0.087356022163146141 0 0.24293874619262279 0.072483176463588109 0 0.22578142023764181 0.087356022163146141 0 0.24293874619262279 0.072483176463588109 0 0.23300120164790589 0.1023824890335763 0 0.22578142023764181 0.087356022163146141 0 0.24096139038032841 0.088502806727783045 0 0.22578142023764181 0.087356022163146141 0 0.24096139038032841 0.088502806727783045 0 0.24293874619262279 0.072483176463588109 0 0.24096139038032841 0.088502806727783045 0 0.24293874619262279 0.072483176463588109 0 0.25607320783504017 0.087112322323387378 0 0.2490841133515064 0.097505850465394062 0 0.24096139038032841 0.088502806727783045 0 0.25607320783504017 0.087112322323387378 0 0.24293874619262279 0.072483176463588109 0 0.2285134066805857 0.049612118622746233 0 0.25197250403477323 0.055584510812426449 0 0.2285134066805857 0.049612118622746233 0 0.25252678605513268 0.03574732225473342 0 0.25197250403477323 0.055584510812426449 0 0.2285134066805857 0.049612118622746233 0 0.2331337780600739 0.024129060083908051 0 0.25252678605513268 0.03574732225473342 0 0.2285134066805857 0.049612118622746233 0 0.2331337780600739 0.024129060083908051 0 0.21336813065835539 0.02966417305572663 0 0.23611856669769951 0.0033885814039986352 0 0.2331337780600739 0.024129060083908051 0 0.25793748997120008 0.0089236122805062303 0 0.2331337780600739 0.024129060083908051 0 0.25793748997120008 0.0089236122805062303 0 0.25252678605513268 0.03574732225473342 0 0.2331337780600739 0.024129060083908051 0 0.21380161245509799 0.01179828979669912 0 0.21336813065835539 0.02966417305572663 0 0.23611856669769951 0.0033885814039986352 0 0.21380161245509799 0.01179828979669912 0 0.22029341025675611 -0.0047905929507190814 0 0.23611856669769951 0.0033885814039986352 0 0.2331337780600739 0.024129060083908051 0 0.21380161245509799 0.01179828979669912 0 0.21380161245509799 0.01179828979669912 0 0.2025414862440805 -0.0061684535584014891 0 0.22029341025675611 -0.0047905929507190814 0 0.21380161245509799 0.01179828979669912 0 0.21336813065835539 0.02966417305572663 0 0.18929273458246709 0.01271136884722447 0 0.18929273458246709 0.01271136884722447 0 0.19695677175181259 0.036579645924671771 0 0.180487626089263 0.031171452724450151 0 0.21336813065835539 0.02966417305572663 0 0.18929273458246709 0.01271136884722447 0 0.19695677175181259 0.036579645924671771 0 0.21380161245509799 0.01179828979669912 0 0.18929273458246709 0.01271136884722447 0 0.2025414862440805 -0.0061684535584014891 0 0.21380161245509799 0.01179828979669912 0 0.18929273458246709 0.01271136884722447 0 0.213193684744995 0.071893990775077854 0 0.2285134066805857 0.049612118622746233 0 0.20927065089537389 0.049963836298230917 0 0.213193684744995 0.071893990775077854 0 0.20927065089537389 0.049963836298230917 0 0.18810023338977189 0.051387932565068913 0 0.2285134066805857 0.049612118622746233 0 0.21336813065835539 0.02966417305572663 0 0.20927065089537389 0.049963836298230917 0 0.21336813065835539 0.02966417305572663 0 0.20927065089537389 0.049963836298230917 0 0.19695677175181259 0.036579645924671771 0 0.19695677175181259 0.036579645924671771 0 0.18810023338977189 0.051387932565068913 0 0.180487626089263 0.031171452724450151 0 0.20927065089537389 0.049963836298230917 0 0.19695677175181259 0.036579645924671771 0 0.18810023338977189 0.051387932565068913 0 0.18810023338977189 0.051387932565068913 0 0.16481749080280589 0.040583129526440602 0 0.16852768831528239 0.058168919772915252 0 0.18810023338977189 0.051387932565068913 0 0.16852768831528239 0.058168919772915252 0 0.18344772112887089 0.071354552933695747 0 0.18810023338977189 0.051387932565068913 0 0.16481749080280589 0.040583129526440602 0 0.180487626089263 0.031171452724450151 0 0.16852768831528239 0.058168919772915252 0 0.15463133973916859 0.052971302361015223 0 0.1537017575127467 0.070815115092313641 0 0.16481749080280589 0.040583129526440602 0 0.16852768831528239 0.058168919772915252 0 0.15463133973916859 0.052971302361015223 0 0.18929273458246709 0.01271136884722447 0 0.1647838567098362 0.01362444789774981 0 0.18929273458246709 0.01271136884722447 0 0.1647838567098362 0.01362444789774981 0 0.17601105874852249 -0.0092918975221894656 0 0.18929273458246709 0.01271136884722447 0 0.180487626089263 0.031171452724450151 0 0.1647838567098362 0.01362444789774981 0 0.16481749080280589 0.040583129526440602 0 0.1647838567098362 0.01362444789774981 0 0.15120425486104641 0.028045823107654889 0 0.16481749080280589 0.040583129526440602 0 0.180487626089263 0.031171452724450151 0 0.1647838567098362 0.01362444789774981 0 0.1647838567098362 0.01362444789774981 0 0.14027497883720541 0.01453752694827515 0 0.1647838567098362 0.01362444789774981 0 0.14027497883720541 0.01453752694827515 0 0.15175326260012839 -0.0046037803033096942 0 0.15120425486104641 0.028045823107654889 0 0.14027497883720541 0.01453752694827515 0 0.13457652146536711 0.031702467243872413 0 0.1647838567098362 0.01362444789774981 0 0.15120425486104641 0.028045823107654889 0 0.14027497883720541 0.01453752694827515 0 0.1157661009645744 0.0154506059988005 0 0.14027497883720541 0.01453752694827515 0 0.13457652146536711 0.031702467243872413 0 0.14027497883720541 0.01453752694827515 0 0.15175326260012839 -0.0046037803033096942 0 0.12880624959034009 -0.002636456239975347 0 0.1157661009645744 0.0154506059988005 0 0.14027497883720541 0.01453752694827515 0 0.12880624959034009 -0.002636456239975347 0 0.1157661009645744 0.0154506059988005 0 0.14027497883720541 0.01453752694827515 0 0.15463133973916859 0.052971302361015223 0 0.14846537078780381 0.041892316196222759 0 0.13764439127720429 0.053397031217183852 0 0.15463133973916859 0.052971302361015223 0 0.13764439127720429 0.053397031217183852 0 0.1537017575127467 0.070815115092313641 0 0.16481749080280589 0.040583129526440602 0 0.15463133973916859 0.052971302361015223 0 0.14846537078780381 0.041892316196222759 0 0.16481749080280589 0.040583129526440602 0 0.15120425486104641 0.028045823107654889 0 0.14846537078780381 0.041892316196222759 0 0.15120425486104641 0.028045823107654889 0 0.14846537078780381 0.041892316196222759 0 0.13457652146536711 0.031702467243872413 0 0.1181283088798579 0.042177867102583082 0 0.13457652146536711 0.031702467243872413 0 0.13764439127720429 0.053397031217183852 0 0.14846537078780381 0.041892316196222759 0 0.13457652146536711 0.031702467243872413 0 0.13764439127720429 0.053397031217183852 0 0.1181283088798579 0.042177867102583082 0 0.13457652146536711 0.031702467243872413 0 0.11764259782775401 0.057799704685429582 0 0.1239557938966226 0.070275677250931534 0 0.13764439127720429 0.053397031217183852 0 0.1239557938966226 0.070275677250931534 0 0.13764439127720429 0.053397031217183852 0 0.1537017575127467 0.070815115092313641 0 0.1239557938966226 0.070275677250931534 0 0.1537017575127467 0.070815115092313641 0 0.1239557938966226 0.070275677250931534 0 0.1537017575127467 0.070815115092313641 0 0.14644762822486129 0.089266049816048007 0 0.14644762822486129 0.089266049816048007 0 0.1545449961772824 0.1030139934955953 0 0.16420090284160571 0.086252990117068773 0 0.1537017575127467 0.070815115092313641 0 0.14644762822486129 0.089266049816048007 0 0.16420090284160571 0.086252990117068773 0 0.1239557938966226 0.070275677250931534 0 0.14644762822486129 0.089266049816048007 0 0.1291881647559921 0.088801072322534064 0 0.14644762822486129 0.089266049816048007 0 0.1291881647559921 0.088801072322534064 0 0.11847665839745899 0.111134283130551 0 0.1291881647559921 0.088801072322534064 0 0.1383435434139344 0.1050093085030309 0 0.14644762822486129 0.089266049816048007 0 0.1291881647559921 0.088801072322534064 0 0.1383435434139344 0.1050093085030309 0 0.11847665839745899 0.111134283130551 0 0.1250246155077944 0.13393247143208531 0 0.13314177713784481 0.1200686308522427 0 0.11847665839745899 0.111134283130551 0 0.1383435434139344 0.1050093085030309 0 0.13314177713784481 0.1200686308522427 0 0.1383435434139344 0.1050093085030309 0 0.13314177713784481 0.1200686308522427 0 0.14861328320115499 0.1177427360774262 0 0.14861328320115499 0.1177427360774262 0 0.1545449961772824 0.1030139934955953 0 0.1648290935124655 0.1186307311173893 0 0.14644762822486129 0.089266049816048007 0 0.1383435434139344 0.1050093085030309 0 0.1545449961772824 0.1030139934955953 0 0.1383435434139344 0.1050093085030309 0 0.14861328320115499 0.1177427360774262 0 0.1545449961772824 0.1030139934955953 0 0.1545449961772824 0.1030139934955953 0 0.16993352096348729 0.10160485672887 0 0.16420090284160571 0.086252990117068773 0 0.1545449961772824 0.1030139934955953 0 0.16993352096348729 0.10160485672887 0 0.1648290935124655 0.1186307311173893 0 0.1914667683276797 0.11710171356226221 0 0.16993352096348729 0.10160485672887 0 0.1648290935124655 0.1186307311173893 0 0.1743094423726988 0.1319745592618202 0 0.1914667683276797 0.11710171356226221 0 0.1648290935124655 0.1186307311173893 0 0.1743094423726988 0.1319745592618202 0 0.1914667683276797 0.11710171356226221 0 0.1914667683276797 0.11710171356226221 0 0.16993352096348729 0.10160485672887 0 0.18670244819089649 0.094057331601748895 0 0.16993352096348729 0.10160485672887 0 0.18670244819089649 0.094057331601748895 0 0.16420090284160571 0.086252990117068773 0 0.18670244819089649 0.094057331601748895 0 0.18344772112887089 0.071354552933695747 0 0.16420090284160571 0.086252990117068773 0 0.1537017575127467 0.070815115092313641 0 0.18344772112887089 0.071354552933695747 0 0.16420090284160571 0.086252990117068773 0 0.1537017575127467 0.070815115092313641 0 0.18344772112887089 0.071354552933695747 0 0.16852768831528239 0.058168919772915252 0 0.1537017575127467 0.070815115092313641 0 0.18344772112887089 0.071354552933695747 0 0.1025288220988254 0.4812518316817907 0 0.1157165691969663 0.4680681254596088 0 0.099799482669500339 0.46703849270823228 0 0.1025288220988254 0.4812518316817907 0 0.099799482669500339 0.46703849270823228 0 0.085615415713839321 0.47507451001605278 0 0.1025288220988254 0.4812518316817907 0 0.1089786596015267 0.5 0 0.079076937747869891 0.5 0 0.1089786596015267 0.5 0 0.1218485583111467 0.48282917291281702 0 0.1388803814551838 0.5 0 0.1025288220988254 0.4812518316817907 0 0.1089786596015267 0.5 0 0.1218485583111467 0.48282917291281702 0 0.1218485583111467 0.48282917291281702 0 0.1157165691969663 0.4680681254596088 0 0.13101144819709601 0.46342522886549031 0 0.1025288220988254 0.4812518316817907 0 0.1218485583111467 0.48282917291281702 0 0.1157165691969663 0.4680681254596088 0 0.11203246419297309 0.45251443834909261 0 0.13101144819709601 0.46342522886549031 0 0.1157165691969663 0.4680681254596088 0 0.11203246419297309 0.45251443834909261 0 0.13101144819709601 0.46342522886549031 0 0.11203246419297309 0.45251443834909261 0 0.12568430742925421 0.44979187748202037 0 0.13101144819709601 0.46342522886549031 0 0.1133131998202149 0.44058902990385213 0 0.12838627276356951 0.43693348073133148 0 0.12568430742925421 0.44979187748202037 0 0.11203246419297309 0.45251443834909261 0 0.12568430742925421 0.44979187748202037 0 0.11203246419297309 0.45251443834909261 0 0.1133131998202149 0.44058902990385213 0 0.12568430742925421 0.44979187748202037 0 0.11203246419297309 0.45251443834909261 0 0.097059100625169564 0.44390643103012051 0 0.083104142144897475 0.45828355803461662 0 0.1133131998202149 0.44058902990385213 0 0.097059100625169564 0.44390643103012051 0 0.1008313664596536 0.43087072715203101 0 0.11203246419297309 0.45251443834909261 0 0.1133131998202149 0.44058902990385213 0 0.097059100625169564 0.44390643103012051 0 0.11203246419297309 0.45251443834909261 0 0.097059100625169564 0.44390643103012051 0 0.11203246419297309 0.45251443834909261 0 0.083104142144897475 0.45828355803461662 0 0.11203246419297309 0.45251443834909261 0 0.099799482669500339 0.46703849270823228 0 0.083104142144897475 0.45828355803461662 0 0.1157165691969663 0.4680681254596088 0 0.11203246419297309 0.45251443834909261 0 0.099799482669500339 0.46703849270823228 0 0.099799482669500339 0.46703849270823228 0 0.083104142144897475 0.45828355803461662 0 0.085615415713839321 0.47507451001605278 0 0.083104142144897475 0.45828355803461662 0 0.071445947504581872 0.46724159615057892 0 0.085615415713839321 0.47507451001605278 0 0.083104142144897475 0.45828355803461662 0 0.073262402162876578 0.44720448872209778 0 0.082085737057366312 0.43529842371114802 0 0.097059100625169564 0.44390643103012051 0 0.083104142144897475 0.45828355803461662 0 0.082085737057366312 0.43529842371114802 0 0.097059100625169564 0.44390643103012051 0 0.082085737057366312 0.43529842371114802 0 0.073262402162876578 0.44720448872209778 0 0.058450742496243303 0.44673506287586617 0 0.066275593224546167 0.42809450203640742 0 0.073262402162876578 0.44720448872209778 0 0.071445947504581872 0.46724159615057892 0 0.058450742496243303 0.44673506287586617 0 0.083104142144897475 0.45828355803461662 0 0.073262402162876578 0.44720448872209778 0 0.071445947504581872 0.46724159615057892 0 0.071445947504581872 0.46724159615057892 0 0.058450742496243303 0.44673506287586617 0 0.071445947504581872 0.46724159615057892 0 0.073828417017297102 0.48097076677862532 0 0.060124467806941383 0.48349426893892172 0 0.071445947504581872 0.46724159615057892 0 0.073828417017297102 0.48097076677862532 0 0.085615415713839321 0.47507451001605278 0 0.1025288220988254 0.4812518316817907 0 0.085615415713839321 0.47507451001605278 0 0.079076937747869891 0.5 0 0.073828417017297102 0.48097076677862532 0 0.085615415713839321 0.47507451001605278 0 0.079076937747869891 0.5 0 0.079076937747869891 0.5 0 0.049175215894213038 0.49999999999999922 0 0.060124467806941383 0.48349426893892172 0 0.073828417017297102 0.48097076677862532 0 0.079076937747869891 0.5 0 0.060124467806941383 0.48349426893892172 0 0.049175215894213038 0.49999999999999922 0 0.060124467806941383 0.48349426893892172 0 0.03140324842692846 0.479530604446752 0 0.060124467806941383 0.48349426893892172 0 0.03140324842692846 0.479530604446752 0 0.049219914369000729 0.46636442380516929 0 0.071445947504581872 0.46724159615057892 0 0.060124467806941383 0.48349426893892172 0 0.049219914369000729 0.46636442380516929 0 0.03140324842692846 0.479530604446752 0 0.032682447111737248 0.46347264476948269 0 0.049219914369000729 0.46636442380516929 0 0.049175215894213038 0.49999999999999922 0 0.03140324842692846 0.479530604446752 0 0.022427699540054021 0.5 0 0.049175215894213038 0.49999999999999922 0 0.03140324842692846 0.479530604446752 0 0.03140324842692846 0.479530604446752 0 0.022427699540054021 0.5 0 0.0050705476439347752 0.48187304735734721 0 0.03140324842692846 0.479530604446752 0 0.0050705476439347752 0.48187304735734721 0 0.01363128095964335 0.45906120889350499 0 0.03140324842692846 0.479530604446752 0 0.01363128095964335 0.45906120889350499 0 -0.016669999671377739 0.46635370593768161 0 0.0050705476439347752 0.48187304735734721 0 0.01363128095964335 0.45906120889350499 0 -0.004319816814104982 0.5 0 0.022427699540054021 0.5 0 0.0050705476439347752 0.48187304735734721 0 -0.0093929656639097549 0.44779877631524562 0 0.0058653050938953528 0.44291189908383849 0 0.01363128095964335 0.45906120889350499 0 0.0058653050938953528 0.44291189908383849 0 0.01363128095964335 0.45906120889350499 0 0.019227094453042892 0.43329627712100721 0 0.03140324842692846 0.479530604446752 0 0.01363128095964335 0.45906120889350499 0 0.032682447111737248 0.46347264476948269 0 0.01363128095964335 0.45906120889350499 0 0.036475344691376449 0.44893434193250459 0 0.032682447111737248 0.46347264476948269 0 0.01363128095964335 0.45906120889350499 0 0.036475344691376449 0.44893434193250459 0 0.019227094453042892 0.43329627712100721 0 0.036475344691376449 0.44893434193250459 0 0.058450742496243303 0.44673506287586617 0 0.0454555374879047 0.42622852960115332 0 0.036475344691376449 0.44893434193250459 0 0.032682447111737248 0.46347264476948269 0 0.049219914369000729 0.46636442380516929 0 0.071445947504581872 0.46724159615057892 0 0.049219914369000729 0.46636442380516929 0 0.058450742496243303 0.44673506287586617 0 0.036475344691376449 0.44893434193250459 0 0.049219914369000729 0.46636442380516929 0 0.058450742496243303 0.44673506287586617 0 0.058450742496243303 0.44673506287586617 0 0.0454555374879047 0.42622852960115332 0 0.066275593224546167 0.42809450203640742 0 0.058450742496243303 0.44673506287586617 0 0.0454555374879047 0.42622852960115332 0 0.053797366540330682 0.41288990875704668 0 0.0454555374879047 0.42622852960115332 0 0.066275593224546167 0.42809450203640742 0 0.0454555374879047 0.42622852960115332 0 0.032460332479566048 0.40572199632644051 0 0.053797366540330682 0.41288990875704668 0 0.0454555374879047 0.42622852960115332 0 0.032460332479566048 0.40572199632644051 0 0.0454555374879047 0.42622852960115332 0 0.021278657996890379 0.41708850893561977 0 0.032460332479566048 0.40572199632644051 0 0.036475344691376449 0.44893434193250459 0 0.0454555374879047 0.42622852960115332 0 0.019227094453042892 0.43329627712100721 0 0.0454555374879047 0.42622852960115332 0 0.019227094453042892 0.43329627712100721 0 0.021278657996890379 0.41708850893561977 0 0.021278657996890379 0.41708850893561977 0 0.015726930914618919 0.40136917814858941 0 0.032460332479566048 0.40572199632644051 0 0.019227094453042892 0.43329627712100721 0 0.021278657996890379 0.41708850893561977 0 0.0063497644604423526 0.4132448034643626 0 0.021278657996890379 0.41708850893561977 0 0.0063497644604423526 0.4132448034643626 0 0.015726930914618919 0.40136917814858941 0 -0.003699379230397658 0.42806434010588768 0 0.0058653050938953528 0.44291189908383849 0 0.019227094453042892 0.43329627712100721 0 -0.003699379230397658 0.42806434010588768 0 0.019227094453042892 0.43329627712100721 0 0.0063497644604423526 0.4132448034643626 0 0.01528488650674506 0.37861901071569309 0 0.003524189319681958 0.39647542768506899 0 -0.0084583514666562998 0.3806248500013989 0 0.0052189749371674473 0.38154505598380267 0 0.011517074606192661 0.37267337460899502 0 0.01528488650674506 0.37861901071569309 0 0.0052189749371674473 0.38154505598380267 0 0.003524189319681958 0.39647542768506899 0 0.011283513759907779 0.39046886942831532 0 0.01528488650674506 0.37861901071569309 0 0.003524189319681958 0.39647542768506899 0 0.011283513759907779 0.39046886942831532 0 0.01946512747122495 0.38521546305172932 0 0.011283513759907779 0.39046886942831532 0 0.01528488650674506 0.37861901071569309 0 0.01946512747122495 0.38521546305172932 0 0.01528488650674506 0.37861901071569309 0 0.0052189749371674473 0.38154505598380267 0 0.011517074606192661 0.37267337460899502 0 0.01528488650674506 0.37861901071569309 0 0.011517074606192661 0.37267337460899502 0 -0.0009127015893094551 0.386216404550625 0 0.0052189749371674473 0.38154505598380267 0 0.003524189319681958 0.39647542768506899 0 0.011283513759907779 0.39046886942831532 0 0.015726930914618919 0.40136917814858941 0 0.01946512747122495 0.38521546305172932 0 -0.007217321944251954 0.40158103994770239 0 0.0063497644604423526 0.4132448034643626 0 0.003524189319681958 0.39647542768506899 0 0.0063497644604423526 0.4132448034643626 0 0.003524189319681958 0.39647542768506899 0 0.015726930914618919 0.40136917814858941 0 0.011283513759907779 0.39046886942831532 0 0.003524189319681958 0.39647542768506899 0 0.015726930914618919 0.40136917814858941 0 0.015726930914618919 0.40136917814858941 0 0.01946512747122495 0.38521546305172932 0 0.032460332479566048 0.40572199632644051 0 0.01946512747122495 0.38521546305172932 0 0.03592559472315511 0.39009454709994618 0 0.032460332479566048 0.40572199632644051 0 0.01946512747122495 0.38521546305172932 0 0.032460332479566048 0.40572199632644051 0 0.01946512747122495 0.38521546305172932 0 0.03573677691071829 0.3747674524343676 0 0.01946512747122495 0.38521546305172932 0 0.03592559472315511 0.39009454709994618 0 0.03573677691071829 0.3747674524343676 0 0.01946512747122495 0.38521546305172932 0 0.03573677691071829 0.3747674524343676 0 0.01878685164819122 0.37330193224804697 0 0.01528488650674506 0.37861901071569309 0 0.01946512747122495 0.38521546305172932 0 0.01878685164819122 0.37330193224804697 0 0.01528488650674506 0.37861901071569309 0 0.01878685164819122 0.37330193224804697 0 0.01528488650674506 0.37861901071569309 0 0.01946512747122495 0.38521546305172932 0 0.053742839984958733 0.37632428814324642 0 0.03573677691071829 0.3747674524343676 0 0.046352664484135463 0.38600636165374053 0 0.053742839984958733 0.37632428814324642 0 0.03573677691071829 0.3747674524343676 0 0.03592559472315511 0.39009454709994618 0 0.046352664484135463 0.38600636165374053 0 0.03573677691071829 0.3747674524343676 0 0.053797366540330682 0.41288990875704668 0 0.032460332479566048 0.40572199632644051 0 0.049415930970509572 0.39827774155122131 0 0.03592559472315511 0.39009454709994618 0 0.032460332479566048 0.40572199632644051 0 0.049415930970509572 0.39827774155122131 0 0.03592559472315511 0.39009454709994618 0 0.046352664484135463 0.38600636165374053 0 0.049415930970509572 0.39827774155122131 0 0.053797366540330682 0.41288990875704668 0 0.049415930970509572 0.39827774155122131 0 0.068195252437881854 0.40696299623713711 0 0.049415930970509572 0.39827774155122131 0 0.061678315774089332 0.38824007735013538 0 0.068195252437881854 0.40696299623713711 0 0.046352664484135463 0.38600636165374053 0 0.049415930970509572 0.39827774155122131 0 0.061678315774089332 0.38824007735013538 0 0.053742839984958733 0.37632428814324642 0 0.061678315774089332 0.38824007735013538 0 0.071748903059199259 0.37788112385212369 0 0.046352664484135463 0.38600636165374053 0 0.053742839984958733 0.37632428814324642 0 0.061678315774089332 0.38824007735013538 0 0.053742839984958733 0.37632428814324642 0 0.071748903059199259 0.37788112385212369 0 0.061678315774089332 0.38824007735013538 0 0.071748903059199259 0.37788112385212369 0 0.078319277122867362 0.39359718381035952 0 0.087586808428245858 0.38436646951764691 0 0.10526243724066971 0.38543794565449119 0 0.087658736895129222 0.36908483811982679 0 0.071748903059199259 0.37788112385212369 0 0.087586808428245858 0.38436646951764691 0 0.078319277122867362 0.39359718381035952 0 0.071748903059199259 0.37788112385212369 0 0.087586808428245858 0.38436646951764691 0 0.087658736895129222 0.36908483811982679 0 0.087586808428245858 0.38436646951764691 0 0.078319277122867362 0.39359718381035952 0 0.094944687823363849 0.39583125615143311 0 0.084204628627710915 0.40624622737353611 0 0.096881811365221726 0.41349759631834831 0 0.094944687823363849 0.39583125615143311 0 0.078319277122867362 0.39359718381035952 0 0.084204628627710915 0.40624622737353611 0 0.094944687823363849 0.39583125615143311 0 0.078319277122867362 0.39359718381035952 0 0.084204628627710915 0.40624622737353611 0 0.068195252437881854 0.40696299623713711 0 0.061678315774089332 0.38824007735013538 0 0.078319277122867362 0.39359718381035952 0 0.068195252437881854 0.40696299623713711 0 0.068195252437881854 0.40696299623713711 0 0.066275593224546167 0.42809450203640742 0 0.083079064862063415 0.42016174547143459 0 0.053797366540330682 0.41288990875704668 0 0.068195252437881854 0.40696299623713711 0 0.066275593224546167 0.42809450203640742 0 0.066275593224546167 0.42809450203640742 0 0.082085737057366312 0.43529842371114802 0 0.083079064862063415 0.42016174547143459 0 0.073262402162876578 0.44720448872209778 0 0.066275593224546167 0.42809450203640742 0 0.082085737057366312 0.43529842371114802 0 0.097059100625169564 0.44390643103012051 0 0.082085737057366312 0.43529842371114802 0 0.1008313664596536 0.43087072715203101 0 0.082085737057366312 0.43529842371114802 0 0.083079064862063415 0.42016174547143459 0 0.1008313664596536 0.43087072715203101 0 0.084204628627710915 0.40624622737353611 0 0.068195252437881854 0.40696299623713711 0 0.083079064862063415 0.42016174547143459 0 0.083079064862063415 0.42016174547143459 0 0.096881811365221726 0.41349759631834831 0 0.1008313664596536 0.43087072715203101 0 0.084204628627710915 0.40624622737353611 0 0.083079064862063415 0.42016174547143459 0 0.096881811365221726 0.41349759631834831 0 0.096881811365221726 0.41349759631834831 0 0.1008313664596536 0.43087072715203101 0 0.1119080981702215 0.41745248327217832 0 0.096881811365221726 0.41349759631834831 0 0.1119080981702215 0.41745248327217832 0 0.1069725429981896 0.40436182077680521 0 0.1133131998202149 0.44058902990385213 0 0.1008313664596536 0.43087072715203101 0 0.1159448582598239 0.42981392717670719 0 0.1008313664596536 0.43087072715203101 0 0.1159448582598239 0.42981392717670719 0 0.1119080981702215 0.41745248327217832 0 0.1159448582598239 0.42981392717670719 0 0.1119080981702215 0.41745248327217832 0 0.12534186643621831 0.42195518777002072 0 0.1159448582598239 0.42981392717670719 0 0.12838627276356951 0.43693348073133148 0 0.12534186643621831 0.42195518777002072 0 0.1133131998202149 0.44058902990385213 0 0.1159448582598239 0.42981392717670719 0 0.12838627276356951 0.43693348073133148 0 0.1119080981702215 0.41745248327217832 0 0.12547614350222219 0.40421564043915792 0 0.12534186643621831 0.42195518777002072 0 0.1119080981702215 0.41745248327217832 0 0.1069725429981896 0.40436182077680521 0 0.12547614350222219 0.40421564043915792 0 0.10526243724066971 0.38543794565449119 0 0.12547614350222219 0.40421564043915792 0 0.12060309905201839 0.38449726613225532 0 0.10526243724066971 0.38543794565449119 0 0.12547614350222219 0.40421564043915792 0 0.10526243724066971 0.38543794565449119 0 0.1069725429981896 0.40436182077680521 0 0.12547614350222219 0.40421564043915792 0 0.10526243724066971 0.38543794565449119 0 0.12093509163405659 0.36965051403218319 0 0.12060309905201839 0.38449726613225532 0 0.10526243724066971 0.38543794565449119 0 0.12093509163405659 0.36965051403218319 0 0.087586808428245858 0.38436646951764691 0 0.10526243724066971 0.38543794565449119 0 0.094944687823363849 0.39583125615143311 0 0.10526243724066971 0.38543794565449119 0 0.087658736895129222 0.36908483811982679 0 0.10526243724066971 0.38543794565449119 0 0.094944687823363849 0.39583125615143311 0 0.096881811365221726 0.41349759631834831 0 0.094944687823363849 0.39583125615143311 0 0.1069725429981896 0.40436182077680521 0 0.10526243724066971 0.38543794565449119 0 0.094944687823363849 0.39583125615143311 0 0.1069725429981896 0.40436182077680521 0 0.099325673907823972 0.35426870505132918 0 0.11469479959349441 0.34405659657372839 0 0.096757506751563693 0.33558609988451321 0 0.099325673907823972 0.35426870505132918 0 0.1126145380377942 0.35847790024268938 0 0.11469479959349441 0.34405659657372839 0 0.10526243724066971 0.38543794565449119 0 0.1046514862085921 0.36808828723521281 0 0.087658736895129222 0.36908483811982679 0 0.099325673907823972 0.35426870505132918 0 0.1046514862085921 0.36808828723521281 0 0.087658736895129222 0.36908483811982679 0 0.099325673907823972 0.35426870505132918 0 0.1046514862085921 0.36808828723521281 0 0.1126145380377942 0.35847790024268938 0 0.12093509163405659 0.36965051403218319 0 0.1241583947180054 0.3524505205686872 0 0.1126145380377942 0.35847790024268938 0 0.1046514862085921 0.36808828723521281 0 0.12093509163405659 0.36965051403218319 0 0.1126145380377942 0.35847790024268938 0 0.10526243724066971 0.38543794565449119 0 0.1046514862085921 0.36808828723521281 0 0.12093509163405659 0.36965051403218319 0 0.1241583947180054 0.3524505205686872 0 0.11469479959349441 0.34405659657372839 0 0.1359397982972386 0.33620450958495851 0 0.1241583947180054 0.3524505205686872 0 0.1126145380377942 0.35847790024268938 0 0.11469479959349441 0.34405659657372839 0 0.11469479959349441 0.34405659657372839 0 0.1217335067289001 0.32753479831282389 0 0.1091726870451338 0.33006222233538368 0 0.11469479959349441 0.34405659657372839 0 0.1217335067289001 0.32753479831282389 0 0.1359397982972386 0.33620450958495851 0 0.1206451357926565 0.3149528940769537 0 0.1217335067289001 0.32753479831282389 0 0.1123282498492003 0.31991552974323118 0 0.1217335067289001 0.32753479831282389 0 0.1123282498492003 0.31991552974323118 0 0.1091726870451338 0.33006222233538368 0 0.1206451357926565 0.3149528940769537 0 0.1123282498492003 0.31991552974323118 0 0.11137062476191791 0.30858165099497431 0 0.1011238385449518 0.31986868180887312 0 0.096757506751563693 0.33558609988451321 0 0.087173492724709506 0.32166473509308702 0 0.1123282498492003 0.31991552974323118 0 0.1011238385449518 0.31986868180887312 0 0.11137062476191791 0.30858165099497431 0 0.1123282498492003 0.31991552974323118 0 0.1011238385449518 0.31986868180887312 0 0.1091726870451338 0.33006222233538368 0 0.1011238385449518 0.31986868180887312 0 0.087173492724709506 0.32166473509308702 0 0.094794824060321581 0.30651741236387342 0 0.11469479959349441 0.34405659657372839 0 0.1091726870451338 0.33006222233538368 0 0.096757506751563693 0.33558609988451321 0 0.1011238385449518 0.31986868180887312 0 0.1091726870451338 0.33006222233538368 0 0.096757506751563693 0.33558609988451321 0 0.096757506751563693 0.33558609988451321 0 0.081841460220231282 0.33256628215240591 0 0.083406271650576957 0.34415891523483982 0 0.096757506751563693 0.33558609988451321 0 0.083406271650576957 0.34415891523483982 0 0.096757506751563693 0.33558609988451321 0 0.081841460220231282 0.33256628215240591 0 0.087173492724709506 0.32166473509308702 0 0.081841460220231282 0.33256628215240591 0 0.070449739626676305 0.3378465765589963 0 0.083406271650576957 0.34415891523483982 0 0.087173492724709506 0.32166473509308702 0 0.071059603875886945 0.32397864333724091 0 0.07659782540759677 0.30830809059186132 0 0.081841460220231282 0.33256628215240591 0 0.087173492724709506 0.32166473509308702 0 0.071059603875886945 0.32397864333724091 0 0.071059603875886945 0.32397864333724091 0 0.065150995213381052 0.31423926413875253 0 0.07659782540759677 0.30830809059186132 0 0.071059603875886945 0.32397864333724091 0 0.057801664403443927 0.33198366108807659 0 0.05922775373458445 0.32219320050910188 0 0.071059603875886945 0.32397864333724091 0 0.065150995213381052 0.31423926413875253 0 0.05922775373458445 0.32219320050910188 0 0.081841460220231282 0.33256628215240591 0 0.071059603875886945 0.32397864333724091 0 0.070449739626676305 0.3378465765589963 0 0.071059603875886945 0.32397864333724091 0 0.070449739626676305 0.3378465765589963 0 0.057801664403443927 0.33198366108807659 0 0.070055036549588154 0.35273173058516322 0 0.058354057824458412 0.34186200662957639 0 0.070449739626676305 0.3378465765589963 0 0.070055036549588154 0.35273173058516322 0 0.058354057824458412 0.34186200662957639 0 0.070055036549588154 0.35273173058516322 0 0.083406271650576957 0.34415891523483982 0 0.070449739626676305 0.3378465765589963 0 0.070055036549588154 0.35273173058516322 0 0.083406271650576957 0.34415891523483982 0 0.070055036549588154 0.35273173058516322 0 0.083406271650576957 0.34415891523483982 0 0.085111429750779732 0.35506104724778947 0 0.070055036549588154 0.35273173058516322 0 0.085111429750779732 0.35506104724778947 0 0.087658736895129222 0.36908483811982679 0 0.099325673907823972 0.35426870505132918 0 0.096757506751563693 0.33558609988451321 0 0.083406271650576957 0.34415891523483982 0 0.099325673907823972 0.35426870505132918 0 0.083406271650576957 0.34415891523483982 0 0.085111429750779732 0.35506104724778947 0 0.070055036549588154 0.35273173058516322 0 0.087658736895129222 0.36908483811982679 0 0.099325673907823972 0.35426870505132918 0 0.085111429750779732 0.35506104724778947 0 0.087658736895129222 0.36908483811982679 0 0.070055036549588154 0.35273173058516322 0 0.066581412016723296 0.36647203178651028 0 0.052895906730153902 0.36374959150976649 0 0.071748903059199259 0.37788112385212369 0 0.087658736895129222 0.36908483811982679 0 0.066581412016723296 0.36647203178651028 0 0.053742839984958733 0.37632428814324642 0 0.071748903059199259 0.37788112385212369 0 0.066581412016723296 0.36647203178651028 0 0.070055036549588154 0.35273173058516322 0 0.087658736895129222 0.36908483811982679 0 0.066581412016723296 0.36647203178651028 0 0.053742839984958733 0.37632428814324642 0 0.052895906730153902 0.36374959150976649 0 0.03573677691071829 0.3747674524343676 0 0.053742839984958733 0.37632428814324642 0 0.066581412016723296 0.36647203178651028 0 0.052895906730153902 0.36374959150976649 0 0.070055036549588154 0.35273173058516322 0 0.052895906730153902 0.36374959150976649 0 0.070055036549588154 0.35273173058516322 0 0.052895906730153902 0.36374959150976649 0 0.058354057824458412 0.34186200662957639 0 0.052895906730153902 0.36374959150976649 0 0.047240147226877222 0.3493916965945727 0 0.058354057824458412 0.34186200662957639 0 0.052895906730153902 0.36374959150976649 0 0.047240147226877222 0.3493916965945727 0 0.032719965373769748 0.3521471074610234 0 0.047240147226877222 0.3493916965945727 0 0.032719965373769748 0.3521471074610234 0 0.046653079099330232 0.33099228267398811 0 0.052895906730153902 0.36374959150976649 0 0.03573677691071829 0.3747674524343676 0 0.052895906730153902 0.36374959150976649 0 0.032719965373769748 0.3521471074610234 0 0.03573677691071829 0.3747674524343676 0 0.03573677691071829 0.3747674524343676 0 0.01878685164819122 0.37330193224804697 0 0.032719965373769748 0.3521471074610234 0 0.03573677691071829 0.3747674524343676 0 0.01878685164819122 0.37330193224804697 0 0.032719965373769748 0.3521471074610234 0 0.01878685164819122 0.37330193224804697 0 0.0087348560448253579 0.36417963586220692 0 0.032719965373769748 0.3521471074610234 0 0.01878685164819122 0.37330193224804697 0 0.032719965373769748 0.3521471074610234 0 0.0087348560448253579 0.36417963586220692 0 0.01791503625780998 0.33850173764325142 0 0.0040105375304049472 0.34378788268439048 0 0.0087348560448253579 0.36417963586220692 0 0.01791503625780998 0.33850173764325142 0 0.0040105375304049472 0.34378788268439048 0 0.0010333402565479361 0.35612996131568597 0 0.0087348560448253579 0.36417963586220692 0 0.0087348560448253579 0.36417963586220692 0 0.01791503625780998 0.33850173764325142 0 0.0010333402565479361 0.35612996131568597 0 0.011517074606192661 0.37267337460899502 0 0.0010333402565479361 0.35612996131568597 0 0.011517074606192661 0.37267337460899502 0 0.0087348560448253579 0.36417963586220692 0 0.01878685164819122 0.37330193224804697 0 0.011517074606192661 0.37267337460899502 0 0.0087348560448253579 0.36417963586220692 0 0.01528488650674506 0.37861901071569309 0 0.01878685164819122 0.37330193224804697 0 0.011517074606192661 0.37267337460899502 0 0.01878685164819122 0.37330193224804697 0 0.011517074606192661 0.37267337460899502 0 0.0018198491859377911 0.32054153057843171 0 0.01791503625780998 0.33850173764325142 0 0.02709521647079554 0.31282383942429598 0 0.0040105375304049472 0.34378788268439048 0 0.0018198491859377911 0.32054153057843171 0 0.01791503625780998 0.33850173764325142 0 0.032719965373769748 0.3521471074610234 0 0.030673368601297591 0.32858304061669441 0 0.01791503625780998 0.33850173764325142 0 0.01791503625780998 0.33850173764325142 0 0.02709521647079554 0.31282383942429598 0 0.030673368601297591 0.32858304061669441 0 0.01791503625780998 0.33850173764325142 0 0.02709521647079554 0.31282383942429598 0 0.030673368601297591 0.32858304061669441 0 0.02709521647079554 0.31282383942429598 0 0.046653079099330232 0.33099228267398811 0 0.02709521647079554 0.31282383942429598 0 0.046653079099330232 0.33099228267398811 0 0.02709521647079554 0.31282383942429598 0 0.038030378492692037 0.31573715657531098 0 0.046653079099330232 0.33099228267398811 0 0.038030378492692037 0.31573715657531098 0 0.046653079099330232 0.33099228267398811 0 0.047574483964206001 0.3217712100459591 0 0.038030378492692037 0.31573715657531098 0 0.051732105248441983 0.31368342731958898 0 0.047574483964206001 0.3217712100459591 0 0.032719965373769748 0.3521471074610234 0 0.030673368601297591 0.32858304061669441 0 0.046653079099330232 0.33099228267398811 0 0.032719965373769748 0.3521471074610234 0 0.046653079099330232 0.33099228267398811 0 0.047240147226877222 0.3493916965945727 0 0.046653079099330232 0.33099228267398811 0 0.058354057824458412 0.34186200662957639 0 0.046653079099330232 0.33099228267398811 0 0.058354057824458412 0.34186200662957639 0 0.046653079099330232 0.33099228267398811 0 0.057801664403443927 0.33198366108807659 0 0.049094857406773162 0.32728489943721872 0 0.046653079099330232 0.33099228267398811 0 0.057801664403443927 0.33198366108807659 0 0.058354057824458412 0.34186200662957639 0 0.046653079099330232 0.33099228267398811 0 0.049094857406773162 0.32728489943721872 0 0.070449739626676305 0.3378465765589963 0 0.057801664403443927 0.33198366108807659 0 0.058354057824458412 0.34186200662957639 0 0.051732105248441983 0.31368342731958898 0 0.052361999573794782 0.3211582842236862 0 0.05922775373458445 0.32219320050910188 0 0.051732105248441983 0.31368342731958898 0 0.047574483964206001 0.3217712100459591 0 0.052361999573794782 0.3211582842236862 0 0.049094857406773162 0.32728489943721872 0 0.052361999573794782 0.3211582842236862 0 0.05922775373458445 0.32219320050910188 0 0.047574483964206001 0.3217712100459591 0 0.049094857406773162 0.32728489943721872 0 0.052361999573794782 0.3211582842236862 0 0.046653079099330232 0.33099228267398811 0 0.047574483964206001 0.3217712100459591 0 0.049094857406773162 0.32728489943721872 0 0.057801664403443927 0.33198366108807659 0 0.049094857406773162 0.32728489943721872 0 0.05922775373458445 0.32219320050910188 0 0.065150995213381052 0.31423926413875253 0 0.051732105248441983 0.31368342731958898 0 0.05922775373458445 0.32219320050910188 0 0.061803673391935779 0.30416929913693319 0 0.049764174909400799 0.30557926538794777 0 0.047490542504533398 0.28872717851995799 0 0.065150995213381052 0.31423926413875253 0 0.051732105248441983 0.31368342731958898 0 0.061803673391935779 0.30416929913693319 0 0.051732105248441983 0.31368342731958898 0 0.061803673391935779 0.30416929913693319 0 0.049764174909400799 0.30557926538794777 0 0.061803673391935779 0.30416929913693319 0 0.047490542504533398 0.28872717851995799 0 0.070169874955584383 0.28997160925823501 0 0.047490542504533398 0.28872717851995799 0 0.055695163476200807 0.26530193640788308 0 0.070169874955584383 0.28997160925823501 0 0.061803673391935779 0.30416929913693319 0 0.047490542504533398 0.28872717851995799 0 0.032846541953727187 0.29673679680110809 0 0.038597867436659737 0.28064975417792049 0 0.047490542504533398 0.28872717851995799 0 0.032846541953727187 0.29673679680110809 0 0.038597867436659737 0.28064975417792049 0 0.032846541953727187 0.29673679680110809 0 0.02537014729683847 0.28373916916335928 0 0.038597867436659737 0.28064975417792049 0 0.038030378492692037 0.31573715657531098 0 0.049764174909400799 0.30557926538794777 0 0.047490542504533398 0.28872717851995799 0 0.038030378492692037 0.31573715657531098 0 0.047490542504533398 0.28872717851995799 0 0.032846541953727187 0.29673679680110809 0 0.038030378492692037 0.31573715657531098 0 0.047490542504533398 0.28872717851995799 0 0.02709521647079554 0.31282383942429598 0 0.038030378492692037 0.31573715657531098 0 0.032846541953727187 0.29673679680110809 0 0.038030378492692037 0.31573715657531098 0 0.051732105248441983 0.31368342731958898 0 0.049764174909400799 0.30557926538794777 0 0.02709521647079554 0.31282383942429598 0 0.032846541953727187 0.29673679680110809 0 0.02709521647079554 0.31282383942429598 0 0.0077795116371697833 0.29488035072294749 0 0.02709521647079554 0.31282383942429598 0 0.032846541953727187 0.29673679680110809 0 0.0077795116371697833 0.29488035072294749 0 0.032846541953727187 0.29673679680110809 0 0.02537014729683847 0.28373916916335928 0 0.0077795116371697833 0.29488035072294749 0 0.02537014729683847 0.28373916916335928 0 0.0077795116371697833 0.29488035072294749 0 0.014072754437805479 0.27800413195273749 0 0.0077795116371697833 0.29488035072294749 0 0.0033861736390128402 0.27570980191385019 0 0.014072754437805479 0.27800413195273749 0 0.0018198491859377911 0.32054153057843171 0 0.02709521647079554 0.31282383942429598 0 0.0077795116371697833 0.29488035072294749 0 0.0059727080268540513 0.25659200282320882 0 0.0112538825040719 0.26703590853956921 0 0.019287482129346601 0.25829951992397582 0 0.005185951941752991 0.24308569062598501 0 0.019287482129346601 0.25829951992397582 0 0.02029788507632263 0.2490981702940589 0 0.005185951941752991 0.24308569062598501 0 0.019287482129346601 0.25829951992397582 0 0.005185951941752991 0.24308569062598501 0 0.0059727080268540513 0.25659200282320882 0 0.019287482129346601 0.25829951992397582 0 -0.0050525179201023037 0.2511486427858825 0 0.005185951941752991 0.24308569062598501 0 0.0059727080268540513 0.25659200282320882 0 -0.00081125852079886869 0.26339025224063167 0 -0.0050525179201023037 0.2511486427858825 0 0.0059727080268540513 0.25659200282320882 0 -0.00081125852079886869 0.26339025224063167 0 0.0059727080268540513 0.25659200282320882 0 0.0112538825040719 0.26703590853956921 0 -0.00081125852079886869 0.26339025224063167 0 0.0033861736390128402 0.27570980191385019 0 0.0112538825040719 0.26703590853956921 0 0.0033861736390128402 0.27570980191385019 0 0.014072754437805479 0.27800413195273749 0 0.0112538825040719 0.26703590853956921 0 0.014072754437805479 0.27800413195273749 0 0.0112538825040719 0.26703590853956921 0 0.020950079368155169 0.27201042208122822 0 0.0112538825040719 0.26703590853956921 0 0.020950079368155169 0.27201042208122822 0 0.019287482129346601 0.25829951992397582 0 0.02537014729683847 0.28373916916335928 0 0.014072754437805479 0.27800413195273749 0 0.020950079368155169 0.27201042208122822 0 0.02537014729683847 0.28373916916335928 0 0.020950079368155169 0.27201042208122822 0 0.033389012316940123 0.27351334922196679 0 0.020950079368155169 0.27201042208122822 0 0.019287482129346601 0.25829951992397582 0 0.033389012316940123 0.27351334922196679 0 0.019287482129346601 0.25829951992397582 0 0.033389012316940123 0.27351334922196679 0 0.019287482129346601 0.25829951992397582 0 0.027722323234509759 0.25634646474611822 0 0.033389012316940123 0.27351334922196679 0 0.02029788507632263 0.2490981702940589 0 0.019287482129346601 0.25829951992397582 0 0.027722323234509759 0.25634646474611822 0 0.02982242795561595 0.24375396596102189 0 0.027722323234509759 0.25634646474611822 0 0.035814808694323512 0.25706731832956742 0 0.043300081142867777 0.24417663615219501 0 0.035814808694323512 0.25706731832956742 0 0.04323657586881146 0.26586636505890499 0 0.035814808694323512 0.25706731832956742 0 0.033389012316940123 0.27351334922196679 0 0.04323657586881146 0.26586636505890499 0 0.027722323234509759 0.25634646474611822 0 0.035814808694323512 0.25706731832956742 0 0.033389012316940123 0.27351334922196679 0 0.02537014729683847 0.28373916916335928 0 0.033389012316940123 0.27351334922196679 0 0.038597867436659737 0.28064975417792049 0 0.033389012316940123 0.27351334922196679 0 0.04323657586881146 0.26586636505890499 0 0.044625453833074688 0.27467991809503101 0 0.047490542504533398 0.28872717851995799 0 0.033389012316940123 0.27351334922196679 0 0.047490542504533398 0.28872717851995799 0 0.033389012316940123 0.27351334922196679 0 0.044625453833074688 0.27467991809503101 0 0.047490542504533398 0.28872717851995799 0 0.033389012316940123 0.27351334922196679 0 0.038597867436659737 0.28064975417792049 0 0.047490542504533398 0.28872717851995799 0 0.055695163476200807 0.26530193640788308 0 0.047490542504533398 0.28872717851995799 0 0.044625453833074688 0.27467991809503101 0 0.055695163476200807 0.26530193640788308 0 0.04323657586881146 0.26586636505890499 0 0.044625453833074688 0.27467991809503101 0 0.055695163476200807 0.26530193640788308 0 0.043300081142867777 0.24417663615219501 0 0.063182818261261764 0.243923724446931 0 0.055695163476200807 0.26530193640788308 0 0.043300081142867777 0.24417663615219501 0 0.055695163476200807 0.26530193640788308 0 0.043300081142867777 0.24417663615219501 0 0.04323657586881146 0.26586636505890499 0 0.055695163476200807 0.26530193640788308 0 0.063182818261261764 0.243923724446931 0 0.055695163476200807 0.26530193640788308 0 0.063182818261261764 0.243923724446931 0 0.055695163476200807 0.26530193640788308 0 0.077802345948890711 0.25329666417118257 0 0.055695163476200807 0.26530193640788308 0 0.077802345948890711 0.25329666417118257 0 0.076913711064696064 0.26995068907571868 0 0.077802345948890711 0.25329666417118257 0 0.076913711064696064 0.26995068907571868 0 0.097020640034620881 0.26346779020101407 0 0.095983434050471592 0.24063061832718571 0 0.077802345948890711 0.25329666417118257 0 0.097020640034620881 0.26346779020101407 0 0.076913711064696064 0.26995068907571868 0 0.097020640034620881 0.26346779020101407 0 0.093831820144264569 0.27802648892217841 0 0.076913711064696064 0.26995068907571868 0 0.083320924923093467 0.28449516126382779 0 0.093831820144264569 0.27802648892217841 0 0.055695163476200807 0.26530193640788308 0 0.076913711064696064 0.26995068907571868 0 0.070169874955584383 0.28997160925823501 0 0.055695163476200807 0.26530193640788308 0 0.070169874955584383 0.28997160925823501 0 0.076913711064696064 0.26995068907571868 0 0.070169874955584383 0.28997160925823501 0 0.083320924923093467 0.28449516126382779 0 0.070169874955584383 0.28997160925823501 0 0.07659782540759677 0.30830809059186132 0 0.084754678067388262 0.29707701827667349 0 0.061803673391935779 0.30416929913693319 0 0.070169874955584383 0.28997160925823501 0 0.07659782540759677 0.30830809059186132 0 0.065150995213381052 0.31423926413875253 0 0.061803673391935779 0.30416929913693319 0 0.07659782540759677 0.30830809059186132 0 0.07659782540759677 0.30830809059186132 0 0.084754678067388262 0.29707701827667349 0 0.094794824060321581 0.30651741236387342 0 0.087173492724709506 0.32166473509308702 0 0.07659782540759677 0.30830809059186132 0 0.094794824060321581 0.30651741236387342 0 0.084754678067388262 0.29707701827667349 0 0.095416324857476115 0.29543897682575559 0 0.094794824060321581 0.30651741236387342 0 0.070169874955584383 0.28997160925823501 0 0.084754678067388262 0.29707701827667349 0 0.083320924923093467 0.28449516126382779 0 0.084754678067388262 0.29707701827667349 0 0.09093454038353406 0.28745000078633332 0 0.095416324857476115 0.29543897682575559 0 0.084754678067388262 0.29707701827667349 0 0.083320924923093467 0.28449516126382779 0 0.09093454038353406 0.28745000078633332 0 0.083320924923093467 0.28449516126382779 0 0.09093454038353406 0.28745000078633332 0 0.093831820144264569 0.27802648892217841 0 0.09093454038353406 0.28745000078633332 0 0.10089767132703201 0.28825632369341248 0 0.093831820144264569 0.27802648892217841 0 0.10089767132703201 0.28825632369341248 0 0.1097710435454255 0.28182717238735627 0 0.093831820144264569 0.27802648892217841 0 0.09093454038353406 0.28745000078633332 0 0.10089767132703201 0.28825632369341248 0 0.095416324857476115 0.29543897682575559 0 0.10089767132703201 0.28825632369341248 0 0.095416324857476115 0.29543897682575559 0 0.10569991044910459 0.29789412900848489 0 0.10089767132703201 0.28825632369341248 0 0.10569991044910459 0.29789412900848489 0 0.10972251809444809 0.29204104491573801 0 0.10089767132703201 0.28825632369341248 0 0.1097710435454255 0.28182717238735627 0 0.10972251809444809 0.29204104491573801 0 0.094794824060321581 0.30651741236387342 0 0.10569991044910459 0.29789412900848489 0 0.11137062476191791 0.30858165099497431 0 0.1011238385449518 0.31986868180887312 0 0.094794824060321581 0.30651741236387342 0 0.11137062476191791 0.30858165099497431 0 0.095416324857476115 0.29543897682575559 0 0.094794824060321581 0.30651741236387342 0 0.10569991044910459 0.29789412900848489 0 0.10569991044910459 0.29789412900848489 0 0.11137062476191791 0.30858165099497431 0 0.12252144705623021 0.30018655457369853 0 0.1206451357926565 0.3149528940769537 0 0.11137062476191791 0.30858165099497431 0 0.12252144705623021 0.30018655457369853 0 0.10569991044910459 0.29789412900848489 0 0.12252144705623021 0.30018655457369853 0 0.10972251809444809 0.29204104491573801 0 0.12252144705623021 0.30018655457369853 0 0.1097710435454255 0.28182717238735627 0 0.1180127302560518 0.28520729578466919 0 0.12252144705623021 0.30018655457369853 0 0.1097710435454255 0.28182717238735627 0 0.12252144705623021 0.30018655457369853 0 0.1097710435454255 0.28182717238735627 0 0.10972251809444809 0.29204104491573801 0 0.1180127302560518 0.28520729578466919 0 0.12534994179906131 0.27526632473707091 0 0.13136094480645041 0.28410722535849842 0 0.1180127302560518 0.28520729578466919 0 0.11670556594848169 0.27482632048544198 0 0.12534994179906131 0.27526632473707091 0 0.1097710435454255 0.28182717238735627 0 0.1180127302560518 0.28520729578466919 0 0.11670556594848169 0.27482632048544198 0 0.1097710435454255 0.28182717238735627 0 0.11670556594848169 0.27482632048544198 0 0.11062680914041199 0.26754627471584302 0 0.11670556594848169 0.27482632048544198 0 0.11062680914041199 0.26754627471584302 0 0.1197728407961898 0.26533116881711771 0 0.11670556594848169 0.27482632048544198 0 0.1197728407961898 0.26533116881711771 0 0.12534994179906131 0.27526632473707091 0 0.1197728407961898 0.26533116881711771 0 0.12212097558245399 0.25442275067918219 0 0.13141554444340389 0.26359024773631412 0 0.1197728407961898 0.26533116881711771 0 0.12212097558245399 0.25442275067918219 0 0.1098905271920545 0.25730276495954979 0 0.11403412967974499 0.2452634149316332 0 0.12212097558245399 0.25442275067918219 0 0.1098905271920545 0.25730276495954979 0 0.11062680914041199 0.26754627471584302 0 0.1197728407961898 0.26533116881711771 0 0.1098905271920545 0.25730276495954979 0 0.11062680914041199 0.26754627471584302 0 0.1098905271920545 0.25730276495954979 0 0.097020640034620881 0.26346779020101407 0 0.095983434050471592 0.24063061832718571 0 0.1098905271920545 0.25730276495954979 0 0.097020640034620881 0.26346779020101407 0 0.1097710435454255 0.28182717238735627 0 0.11062680914041199 0.26754627471584302 0 0.097020640034620881 0.26346779020101407 0 0.1097710435454255 0.28182717238735627 0 0.097020640034620881 0.26346779020101407 0 0.093831820144264569 0.27802648892217841 0 0.1097710435454255 0.28182717238735627 0 0.097020640034620881 0.26346779020101407 0 0.1419124169851185 0.26830556111001103 0 0.14109687332457541 0.27721955173325841 0 0.15024167163550259 0.27357156051219428 0 0.14109687332457541 0.27721955173325841 0 0.15024167163550259 0.27357156051219428 0 0.14689049636540791 0.28280447656429131 0 0.15024167163550259 0.27357156051219428 0 0.1596048486742721 0.27178816977156911 0 0.15760973610439541 0.27967633028520272 0 0.15024167163550259 0.27357156051219428 0 0.14689049636540791 0.28280447656429131 0 0.15760973610439541 0.27967633028520272 0 0.1419124169851185 0.26830556111001103 0 0.15024167163550259 0.27357156051219428 0 0.1540594222413024 0.26008458105960303 0 0.15024167163550259 0.27357156051219428 0 0.1540594222413024 0.26008458105960303 0 0.1596048486742721 0.27178816977156911 0 0.15540188400162469 0.2429649036995187 0 0.1540594222413024 0.26008458105960303 0 0.1458261318057136 0.25021520115658868 0 0.1540594222413024 0.26008458105960303 0 0.1458261318057136 0.25021520115658868 0 0.14163535259312859 0.25856011071404439 0 0.1419124169851185 0.26830556111001103 0 0.1540594222413024 0.26008458105960303 0 0.14163535259312859 0.25856011071404439 0 0.1419124169851185 0.26830556111001103 0 0.14163535259312859 0.25856011071404439 0 0.13141554444340389 0.26359024773631412 0 0.1458261318057136 0.25021520115658868 0 0.14163535259312859 0.25856011071404439 0 0.13372861113910661 0.2510179304358432 0 0.14163535259312859 0.25856011071404439 0 0.13372861113910661 0.2510179304358432 0 0.13141554444340389 0.26359024773631412 0 0.12212097558245399 0.25442275067918219 0 0.13372861113910661 0.2510179304358432 0 0.13141554444340389 0.26359024773631412 0 0.1197728407961898 0.26533116881711771 0 0.13141554444340389 0.26359024773631412 0 0.12534994179906131 0.27526632473707091 0 0.13141554444340389 0.26359024773631412 0 0.13429947950862911 0.27343128302125841 0 0.12534994179906131 0.27526632473707091 0 0.1419124169851185 0.26830556111001103 0 0.13141554444340389 0.26359024773631412 0 0.13429947950862911 0.27343128302125841 0 0.1419124169851185 0.26830556111001103 0 0.14109687332457541 0.27721955173325841 0 0.13429947950862911 0.27343128302125841 0 0.14109687332457541 0.27721955173325841 0 0.13401176217594651 0.27976747432087917 0 0.13922541327684759 0.28543695487091619 0 0.14109687332457541 0.27721955173325841 0 0.13429947950862911 0.27343128302125841 0 0.13401176217594651 0.27976747432087917 0 0.13429947950862911 0.27343128302125841 0 0.13401176217594651 0.27976747432087917 0 0.12534994179906131 0.27526632473707091 0 0.13401176217594651 0.27976747432087917 0 0.12534994179906131 0.27526632473707091 0 0.13136094480645041 0.28410722535849842 0 0.1180127302560518 0.28520729578466919 0 0.13462407500828619 0.30142065680011809 0 0.14242066866773309 0.29538557659497239 0 0.12252144705623021 0.30018655457369853 0 0.1180127302560518 0.28520729578466919 0 0.13462407500828619 0.30142065680011809 0 0.1180127302560518 0.28520729578466919 0 0.14242066866773309 0.29538557659497239 0 0.1180127302560518 0.28520729578466919 0 0.13136094480645041 0.28410722535849842 0 0.14242066866773309 0.29538557659497239 0 0.13401176217594651 0.27976747432087917 0 0.13136094480645041 0.28410722535849842 0 0.13922541327684759 0.28543695487091619 0 0.13136094480645041 0.28410722535849842 0 0.13922541327684759 0.28543695487091619 0 0.14242066866773309 0.29538557659497239 0 0.12252144705623021 0.30018655457369853 0 0.13462407500828619 0.30142065680011809 0 0.13527185056703439 0.318545936760041 0 0.12252144705623021 0.30018655457369853 0 0.13527185056703439 0.318545936760041 0 0.13462407500828619 0.30142065680011809 0 0.13527185056703439 0.318545936760041 0 0.1206451357926565 0.3149528940769537 0 0.12252144705623021 0.30018655457369853 0 0.13527185056703439 0.318545936760041 0 0.13462407500828619 0.30142065680011809 0 0.1420279006259077 0.30549706989491232 0 0.13527185056703439 0.318545936760041 0 0.13462407500828619 0.30142065680011809 0 0.1420279006259077 0.30549706989491232 0 0.14242066866773309 0.29538557659497239 0 0.15103071540601801 0.30651344449922308 0 0.14242066866773309 0.29538557659497239 0 0.16682860707941419 0.30556385740527608 0 0.14242066866773309 0.29538557659497239 0 0.16682860707941419 0.30556385740527608 0 0.14242066866773309 0.29538557659497239 0 0.1566317304088207 0.29351093713363691 0 0.16682860707941419 0.30556385740527608 0 0.1420279006259077 0.30549706989491232 0 0.14698409370996071 0.31099811472619238 0 0.13527185056703439 0.318545936760041 0 0.1420279006259077 0.30549706989491232 0 0.14698409370996071 0.31099811472619238 0 0.15103071540601801 0.30651344449922308 0 0.1420279006259077 0.30549706989491232 0 0.15103071540601801 0.30651344449922308 0 0.14242066866773309 0.29538557659497239 0 0.14698409370996071 0.31099811472619238 0 0.15103071540601801 0.30651344449922308 0 0.15698825706182079 0.31781179382775471 0 0.13922541327684759 0.28543695487091619 0 0.14788725459965599 0.28877650548466849 0 0.14689049636540791 0.28280447656429131 0 0.14109687332457541 0.27721955173325841 0 0.13922541327684759 0.28543695487091619 0 0.14689049636540791 0.28280447656429131 0 0.13922541327684759 0.28543695487091619 0 0.14788725459965599 0.28877650548466849 0 0.14242066866773309 0.29538557659497239 0 0.14788725459965599 0.28877650548466849 0 0.14242066866773309 0.29538557659497239 0 0.1566317304088207 0.29351093713363691 0 0.14788725459965599 0.28877650548466849 0 0.15426796427947101 0.28674458225952598 0 0.1566317304088207 0.29351093713363691 0 0.14689049636540791 0.28280447656429131 0 0.15426796427947101 0.28674458225952598 0 0.15760973610439541 0.27967633028520272 0 0.14788725459965599 0.28877650548466849 0 0.14689049636540791 0.28280447656429131 0 0.15426796427947101 0.28674458225952598 0 0.16228699892156701 0.28742814692674079 0 0.16841993900433741 0.27906831812445959 0 0.15760973610439541 0.27967633028520272 0 0.15426796427947101 0.28674458225952598 0 0.16228699892156701 0.28742814692674079 0 0.15760973610439541 0.27967633028520272 0 0.15426796427947101 0.28674458225952598 0 0.16228699892156701 0.28742814692674079 0 0.1566317304088207 0.29351093713363691 0 0.16228699892156701 0.28742814692674079 0 0.1566317304088207 0.29351093713363691 0 0.16458030856703509 0.29460354469157968 0 0.16458030856703509 0.29460354469157968 0 0.1714605403468171 0.29025662752601611 0 0.16682860707941419 0.30556385740527608 0 0.16228699892156701 0.28742814692674079 0 0.16458030856703509 0.29460354469157968 0 0.1714605403468171 0.29025662752601611 0 0.16228699892156701 0.28742814692674079 0 0.1714605403468171 0.29025662752601611 0 0.16841993900433741 0.27906831812445959 0 0.15103071540601801 0.30651344449922308 0 0.16682860707941419 0.30556385740527608 0 0.15698825706182079 0.31781179382775471 0 0.16682860707941419 0.30556385740527608 0 0.15698825706182079 0.31781179382775471 0 0.1566317304088207 0.29351093713363691 0 0.16458030856703509 0.29460354469157968 0 0.16682860707941419 0.30556385740527608 0 0.16682860707941419 0.30556385740527608 0 0.17936575743469019 0.31079193667705729 0 0.1669980263970095 0.31490559988157119 0 0.16682860707941419 0.30556385740527608 0 0.17936575743469019 0.31079193667705729 0 0.1858284119510677 0.30428195351052739 0 0.16682860707941419 0.30556385740527608 0 0.1858284119510677 0.30428195351052739 0 0.18370764903665751 0.29582985391204969 0 0.16682860707941419 0.30556385740527608 0 0.17936575743469019 0.31079193667705729 0 0.1858284119510677 0.30428195351052739 0 0.18370764903665751 0.29582985391204969 0 0.19196907262604371 0.29699571888037279 0 0.17936575743469019 0.31079193667705729 0 0.1858284119510677 0.30428195351052739 0 0.16682860707941419 0.30556385740527608 0 0.18541043099687771 0.28243571688712388 0 0.16682860707941419 0.30556385740527608 0 0.18370764903665751 0.29582985391204969 0 0.18541043099687771 0.28243571688712388 0 0.1714605403468171 0.29025662752601611 0 0.16682860707941419 0.30556385740527608 0 0.18541043099687771 0.28243571688712388 0 0.1714605403468171 0.29025662752601611 0 0.1768216901508205 0.28160516816424291 0 0.18541043099687771 0.28243571688712388 0 0.1714605403468171 0.29025662752601611 0 0.1768216901508205 0.28160516816424291 0 0.16841993900433741 0.27906831812445959 0 0.18370764903665751 0.29582985391204969 0 0.18541043099687771 0.28243571688712388 0 0.19042230772366681 0.28915536720774548 0 0.1768216901508205 0.28160516816424291 0 0.18541043099687771 0.28243571688712388 0 0.18199585025524989 0.27466001011937191 0 0.18199585025524989 0.27466001011937191 0 0.16841993900433741 0.27906831812445959 0 0.16769347438582269 0.26654005887638571 0 0.1768216901508205 0.28160516816424291 0 0.18199585025524989 0.27466001011937191 0 0.16841993900433741 0.27906831812445959 0 0.16841993900433741 0.27906831812445959 0 0.16769347438582269 0.26654005887638571 0 0.1596048486742721 0.27178816977156911 0 0.1540594222413024 0.26008458105960303 0 0.16769347438582269 0.26654005887638571 0 0.1596048486742721 0.27178816977156911 0 0.16841993900433741 0.27906831812445959 0 0.1596048486742721 0.27178816977156911 0 0.15760973610439541 0.27967633028520272 0 0.17041530453615489 0.24995027362062461 0 0.1540594222413024 0.26008458105960303 0 0.16769347438582269 0.26654005887638571 0 0.15540188400162469 0.2429649036995187 0 0.17041530453615489 0.24995027362062461 0 0.1540594222413024 0.26008458105960303 0 0.17041530453615489 0.24995027362062461 0 0.18199585025524989 0.27466001011937191 0 0.18639543198176509 0.25752953137691131 0 0.17041530453615489 0.24995027362062461 0 0.18199585025524989 0.27466001011937191 0 0.16769347438582269 0.26654005887638571 0 0.17041530453615489 0.24995027362062461 0 0.18199585025524989 0.27466001011937191 0 0.19929332561434901 0.2392305478664204 0 0.18639543198176509 0.25752953137691131 0 0.2039922549143397 0.2593075763689705 0 0.18199585025524989 0.27466001011937191 0 0.18639543198176509 0.25752953137691131 0 0.2039922549143397 0.2593075763689705 0 0.18541043099687771 0.28243571688712388 0 0.2039922549143397 0.2593075763689705 0 0.2066848222193659 0.27887750425377728 0 0.2039922549143397 0.2593075763689705 0 0.19776050484064961 0.282754461523824 0 0.18541043099687771 0.28243571688712388 0 0.18199585025524989 0.27466001011937191 0 0.2039922549143397 0.2593075763689705 0 0.18541043099687771 0.28243571688712388 0 0.2039922549143397 0.2593075763689705 0 0.19776050484064961 0.282754461523824 0 0.2066848222193659 0.27887750425377728 0 0.2039922549143397 0.2593075763689705 0 0.2232859565392023 0.27237559997325322 0 0.2066848222193659 0.27887750425377728 0 0.2232859565392023 0.27237559997325322 0 0.20728255241155349 0.28757787940522839 0 0.19929332561434901 0.2392305478664204 0 0.2039922549143397 0.2593075763689705 0 0.2182867976608302 0.25319790737669667 0 0.2039922549143397 0.2593075763689705 0 0.2182867976608302 0.25319790737669667 0 0.2232859565392023 0.27237559997325322 0 0.2361521253300356 0.24937519897154711 0 0.2232859565392023 0.27237559997325322 0 0.2361521253300356 0.24937519897154711 0 0.2182867976608302 0.25319790737669667 0 0.2232859565392023 0.27237559997325322 0 0.2361521253300356 0.24937519897154711 0 0.2232859565392023 0.27237559997325322 0 0.23710716231594961 0.26502903930682897 0 0.2232859565392023 0.27237559997325322 0 0.23770991634751579 0.28023267651242417 0 0.2253384324755848 0.28656779418769129 0 0.2232859565392023 0.27237559997325322 0 0.23770991634751579 0.28023267651242417 0 0.23710716231594961 0.26502903930682897 0 0.23770991634751579 0.28023267651242417 0 0.24923061868792451 0.27947600942362349 0 0.25183994707326618 0.25847883665615179 0 0.23770991634751579 0.28023267651242417 0 0.23710716231594961 0.26502903930682897 0 0.25183994707326618 0.25847883665615179 0 0.23770991634751579 0.28023267651242417 0 0.25183994707326618 0.25847883665615179 0 0.2361521253300356 0.24937519897154711 0 0.23710716231594961 0.26502903930682897 0 0.25183994707326618 0.25847883665615179 0 0.2486062022936909 0.31228926882663699 0 0.23690900048560501 0.29550108040002188 0 0.2486062022936909 0.31228926882663699 0 0.23690900048560501 0.29550108040002188 0 0.2235798856217672 0.30198651636869789 0 0.2486062022936909 0.31228926882663699 0 0.23690900048560501 0.29550108040002188 0 0.25415990225234708 0.29802728833469122 0 0.2486062022936909 0.31228926882663699 0 0.2235798856217672 0.30198651636869789 0 0.2319111105912792 0.31546728711290062 0 0.2486062022936909 0.31228926882663699 0 0.2235798856217672 0.30198651636869789 0 0.24687125332786439 0.28817336811877498 0 0.23690900048560501 0.29550108040002188 0 0.25415990225234708 0.29802728833469122 0 0.23770991634751579 0.28023267651242417 0 0.24923061868792451 0.27947600942362349 0 0.24687125332786439 0.28817336811877498 0 0.23770991634751579 0.28023267651242417 0 0.24687125332786439 0.28817336811877498 0 0.23690900048560501 0.29550108040002188 0 0.23770991634751579 0.28023267651242417 0 0.2253384324755848 0.28656779418769129 0 0.2235798856217672 0.30198651636869789 0 0.2232859565392023 0.27237559997325322 0 0.2253384324755848 0.28656779418769129 0 0.21829579850375019 0.29097614031841268 0 0.23770991634751579 0.28023267651242417 0 0.23690900048560501 0.29550108040002188 0 0.2235798856217672 0.30198651636869789 0 0.23770991634751579 0.28023267651242417 0 0.2235798856217672 0.30198651636869789 0 0.2253384324755848 0.28656779418769129 0 0.2235798856217672 0.30198651636869789 0 0.21829579850375019 0.29097614031841268 0 0.2235798856217672 0.30198651636869789 0 0.21470424547032979 0.30694295706648461 0 0.21378444681185799 0.3170670502563141 0 0.210419787748369 0.29537600097495931 0 0.19755361895753859 0.31837640197666711 0 0.21189058435361999 0.29717430293150793 0 0.210419787748369 0.29537600097495931 0 0.19755361895753859 0.31837640197666711 0 0.21470424547032979 0.30694295706648461 0 0.21189058435361999 0.29717430293150793 0 0.19755361895753859 0.31837640197666711 0 0.2235798856217672 0.30198651636869789 0 0.21378444681185799 0.3170670502563141 0 0.2235798856217672 0.30198651636869789 0 0.21189058435361999 0.29717430293150793 0 0.2235798856217672 0.30198651636869789 0 0.21470424547032979 0.30694295706648461 0 0.21189058435361999 0.29717430293150793 0 0.210419787748369 0.29537600097495931 0 0.2041432877294351 0.29544209550708178 0 0.19817538450290681 0.30172148323261339 0 0.2232859565392023 0.27237559997325322 0 0.210419787748369 0.29537600097495931 0 0.2232859565392023 0.27237559997325322 0 0.21829579850375019 0.29097614031841268 0 0.210419787748369 0.29537600097495931 0 0.2232859565392023 0.27237559997325322 0 0.210419787748369 0.29537600097495931 0 0.20728255241155349 0.28757787940522839 0 0.21189058435361999 0.29717430293150793 0 0.21829579850375019 0.29097614031841268 0 0.210419787748369 0.29537600097495931 0 0.2235798856217672 0.30198651636869789 0 0.21189058435361999 0.29717430293150793 0 0.21829579850375019 0.29097614031841268 0 0.210419787748369 0.29537600097495931 0 0.2041432877294351 0.29544209550708178 0 0.20728255241155349 0.28757787940522839 0 0.2041432877294351 0.29544209550708178 0 0.20728255241155349 0.28757787940522839 0 0.2015328926855631 0.29393427336247491 0 0.2066848222193659 0.27887750425377728 0 0.20728255241155349 0.28757787940522839 0 0.20222860456989819 0.28619257907545281 0 0.20728255241155349 0.28757787940522839 0 0.20222860456989819 0.28619257907545281 0 0.20053657706403141 0.28972492945592709 0 0.2066848222193659 0.27887750425377728 0 0.19776050484064961 0.282754461523824 0 0.20222860456989819 0.28619257907545281 0 0.19776050484064961 0.282754461523824 0 0.20053657706403141 0.28972492945592709 0 0.19571096362770099 0.29316575515069748 0 0.19776050484064961 0.282754461523824 0 0.20222860456989819 0.28619257907545281 0 0.20053657706403141 0.28972492945592709 0 0.20728255241155349 0.28757787940522839 0 0.20053657706403141 0.28972492945592709 0 0.2015328926855631 0.29393427336247491 0 0.20053657706403141 0.28972492945592709 0 0.2015328926855631 0.29393427336247491 0 0.19571096362770099 0.29316575515069748 0 0.2041432877294351 0.29544209550708178 0 0.2015328926855631 0.29393427336247491 0 0.19829032806521479 0.29687696142196901 0 0.19571096362770099 0.29316575515069748 0 0.19829032806521479 0.29687696142196901 0 0.19196907262604371 0.29699571888037279 0 0.2015328926855631 0.29393427336247491 0 0.19571096362770099 0.29316575515069748 0 0.19829032806521479 0.29687696142196901 0 0.18370764903665751 0.29582985391204969 0 0.19042230772366681 0.28915536720774548 0 0.19196907262604371 0.29699571888037279 0 0.19571096362770099 0.29316575515069748 0 0.19042230772366681 0.28915536720774548 0 0.19196907262604371 0.29699571888037279 0 0.19776050484064961 0.282754461523824 0 0.19571096362770099 0.29316575515069748 0 0.19042230772366681 0.28915536720774548 0 0.18541043099687771 0.28243571688712388 0 0.19776050484064961 0.282754461523824 0 0.19042230772366681 0.28915536720774548 0 0.210419787748369 0.29537600097495931 0 0.19817538450290681 0.30172148323261339 0 0.19755361895753859 0.31837640197666711 0 0.1858284119510677 0.30428195351052739 0 0.19817538450290681 0.30172148323261339 0 0.19755361895753859 0.31837640197666711 0 0.17936575743469019 0.31079193667705729 0 0.1858284119510677 0.30428195351052739 0 0.19755361895753859 0.31837640197666711 0 0.2041432877294351 0.29544209550708178 0 0.19829032806521479 0.29687696142196901 0 0.19817538450290681 0.30172148323261339 0 0.19829032806521479 0.29687696142196901 0 0.19817538450290681 0.30172148323261339 0 0.19196907262604371 0.29699571888037279 0 0.1858284119510677 0.30428195351052739 0 0.19817538450290681 0.30172148323261339 0 0.19196907262604371 0.29699571888037279 0 0.19755361895753859 0.31837640197666711 0 0.18710589912842199 0.33705342615765532 0 0.18093040123850859 0.32460216808512188 0 0.17936575743469019 0.31079193667705729 0 0.19755361895753859 0.31837640197666711 0 0.19755361895753859 0.31837640197666711 0 0.18710589912842199 0.33705342615765532 0 0.19755361895753859 0.31837640197666711 0 0.2011510313018354 0.33253125736554068 0 0.18710589912842199 0.33705342615765532 0 0.2011510313018354 0.33253125736554068 0 0.2025141173955243 0.34803000539825008 0 0.18710589912842199 0.33705342615765532 0 0.2011510313018354 0.33253125736554068 0 0.21743048972585691 0.32666519592958981 0 0.2025141173955243 0.34803000539825008 0 0.21743048972585691 0.32666519592958981 0 0.2025141173955243 0.34803000539825008 0 0.21743048972585691 0.32666519592958981 0 0.2190824914210959 0.34748352336094068 0 0.2025141173955243 0.34803000539825008 0 0.19755361895753859 0.31837640197666711 0 0.2011510313018354 0.33253125736554068 0 0.21743048972585691 0.32666519592958981 0 0.19755361895753859 0.31837640197666711 0 0.21743048972585691 0.32666519592958981 0 0.19755361895753859 0.31837640197666711 0 0.21743048972585691 0.32666519592958981 0 0.21378444681185799 0.3170670502563141 0 0.21470424547032979 0.30694295706648461 0 0.19755361895753859 0.31837640197666711 0 0.21378444681185799 0.3170670502563141 0 0.21743048972585691 0.32666519592958981 0 0.21378444681185799 0.3170670502563141 0 0.2211662086945935 0.32131450326598121 0 0.2235798856217672 0.30198651636869789 0 0.2319111105912792 0.31546728711290062 0 0.2211662086945935 0.32131450326598121 0 0.2235798856217672 0.30198651636869789 0 0.21378444681185799 0.3170670502563141 0 0.2211662086945935 0.32131450326598121 0 0.21743048972585691 0.32666519592958981 0 0.2342921457550646 0.32627885999028677 0 0.2211662086945935 0.32131450326598121 0 0.2319111105912792 0.31546728711290062 0 0.2342921457550646 0.32627885999028677 0 0.2211662086945935 0.32131450326598121 0 0.21743048972585691 0.32666519592958981 0 0.2211662086945935 0.32131450326598121 0 0.21743048972585691 0.32666519592958981 0 0.24515973334967259 0.33822848421310331 0 0.23098015708383651 0.34555218510731872 0 0.21743048972585691 0.32666519592958981 0 0.24515973334967259 0.33822848421310331 0 0.21743048972585691 0.32666519592958981 0 0.23098015708383651 0.34555218510731872 0 0.2190824914210959 0.34748352336094068 0 0.21743048972585691 0.32666519592958981 0 0.2342921457550646 0.32627885999028677 0 0.24515973334967259 0.33822848421310331 0 0.2342921457550646 0.32627885999028677 0 0.24515973334967259 0.33822848421310331 0 0.2586813758008511 0.32674947170628071 0 0.2342921457550646 0.32627885999028677 0 0.2586813758008511 0.32674947170628071 0 0.2486062022936909 0.31228926882663699 0 0.2342921457550646 0.32627885999028677 0 0.2586813758008511 0.32674947170628071 0 0.2486062022936909 0.31228926882663699 0 0.2319111105912792 0.31546728711290062 0 0.2342921457550646 0.32627885999028677 0 0.23526356978636609 0.37262998023164029 0 0.24249847638971039 0.3655240436503211 0 0.22959971469186621 0.35900974111837558 0 0.24249847638971039 0.3655240436503211 0 0.2436283562306906 0.35637398091458372 0 0.22959971469186621 0.35900974111837558 0 0.2490283282522085 0.37268909123684868 0 0.24895539579784931 0.36454629407134498 0 0.24249847638971039 0.3655240436503211 0 0.23526356978636609 0.37262998023164029 0 0.2490283282522085 0.37268909123684868 0 0.24249847638971039 0.3655240436503211 0 0.24895539579784931 0.36454629407134498 0 0.24249847638971039 0.3655240436503211 0 0.2436283562306906 0.35637398091458372 0 0.24515973334967259 0.33822848421310331 0 0.2436283562306906 0.35637398091458372 0 0.26066642231878762 0.36359806048362642 0 0.24515973334967259 0.33822848421310331 0 0.2436283562306906 0.35637398091458372 0 0.23098015708383651 0.34555218510731872 0 0.2436283562306906 0.35637398091458372 0 0.22959971469186621 0.35900974111837558 0 0.23098015708383651 0.34555218510731872 0 0.22959971469186621 0.35900974111837558 0 0.23098015708383651 0.34555218510731872 0 0.2190824914210959 0.34748352336094068 0 0.22959971469186621 0.35900974111837558 0 0.2190824914210959 0.34748352336094068 0 0.21563725849181631 0.35887381924123218 0 0.22959971469186621 0.35900974111837558 0 0.22034145911675701 0.37113550230284609 0 0.21563725849181631 0.35887381924123218 0 0.23526356978636609 0.37262998023164029 0 0.22959971469186621 0.35900974111837558 0 0.22034145911675701 0.37113550230284609 0 0.22034145911675701 0.37113550230284609 0 0.20570196543852171 0.36715344588527771 0 0.20920006331601221 0.37916254888685369 0 0.22034145911675701 0.37113550230284609 0 0.20570196543852171 0.36715344588527771 0 0.21563725849181631 0.35887381924123218 0 0.20570196543852171 0.36715344588527771 0 0.21563725849181631 0.35887381924123218 0 0.2025141173955243 0.34803000539825008 0 0.2190824914210959 0.34748352336094068 0 0.21563725849181631 0.35887381924123218 0 0.2025141173955243 0.34803000539825008 0 0.2025141173955243 0.34803000539825008 0 0.18846898522211189 0.35255217419036539 0 0.18759774506519289 0.36939481486691123 0 0.2025141173955243 0.34803000539825008 0 0.18759774506519289 0.36939481486691123 0 0.2025141173955243 0.34803000539825008 0 0.18846898522211189 0.35255217419036539 0 0.18710589912842199 0.33705342615765532 0 0.20570196543852171 0.36715344588527771 0 0.18759774506519289 0.36939481486691123 0 0.1979952615443239 0.37885095928583817 0 0.20570196543852171 0.36715344588527771 0 0.2025141173955243 0.34803000539825008 0 0.18759774506519289 0.36939481486691123 0 0.18759774506519289 0.36939481486691123 0 0.17498812479224329 0.36596976593619818 0 0.17150133299685849 0.3757408942711713 0 0.18759774506519289 0.36939481486691123 0 0.17498812479224329 0.36596976593619818 0 0.1766581792993083 0.35573045033864531 0 0.17498812479224329 0.36596976593619818 0 0.16542075438803111 0.36195752348197452 0 0.1766581792993083 0.35573045033864531 0 0.16542075438803111 0.36195752348197452 0 0.16264290207613361 0.37141590087059478 0 0.14964993494826651 0.36462591229873659 0 0.17498812479224329 0.36596976593619818 0 0.16264290207613361 0.37141590087059478 0 0.17150133299685849 0.3757408942711713 0 0.17498812479224329 0.36596976593619818 0 0.16542075438803111 0.36195752348197452 0 0.16264290207613361 0.37141590087059478 0 0.16542075438803111 0.36195752348197452 0 0.15025321058953101 0.34011768655533581 0 0.16542075438803111 0.36195752348197452 0 0.16557019361410269 0.34466970490188581 0 0.1766581792993083 0.35573045033864531 0 0.16542075438803111 0.36195752348197452 0 0.16557019361410269 0.34466970490188581 0 0.15025321058953101 0.34011768655533581 0 0.18846898522211189 0.35255217419036539 0 0.1766581792993083 0.35573045033864531 0 0.18710589912842199 0.33705342615765532 0 0.16557019361410269 0.34466970490188581 0 0.1766581792993083 0.35573045033864531 0 0.1739605272090102 0.3367097727443234 0 0.18846898522211189 0.35255217419036539 0 0.18759774506519289 0.36939481486691123 0 0.1766581792993083 0.35573045033864531 0 0.1766581792993083 0.35573045033864531 0 0.18710589912842199 0.33705342615765532 0 0.1766581792993083 0.35573045033864531 0 0.18710589912842199 0.33705342615765532 0 0.1739605272090102 0.3367097727443234 0 0.1739605272090102 0.3367097727443234 0 0.18093040123850859 0.32460216808512188 0 0.16480948401211229 0.32545481161619833 0 0.18710589912842199 0.33705342615765532 0 0.1739605272090102 0.3367097727443234 0 0.18093040123850859 0.32460216808512188 0 0.17936575743469019 0.31079193667705729 0 0.18093040123850859 0.32460216808512188 0 0.16480948401211229 0.32545481161619833 0 0.17936575743469019 0.31079193667705729 0 0.19755361895753859 0.31837640197666711 0 0.18093040123850859 0.32460216808512188 0 0.17936575743469019 0.31079193667705729 0 0.16480948401211229 0.32545481161619833 0 0.17936575743469019 0.31079193667705729 0 0.1669980263970095 0.31490559988157119 0 0.16480948401211229 0.32545481161619833 0 0.16480948401211229 0.32545481161619833 0 0.15698825706182079 0.31781179382775471 0 0.15479971467692261 0.32836100556238029 0 0.1669980263970095 0.31490559988157119 0 0.16480948401211229 0.32545481161619833 0 0.15698825706182079 0.31781179382775471 0 0.16682860707941419 0.30556385740527608 0 0.1669980263970095 0.31490559988157119 0 0.15698825706182079 0.31781179382775471 0 0.16557019361410269 0.34466970490188581 0 0.16480948401211229 0.32545481161619833 0 0.15025321058953101 0.34011768655533581 0 0.16557019361410269 0.34466970490188581 0 0.1739605272090102 0.3367097727443234 0 0.16480948401211229 0.32545481161619833 0 0.16480948401211229 0.32545481161619833 0 0.15025321058953101 0.34011768655533581 0 0.15479971467692261 0.32836100556238029 0 0.16480948401211229 0.32545481161619833 0 0.15025321058953101 0.34011768655533581 0 0.15025321058953101 0.34011768655533581 0 0.1359397982972386 0.33620450958495851 0 0.13660774602744419 0.35386308240987602 0 0.15025321058953101 0.34011768655533581 0 0.14714790704422601 0.33005973025023222 0 0.13527185056703439 0.318545936760041 0 0.15025321058953101 0.34011768655533581 0 0.13527185056703439 0.318545936760041 0 0.15025321058953101 0.34011768655533581 0 0.15479971467692261 0.32836100556238029 0 0.14714790704422601 0.33005973025023222 0 0.14698409370996071 0.31099811472619238 0 0.15698825706182079 0.31781179382775471 0 0.14640706510242121 0.31938753560084537 0 0.15698825706182079 0.31781179382775471 0 0.14714790704422601 0.33005973025023222 0 0.14640706510242121 0.31938753560084537 0 0.15698825706182079 0.31781179382775471 0 0.15479971467692261 0.32836100556238029 0 0.14714790704422601 0.33005973025023222 0 0.15698825706182079 0.31781179382775471 0 0.14714790704422601 0.33005973025023222 0 0.14714790704422601 0.33005973025023222 0 0.14640706510242121 0.31938753560084537 0 0.13527185056703439 0.318545936760041 0 0.14698409370996071 0.31099811472619238 0 0.14640706510242121 0.31938753560084537 0 0.13527185056703439 0.318545936760041 0 0.13527185056703439 0.318545936760041 0 0.1359397982972386 0.33620450958495851 0 0.1217335067289001 0.32753479831282389 0 0.13527185056703439 0.318545936760041 0 0.1359397982972386 0.33620450958495851 0 0.1206451357926565 0.3149528940769537 0 0.1217335067289001 0.32753479831282389 0 0.13527185056703439 0.318545936760041 0 0.15025321058953101 0.34011768655533581 0 0.13527185056703439 0.318545936760041 0 0.1359397982972386 0.33620450958495851 0 0.1359397982972386 0.33620450958495851 0 0.13660774602744419 0.35386308240987602 0 0.12093509163405659 0.36965051403218319 0 0.1241583947180054 0.3524505205686872 0 0.13660774602744419 0.35386308240987602 0 0.1241583947180054 0.3524505205686872 0 0.1359397982972386 0.33620450958495851 0 0.13660774602744419 0.35386308240987602 0 0.12093509163405659 0.36965051403218319 0 0.13660774602744419 0.35386308240987602 0 0.12093509163405659 0.36965051403218319 0 0.13660774602744419 0.35386308240987602 0 0.1375168822633254 0.37789796972685019 0 0.13660774602744419 0.35386308240987602 0 0.1375168822633254 0.37789796972685019 0 0.13660774602744419 0.35386308240987602 0 0.14964993494826651 0.36462591229873659 0 0.1375168822633254 0.37789796972685019 0 0.14964993494826651 0.36462591229873659 0 0.15516918167196511 0.3796341419713305 0 0.1375168822633254 0.37789796972685019 0 0.16264290207613361 0.37141590087059478 0 0.14964993494826651 0.36462591229873659 0 0.15516918167196511 0.3796341419713305 0 0.16542075438803111 0.36195752348197452 0 0.15025321058953101 0.34011768655533581 0 0.14964993494826651 0.36462591229873659 0 0.15025321058953101 0.34011768655533581 0 0.13660774602744419 0.35386308240987602 0 0.14964993494826651 0.36462591229873659 0 0.15025321058953101 0.34011768655533581 0 0.13660774602744419 0.35386308240987602 0 0.15197423350038011 0.40534668350431319 0 0.13628866627619901 0.39492197481828473 0 0.14367651630387379 0.40759810440507399 0 0.15197423350038011 0.40534668350431319 0 0.1484667500127983 0.38977196437201678 0 0.13628866627619901 0.39492197481828473 0 0.15197423350038011 0.40534668350431319 0 0.13628866627619901 0.39492197481828473 0 0.15197423350038011 0.40534668350431319 0 0.1484667500127983 0.38977196437201678 0 0.16138478635212211 0.391059051839306 0 0.1484667500127983 0.38977196437201678 0 0.15516918167196511 0.3796341419713305 0 0.16138478635212211 0.391059051839306 0 0.1484667500127983 0.38977196437201678 0 0.1375168822633254 0.37789796972685019 0 0.13628866627619901 0.39492197481828473 0 0.1484667500127983 0.38977196437201678 0 0.15516918167196511 0.3796341419713305 0 0.1375168822633254 0.37789796972685019 0 0.12060309905201839 0.38449726613225532 0 0.12093509163405659 0.36965051403218319 0 0.1375168822633254 0.37789796972685019 0 0.12060309905201839 0.38449726613225532 0 0.1375168822633254 0.37789796972685019 0 0.13628866627619901 0.39492197481828473 0 0.12060309905201839 0.38449726613225532 0 0.13628866627619901 0.39492197481828473 0 0.12060309905201839 0.38449726613225532 0 0.13628866627619901 0.39492197481828473 0 0.12547614350222219 0.40421564043915792 0 0.13628866627619901 0.39492197481828473 0 0.13778279396151741 0.40743226372158531 0 0.14367651630387379 0.40759810440507399 0 0.13628866627619901 0.39492197481828473 0 0.12547614350222219 0.40421564043915792 0 0.13778279396151741 0.40743226372158531 0 0.12547614350222219 0.40421564043915792 0 0.12534186643621831 0.42195518777002072 0 0.14568984976377461 0.42299333522382448 0 0.12547614350222219 0.40421564043915792 0 0.13778279396151741 0.40743226372158531 0 0.14568984976377461 0.42299333522382448 0 0.12547614350222219 0.40421564043915792 0 0.14568984976377461 0.42299333522382448 0 0.12838627276356951 0.43693348073133148 0 0.14568984976377461 0.42299333522382448 0 0.1465261590215525 0.4456354270628049 0 0.12838627276356951 0.43693348073133148 0 0.12534186643621831 0.42195518777002072 0 0.14568984976377461 0.42299333522382448 0 0.14568984976377461 0.42299333522382448 0 0.165903556025325 0.4417710300084936 0 0.14568984976377461 0.42299333522382448 0 0.165903556025325 0.4417710300084936 0 0.1465261590215525 0.4456354270628049 0 0.15197423350038011 0.40534668350431319 0 0.14367651630387379 0.40759810440507399 0 0.13778279396151741 0.40743226372158531 0 0.14568984976377461 0.42299333522382448 0 0.14367651630387379 0.40759810440507399 0 0.14568984976377461 0.42299333522382448 0 0.14367651630387379 0.40759810440507399 0 0.1555377500792603 0.41655806834419262 0 0.14568984976377461 0.42299333522382448 0 0.1555377500792603 0.41655806834419262 0 0.1604477502812057 0.42543652284523259 0 0.15197423350038011 0.40534668350431319 0 0.14367651630387379 0.40759810440507399 0 0.1555377500792603 0.41655806834419262 0 0.15197423350038011 0.40534668350431319 0 0.1746598452564623 0.42042365780441809 0 0.15197423350038011 0.40534668350431319 0 0.1746598452564623 0.42042365780441809 0 0.17557686619631971 0.39894257749464879 0 0.15197423350038011 0.40534668350431319 0 0.1555377500792603 0.41655806834419262 0 0.1746598452564623 0.42042365780441809 0 0.1555377500792603 0.41655806834419262 0 0.1604477502812057 0.42543652284523259 0 0.1746598452564623 0.42042365780441809 0 0.14568984976377461 0.42299333522382448 0 0.1604477502812057 0.42543652284523259 0 0.165903556025325 0.4417710300084936 0 0.1604477502812057 0.42543652284523259 0 0.1746598452564623 0.42042365780441809 0 0.165903556025325 0.4417710300084936 0 0.18703765081588711 0.41019194881760218 0 0.1746598452564623 0.42042365780441809 0 0.19734545701254461 0.43550063210452261 0 0.1746598452564623 0.42042365780441809 0 0.19734545701254461 0.43550063210452261 0 0.1746598452564623 0.42042365780441809 0 0.19734545701254461 0.43550063210452261 0 0.18162450651893511 0.43863583105650922 0 0.1746598452564623 0.42042365780441809 0 0.18162450651893511 0.43863583105650922 0 0.165903556025325 0.4417710300084936 0 0.18703765081588711 0.41019194881760218 0 0.1746598452564623 0.42042365780441809 0 0.17557686619631971 0.39894257749464879 0 0.17557686619631971 0.39894257749464879 0 0.18670469017063171 0.38589290986391628 0 0.19917949889225939 0.392538471484985 0 0.17557686619631971 0.39894257749464879 0 0.19917949889225939 0.392538471484985 0 0.18703765081588711 0.41019194881760218 0 0.17557686619631971 0.39894257749464879 0 0.19917949889225939 0.392538471484985 0 0.17268137273486159 0.39075962433557221 0 0.17557686619631971 0.39894257749464879 0 0.18670469017063171 0.38589290986391628 0 0.15197423350038011 0.40534668350431319 0 0.17557686619631971 0.39894257749464879 0 0.15197423350038011 0.40534668350431319 0 0.17557686619631971 0.39894257749464879 0 0.16138478635212211 0.391059051839306 0 0.17268137273486159 0.39075962433557221 0 0.17557686619631971 0.39894257749464879 0 0.16138478635212211 0.391059051839306 0 0.16264290207613361 0.37141590087059478 0 0.15516918167196511 0.3796341419713305 0 0.1657517498944068 0.3837483695561964 0 0.15516918167196511 0.3796341419713305 0 0.16138478635212211 0.391059051839306 0 0.1657517498944068 0.3837483695561964 0 0.17268137273486159 0.39075962433557221 0 0.1657517498944068 0.3837483695561964 0 0.17150133299685849 0.3757408942711713 0 0.17268137273486159 0.39075962433557221 0 0.16138478635212211 0.391059051839306 0 0.1657517498944068 0.3837483695561964 0 0.16264290207613361 0.37141590087059478 0 0.1657517498944068 0.3837483695561964 0 0.17150133299685849 0.3757408942711713 0 0.18759774506519289 0.36939481486691123 0 0.17268137273486159 0.39075962433557221 0 0.18759774506519289 0.36939481486691123 0 0.17268137273486159 0.39075962433557221 0 0.17150133299685849 0.3757408942711713 0 0.18759774506519289 0.36939481486691123 0 0.17268137273486159 0.39075962433557221 0 0.18670469017063171 0.38589290986391628 0 0.18759774506519289 0.36939481486691123 0 0.18670469017063171 0.38589290986391628 0 0.1979952615443239 0.37885095928583817 0 0.18670469017063171 0.38589290986391628 0 0.1979952615443239 0.37885095928583817 0 0.19917949889225939 0.392538471484985 0 0.1979952615443239 0.37885095928583817 0 0.19917949889225939 0.392538471484985 0 0.20920006331601221 0.37916254888685369 0 0.18703765081588711 0.41019194881760218 0 0.19917949889225939 0.392538471484985 0 0.20306373589987731 0.41122274275361448 0 0.19917949889225939 0.392538471484985 0 0.21224821508797459 0.39965513368633881 0 0.20306373589987731 0.41122274275361448 0 0.19917949889225939 0.392538471484985 0 0.21224821508797459 0.39965513368633881 0 0.22278213158819909 0.38613436547532121 0 0.19917949889225939 0.392538471484985 0 0.22278213158819909 0.38613436547532121 0 0.19917949889225939 0.392538471484985 0 0.20920006331601221 0.37916254888685369 0 0.22278213158819909 0.38613436547532121 0 0.20570196543852171 0.36715344588527771 0 0.1979952615443239 0.37885095928583817 0 0.20920006331601221 0.37916254888685369 0 0.22034145911675701 0.37113550230284609 0 0.20920006331601221 0.37916254888685369 0 0.22278213158819909 0.38613436547532121 0 0.23526356978636609 0.37262998023164029 0 0.22034145911675701 0.37113550230284609 0 0.22278213158819909 0.38613436547532121 0 0.22278213158819909 0.38613436547532121 0 0.2339122190068931 0.395869722567537 0 0.24402799842456219 0.38239240245413619 0 0.22278213158819909 0.38613436547532121 0 0.2339122190068931 0.395869722567537 0 0.22396749397156249 0.40872495503143408 0 0.2339122190068931 0.395869722567537 0 0.24487125204324811 0.40622716730925651 0 0.22396749397156249 0.40872495503143408 0 0.21224821508797459 0.39965513368633881 0 0.22278213158819909 0.38613436547532121 0 0.22396749397156249 0.40872495503143408 0 0.24487125204324811 0.40622716730925651 0 0.24821719647919729 0.37923306535244722 0 0.2339122190068931 0.395869722567537 0 0.24487125204324811 0.40622716730925651 0 0.24402799842456219 0.38239240245413619 0 0.22278213158819909 0.38613436547532121 0 0.24638476428413911 0.37973025946565842 0 0.22278213158819909 0.38613436547532121 0 0.24638476428413911 0.37973025946565842 0 0.24402799842456219 0.38239240245413619 0 0.24487125204324811 0.40622716730925651 0 0.24821719647919729 0.37923306535244722 0 0.24402799842456219 0.38239240245413619 0 0.23526356978636609 0.37262998023164029 0 0.22278213158819909 0.38613436547532121 0 0.24638476428413911 0.37973025946565842 0 0.24821719647919729 0.37923306535244722 0 0.24638476428413911 0.37973025946565842 0 0.24402799842456219 0.38239240245413619 0 0.23526356978636609 0.37262998023164029 0 0.2490283282522085 0.37268909123684868 0 0.24638476428413911 0.37973025946565842 0 0.24821719647919729 0.37923306535244722 0 0.24638476428413911 0.37973025946565842 0 0.2490283282522085 0.37268909123684868 0 0.2484438676640881 0.37740434847063881 0 0.2490283282522085 0.37268909123684868 0 0.24638476428413911 0.37973025946565842 0 0.2484438676640881 0.37740434847063881 0 0.24821719647919729 0.37923306535244722 0 0.2484438676640881 0.37740434847063881 0 0.24638476428413911 0.37973025946565842 0 0.2484438676640881 0.37740434847063881 0 0.24821719647919729 0.37923306535244722 0 0.24638476428413911 0.37973025946565842 0 0.2484438676640881 0.37740434847063881 0 0.24638476428413911 0.37973025946565842 0 0.24402799842456219 0.38239240245413619 0 0.24487125204324811 0.40622716730925651 0 0.22396749397156249 0.40872495503143408 0 0.24487125204324811 0.40622716730925651 0 0.2423553924708545 0.42652438715449559 0 0.24487125204324811 0.40622716730925651 0 0.2423553924708545 0.42652438715449559 0 0.25404138791113262 0.41465803776295568 0 0.24487125204324811 0.40622716730925651 0 0.2423553924708545 0.42652438715449559 0 0.22396749397156249 0.40872495503143408 0 0.2423553924708545 0.42652438715449559 0 0.21985042474169991 0.43101250962951021 0 0.2423553924708545 0.42652438715449559 0 0.22396749397156249 0.40872495503143408 0 0.21985042474169991 0.43101250962951021 0 0.2423553924708545 0.42652438715449559 0 0.21985042474169991 0.43101250962951021 0 0.2297610012292233 0.44031997733289252 0 0.21985042474169991 0.43101250962951021 0 0.20306373589987731 0.41122274275361448 0 0.19734545701254461 0.43550063210452261 0 0.21985042474169991 0.43101250962951021 0 0.19734545701254461 0.43550063210452261 0 0.21985042474169991 0.43101250962951021 0 0.19734545701254461 0.43550063210452261 0 0.2129386324439877 0.44586393672970343 0 0.22396749397156249 0.40872495503143408 0 0.21985042474169991 0.43101250962951021 0 0.20306373589987731 0.41122274275361448 0 0.22396749397156249 0.40872495503143408 0 0.20306373589987731 0.41122274275361448 0 0.21224821508797459 0.39965513368633881 0 0.22396749397156249 0.40872495503143408 0 0.20306373589987731 0.41122274275361448 0 0.18703765081588711 0.41019194881760218 0 0.20306373589987731 0.41122274275361448 0 0.19734545701254461 0.43550063210452261 0 0.19734545701254461 0.43550063210452261 0 0.18162450651893511 0.43863583105650922 0 0.19734545701254461 0.43550063210452261 0 0.1971887628281388 0.44971354154368282 0 0.18162450651893511 0.43863583105650922 0 0.19734545701254461 0.43550063210452261 0 0.1971887628281388 0.44971354154368282 0 0.2129386324439877 0.44586393672970343 0 0.1971887628281388 0.44971354154368282 0 0.1924475428087605 0.46642929285935603 0 0.1743785407050612 0.44964393928903762 0 0.1971887628281388 0.44971354154368282 0 0.1924475428087605 0.46642929285935603 0 0.21012462578730179 0.46414098497549072 0 0.1971887628281388 0.44971354154368282 0 0.21012462578730179 0.46414098497549072 0 0.21999898495121639 0.44978314379832668 0 0.21012462578730179 0.46414098497549072 0 0.21999898495121639 0.44978314379832668 0 0.220455466325299 0.46224976002769191 0 0.21012462578730179 0.46414098497549072 0 0.220455466325299 0.46224976002769191 0 0.22284268315538491 0.47173462253434761 0 0.1971887628281388 0.44971354154368282 0 0.2173330812594019 0.44919232239672241 0 0.21999898495121639 0.44978314379832668 0 0.1971887628281388 0.44971354154368282 0 0.21999898495121639 0.44978314379832668 0 0.1971887628281388 0.44971354154368282 0 0.2129386324439877 0.44586393672970343 0 0.2173330812594019 0.44919232239672241 0 0.19734545701254461 0.43550063210452261 0 0.2129386324439877 0.44586393672970343 0 0.2173330812594019 0.44919232239672241 0 0.21999898495121639 0.44978314379832668 0 0.2129386324439877 0.44586393672970343 0 0.2173330812594019 0.44919232239672241 0 0.2199764249251058 0.44323437797743082 0 0.21985042474169991 0.43101250962951021 0 0.2129386324439877 0.44586393672970343 0 0.2199764249251058 0.44323437797743082 0 0.21999898495121639 0.44978314379832668 0 0.23895180998214771 0.45398349607794719 0 0.21999898495121639 0.44978314379832668 0 0.23946508516091031 0.44984254192502432 0 0.21985042474169991 0.43101250962951021 0 0.2199764249251058 0.44323437797743082 0 0.2297610012292233 0.44031997733289252 0 0.2297610012292233 0.44031997733289252 0 0.21999898495121639 0.44978314379832668 0 0.23946508516091031 0.44984254192502432 0 0.21999898495121639 0.44978314379832668 0 0.23895180998214771 0.45398349607794719 0 0.23946508516091031 0.44984254192502432 0 0.2199764249251058 0.44323437797743082 0 0.2297610012292233 0.44031997733289252 0 0.21999898495121639 0.44978314379832668 0 0.2173330812594019 0.44919232239672241 0 0.2199764249251058 0.44323437797743082 0 0.21999898495121639 0.44978314379832668 0 0.21999898495121639 0.44978314379832668 0 0.22941754086920041 0.46143411653248262 0 0.23895180998214771 0.45398349607794719 0 0.21999898495121639 0.44978314379832668 0 0.220455466325299 0.46224976002769191 0 0.22941754086920041 0.46143411653248262 0 0.220455466325299 0.46224976002769191 0 0.22941754086920041 0.46143411653248262 0 0.22284268315538491 0.47173462253434761 0 0.22941754086920041 0.46143411653248262 0 0.2361831886167646 0.47142337432567039 0 0.22284268315538491 0.47173462253434761 0 0.23842434309808239 0.45823894476208699 0 0.23895180998214771 0.45398349607794719 0 0.2487360656366949 0.46795188371023538 0 0.22941754086920041 0.46143411653248262 0 0.23842434309808239 0.45823894476208699 0 0.23895180998214771 0.45398349607794719 0 0.23842434309808239 0.45823894476208699 0 0.23895180998214771 0.45398349607794719 0 0.22941754086920041 0.46143411653248262 0 0.23842434309808239 0.45823894476208699 0 0.2361831886167646 0.47142337432567039 0 0.23842434309808239 0.45823894476208699 0 0.2487360656366949 0.46795188371023538 0 0.2361831886167646 0.47142337432567039 0 0.23946508516091031 0.44984254192502432 0 0.25269765294972679 0.43790012794048261 0 0.25775203640916322 0.44989834204089169 0 0.2423553924708545 0.42652438715449559 0 0.23946508516091031 0.44984254192502432 0 0.25269765294972679 0.43790012794048261 0 0.2423553924708545 0.42652438715449559 0 0.23946508516091031 0.44984254192502432 0 0.2423553924708545 0.42652438715449559 0 0.2297610012292233 0.44031997733289252 0 0.23946508516091031 0.44984254192502432 0 0.23946508516091031 0.44984254192502432 0 0.25775203640916322 0.44989834204089169 0 0.23895180998214771 0.45398349607794719 0 0.23946508516091031 0.44984254192502432 0 0.25775203640916322 0.44989834204089169 0 0.23895180998214771 0.45398349607794719 0 0.23946508516091031 0.44984254192502432 0 0.244980105738101 0.48426629726610337 0 0.22858554701615499 0.49999999999999678 0 0.25562571272561369 0.5 0 0.244980105738101 0.48426629726610337 0 0.2361831886167646 0.47142337432567039 0 0.22866030677294241 0.48319080187520203 0 0.2487360656366949 0.46795188371023538 0 0.244980105738101 0.48426629726610337 0 0.2361831886167646 0.47142337432567039 0 0.22866030677294241 0.48319080187520203 0 0.22284268315538491 0.47173462253434761 0 0.21051654491245861 0.4832146464296756 0 0.2361831886167646 0.47142337432567039 0 0.22866030677294241 0.48319080187520203 0 0.22284268315538491 0.47173462253434761 0 0.22858554701615499 0.49999999999999678 0 0.21051654491245861 0.4832146464296756 0 0.22866030677294241 0.48319080187520203 0 0.22858554701615499 0.49999999999999678 0 0.21051654491245861 0.4832146464296756 0 0.244980105738101 0.48426629726610337 0 0.22866030677294241 0.48319080187520203 0 0.22858554701615499 0.49999999999999678 0 0.22858554701615499 0.49999999999999678 0 0.21051654491245861 0.4832146464296756 0 0.198683825162498 0.5 0 0.21012462578730179 0.46414098497549072 0 0.22284268315538491 0.47173462253434761 0 0.21051654491245861 0.4832146464296756 0 0.1924475428087605 0.46642929285935603 0 0.21012462578730179 0.46414098497549072 0 0.21051654491245861 0.4832146464296756 0 0.1924475428087605 0.46642929285935603 0 0.21051654491245861 0.4832146464296756 0 0.19445137851572189 0.48370476958080949 0 0.1924475428087605 0.46642929285935603 0 0.19445137851572189 0.48370476958080949 0 0.18194407500349219 0.47842500846870079 0 0.1924475428087605 0.46642929285935603 0 0.21051654491245861 0.4832146464296756 0 0.19445137851572189 0.48370476958080949 0 0.198683825162498 0.5 0 0.1828542348903307 0.48936885041593609 0 0.21051654491245861 0.4832146464296756 0 0.19445137851572189 0.48370476958080949 0 0.198683825162498 0.5 0 0.198683825162498 0.5 0 0.1828542348903307 0.48936885041593609 0 0.168782103308841 0.5 0 0.1828542348903307 0.48936885041593609 0 0.168782103308841 0.5 0 0.1689694162053422 0.48524680989828473 0 0.168782103308841 0.5 0 0.1689694162053422 0.48524680989828473 0 0.1388803814551838 0.5 0 0.1689694162053422 0.48524680989828473 0 0.16978724638874981 0.4671490592286221 0 0.1499904322012191 0.47433601938188752 0 0.1689694162053422 0.48524680989828473 0 0.1499904322012191 0.47433601938188752 0 0.1689694162053422 0.48524680989828473 0 0.18194407500349219 0.47842500846870079 0 0.16978724638874981 0.4671490592286221 0 0.1924475428087605 0.46642929285935603 0 0.18194407500349219 0.47842500846870079 0 0.16978724638874981 0.4671490592286221 0 0.1828542348903307 0.48936885041593609 0 0.1689694162053422 0.48524680989828473 0 0.18194407500349219 0.47842500846870079 0 0.19445137851572189 0.48370476958080949 0 0.1828542348903307 0.48936885041593609 0 0.18194407500349219 0.47842500846870079 0 0.1924475428087605 0.46642929285935603 0 0.1743785407050612 0.44964393928903762 0 0.1924475428087605 0.46642929285935603 0 0.1743785407050612 0.44964393928903762 0 0.16978724638874981 0.4671490592286221 0 0.18162450651893511 0.43863583105650922 0 0.1743785407050612 0.44964393928903762 0 0.165903556025325 0.4417710300084936 0 0.1971887628281388 0.44971354154368282 0 0.1743785407050612 0.44964393928903762 0 0.18162450651893511 0.43863583105650922 0 0.165903556025325 0.4417710300084936 0 0.1971887628281388 0.44971354154368282 0 0.18162450651893511 0.43863583105650922 0 0.1743785407050612 0.44964393928903762 0 0.1743785407050612 0.44964393928903762 0 0.1507636513614205 0.44957188170307738 0 0.1743785407050612 0.44964393928903762 0 0.165903556025325 0.4417710300084936 0 0.1507636513614205 0.44957188170307738 0 0.1743785407050612 0.44964393928903762 0 0.165903556025325 0.4417710300084936 0 0.1743785407050612 0.44964393928903762 0 0.16978724638874981 0.4671490592286221 0 0.1507636513614205 0.44957188170307738 0 0.16978724638874981 0.4671490592286221 0 0.1507636513614205 0.44957188170307738 0 0.1499904322012191 0.47433601938188752 0 0.1507636513614205 0.44957188170307738 0 0.13101144819709601 0.46342522886549031 0 0.1499904322012191 0.47433601938188752 0 0.165903556025325 0.4417710300084936 0 0.1465261590215525 0.4456354270628049 0 0.165903556025325 0.4417710300084936 0 0.1507636513614205 0.44957188170307738 0 0.1465261590215525 0.4456354270628049 0 0.1507636513614205 0.44957188170307738 0 0.1465261590215525 0.4456354270628049 0 0.12714876201777969 0.44949982411711448 0 0.1507636513614205 0.44957188170307738 0 0.12714876201777969 0.44949982411711448 0 0.1465261590215525 0.4456354270628049 0 0.12714876201777969 0.44949982411711448 0 0.12838627276356951 0.43693348073133148 0 0.1465261590215525 0.4456354270628049 0 0.12714876201777969 0.44949982411711448 0 0.12838627276356951 0.43693348073133148 0 0.12568430742925421 0.44979187748202037 0 0.12714876201777969 0.44949982411711448 0 0.12568430742925421 0.44979187748202037 0 0.12714876201777969 0.44949982411711448 0 0.1507636513614205 0.44957188170307738 0 0.12714876201777969 0.44949982411711448 0 0.13101144819709601 0.46342522886549031 0 0.12568430742925421 0.44979187748202037 0 0.12714876201777969 0.44949982411711448 0 0.13101144819709601 0.46342522886549031 0 0.13101144819709601 0.46342522886549031 0 0.13543270504116139 0.48014760529004868 0 0.1499904322012191 0.47433601938188752 0 0.1218485583111467 0.48282917291281702 0 0.13101144819709601 0.46342522886549031 0 0.13543270504116139 0.48014760529004868 0 0.13101144819709601 0.46342522886549031 0 0.1499904322012191 0.47433601938188752 0 0.1218485583111467 0.48282917291281702 0 0.13543270504116139 0.48014760529004868 0 0.1388803814551838 0.5 0 0.13543270504116139 0.48014760529004868 0 0.1388803814551838 0.5 0 0.1499904322012191 0.47433601938188752 0 0.1689694162053422 0.48524680989828473 0 0.1388803814551838 0.5 0 0.1499904322012191 0.47433601938188752 0 0.36326847439399712 0.48153473363249089 0 0.33840514151162698 0.47602448612158321 0 0.36326847439399712 0.48153473363249089 0 0.35103184455150821 0.46173966894232138 0 0.33840514151162698 0.47602448612158321 0 0.3542111588310643 0.48370256015899737 0 0.36326847439399712 0.48153473363249089 0 0.33840514151162698 0.47602448612158321 0 0.3542111588310643 0.48370256015899737 0 0.33840514151162698 0.47602448612158321 0 0.34231556089324261 0.48812013209789118 0 0.3542111588310643 0.48370256015899737 0 0.36326847439399712 0.48153473363249089 0 0.3542111588310643 0.48370256015899737 0 0.35573528143832089 0.49072357116026949 0 0.34231556089324261 0.48812013209789118 0 0.35573528143832089 0.49072357116026949 0 0.36378637556344873 0.5 0 0.33674620985399001 0.5 0 0.35573528143832089 0.49072357116026949 0 0.33674620985399001 0.5 0 0.34231556089324261 0.48812013209789118 0 0.3542111588310643 0.48370256015899737 0 0.35573528143832089 0.49072357116026949 0 0.36326847439399712 0.48153473363249089 0 0.35573528143832089 0.49072357116026949 0 0.37408390909418338 0.49098400107223628 0 0.36326847439399712 0.48153473363249089 0 0.35573528143832089 0.49072357116026949 0 0.36378637556344873 0.5 0 0.37408390909418338 0.49098400107223628 0 0.36326847439399712 0.48153473363249089 0 0.38632425361297978 0.47601643967078039 0 0.36326847439399712 0.48153473363249089 0 0.36865552948334979 0.46437978376634331 0 0.38632425361297978 0.47601643967078039 0 0.36326847439399712 0.48153473363249089 0 0.36865552948334979 0.46437978376634331 0 0.35103184455150821 0.46173966894232138 0 0.36865552948334979 0.46437978376634331 0 0.36273707991774079 0.44892861406018469 0 0.38232039175456561 0.45468797963349078 0 0.36865552948334979 0.46437978376634331 0 0.36273707991774079 0.44892861406018469 0 0.35103184455150821 0.46173966894232138 0 0.36273707991774079 0.44892861406018469 0 0.377527293993424 0.42915528203593323 0 0.38232039175456561 0.45468797963349078 0 0.36273707991774079 0.44892861406018469 0 0.38232039175456561 0.45468797963349078 0 0.36273707991774079 0.44892861406018469 0 0.34315376808091591 0.44316924848687911 0 0.36273707991774079 0.44892861406018469 0 0.35103184455150821 0.46173966894232138 0 0.34315376808091591 0.44316924848687911 0 0.36273707991774079 0.44892861406018469 0 0.34315376808091591 0.44316924848687911 0 0.35628518580760121 0.43132189029003609 0 0.35103184455150821 0.46173966894232138 0 0.32997107392141872 0.4564011475864459 0 0.33840514151162698 0.47602448612158321 0 0.35103184455150821 0.46173966894232138 0 0.32997107392141872 0.4564011475864459 0 0.34315376808091591 0.44316924848687911 0 0.34315376808091591 0.44316924848687911 0 0.32357045624409098 0.43740988291357352 0 0.32997107392141872 0.4564011475864459 0 0.34315376808091591 0.44316924848687911 0 0.32357045624409098 0.43740988291357352 0 0.30784409346266262 0.45035723496084212 0 0.3102477139099673 0.43198293621913741 0 0.32357045624409098 0.43740988291357352 0 0.32997107392141872 0.4564011475864459 0 0.30784409346266262 0.45035723496084212 0 0.32357045624409098 0.43740988291357352 0 0.32997107392141872 0.4564011475864459 0 0.31354180862925718 0.4705142386106741 0 0.33840514151162698 0.47602448612158321 0 0.32997107392141872 0.4564011475864459 0 0.31354180862925718 0.4705142386106741 0 0.30784409346266262 0.45035723496084212 0 0.31354180862925718 0.4705142386106741 0 0.33840514151162698 0.47602448612158321 0 0.31354180862925718 0.4705142386106741 0 0.33840514151162698 0.47602448612158321 0 0.32322612699926051 0.48701935837416233 0 0.33840514151162698 0.47602448612158321 0 0.34231556089324261 0.48812013209789118 0 0.32322612699926051 0.48701935837416233 0 0.33674620985399001 0.5 0 0.34231556089324261 0.48812013209789118 0 0.32322612699926051 0.48701935837416233 0 0.33674620985399001 0.5 0 0.32322612699926051 0.48701935837416233 0 0.30970604414453118 0.5 0 0.32322612699926051 0.48701935837416233 0 0.30970604414453118 0.5 0 0.29778250525411959 0.48375991465577972 0 0.31354180862925718 0.4705142386106741 0 0.32322612699926051 0.48701935837416233 0 0.29778250525411959 0.48375991465577972 0 0.31354180862925718 0.4705142386106741 0 0.29778250525411959 0.48375991465577972 0 0.28867847574688738 0.46500399109976498 0 0.29778250525411959 0.48375991465577972 0 0.26887669756970961 0.48002189985007709 0 0.28867847574688738 0.46500399109976498 0 0.30970604414453118 0.5 0 0.29778250525411959 0.48375991465577972 0 0.28266587843507229 0.5 0 0.29778250525411959 0.48375991465577972 0 0.28266587843507229 0.5 0 0.26887669756970961 0.48002189985007709 0 0.28266587843507229 0.5 0 0.26887669756970961 0.48002189985007709 0 0.25562571272561369 0.5 0 0.2487360656366949 0.46795188371023538 0 0.244980105738101 0.48426629726610337 0 0.26887669756970961 0.48002189985007709 0 0.2487360656366949 0.46795188371023538 0 0.26887669756970961 0.48002189985007709 0 0.26381514286451763 0.45949374358885592 0 0.244980105738101 0.48426629726610337 0 0.26887669756970961 0.48002189985007709 0 0.25562571272561369 0.5 0 0.25269765294972679 0.43790012794048261 0 0.25775203640916322 0.44989834204089169 0 0.26607027885615048 0.43893482299961328 0 0.23895180998214771 0.45398349607794719 0 0.26381514286451763 0.45949374358885592 0 0.23895180998214771 0.45398349607794719 0 0.2487360656366949 0.46795188371023538 0 0.26381514286451763 0.45949374358885592 0 0.23895180998214771 0.45398349607794719 0 0.25775203640916322 0.44989834204089169 0 0.26381514286451763 0.45949374358885592 0 0.26381514286451763 0.45949374358885592 0 0.28867847574688738 0.46500399109976498 0 0.26381514286451763 0.45949374358885592 0 0.27603898765741619 0.44995414215675877 0 0.28867847574688738 0.46500399109976498 0 0.26887669756970961 0.48002189985007709 0 0.26381514286451763 0.45949374358885592 0 0.28867847574688738 0.46500399109976498 0 0.25775203640916322 0.44989834204089169 0 0.26381514286451763 0.45949374358885592 0 0.27603898765741619 0.44995414215675877 0 0.27603898765741619 0.44995414215675877 0 0.26607027885615048 0.43893482299961328 0 0.28196089041657302 0.43386256595961281 0 0.25775203640916322 0.44989834204089169 0 0.27603898765741619 0.44995414215675877 0 0.25775203640916322 0.44989834204089169 0 0.27603898765741619 0.44995414215675877 0 0.26607027885615048 0.43893482299961328 0 0.29035950892732731 0.44941991518904012 0 0.29887238515089798 0.44014929398595309 0 0.28196089041657302 0.43386256595961281 0 0.27603898765741619 0.44995414215675877 0 0.29035950892732731 0.44941991518904012 0 0.28196089041657302 0.43386256595961281 0 0.29035950892732731 0.44941991518904012 0 0.28867847574688738 0.46500399109976498 0 0.30784409346266262 0.45035723496084212 0 0.27603898765741619 0.44995414215675877 0 0.29035950892732731 0.44941991518904012 0 0.28867847574688738 0.46500399109976498 0 0.31354180862925718 0.4705142386106741 0 0.28867847574688738 0.46500399109976498 0 0.30784409346266262 0.45035723496084212 0 0.31354180862925718 0.4705142386106741 0 0.28867847574688738 0.46500399109976498 0 0.29035950892732731 0.44941991518904012 0 0.30784409346266262 0.45035723496084212 0 0.29887238515089798 0.44014929398595309 0 0.30784409346266262 0.45035723496084212 0 0.29887238515089798 0.44014929398595309 0 0.3102477139099673 0.43198293621913741 0 0.3102477139099673 0.43198293621913741 0 0.30483473032122382 0.42210625943525831 0 0.31414050504244517 0.42155453516735758 0 0.3102477139099673 0.43198293621913741 0 0.30483473032122382 0.42210625943525831 0 0.29706070084536013 0.42748034616202568 0 0.30483473032122382 0.42210625943525831 0 0.29706070084536013 0.42748034616202568 0 0.28956097121750968 0.41711026928200789 0 0.29887238515089798 0.44014929398595309 0 0.3102477139099673 0.43198293621913741 0 0.29706070084536013 0.42748034616202568 0 0.28956097121750968 0.41711026928200789 0 0.31316376059083711 0.41240321034576299 0 0.28956097121750968 0.41711026928200789 0 0.29633551938040448 0.40367391976292488 0 0.31316376059083711 0.41240321034576299 0 0.30483473032122382 0.42210625943525831 0 0.28956097121750968 0.41711026928200789 0 0.31316376059083711 0.41240321034576299 0 0.30483473032122382 0.42210625943525831 0 0.31316376059083711 0.41240321034576299 0 0.31414050504244517 0.42155453516735758 0 0.28956097121750968 0.41711026928200789 0 0.28109019852925488 0.40189936943038351 0 0.29633551938040448 0.40367391976292488 0 0.29887238515089798 0.44014929398595309 0 0.29706070084536013 0.42748034616202568 0 0.28196089041657302 0.43386256595961281 0 0.29706070084536013 0.42748034616202568 0 0.28956097121750968 0.41711026928200789 0 0.28196089041657302 0.43386256595961281 0 0.28956097121750968 0.41711026928200789 0 0.28196089041657302 0.43386256595961281 0 0.2659581818441823 0.42181732821825269 0 0.26607027885615048 0.43893482299961328 0 0.28196089041657302 0.43386256595961281 0 0.2659581818441823 0.42181732821825269 0 0.2659581818441823 0.42181732821825269 0 0.26298072528625133 0.4040632683698186 0 0.28109019852925488 0.40189936943038351 0 0.28956097121750968 0.41711026928200789 0 0.2659581818441823 0.42181732821825269 0 0.28109019852925488 0.40189936943038351 0 0.28956097121750968 0.41711026928200789 0 0.2659581818441823 0.42181732821825269 0 0.2423553924708545 0.42652438715449559 0 0.2659581818441823 0.42181732821825269 0 0.25404138791113262 0.41465803776295568 0 0.2659581818441823 0.42181732821825269 0 0.25404138791113262 0.41465803776295568 0 0.26298072528625133 0.4040632683698186 0 0.24487125204324811 0.40622716730925651 0 0.25404138791113262 0.41465803776295568 0 0.26298072528625133 0.4040632683698186 0 0.2423553924708545 0.42652438715449559 0 0.25269765294972679 0.43790012794048261 0 0.2659581818441823 0.42181732821825269 0 0.2423553924708545 0.42652438715449559 0 0.2659581818441823 0.42181732821825269 0 0.25269765294972679 0.43790012794048261 0 0.26607027885615048 0.43893482299961328 0 0.2659581818441823 0.42181732821825269 0 0.24821719647919729 0.37923306535244722 0 0.25892661867712119 0.39074388561491291 0 0.26799442612636831 0.37386690654848759 0 0.24821719647919729 0.37923306535244722 0 0.26799442612636831 0.37386690654848759 0 0.24821719647919729 0.37923306535244722 0 0.2484438676640881 0.37740434847063881 0 0.26799442612636831 0.37386690654848759 0 0.24487125204324811 0.40622716730925651 0 0.24821719647919729 0.37923306535244722 0 0.25892661867712119 0.39074388561491291 0 0.24487125204324811 0.40622716730925651 0 0.26298072528625133 0.4040632683698186 0 0.24487125204324811 0.40622716730925651 0 0.26298072528625133 0.4040632683698186 0 0.25892661867712119 0.39074388561491291 0 0.26298072528625133 0.4040632683698186 0 0.25892661867712119 0.39074388561491291 0 0.27056949345054038 0.39032902049455431 0 0.26298072528625133 0.4040632683698186 0 0.28109019852925488 0.40189936943038351 0 0.28109019852925488 0.40189936943038351 0 0.27056949345054038 0.39032902049455431 0 0.28625846169256841 0.38810913653068418 0 0.26298072528625133 0.4040632683698186 0 0.28109019852925488 0.40189936943038351 0 0.27056949345054038 0.39032902049455431 0 0.27056949345054038 0.39032902049455431 0 0.28625846169256841 0.38810913653068418 0 0.26799442612636831 0.37386690654848759 0 0.25892661867712119 0.39074388561491291 0 0.27056949345054038 0.39032902049455431 0 0.26799442612636831 0.37386690654848759 0 0.28625846169256841 0.38810913653068418 0 0.28777165577353803 0.36850074774452318 0 0.26799442612636831 0.37386690654848759 0 0.28625846169256841 0.38810913653068418 0 0.30479003922525078 0.39292606183170881 0 0.28777165577353803 0.36850074774452318 0 0.30479003922525078 0.39292606183170881 0 0.28777165577353803 0.36850074774452318 0 0.28625846169256841 0.38810913653068418 0 0.29633551938040448 0.40367391976292488 0 0.30479003922525078 0.39292606183170881 0 0.28109019852925488 0.40189936943038351 0 0.28625846169256841 0.38810913653068418 0 0.29633551938040448 0.40367391976292488 0 0.29633551938040448 0.40367391976292488 0 0.30479003922525078 0.39292606183170881 0 0.31316376059083711 0.41240321034576299 0 0.30479003922525078 0.39292606183170881 0 0.30555868910262102 0.37548580011610511 0 0.28777165577353803 0.36850074774452318 0 0.30479003922525078 0.39292606183170881 0 0.30555868910262102 0.37548580011610511 0 0.31784774923201797 0.37897788406745819 0 0.30479003922525078 0.39292606183170881 0 0.31784774923201797 0.37897788406745819 0 0.32332646383808777 0.38948467182372087 0 0.31784774923201797 0.37897788406745819 0 0.32332646383808777 0.38948467182372087 0 0.33319835584748031 0.37774259707588148 0 0.31784774923201797 0.37897788406745819 0 0.33319835584748031 0.37774259707588148 0 0.32584661992611641 0.36949620846973452 0 0.32332646383808777 0.38948467182372087 0 0.33319835584748031 0.37774259707588148 0 0.33619455508751572 0.39579549413751308 0 0.33319835584748031 0.37774259707588148 0 0.33619455508751572 0.39579549413751308 0 0.35902369564351222 0.3870300374081897 0 0.33619455508751572 0.39579549413751308 0 0.33500799771257872 0.4117026736141759 0 0.34657292443149978 0.40425866595284943 0 0.33619455508751572 0.39579549413751308 0 0.32460161979817398 0.40198132200604308 0 0.33500799771257872 0.4117026736141759 0 0.30479003922525078 0.39292606183170881 0 0.32180842267696241 0.41735137591889521 0 0.30479003922525078 0.39292606183170881 0 0.32460161979817398 0.40198132200604308 0 0.32180842267696241 0.41735137591889521 0 0.30479003922525078 0.39292606183170881 0 0.32332646383808777 0.38948467182372087 0 0.32460161979817398 0.40198132200604308 0 0.32332646383808777 0.38948467182372087 0 0.33619455508751572 0.39579549413751308 0 0.32460161979817398 0.40198132200604308 0 0.30479003922525078 0.39292606183170881 0 0.31316376059083711 0.41240321034576299 0 0.32180842267696241 0.41735137591889521 0 0.31316376059083711 0.41240321034576299 0 0.31414050504244517 0.42155453516735758 0 0.32180842267696241 0.41735137591889521 0 0.32460161979817398 0.40198132200604308 0 0.32180842267696241 0.41735137591889521 0 0.33500799771257872 0.4117026736141759 0 0.3102477139099673 0.43198293621913741 0 0.32172165450418683 0.42746564419720912 0 0.32357045624409098 0.43740988291357352 0 0.31414050504244517 0.42155453516735758 0 0.32180842267696241 0.41735137591889521 0 0.32172165450418683 0.42746564419720912 0 0.3102477139099673 0.43198293621913741 0 0.31414050504244517 0.42155453516735758 0 0.32172165450418683 0.42746564419720912 0 0.32180842267696241 0.41735137591889521 0 0.32172165450418683 0.42746564419720912 0 0.33560809027714189 0.42624579438654198 0 0.32172165450418683 0.42746564419720912 0 0.32357045624409098 0.43740988291357352 0 0.33560809027714189 0.42624579438654198 0 0.34315376808091591 0.44316924848687911 0 0.32357045624409098 0.43740988291357352 0 0.33560809027714189 0.42624579438654198 0 0.32180842267696241 0.41735137591889521 0 0.33560809027714189 0.42624579438654198 0 0.33500799771257872 0.4117026736141759 0 0.33560809027714189 0.42624579438654198 0 0.33500799771257872 0.4117026736141759 0 0.34940251626257368 0.41663821062658241 0 0.33500799771257872 0.4117026736141759 0 0.34940251626257368 0.41663821062658241 0 0.34657292443149978 0.40425866595284943 0 0.34940251626257368 0.41663821062658241 0 0.34657292443149978 0.40425866595284943 0 0.35819786038668999 0.40532572876943762 0 0.34940251626257368 0.41663821062658241 0 0.35628518580760121 0.43132189029003609 0 0.36282941053651452 0.41721273923207292 0 0.34940251626257368 0.41663821062658241 0 0.36282941053651452 0.41721273923207292 0 0.35819786038668999 0.40532572876943762 0 0.33560809027714189 0.42624579438654198 0 0.34940251626257368 0.41663821062658241 0 0.35628518580760121 0.43132189029003609 0 0.34315376808091591 0.44316924848687911 0 0.33560809027714189 0.42624579438654198 0 0.35628518580760121 0.43132189029003609 0 0.35628518580760121 0.43132189029003609 0 0.36282941053651452 0.41721273923207292 0 0.377527293993424 0.42915528203593323 0 0.36273707991774079 0.44892861406018469 0 0.35628518580760121 0.43132189029003609 0 0.377527293993424 0.42915528203593323 0 0.36282941053651452 0.41721273923207292 0 0.3727341962322836 0.40362258443837529 0 0.377527293993424 0.42915528203593323 0 0.36282941053651452 0.41721273923207292 0 0.3727341962322836 0.40362258443837529 0 0.35819786038668999 0.40532572876943762 0 0.3727341962322836 0.40362258443837529 0 0.35902369564351222 0.3870300374081897 0 0.35819786038668999 0.40532572876943762 0 0.3727341962322836 0.40362258443837529 0 0.35902369564351222 0.3870300374081897 0 0.38484903543954407 0.39631747774049803 0 0.35902369564351222 0.3870300374081897 0 0.38484903543954407 0.39631747774049803 0 0.35902369564351222 0.3870300374081897 0 0.35403086099949849 0.36945434115781323 0 0.3673119519031956 0.37485695599022117 0 0.35902369564351222 0.3870300374081897 0 0.38019881040731612 0.38114221656671432 0 0.38484903543954407 0.39631747774049803 0 0.35902369564351222 0.3870300374081897 0 0.3673119519031956 0.37485695599022117 0 0.38019881040731612 0.38114221656671432 0 0.33319835584748031 0.37774259707588148 0 0.35902369564351222 0.3870300374081897 0 0.35403086099949849 0.36945434115781323 0 0.33319835584748031 0.37774259707588148 0 0.35902369564351222 0.3870300374081897 0 0.33619455508751572 0.39579549413751308 0 0.35902369564351222 0.3870300374081897 0 0.34657292443149978 0.40425866595284943 0 0.35902369564351222 0.3870300374081897 0 0.34657292443149978 0.40425866595284943 0 0.35819786038668999 0.40532572876943762 0 0.34926810026493399 0.35181490787175612 0 0.36441691703154538 0.34465721196938592 0 0.3561594759538505 0.34042390156691033 0 0.34926810026493399 0.35181490787175612 0 0.3561594759538505 0.34042390156691033 0 0.34680870360065369 0.33965463841384058 0 0.34926810026493399 0.35181490787175612 0 0.34680870360065369 0.33965463841384058 0 0.33694360862845302 0.34228598150756773 0 0.34926810026493399 0.35181490787175612 0 0.35403086099949849 0.36945434115781323 0 0.34018805349865672 0.3649858341028116 0 0.34926810026493399 0.35181490787175612 0 0.35403086099949849 0.36945434115781323 0 0.37012064564394043 0.36079683998464313 0 0.35403086099949849 0.36945434115781323 0 0.3673119519031956 0.37485695599022117 0 0.37012064564394043 0.36079683998464313 0 0.34926810026493399 0.35181490787175612 0 0.37012064564394043 0.36079683998464313 0 0.36441691703154538 0.34465721196938592 0 0.37012064564394043 0.36079683998464313 0 0.36441691703154538 0.34465721196938592 0 0.37562811475614261 0.34910845912078819 0 0.35615450042044289 0.32790728852451301 0 0.37642203326306789 0.33296976381648202 0 0.36441691703154538 0.34465721196938592 0 0.35615450042044289 0.32790728852451301 0 0.37642203326306789 0.33296976381648202 0 0.36441691703154538 0.34465721196938592 0 0.37642203326306789 0.33296976381648202 0 0.37562811475614261 0.34910845912078819 0 0.36476912048143628 0.31900438238490159 0 0.35615450042044289 0.32790728852451301 0 0.37642203326306789 0.33296976381648202 0 0.36476912048143628 0.31900438238490159 0 0.35615450042044289 0.32790728852451301 0 0.36656712451467421 0.30917443275240952 0 0.35615450042044289 0.32790728852451301 0 0.36656712451467421 0.30917443275240952 0 0.3728052631245683 0.31948636163470151 0 0.36476912048143628 0.31900438238490159 0 0.36656712451467421 0.30917443275240952 0 0.3728052631245683 0.31948636163470151 0 0.36656712451467421 0.30917443275240952 0 0.3760688844406162 0.31273466219050589 0 0.36476912048143628 0.31900438238490159 0 0.37642203326306789 0.33296976381648202 0 0.3728052631245683 0.31948636163470151 0 0.36476912048143628 0.31900438238490159 0 0.37642203326306789 0.33296976381648202 0 0.35615450042044289 0.32790728852451301 0 0.34953112864721281 0.31715929244436009 0 0.36656712451467421 0.30917443275240952 0 0.34485436369410932 0.32508471197229299 0 0.34953112864721281 0.31715929244436009 0 0.34214551782671071 0.31985232453498158 0 0.35615450042044289 0.32790728852451301 0 0.34485436369410932 0.32508471197229299 0 0.34953112864721281 0.31715929244436009 0 0.35615450042044289 0.32790728852451301 0 0.34485436369410932 0.32508471197229299 0 0.35615450042044289 0.32790728852451301 0 0.34485436369410932 0.32508471197229299 0 0.34574138531236193 0.32842937141586748 0 0.34953112864721281 0.31715929244436009 0 0.34214551782671071 0.31985232453498158 0 0.339650745727685 0.31403500027166342 0 0.36441691703154538 0.34465721196938592 0 0.35615450042044289 0.32790728852451301 0 0.3561594759538505 0.34042390156691033 0 0.35615450042044289 0.32790728852451301 0 0.35424398155155862 0.33134441197166897 0 0.34574138531236193 0.32842937141586748 0 0.3561594759538505 0.34042390156691033 0 0.35424398155155862 0.33134441197166897 0 0.3490359813169896 0.33397572966813233 0 0.35615450042044289 0.32790728852451301 0 0.3561594759538505 0.34042390156691033 0 0.35424398155155862 0.33134441197166897 0 0.35615450042044289 0.32790728852451301 0 0.35424398155155862 0.33134441197166897 0 0.35424398155155862 0.33134441197166897 0 0.3490359813169896 0.33397572966813233 0 0.34574138531236193 0.32842937141586748 0 0.3490359813169896 0.33397572966813233 0 0.34574138531236193 0.32842937141586748 0 0.34259434531292832 0.33518495615773752 0 0.3561594759538505 0.34042390156691033 0 0.3490359813169896 0.33397572966813233 0 0.34680870360065369 0.33965463841384058 0 0.3490359813169896 0.33397572966813233 0 0.34680870360065369 0.33965463841384058 0 0.34259434531292832 0.33518495615773752 0 0.33694360862845302 0.34228598150756773 0 0.34259434531292832 0.33518495615773752 0 0.33451871127835081 0.33265377461356371 0 0.34680870360065369 0.33965463841384058 0 0.33694360862845302 0.34228598150756773 0 0.34259434531292832 0.33518495615773752 0 0.34574138531236193 0.32842937141586748 0 0.31801570062319467 0.32789437986327402 0 0.34574138531236193 0.32842937141586748 0 0.33451871127835081 0.33265377461356371 0 0.31801570062319467 0.32789437986327402 0 0.34574138531236193 0.32842937141586748 0 0.34259434531292832 0.33518495615773752 0 0.33451871127835081 0.33265377461356371 0 0.33451871127835081 0.33265377461356371 0 0.33120724850316202 0.33783176412380328 0 0.32553877934859382 0.332806318438222 0 0.33694360862845302 0.34228598150756773 0 0.33120724850316202 0.33783176412380328 0 0.32533716807394142 0.34535219415925672 0 0.33694360862845302 0.34228598150756773 0 0.33451871127835081 0.33265377461356371 0 0.33120724850316202 0.33783176412380328 0 0.34574138531236193 0.32842937141586748 0 0.33454583323783549 0.32313029345160987 0 0.31801570062319467 0.32789437986327402 0 0.34214551782671071 0.31985232453498158 0 0.339650745727685 0.31403500027166342 0 0.33454583323783549 0.32313029345160987 0 0.34485436369410932 0.32508471197229299 0 0.34214551782671071 0.31985232453498158 0 0.33454583323783549 0.32313029345160987 0 0.34485436369410932 0.32508471197229299 0 0.34574138531236193 0.32842937141586748 0 0.33454583323783549 0.32313029345160987 0 0.33454583323783549 0.32313029345160987 0 0.32858263597832399 0.31344924393844231 0 0.32493643109443071 0.32023873935508879 0 0.339650745727685 0.31403500027166342 0 0.33454583323783549 0.32313029345160987 0 0.32858263597832399 0.31344924393844231 0 0.33454583323783549 0.32313029345160987 0 0.32493643109443071 0.32023873935508879 0 0.31801570062319467 0.32789437986327402 0 0.3186015545383683 0.31648104016702938 0 0.30641467965311742 0.32031988749230839 0 0.31633864137299728 0.30097813022289432 0 0.32858263597832399 0.31344924393844231 0 0.32493643109443071 0.32023873935508879 0 0.3186015545383683 0.31648104016702938 0 0.32493643109443071 0.32023873935508879 0 0.31801570062319467 0.32789437986327402 0 0.3186015545383683 0.31648104016702938 0 0.31801570062319467 0.32789437986327402 0 0.3186015545383683 0.31648104016702938 0 0.30641467965311742 0.32031988749230839 0 0.33451871127835081 0.33265377461356371 0 0.31801570062319467 0.32789437986327402 0 0.32553877934859382 0.332806318438222 0 0.33120724850316202 0.33783176412380328 0 0.32553877934859382 0.332806318438222 0 0.32533716807394142 0.34535219415925672 0 0.32553877934859382 0.332806318438222 0 0.31805490315707591 0.33696138204718012 0 0.32533716807394142 0.34535219415925672 0 0.31801570062319467 0.32789437986327402 0 0.32553877934859382 0.332806318438222 0 0.31805490315707591 0.33696138204718012 0 0.31801570062319467 0.32789437986327402 0 0.32553877934859382 0.332806318438222 0 0.31801570062319467 0.32789437986327402 0 0.31805490315707591 0.33696138204718012 0 0.30917859526473429 0.33494995828656599 0 0.31805490315707591 0.33696138204718012 0 0.32533716807394142 0.34535219415925672 0 0.31220427247491478 0.34380405948858189 0 0.31805490315707591 0.33696138204718012 0 0.31220427247491478 0.34380405948858189 0 0.30917859526473429 0.33494995828656599 0 0.31437338347906862 0.35223252485634637 0 0.32760176063539231 0.35769363918179481 0 0.30593542100585031 0.36357237049183261 0 0.31437338347906862 0.35223252485634637 0 0.32533716807394142 0.34535219415925672 0 0.31220427247491478 0.34380405948858189 0 0.31437338347906862 0.35223252485634637 0 0.32760176063539231 0.35769363918179481 0 0.32533716807394142 0.34535219415925672 0 0.34926810026493399 0.35181490787175612 0 0.32760176063539231 0.35769363918179481 0 0.34018805349865672 0.3649858341028116 0 0.34926810026493399 0.35181490787175612 0 0.32760176063539231 0.35769363918179481 0 0.33694360862845302 0.34228598150756773 0 0.32760176063539231 0.35769363918179481 0 0.32533716807394142 0.34535219415925672 0 0.34926810026493399 0.35181490787175612 0 0.33694360862845302 0.34228598150756773 0 0.32760176063539231 0.35769363918179481 0 0.33319835584748031 0.37774259707588148 0 0.35403086099949849 0.36945434115781323 0 0.34018805349865672 0.3649858341028116 0 0.32760176063539231 0.35769363918179481 0 0.34018805349865672 0.3649858341028116 0 0.32584661992611641 0.36949620846973452 0 0.33319835584748031 0.37774259707588148 0 0.34018805349865672 0.3649858341028116 0 0.32584661992611641 0.36949620846973452 0 0.32760176063539231 0.35769363918179481 0 0.3133342664952708 0.36665774074282043 0 0.30593542100585031 0.36357237049183261 0 0.32760176063539231 0.35769363918179481 0 0.30593542100585031 0.36357237049183261 0 0.32760176063539231 0.35769363918179481 0 0.32584661992611641 0.36949620846973452 0 0.3133342664952708 0.36665774074282043 0 0.31784774923201797 0.37897788406745819 0 0.32584661992611641 0.36949620846973452 0 0.3133342664952708 0.36665774074282043 0 0.30593542100585031 0.36357237049183261 0 0.28804938355315429 0.35611376793775318 0 0.30555868910262102 0.37548580011610511 0 0.31784774923201797 0.37897788406745819 0 0.3133342664952708 0.36665774074282043 0 0.30555868910262102 0.37548580011610511 0 0.3133342664952708 0.36665774074282043 0 0.30593542100585031 0.36357237049183261 0 0.30555868910262102 0.37548580011610511 0 0.30593542100585031 0.36357237049183261 0 0.28777165577353803 0.36850074774452318 0 0.3133342664952708 0.36665774074282043 0 0.30593542100585031 0.36357237049183261 0 0.30593542100585031 0.36357237049183261 0 0.30078829520524381 0.35074036096026662 0 0.28804938355315429 0.35611376793775318 0 0.31437338347906862 0.35223252485634637 0 0.31220427247491478 0.34380405948858189 0 0.30078829520524381 0.35074036096026662 0 0.31220427247491478 0.34380405948858189 0 0.30078829520524381 0.35074036096026662 0 0.30547663400725389 0.34070805125850628 0 0.31437338347906862 0.35223252485634637 0 0.30593542100585031 0.36357237049183261 0 0.30078829520524381 0.35074036096026662 0 0.28804938355315429 0.35611376793775318 0 0.28558734920209777 0.34371737168391142 0 0.29973668333735698 0.3333384985696331 0 0.30078829520524381 0.35074036096026662 0 0.28804938355315429 0.35611376793775318 0 0.29973668333735698 0.3333384985696331 0 0.28804938355315429 0.35611376793775318 0 0.29973668333735698 0.3333384985696331 0 0.28804938355315429 0.35611376793775318 0 0.27549263644047611 0.35087751668125439 0 0.28804938355315429 0.35611376793775318 0 0.28427139097797183 0.36347705866955249 0 0.27549263644047611 0.35087751668125439 0 0.28804938355315429 0.35611376793775318 0 0.27549263644047611 0.35087751668125439 0 0.28558734920209777 0.34371737168391142 0 0.30593542100585031 0.36357237049183261 0 0.28804938355315429 0.35611376793775318 0 0.28777165577353803 0.36850074774452318 0 0.30593542100585031 0.36357237049183261 0 0.28777165577353803 0.36850074774452318 0 0.28427139097797183 0.36347705866955249 0 0.28777165577353803 0.36850074774452318 0 0.28804938355315429 0.35611376793775318 0 0.28427139097797183 0.36347705866955249 0 0.28777165577353803 0.36850074774452318 0 0.28804938355315429 0.35611376793775318 0 0.28427139097797183 0.36347705866955249 0 0.28427139097797183 0.36347705866955249 0 0.28137938619283592 0.3691135631377182 0 0.28427139097797183 0.36347705866955249 0 0.28137938619283592 0.3691135631377182 0 0.28777165577353803 0.36850074774452318 0 0.28137938619283592 0.3691135631377182 0 0.28777165577353803 0.36850074774452318 0 0.26799442612636831 0.37386690654848759 0 0.28777165577353803 0.36850074774452318 0 0.26799442612636831 0.37386690654848759 0 0.28137938619283592 0.3691135631377182 0 0.26799442612636831 0.37386690654848759 0 0.27679339031427008 0.36372669457864581 0 0.26799442612636831 0.37386690654848759 0 0.27113643783458902 0.36045639358486148 0 0.26066642231878762 0.36359806048362642 0 0.26799442612636831 0.37386690654848759 0 0.27113643783458902 0.36045639358486148 0 0.27679339031427008 0.36372669457864581 0 0.28427139097797183 0.36347705866955249 0 0.28137938619283592 0.3691135631377182 0 0.27679339031427008 0.36372669457864581 0 0.28427139097797183 0.36347705866955249 0 0.27679339031427008 0.36372669457864581 0 0.27549263644047611 0.35087751668125439 0 0.28427139097797183 0.36347705866955249 0 0.27549263644047611 0.35087751668125439 0 0.27113643783458902 0.36045639358486148 0 0.27679339031427008 0.36372669457864581 0 0.27549263644047611 0.35087751668125439 0 0.27549263644047611 0.35087751668125439 0 0.27288897697348891 0.34979177249661592 0 0.28558734920209777 0.34371737168391142 0 0.27549263644047611 0.35087751668125439 0 0.27288897697348891 0.34979177249661592 0 0.27113643783458902 0.36045639358486148 0 0.27288897697348891 0.34979177249661592 0 0.26066642231878762 0.36359806048362642 0 0.27113643783458902 0.36045639358486148 0 0.27549263644047611 0.35087751668125439 0 0.27288897697348891 0.34979177249661592 0 0.27288897697348891 0.34979177249661592 0 0.26066642231878762 0.36359806048362642 0 0.24515973334967259 0.33822848421310331 0 0.27288897697348891 0.34979177249661592 0 0.24515973334967259 0.33822848421310331 0 0.27288897697348891 0.34979177249661592 0 0.26066642231878762 0.36359806048362642 0 0.2490283282522085 0.37268909123684868 0 0.24895539579784931 0.36454629407134498 0 0.26066642231878762 0.36359806048362642 0 0.24895539579784931 0.36454629407134498 0 0.2436283562306906 0.35637398091458372 0 0.26066642231878762 0.36359806048362642 0 0.2484438676640881 0.37740434847063881 0 0.26799442612636831 0.37386690654848759 0 0.26066642231878762 0.36359806048362642 0 0.2484438676640881 0.37740434847063881 0 0.26066642231878762 0.36359806048362642 0 0.2490283282522085 0.37268909123684868 0 0.2484438676640881 0.37740434847063881 0 0.26066642231878762 0.36359806048362642 0 0.2486062022936909 0.31228926882663699 0 0.26678470571320051 0.31977293584972522 0 0.2486062022936909 0.31228926882663699 0 0.2586813758008511 0.32674947170628071 0 0.26678470571320051 0.31977293584972522 0 0.2486062022936909 0.31228926882663699 0 0.26678470571320051 0.31977293584972522 0 0.26172846376057213 0.30726604489900938 0 0.2486062022936909 0.31228926882663699 0 0.2586813758008511 0.32674947170628071 0 0.24515973334967259 0.33822848421310331 0 0.27288897697348891 0.34979177249661592 0 0.2586813758008511 0.32674947170628071 0 0.27288897697348891 0.34979177249661592 0 0.2586813758008511 0.32674947170628071 0 0.27288897697348891 0.34979177249661592 0 0.2586813758008511 0.32674947170628071 0 0.2849632091327105 0.32725660287281227 0 0.2586813758008511 0.32674947170628071 0 0.26678470571320051 0.31977293584972522 0 0.2849632091327105 0.32725660287281227 0 0.2586813758008511 0.32674947170628071 0 0.2849632091327105 0.32725660287281227 0 0.26678470571320051 0.31977293584972522 0 0.2849632091327105 0.32725660287281227 0 0.26678470571320051 0.31977293584972522 0 0.27959021592068167 0.31649654145170031 0 0.2849632091327105 0.32725660287281227 0 0.26678470571320051 0.31977293584972522 0 0.27959021592068167 0.31649654145170031 0 0.27201656586368878 0.30970269433776693 0 0.27959021592068167 0.31649654145170031 0 0.28809461501666811 0.31980671705674257 0 0.28519630489505732 0.3064660708201592 0 0.29801651071108809 0.32140834718287958 0 0.30641467965311742 0.32031988749230839 0 0.28519630489505732 0.3064660708201592 0 0.30641467965311742 0.32031988749230839 0 0.28519630489505732 0.3064660708201592 0 0.27959021592068167 0.31649654145170031 0 0.28809461501666811 0.31980671705674257 0 0.2849632091327105 0.32725660287281227 0 0.28809461501666811 0.31980671705674257 0 0.2849632091327105 0.32725660287281227 0 0.29270683442380319 0.32740602295615978 0 0.2849632091327105 0.32725660287281227 0 0.29270683442380319 0.32740602295615978 0 0.28809461501666811 0.31980671705674257 0 0.29270683442380319 0.32740602295615978 0 0.29801651071108809 0.32140834718287958 0 0.2849632091327105 0.32725660287281227 0 0.29270683442380319 0.32740602295615978 0 0.29073541669372471 0.32963288646326538 0 0.29270683442380319 0.32740602295615978 0 0.29801651071108809 0.32140834718287958 0 0.28809461501666811 0.31980671705674257 0 0.29801651071108809 0.32140834718287958 0 0.28519630489505732 0.3064660708201592 0 0.27288897697348891 0.34979177249661592 0 0.2849632091327105 0.32725660287281227 0 0.29073541669372471 0.32963288646326538 0 0.27288897697348891 0.34979177249661592 0 0.29073541669372471 0.32963288646326538 0 0.27288897697348891 0.34979177249661592 0 0.28558734920209777 0.34371737168391142 0 0.29073541669372471 0.32963288646326538 0 0.2849632091327105 0.32725660287281227 0 0.29073541669372471 0.32963288646326538 0 0.28558734920209777 0.34371737168391142 0 0.29073541669372471 0.32963288646326538 0 0.29973668333735698 0.3333384985696331 0 0.29073541669372471 0.32963288646326538 0 0.29973668333735698 0.3333384985696331 0 0.29270683442380319 0.32740602295615978 0 0.29073541669372471 0.32963288646326538 0 0.29973668333735698 0.3333384985696331 0 0.29270683442380319 0.32740602295615978 0 0.29073541669372471 0.32963288646326538 0 0.30078829520524381 0.35074036096026662 0 0.29973668333735698 0.3333384985696331 0 0.30547663400725389 0.34070805125850628 0 0.29270683442380319 0.32740602295615978 0 0.29973668333735698 0.3333384985696331 0 0.30268015116908348 0.32759846690371008 0 0.29973668333735698 0.3333384985696331 0 0.30917859526473429 0.33494995828656599 0 0.30268015116908348 0.32759846690371008 0 0.29973668333735698 0.3333384985696331 0 0.30268015116908348 0.32759846690371008 0 0.31801570062319467 0.32789437986327402 0 0.30917859526473429 0.33494995828656599 0 0.30268015116908348 0.32759846690371008 0 0.29973668333735698 0.3333384985696331 0 0.30917859526473429 0.33494995828656599 0 0.30547663400725389 0.34070805125850628 0 0.31220427247491478 0.34380405948858189 0 0.30917859526473429 0.33494995828656599 0 0.30547663400725389 0.34070805125850628 0 0.29270683442380319 0.32740602295615978 0 0.30268015116908348 0.32759846690371008 0 0.29801651071108809 0.32140834718287958 0 0.30268015116908348 0.32759846690371008 0 0.30641467965311742 0.32031988749230839 0 0.29270683442380319 0.32740602295615978 0 0.29801651071108809 0.32140834718287958 0 0.30268015116908348 0.32759846690371008 0 0.30268015116908348 0.32759846690371008 0 0.30641467965311742 0.32031988749230839 0 0.31801570062319467 0.32789437986327402 0 0.30641467965311742 0.32031988749230839 0 0.31801570062319467 0.32789437986327402 0 0.30268015116908348 0.32759846690371008 0 0.31801570062319467 0.32789437986327402 0 0.30268015116908348 0.32759846690371008 0 0.30641467965311742 0.32031988749230839 0 0.30149771192078689 0.30536245097528009 0 0.29804122176197562 0.29368571536575871 0 0.31633864137299728 0.30097813022289432 0 0.30641467965311742 0.32031988749230839 0 0.31633864137299728 0.30097813022289432 0 0.30641467965311742 0.32031988749230839 0 0.30149771192078689 0.30536245097528009 0 0.31633864137299728 0.30097813022289432 0 0.30641467965311742 0.32031988749230839 0 0.30149771192078689 0.30536245097528009 0 0.28519630489505732 0.3064660708201592 0 0.29804122176197562 0.29368571536575871 0 0.30839956406552038 0.27780188452718668 0 0.31633864137299728 0.30097813022289432 0 0.29804122176197562 0.29368571536575871 0 0.28397609467176049 0.27588839143496641 0 0.30839956406552038 0.27780188452718668 0 0.29804122176197562 0.29368571536575871 0 0.28519630489505732 0.3064660708201592 0 0.28027445628666531 0.29027495016100457 0 0.29804122176197562 0.29368571536575871 0 0.28027445628666531 0.29027495016100457 0 0.28397609467176049 0.27588839143496641 0 0.30149771192078689 0.30536245097528009 0 0.29804122176197562 0.29368571536575871 0 0.28519630489505732 0.3064660708201592 0 0.27959021592068167 0.31649654145170031 0 0.28519630489505732 0.3064660708201592 0 0.27201656586368878 0.30970269433776693 0 0.28519630489505732 0.3064660708201592 0 0.27201656586368878 0.30970269433776693 0 0.26596476151361231 0.29819945463328651 0 0.28519630489505732 0.3064660708201592 0 0.26596476151361231 0.29819945463328651 0 0.26397793013699711 0.29261225414801029 0 0.28519630489505732 0.3064660708201592 0 0.26397793013699711 0.29261225414801029 0 0.26678470571320051 0.31977293584972522 0 0.27201656586368878 0.30970269433776693 0 0.26172846376057213 0.30726604489900938 0 0.27201656586368878 0.30970269433776693 0 0.26596476151361231 0.29819945463328651 0 0.26172846376057213 0.30726604489900938 0 0.28519630489505732 0.3064660708201592 0 0.28027445628666531 0.29027495016100457 0 0.26397793013699711 0.29261225414801029 0 0.28027445628666531 0.29027495016100457 0 0.26397793013699711 0.29261225414801029 0 0.27135774078831659 0.27969910705828388 0 0.28027445628666531 0.29027495016100457 0 0.27135774078831659 0.27969910705828388 0 0.28397609467176049 0.27588839143496641 0 0.26596476151361231 0.29819945463328651 0 0.26397793013699711 0.29261225414801029 0 0.25415990225234708 0.29802728833469122 0 0.26596476151361231 0.29819945463328651 0 0.26397793013699711 0.29261225414801029 0 0.26397793013699711 0.29261225414801029 0 0.2563468288659298 0.28762978592311378 0 0.25415990225234708 0.29802728833469122 0 0.26397793013699711 0.29261225414801029 0 0.2579089386051322 0.27554554540208093 0 0.27135774078831659 0.27969910705828388 0 0.26397793013699711 0.29261225414801029 0 0.2563468288659298 0.28762978592311378 0 0.2579089386051322 0.27554554540208093 0 0.26397793013699711 0.29261225414801029 0 0.2579089386051322 0.27554554540208093 0 0.26397793013699711 0.29261225414801029 0 0.2563468288659298 0.28762978592311378 0 0.24923061868792451 0.27947600942362349 0 0.24687125332786439 0.28817336811877498 0 0.2563468288659298 0.28762978592311378 0 0.24687125332786439 0.28817336811877498 0 0.2563468288659298 0.28762978592311378 0 0.25415990225234708 0.29802728833469122 0 0.2486062022936909 0.31228926882663699 0 0.25415990225234708 0.29802728833469122 0 0.26172846376057213 0.30726604489900938 0 0.26596476151361231 0.29819945463328651 0 0.25415990225234708 0.29802728833469122 0 0.26172846376057213 0.30726604489900938 0 0.25183994707326618 0.25847883665615179 0 0.2729492100550292 0.26011041335463803 0 0.26330248410392382 0.24083172747773951 0 0.25183994707326618 0.25847883665615179 0 0.2579089386051322 0.27554554540208093 0 0.2729492100550292 0.26011041335463803 0 0.24923061868792451 0.27947600942362349 0 0.25183994707326618 0.25847883665615179 0 0.2579089386051322 0.27554554540208093 0 0.25183994707326618 0.25847883665615179 0 0.2579089386051322 0.27554554540208093 0 0.24923061868792451 0.27947600942362349 0 0.2563468288659298 0.28762978592311378 0 0.2579089386051322 0.27554554540208093 0 0.2579089386051322 0.27554554540208093 0 0.27135774078831659 0.27969910705828388 0 0.2729492100550292 0.26011041335463803 0 0.27135774078831659 0.27969910705828388 0 0.2729492100550292 0.26011041335463803 0 0.28397609467176049 0.27588839143496641 0 0.2729492100550292 0.26011041335463803 0 0.2768150032315162 0.24421201810171511 0 0.29284259492690318 0.24898779679954219 0 0.2729492100550292 0.26011041335463803 0 0.29390744634559768 0.26417946385506308 0 0.29284259492690318 0.24898779679954219 0 0.2729492100550292 0.26011041335463803 0 0.29390744634559768 0.26417946385506308 0 0.28397609467176049 0.27588839143496641 0 0.29390744634559768 0.26417946385506308 0 0.28397609467176049 0.27588839143496641 0 0.30839956406552038 0.27780188452718668 0 0.29390744634559768 0.26417946385506308 0 0.30839956406552038 0.27780188452718668 0 0.31136976800877553 0.25810883315898242 0 0.29390744634559768 0.26417946385506308 0 0.31136976800877553 0.25810883315898242 0 0.29284259492690318 0.24898779679954219 0 0.31136976800877553 0.25810883315898242 0 0.33058761135417969 0.2674164201390084 0 0.32735027460913568 0.24544548620300091 0 0.33058761135417969 0.2674164201390084 0 0.34524058192319779 0.25689687518594218 0 0.32735027460913568 0.24544548620300091 0 0.33058761135417969 0.2674164201390084 0 0.32735027460913568 0.24544548620300091 0 0.33058761135417969 0.2674164201390084 0 0.33382494809922358 0.28938735407501592 0 0.3551834760192254 0.2772062926090661 0 0.33058761135417969 0.2674164201390084 0 0.34524058192319779 0.25689687518594218 0 0.3551834760192254 0.2772062926090661 0 0.33058761135417969 0.2674164201390084 0 0.33382494809922358 0.28938735407501592 0 0.30839956406552038 0.27780188452718668 0 0.33058761135417969 0.2674164201390084 0 0.33382494809922358 0.28938735407501592 0 0.30839956406552038 0.27780188452718668 0 0.31136976800877553 0.25810883315898242 0 0.33058761135417969 0.2674164201390084 0 0.30839956406552038 0.27780188452718668 0 0.31633864137299728 0.30097813022289432 0 0.33382494809922358 0.28938735407501592 0 0.32858263597832399 0.31344924393844231 0 0.31633864137299728 0.30097813022289432 0 0.3357609300566553 0.30453403595581918 0 0.32858263597832399 0.31344924393844231 0 0.3186015545383683 0.31648104016702938 0 0.31633864137299728 0.30097813022289432 0 0.31633864137299728 0.30097813022289432 0 0.3357609300566553 0.30453403595581918 0 0.33382494809922358 0.28938735407501592 0 0.339650745727685 0.31403500027166342 0 0.32858263597832399 0.31344924393844231 0 0.3357609300566553 0.30453403595581918 0 0.3357609300566553 0.30453403595581918 0 0.33382494809922358 0.28938735407501592 0 0.34833613321222962 0.30499661368513692 0 0.339650745727685 0.31403500027166342 0 0.3357609300566553 0.30453403595581918 0 0.34833613321222962 0.30499661368513692 0 0.33382494809922358 0.28938735407501592 0 0.35617828609085161 0.29424125402038681 0 0.3551834760192254 0.2772062926090661 0 0.33382494809922358 0.28938735407501592 0 0.35617828609085161 0.29424125402038681 0 0.34833613321222962 0.30499661368513692 0 0.34953112864721281 0.31715929244436009 0 0.34833613321222962 0.30499661368513692 0 0.36656712451467421 0.30917443275240952 0 0.35617828609085161 0.29424125402038681 0 0.34833613321222962 0.30499661368513692 0 0.36656712451467421 0.30917443275240952 0 0.34953112864721281 0.31715929244436009 0 0.339650745727685 0.31403500027166342 0 0.34833613321222962 0.30499661368513692 0 0.36656712451467421 0.30917443275240952 0 0.37697974860890487 0.29044157698030559 0 0.3760688844406162 0.31273466219050589 0 0.35617828609085161 0.29424125402038681 0 0.36656712451467421 0.30917443275240952 0 0.37697974860890487 0.29044157698030559 0 0.36656712451467421 0.30917443275240952 0 0.37697974860890487 0.29044157698030559 0 0.35617828609085161 0.29424125402038681 0 0.3551834760192254 0.2772062926090661 0 0.37697974860890487 0.29044157698030559 0 0.3551834760192254 0.2772062926090661 0 0.37774975947370631 0.27159582761455969 0 0.37697974860890487 0.29044157698030559 0 0.3622399297697908 0.26318290261869343 0 0.3551834760192254 0.2772062926090661 0 0.37774975947370631 0.27159582761455969 0 0.3622399297697908 0.26318290261869343 0 0.37851977033850781 0.25275007824881379 0 0.35442734674419801 0.24835601179330999 0 0.3622399297697908 0.26318290261869343 0 0.37851977033850781 0.25275007824881379 0 0.37774975947370631 0.27159582761455969 0 0.37851977033850781 0.25275007824881379 0 0.35442734674419801 0.24835601179330999 0 0.3622399297697908 0.26318290261869343 0 0.34524058192319779 0.25689687518594218 0 0.35442734674419801 0.24835601179330999 0 0.3622399297697908 0.26318290261869343 0 0.34524058192319779 0.25689687518594218 0 0.3551834760192254 0.2772062926090661 0 0.40416869805705458 0.27358933159593479 0 0.39614381546124772 0.25596441761076982 0 0.38656178203507607 0.2732029972955376 0 0.40416869805705458 0.27358933159593479 0 0.38656178203507607 0.2732029972955376 0 0.39622265086571318 0.28756881404690071 0 0.39614381546124772 0.25596441761076982 0 0.41449912228422348 0.25931212722062591 0 0.40647128516955372 0.23738475903616871 0 0.39614381546124772 0.25596441761076982 0 0.38656178203507607 0.2732029972955376 0 0.40416869805705458 0.27358933159593479 0 0.39614381546124772 0.25596441761076982 0 0.41449912228422348 0.25931212722062591 0 0.39614381546124772 0.25596441761076982 0 0.41449912228422348 0.25931212722062591 0 0.39614381546124772 0.25596441761076982 0 0.37851977033850781 0.25275007824881379 0 0.37851977033850781 0.25275007824881379 0 0.37774975947370631 0.27159582761455969 0 0.39614381546124772 0.25596441761076982 0 0.37851977033850781 0.25275007824881379 0 0.39011742853436782 0.24472517694696769 0 0.38397737196677639 0.26241167365476142 0 0.37851977033850781 0.25275007824881379 0 0.37774975947370631 0.27159582761455969 0 0.39614381546124772 0.25596441761076982 0 0.38397737196677639 0.26241167365476142 0 0.38656178203507607 0.2732029972955376 0 0.39614381546124772 0.25596441761076982 0 0.38397737196677639 0.26241167365476142 0 0.37851977033850781 0.25275007824881379 0 0.37774975947370631 0.27159582761455969 0 0.37697974860890487 0.29044157698030559 0 0.38397737196677639 0.26241167365476142 0 0.37774975947370631 0.27159582761455969 0 0.38656178203507607 0.2732029972955376 0 0.37774975947370631 0.27159582761455969 0 0.38656178203507607 0.2732029972955376 0 0.37697974860890487 0.29044157698030559 0 0.37697974860890487 0.29044157698030559 0 0.39468108194303347 0.29924558025637932 0 0.39622265086571318 0.28756881404690071 0 0.38656178203507607 0.2732029972955376 0 0.37697974860890487 0.29044157698030559 0 0.39622265086571318 0.28756881404690071 0 0.38656178203507607 0.2732029972955376 0 0.37697974860890487 0.29044157698030559 0 0.37697974860890487 0.29044157698030559 0 0.3760688844406162 0.31273466219050589 0 0.37697974860890487 0.29044157698030559 0 0.38667190727097139 0.3060691508276645 0 0.3760688844406162 0.31273466219050589 0 0.37697974860890487 0.29044157698030559 0 0.38667190727097139 0.3060691508276645 0 0.39468108194303347 0.29924558025637932 0 0.38667190727097139 0.3060691508276645 0 0.38771303676981062 0.31672455564530311 0 0.3760688844406162 0.31273466219050589 0 0.38667190727097139 0.3060691508276645 0 0.39791678459249152 0.31119937906582862 0 0.39468108194303347 0.29924558025637932 0 0.38667190727097139 0.3060691508276645 0 0.39791678459249152 0.31119937906582862 0 0.38771303676981062 0.31672455564530311 0 0.39791678459249152 0.31119937906582862 0 0.39468108194303347 0.29924558025637932 0 0.40494002435352172 0.29972566315068683 0 0.39791678459249152 0.31119937906582862 0 0.40494002435352172 0.29972566315068683 0 0.41068697312190461 0.31194516397259098 0 0.40494002435352172 0.29972566315068683 0 0.39622265086571318 0.28756881404690071 0 0.41154533367151253 0.28762400718977771 0 0.39468108194303347 0.29924558025637932 0 0.40494002435352172 0.29972566315068683 0 0.39622265086571318 0.28756881404690071 0 0.40416869805705458 0.27358933159593479 0 0.39622265086571318 0.28756881404690071 0 0.41154533367151253 0.28762400718977771 0 0.40494002435352172 0.29972566315068683 0 0.41154533367151253 0.28762400718977771 0 0.41699693635946972 0.2999350342298871 0 0.41154533367151253 0.28762400718977771 0 0.41699693635946972 0.2999350342298871 0 0.42649548350167732 0.28958601516151949 0 0.41154533367151253 0.28762400718977771 0 0.42649548350167732 0.28958601516151949 0 0.42044820889163842 0.27533918495373733 0 0.40494002435352172 0.29972566315068683 0 0.41068697312190461 0.31194516397259098 0 0.41699693635946972 0.2999350342298871 0 0.41068697312190461 0.31194516397259098 0 0.41699693635946972 0.2999350342298871 0 0.42348685206473691 0.31089290264512598 0 0.41699693635946972 0.2999350342298871 0 0.43537234788066359 0.30445982608135258 0 0.42649548350167732 0.28958601516151949 0 0.41699693635946972 0.2999350342298871 0 0.42348685206473691 0.31089290264512598 0 0.43537234788066359 0.30445982608135258 0 0.42348685206473691 0.31089290264512598 0 0.43537234788066359 0.30445982608135258 0 0.4345954297766047 0.31726031657260328 0 0.43537234788066359 0.30445982608135258 0 0.42649548350167732 0.28958601516151949 0 0.44155588091098441 0.29059445436582199 0 0.42649548350167732 0.28958601516151949 0 0.43356994662250309 0.27755223002174922 0 0.44155588091098441 0.29059445436582199 0 0.42044820889163842 0.27533918495373733 0 0.41449912228422348 0.25931212722062591 0 0.43285442910719968 0.26265983683047972 0 0.43356994662250309 0.27755223002174922 0 0.42044820889163842 0.27533918495373733 0 0.43285442910719968 0.26265983683047972 0 0.42649548350167732 0.28958601516151949 0 0.43356994662250309 0.27755223002174922 0 0.42044820889163842 0.27533918495373733 0 0.40416869805705458 0.27358933159593479 0 0.42044820889163842 0.27533918495373733 0 0.41449912228422348 0.25931212722062591 0 0.40416869805705458 0.27358933159593479 0 0.41154533367151253 0.28762400718977771 0 0.42044820889163842 0.27533918495373733 0 0.41449912228422348 0.25931212722062591 0 0.43285442910719968 0.26265983683047972 0 0.41449912228422348 0.25931212722062591 0 0.43285442910719968 0.26265983683047972 0 0.43364103806289112 0.2419736913421088 0 0.45140452927651858 0.263327175560645 0 0.43364103806289112 0.2419736913421088 0 0.46081079095622868 0.2465626236480481 0 0.43285442910719968 0.26265983683047972 0 0.45140452927651858 0.263327175560645 0 0.43364103806289112 0.2419736913421088 0 0.43285442910719968 0.26265983683047972 0 0.45140452927651858 0.263327175560645 0 0.44746845610536601 0.27697954820175602 0 0.43356994662250309 0.27755223002174922 0 0.43285442910719968 0.26265983683047972 0 0.44746845610536601 0.27697954820175602 0 0.45140452927651858 0.263327175560645 0 0.44746845610536601 0.27697954820175602 0 0.46197848885258691 0.27899248303727248 0 0.45140452927651858 0.263327175560645 0 0.46197848885258691 0.27899248303727248 0 0.47105833848854128 0.26403236862966251 0 0.45140452927651858 0.263327175560645 0 0.47105833848854128 0.26403236862966251 0 0.46081079095622868 0.2465626236480481 0 0.47105833848854128 0.26403236862966251 0 0.48798054384956618 0.25115155595398742 0 0.46081079095622868 0.2465626236480481 0 0.47105833848854128 0.26403236862966251 0 0.48798054384956618 0.25115155595398742 0 0.48502772743404582 0.26454956874679653 0 0.46197848885258691 0.27899248303727248 0 0.47105833848854128 0.26403236862966251 0 0.48107202739807597 0.2792211815374539 0 0.47105833848854128 0.26403236862966251 0 0.48107202739807597 0.2792211815374539 0 0.48502772743404582 0.26454956874679653 0 0.48107202739807597 0.2792211815374539 0 0.50000000000000155 0.26379316886608251 0 0.48502772743404582 0.26454956874679653 0 0.50000000000000155 0.26379316886608251 0 0.48722663745549122 0.28993663183668622 0 0.48107202739807597 0.2792211815374539 0 0.50000000000000155 0.26379316886608251 0 0.48722663745549122 0.28993663183668622 0 0.50000000000000155 0.26379316886608251 0 0.48798054384956618 0.25115155595398742 0 0.5 0.23656181601342871 0 0.50000000000000155 0.26379316886608251 0 0.48798054384956618 0.25115155595398742 0 0.48502772743404582 0.26454956874679653 0 0.48974827331625731 0.30736085344655623 0 0.5 0.29304777389930342 0 0.5 0.32230237893252422 0 0.50000000000000155 0.26379316886608251 0 0.5 0.29304777389930342 0 0.48722663745549122 0.28993663183668622 0 0.48974827331625731 0.30736085344655623 0 0.5 0.29304777389930342 0 0.48722663745549122 0.28993663183668622 0 0.48107202739807597 0.2792211815374539 0 0.46725030637947917 0.29962952428920842 0 0.46197848885258691 0.27899248303727248 0 0.48107202739807597 0.2792211815374539 0 0.46725030637947917 0.29962952428920842 0 0.48107202739807597 0.2792211815374539 0 0.48722663745549122 0.28993663183668622 0 0.46725030637947917 0.29962952428920842 0 0.48722663745549122 0.28993663183668622 0 0.47445327491097949 0.3160800948072891 0 0.48974827331625731 0.30736085344655623 0 0.48722663745549122 0.28993663183668622 0 0.47445327491097949 0.3160800948072891 0 0.48722663745549122 0.28993663183668622 0 0.46725030637947917 0.29962952428920842 0 0.47445327491097949 0.3160800948072891 0 0.46725030637947917 0.29962952428920842 0 0.45342858536088232 0.32003786704096299 0 0.47445327491097949 0.3160800948072891 0 0.46725030637947917 0.29962952428920842 0 0.45101334747618299 0.30240957519563633 0 0.45342858536088232 0.32003786704096299 0 0.46725030637947917 0.29962952428920842 0 0.45410539013891488 0.29059157007874348 0 0.45101334747618299 0.30240957519563633 0 0.46725030637947917 0.29962952428920842 0 0.45342858536088232 0.32003786704096299 0 0.46197848885258691 0.27899248303727248 0 0.46725030637947917 0.29962952428920842 0 0.45410539013891488 0.29059157007874348 0 0.44746845610536601 0.27697954820175602 0 0.46197848885258691 0.27899248303727248 0 0.45410539013891488 0.29059157007874348 0 0.44746845610536601 0.27697954820175602 0 0.45410539013891488 0.29059157007874348 0 0.44155588091098441 0.29059445436582199 0 0.45410539013891488 0.29059157007874348 0 0.44155588091098441 0.29059445436582199 0 0.45101334747618299 0.30240957519563633 0 0.43356994662250309 0.27755223002174922 0 0.44746845610536601 0.27697954820175602 0 0.44155588091098441 0.29059445436582199 0 0.43537234788066359 0.30445982608135258 0 0.44155588091098441 0.29059445436582199 0 0.45101334747618299 0.30240957519563633 0 0.43537234788066359 0.30445982608135258 0 0.45101334747618299 0.30240957519563633 0 0.45342858536088232 0.32003786704096299 0 0.43861315033994719 0.32659702530260909 0 0.45342858536088232 0.32003786704096299 0 0.4345954297766047 0.31726031657260328 0 0.43537234788066359 0.30445982608135258 0 0.45342858536088232 0.32003786704096299 0 0.4345954297766047 0.31726031657260328 0 0.43960686434228541 0.34044620979271761 0 0.45058399126772691 0.34207254166494372 0 0.45342858536088232 0.32003786704096299 0 0.43960686434228541 0.34044620979271761 0 0.45342858536088232 0.32003786704096299 0 0.43861315033994719 0.32659702530260909 0 0.43960686434228541 0.34044620979271761 0 0.45342858536088232 0.32003786704096299 0 0.45058399126772691 0.34207254166494372 0 0.46167991236646788 0.34222355777789198 0 0.45342858536088232 0.32003786704096299 0 0.46167991236646788 0.34222355777789198 0 0.47445327491097949 0.3160800948072891 0 0.46167991236646788 0.34222355777789198 0 0.45342858536088232 0.32003786704096299 0 0.47445327491097949 0.3160800948072891 0 0.46167991236646788 0.34222355777789198 0 0.47445327491097949 0.3160800948072891 0 0.48153984476515738 0.34027689213530637 0 0.48153984476515738 0.34027689213530637 0 0.5 0.32230237893252422 0 0.5 0.3515569839657452 0 0.48974827331625731 0.30736085344655623 0 0.47445327491097949 0.3160800948072891 0 0.5 0.32230237893252422 0 0.47445327491097949 0.3160800948072891 0 0.48153984476515738 0.34027689213530637 0 0.5 0.32230237893252422 0 0.5 0.3515569839657452 0 0.48278199648233899 0.37155660339017949 0 0.50000000000000089 0.38081158899896611 0 0.5 0.3515569839657452 0 0.48165462437351098 0.35875032061907908 0 0.48278199648233899 0.37155660339017949 0 0.48153984476515738 0.34027689213530637 0 0.5 0.3515569839657452 0 0.48165462437351098 0.35875032061907908 0 0.47260959361745331 0.3508880970784175 0 0.48165462437351098 0.35875032061907908 0 0.46556399296467732 0.36230161778139303 0 0.46167991236646788 0.34222355777789198 0 0.48153984476515738 0.34027689213530637 0 0.47260959361745331 0.3508880970784175 0 0.48153984476515738 0.34027689213530637 0 0.47260959361745331 0.3508880970784175 0 0.48165462437351098 0.35875032061907908 0 0.48278199648233899 0.37155660339017949 0 0.46556399296467732 0.36230161778139303 0 0.48165462437351098 0.35875032061907908 0 0.48278199648233899 0.37155660339017949 0 0.46556399296467732 0.36230161778139303 0 0.48278199648233899 0.37155660339017949 0 0.46556399296467732 0.36230161778139303 0 0.46563050419622948 0.38826954868617292 0 0.48165462437351098 0.35875032061907908 0 0.46556399296467732 0.36230161778139303 0 0.46556399296467732 0.36230161778139303 0 0.44801269553050388 0.35286748071653717 0 0.44844575629434658 0.3660797134798498 0 0.46556399296467732 0.36230161778139303 0 0.44844575629434658 0.3660797134798498 0 0.46563050419622948 0.38826954868617292 0 0.46556399296467732 0.36230161778139303 0 0.44844575629434658 0.3660797134798498 0 0.46167991236646788 0.34222355777789198 0 0.46556399296467732 0.36230161778139303 0 0.44801269553050388 0.35286748071653717 0 0.46167991236646788 0.34222355777789198 0 0.47260959361745331 0.3508880970784175 0 0.46556399296467732 0.36230161778139303 0 0.46556399296467732 0.36230161778139303 0 0.44801269553050388 0.35286748071653717 0 0.45058399126772691 0.34207254166494372 0 0.46167991236646788 0.34222355777789198 0 0.44801269553050388 0.35286748071653717 0 0.44801269553050388 0.35286748071653717 0 0.44844575629434658 0.3660797134798498 0 0.4343254253254128 0.34824447294198851 0 0.44844575629434658 0.3660797134798498 0 0.43561142093805882 0.36115317916344097 0 0.4343254253254128 0.34824447294198851 0 0.44844575629434658 0.3660797134798498 0 0.4343254253254128 0.34824447294198851 0 0.43960686434228541 0.34044620979271761 0 0.45058399126772691 0.34207254166494372 0 0.44801269553050388 0.35286748071653717 0 0.43960686434228541 0.34044620979271761 0 0.44801269553050388 0.35286748071653717 0 0.4343254253254128 0.34824447294198851 0 0.44844575629434658 0.3660797134798498 0 0.42969984975962239 0.37021704550805068 0 0.43561142093805882 0.36115317916344097 0 0.44844575629434658 0.3660797134798498 0 0.42969984975962239 0.37021704550805068 0 0.44844575629434658 0.3660797134798498 0 0.42969984975962239 0.37021704550805068 0 0.43475839202217992 0.38025666766406491 0 0.42969984975962239 0.37021704550805068 0 0.43561142093805882 0.36115317916344097 0 0.42578514332368861 0.36085455254447218 0 0.42969984975962239 0.37021704550805068 0 0.42578514332368861 0.36085455254447218 0 0.41419902426873662 0.3623313981661338 0 0.42969984975962239 0.37021704550805068 0 0.41095394322489759 0.37435437753624912 0 0.42337915359836059 0.37860823979810071 0 0.41419902426873662 0.3623313981661338 0 0.41095394322489759 0.37435437753624912 0 0.396936456743335 0.35755518328366398 0 0.42969984975962239 0.37021704550805068 0 0.41095394322489759 0.37435437753624912 0 0.42969984975962239 0.37021704550805068 0 0.41419902426873662 0.3623313981661338 0 0.41095394322489759 0.37435437753624912 0 0.41854017524975418 0.35085207141217112 0 0.4104954921253624 0.34148071800817942 0 0.396936456743335 0.35755518328366398 0 0.41419902426873662 0.3623313981661338 0 0.41854017524975418 0.35085207141217112 0 0.396936456743335 0.35755518328366398 0 0.41854017524975418 0.35085207141217112 0 0.43004663734290699 0.34636425219865391 0 0.4104954921253624 0.34148071800817942 0 0.43004663734290699 0.34636425219865391 0 0.4104954921253624 0.34148071800817942 0 0.42578514332368861 0.36085455254447218 0 0.41419902426873662 0.3623313981661338 0 0.41854017524975418 0.35085207141217112 0 0.42578514332368861 0.36085455254447218 0 0.41854017524975418 0.35085207141217112 0 0.43004663734290699 0.34636425219865391 0 0.42578514332368861 0.36085455254447218 0 0.43004663734290699 0.34636425219865391 0 0.4343254253254128 0.34824447294198851 0 0.43561142093805882 0.36115317916344097 0 0.42578514332368861 0.36085455254447218 0 0.4343254253254128 0.34824447294198851 0 0.42578514332368861 0.36085455254447218 0 0.4343254253254128 0.34824447294198851 0 0.43960686434228541 0.34044620979271761 0 0.43004663734290699 0.34636425219865391 0 0.4343254253254128 0.34824447294198851 0 0.43960686434228541 0.34044620979271761 0 0.4343254253254128 0.34824447294198851 0 0.43960686434228541 0.34044620979271761 0 0.43004663734290699 0.34636425219865391 0 0.43045386285180182 0.33349284321750322 0 0.43861315033994719 0.32659702530260909 0 0.43960686434228541 0.34044620979271761 0 0.43045386285180182 0.33349284321750322 0 0.43045386285180182 0.33349284321750322 0 0.42439056469572461 0.3223736003191639 0 0.4206228522559185 0.33364909453146052 0 0.43004663734290699 0.34636425219865391 0 0.43045386285180182 0.33349284321750322 0 0.4206228522559185 0.33364909453146052 0 0.43861315033994719 0.32659702530260909 0 0.4345954297766047 0.31726031657260328 0 0.42439056469572461 0.3223736003191639 0 0.43861315033994719 0.32659702530260909 0 0.43045386285180182 0.33349284321750322 0 0.42439056469572461 0.3223736003191639 0 0.42348685206473691 0.31089290264512598 0 0.4345954297766047 0.31726031657260328 0 0.42439056469572461 0.3223736003191639 0 0.41068697312190461 0.31194516397259098 0 0.42439056469572461 0.3223736003191639 0 0.40772770426379662 0.32453405891380233 0 0.42439056469572461 0.3223736003191639 0 0.40772770426379662 0.32453405891380233 0 0.4206228522559185 0.33364909453146052 0 0.41068697312190461 0.31194516397259098 0 0.42348685206473691 0.31089290264512598 0 0.42439056469572461 0.3223736003191639 0 0.43004663734290699 0.34636425219865391 0 0.4104954921253624 0.34148071800817942 0 0.4206228522559185 0.33364909453146052 0 0.40772770426379662 0.32453405891380233 0 0.4104954921253624 0.34148071800817942 0 0.4206228522559185 0.33364909453146052 0 0.4104954921253624 0.34148071800817942 0 0.39880104504259128 0.33075645201508558 0 0.39094434690781799 0.33659718381770359 0 0.4104954921253624 0.34148071800817942 0 0.39094434690781799 0.33659718381770359 0 0.40772770426379662 0.32453405891380233 0 0.4104954921253624 0.34148071800817942 0 0.39880104504259128 0.33075645201508558 0 0.39880104504259128 0.33075645201508558 0 0.39094434690781799 0.33659718381770359 0 0.38876878881664578 0.32898795325207281 0 0.39791678459249152 0.31119937906582862 0 0.41068697312190461 0.31194516397259098 0 0.40772770426379662 0.32453405891380233 0 0.39791678459249152 0.31119937906582862 0 0.40772770426379662 0.32453405891380233 0 0.39606889309933402 0.32218234608366841 0 0.40772770426379662 0.32453405891380233 0 0.39880104504259128 0.33075645201508558 0 0.39606889309933402 0.32218234608366841 0 0.39606889309933402 0.32218234608366841 0 0.38771303676981062 0.31672455564530311 0 0.38876878881664578 0.32898795325207281 0 0.39880104504259128 0.33075645201508558 0 0.39606889309933402 0.32218234608366841 0 0.38876878881664578 0.32898795325207281 0 0.39791678459249152 0.31119937906582862 0 0.39606889309933402 0.32218234608366841 0 0.38771303676981062 0.31672455564530311 0 0.38771303676981062 0.31672455564530311 0 0.38019915292304679 0.32354856702920881 0 0.38876878881664578 0.32898795325207281 0 0.3728052631245683 0.31948636163470151 0 0.38019915292304679 0.32354856702920881 0 0.37642203326306789 0.33296976381648202 0 0.38771303676981062 0.31672455564530311 0 0.38019915292304679 0.32354856702920881 0 0.3760688844406162 0.31273466219050589 0 0.3728052631245683 0.31948636163470151 0 0.38019915292304679 0.32354856702920881 0 0.3760688844406162 0.31273466219050589 0 0.37642203326306789 0.33296976381648202 0 0.37562811475614261 0.34910845912078819 0 0.38667924500320172 0.34526247355007272 0 0.39094434690781799 0.33659718381770359 0 0.37642203326306789 0.33296976381648202 0 0.38667924500320172 0.34526247355007272 0 0.39094434690781799 0.33659718381770359 0 0.38876878881664578 0.32898795325207281 0 0.37642203326306789 0.33296976381648202 0 0.39094434690781799 0.33659718381770359 0 0.37642203326306789 0.33296976381648202 0 0.39094434690781799 0.33659718381770359 0 0.38876878881664578 0.32898795325207281 0 0.38019915292304679 0.32354856702920881 0 0.38876878881664578 0.32898795325207281 0 0.37642203326306789 0.33296976381648202 0 0.37642203326306789 0.33296976381648202 0 0.38667924500320172 0.34526247355007272 0 0.37562811475614261 0.34910845912078819 0 0.38667924500320172 0.34526247355007272 0 0.38338698878879263 0.35650075288044952 0 0.38667924500320172 0.34526247355007272 0 0.38338698878879263 0.35650075288044952 0 0.396936456743335 0.35755518328366398 0 0.37012064564394043 0.36079683998464313 0 0.37562811475614261 0.34910845912078819 0 0.38338698878879263 0.35650075288044952 0 0.37012064564394043 0.36079683998464313 0 0.38338698878879263 0.35650075288044952 0 0.38777355442894862 0.36940389029001441 0 0.3673119519031956 0.37485695599022117 0 0.37012064564394043 0.36079683998464313 0 0.38777355442894862 0.36940389029001441 0 0.38338698878879263 0.35650075288044952 0 0.38777355442894862 0.36940389029001441 0 0.396936456743335 0.35755518328366398 0 0.41095394322489759 0.37435437753624912 0 0.396936456743335 0.35755518328366398 0 0.40228645756834408 0.37626734269184131 0 0.396936456743335 0.35755518328366398 0 0.40228645756834408 0.37626734269184131 0 0.38777355442894862 0.36940389029001441 0 0.396936456743335 0.35755518328366398 0 0.40228645756834408 0.37626734269184131 0 0.41095394322489759 0.37435437753624912 0 0.396936456743335 0.35755518328366398 0 0.39094434690781799 0.33659718381770359 0 0.38667924500320172 0.34526247355007272 0 0.396936456743335 0.35755518328366398 0 0.39094434690781799 0.33659718381770359 0 0.396936456743335 0.35755518328366398 0 0.4104954921253624 0.34148071800817942 0 0.39094434690781799 0.33659718381770359 0 0.396936456743335 0.35755518328366398 0 0.38667924500320172 0.34526247355007272 0 0.396936456743335 0.35755518328366398 0 0.38484903543954407 0.39631747774049803 0 0.41067437523557648 0.40560491807280458 0 0.38484903543954407 0.39631747774049803 0 0.39335917632438089 0.41432168532019048 0 0.41067437523557648 0.40560491807280458 0 0.38484903543954407 0.39631747774049803 0 0.40648041640196092 0.39093613038232278 0 0.41067437523557648 0.40560491807280458 0 0.39367978436492529 0.38637586092478049 0 0.38484903543954407 0.39631747774049803 0 0.40648041640196092 0.39093613038232278 0 0.40228645756834408 0.37626734269184131 0 0.39367978436492529 0.38637586092478049 0 0.40648041640196092 0.39093613038232278 0 0.40228645756834408 0.37626734269184131 0 0.40648041640196092 0.39093613038232278 0 0.40228645756834408 0.37626734269184131 0 0.38019881040731612 0.38114221656671432 0 0.40228645756834408 0.37626734269184131 0 0.39367978436492529 0.38637586092478049 0 0.38019881040731612 0.38114221656671432 0 0.38777355442894862 0.36940389029001441 0 0.40228645756834408 0.37626734269184131 0 0.38019881040731612 0.38114221656671432 0 0.3673119519031956 0.37485695599022117 0 0.38777355442894862 0.36940389029001441 0 0.38019881040731612 0.38114221656671432 0 0.39367978436492529 0.38637586092478049 0 0.38019881040731612 0.38114221656671432 0 0.38484903543954407 0.39631747774049803 0 0.38484903543954407 0.39631747774049803 0 0.38357856274765029 0.40790873678229522 0 0.39335917632438089 0.41432168532019048 0 0.3727341962322836 0.40362258443837529 0 0.38484903543954407 0.39631747774049803 0 0.38357856274765029 0.40790873678229522 0 0.3727341962322836 0.40362258443837529 0 0.377527293993424 0.42915528203593323 0 0.38357856274765029 0.40790873678229522 0 0.377527293993424 0.42915528203593323 0 0.39335917632438089 0.41432168532019048 0 0.3727341962322836 0.40362258443837529 0 0.38357856274765029 0.40790873678229522 0 0.377527293993424 0.42915528203593323 0 0.377527293993424 0.42915528203593323 0 0.40075153004866071 0.42573853027427372 0 0.39335917632438089 0.41432168532019048 0 0.377527293993424 0.42915528203593323 0 0.40075153004866071 0.42573853027427372 0 0.39675726358372843 0.43876817020224052 0 0.40075153004866071 0.42573853027427372 0 0.41452613544840983 0.43452948979841399 0 0.39675726358372843 0.43876817020224052 0 0.39335917632438089 0.41432168532019048 0 0.40527933613168249 0.41645589673084299 0 0.41067437523557648 0.40560491807280458 0 0.40075153004866071 0.42573853027427372 0 0.39335917632438089 0.41432168532019048 0 0.40527933613168249 0.41645589673084299 0 0.41523580036305829 0.42155895563386031 0 0.41067437523557648 0.40560491807280458 0 0.40527933613168249 0.41645589673084299 0 0.41523580036305829 0.42155895563386031 0 0.41067437523557648 0.40560491807280458 0 0.41523580036305829 0.42155895563386031 0 0.42432207407346367 0.41051297309284779 0 0.41067437523557648 0.40560491807280458 0 0.40075153004866071 0.42573853027427372 0 0.40527933613168249 0.41645589673084299 0 0.41523580036305829 0.42155895563386031 0 0.42432207407346367 0.41051297309284779 0 0.41067437523557648 0.40560491807280458 0 0.40075153004866071 0.42573853027427372 0 0.41523580036305829 0.42155895563386031 0 0.41452613544840983 0.43452948979841399 0 0.41523580036305829 0.42155895563386031 0 0.41452613544840983 0.43452948979841399 0 0.42950301790393819 0.42432600937895482 0 0.41452613544840983 0.43452948979841399 0 0.42950301790393819 0.42432600937895482 0 0.42984586714589362 0.43738692832086851 0 0.42950301790393819 0.42432600937895482 0 0.42984586714589362 0.43738692832086851 0 0.44313435751053959 0.43365364078134627 0 0.42950301790393819 0.42432600937895482 0 0.42432207407346367 0.41051297309284779 0 0.43341015058023702 0.41397915509479588 0 0.41523580036305829 0.42155895563386031 0 0.42950301790393819 0.42432600937895482 0 0.42432207407346367 0.41051297309284779 0 0.42950301790393819 0.42432600937895482 0 0.43341015058023702 0.41397915509479588 0 0.44343663763107188 0.41705832901953932 0 0.42432207407346367 0.41051297309284779 0 0.43341015058023702 0.41397915509479588 0 0.43572619574161742 0.40404257325163317 0 0.43572619574161742 0.40404257325163317 0 0.43743773676759279 0.39190291860434612 0 0.42334006948325809 0.38919847539394059 0 0.43572619574161742 0.40404257325163317 0 0.42334006948325809 0.38919847539394059 0 0.43572619574161742 0.40404257325163317 0 0.42010862618717532 0.40005901403870991 0 0.42334006948325809 0.38919847539394059 0 0.42432207407346367 0.41051297309284779 0 0.43572619574161742 0.40404257325163317 0 0.42010862618717532 0.40005901403870991 0 0.42010862618717532 0.40005901403870991 0 0.40648041640196092 0.39093613038232278 0 0.42334006948325809 0.38919847539394059 0 0.42432207407346367 0.41051297309284779 0 0.42010862618717532 0.40005901403870991 0 0.41067437523557648 0.40560491807280458 0 0.40648041640196092 0.39093613038232278 0 0.41067437523557648 0.40560491807280458 0 0.42010862618717532 0.40005901403870991 0 0.40648041640196092 0.39093613038232278 0 0.41067437523557648 0.40560491807280458 0 0.41095394322489759 0.37435437753624912 0 0.40228645756834408 0.37626734269184131 0 0.40648041640196092 0.39093613038232278 0 0.41095394322489759 0.37435437753624912 0 0.40648041640196092 0.39093613038232278 0 0.42334006948325809 0.38919847539394059 0 0.41095394322489759 0.37435437753624912 0 0.40228645756834408 0.37626734269184131 0 0.41095394322489759 0.37435437753624912 0 0.42334006948325809 0.38919847539394059 0 0.41095394322489759 0.37435437753624912 0 0.42337915359836059 0.37860823979810071 0 0.42334006948325809 0.38919847539394059 0 0.42337915359836059 0.37860823979810071 0 0.42334006948325809 0.38919847539394059 0 0.43475839202217992 0.38025666766406491 0 0.42969984975962239 0.37021704550805068 0 0.42337915359836059 0.37860823979810071 0 0.43475839202217992 0.38025666766406491 0 0.43743773676759279 0.39190291860434612 0 0.42334006948325809 0.38919847539394059 0 0.43475839202217992 0.38025666766406491 0 0.44844575629434658 0.3660797134798498 0 0.43475839202217992 0.38025666766406491 0 0.44624778622989969 0.3855336132001031 0 0.43743773676759279 0.39190291860434612 0 0.43475839202217992 0.38025666766406491 0 0.44624778622989969 0.3855336132001031 0 0.43572619574161742 0.40404257325163317 0 0.43743773676759279 0.39190291860434612 0 0.44950724699068179 0.39919926409073841 0 0.43743773676759279 0.39190291860434612 0 0.44624778622989969 0.3855336132001031 0 0.44950724699068179 0.39919926409073841 0 0.44624778622989969 0.3855336132001031 0 0.44950724699068179 0.39919926409073841 0 0.46563050419622948 0.38826954868617292 0 0.44950724699068179 0.39919926409073841 0 0.46563050419622948 0.38826954868617292 0 0.46070403888149158 0.40886966757595089 0 0.44844575629434658 0.3660797134798498 0 0.46563050419622948 0.38826954868617292 0 0.44844575629434658 0.3660797134798498 0 0.44624778622989969 0.3855336132001031 0 0.46563050419622948 0.38826954868617292 0 0.48278199648233899 0.37155660339017949 0 0.46563050419622948 0.38826954868617292 0 0.48624555055533691 0.39156550580334071 0 0.46563050419622948 0.38826954868617292 0 0.48624555055533691 0.39156550580334071 0 0.48281525209811482 0.41045938389249442 0 0.46563050419622948 0.38826954868617292 0 0.48281525209811482 0.41045938389249442 0 0.46563050419622948 0.38826954868617292 0 0.48281525209811482 0.41045938389249442 0 0.46070403888149158 0.40886966757595089 0 0.48624555055533691 0.39156550580334071 0 0.50000000000000089 0.38081158899896611 0 0.5 0.40673040404889083 0 0.48624555055533691 0.39156550580334071 0 0.5 0.40673040404889083 0 0.48281525209811482 0.41045938389249442 0 0.48278199648233899 0.37155660339017949 0 0.50000000000000089 0.38081158899896611 0 0.48278199648233899 0.37155660339017949 0 0.48624555055533691 0.39156550580334071 0 0.50000000000000089 0.38081158899896611 0 0.48281525209811482 0.41045938389249442 0 0.45965826180902852 0.4263857199567983 0 0.47357025170071543 0.4422980466583587 0 0.49999999999999989 0.4326492190988156 0 0.48281525209811482 0.41045938389249442 0 0.47357025170071543 0.4422980466583587 0 0.49999999999999989 0.4326492190988156 0 0.5 0.40673040404889083 0 0.48281525209811482 0.41045938389249442 0 0.49999999999999989 0.4326492190988156 0 0.48281525209811482 0.41045938389249442 0 0.45965826180902852 0.4263857199567983 0 0.46070403888149158 0.40886966757595089 0 0.44343663763107188 0.41705832901953932 0 0.48281525209811482 0.41045938389249442 0 0.45965826180902852 0.4263857199567983 0 0.46070403888149158 0.40886966757595089 0 0.44950724699068179 0.39919926409073841 0 0.46070403888149158 0.40886966757595089 0 0.44343663763107188 0.41705832901953932 0 0.43572619574161742 0.40404257325163317 0 0.44950724699068179 0.39919926409073841 0 0.44343663763107188 0.41705832901953932 0 0.43341015058023702 0.41397915509479588 0 0.43572619574161742 0.40404257325163317 0 0.44343663763107188 0.41705832901953932 0 0.45965826180902852 0.4263857199567983 0 0.44343663763107188 0.41705832901953932 0 0.44313435751053959 0.43365364078134627 0 0.42950301790393819 0.42432600937895482 0 0.44343663763107188 0.41705832901953932 0 0.44313435751053959 0.43365364078134627 0 0.45965826180902852 0.4263857199567983 0 0.44313435751053959 0.43365364078134627 0 0.45428903303223772 0.44597525181310038 0 0.49999999999999989 0.4326492190988156 0 0.47603497911279857 0.47431317100437692 0 0.5 0.5 0 0.44780083338432652 0.46130230506198699 0 0.45428903303223772 0.44597525181310038 0 0.4348950157581819 0.44944055480285622 0 0.44313435751053959 0.43365364078134627 0 0.45428903303223772 0.44597525181310038 0 0.4348950157581819 0.44944055480285622 0 0.44780083338432652 0.46130230506198699 0 0.42730864012721093 0.46620701659825148 0 0.44780083338432652 0.46130230506198699 0 0.44446953173203718 0.47720231684540593 0 0.42730864012721093 0.46620701659825148 0 0.44780083338432652 0.46130230506198699 0 0.4630641217012339 0.4598716289505792 0 0.44446953173203718 0.47720231684540593 0 0.44780083338432652 0.46130230506198699 0 0.4630641217012339 0.4598716289505792 0 0.45428903303223772 0.44597525181310038 0 0.45965826180902852 0.4263857199567983 0 0.45428903303223772 0.44597525181310038 0 0.47357025170071543 0.4422980466583587 0 0.4630641217012339 0.4598716289505792 0 0.45428903303223772 0.44597525181310038 0 0.47357025170071543 0.4422980466583587 0 0.49999999999999989 0.4326492190988156 0 0.47357025170071543 0.4422980466583587 0 0.47603497911279857 0.47431317100437692 0 0.4630641217012339 0.4598716289505792 0 0.47357025170071543 0.4422980466583587 0 0.47603497911279857 0.47431317100437692 0 0.47603497911279857 0.47431317100437692 0 0.5 0.5 0 0.45349333703031092 0.5 0 0.4630641217012339 0.4598716289505792 0 0.47603497911279857 0.47431317100437692 0 0.44446953173203718 0.47720231684540593 0 0.47603497911279857 0.47431317100437692 0 0.45349333703031092 0.5 0 0.44446953173203718 0.47720231684540593 0 0.45349333703031092 0.5 0 0.44446953173203718 0.47720231684540593 0 0.40306959781227403 0.49035551571687891 0 0.44446953173203718 0.47720231684540593 0 0.42730864012721093 0.46620701659825148 0 0.40306959781227403 0.49035551571687891 0 0.45349333703031092 0.5 0 0.3908265412729075 0.50000000000000033 0 0.40306959781227403 0.49035551571687891 0 0.40681644687009538 0.47111172813451602 0 0.42730864012721093 0.46620701659825148 0 0.40306959781227403 0.49035551571687891 0 0.42730864012721093 0.46620701659825148 0 0.4348950157581819 0.44944055480285622 0 0.4189793134097427 0.45558442061140259 0 0.44780083338432652 0.46130230506198699 0 0.42730864012721093 0.46620701659825148 0 0.4348950157581819 0.44944055480285622 0 0.42984586714589362 0.43738692832086851 0 0.44313435751053959 0.43365364078134627 0 0.4348950157581819 0.44944055480285622 0 0.4348950157581819 0.44944055480285622 0 0.4218482549460425 0.44522454524868982 0 0.4189793134097427 0.45558442061140259 0 0.41452613544840983 0.43452948979841399 0 0.42984586714589362 0.43738692832086851 0 0.4218482549460425 0.44522454524868982 0 0.42984586714589362 0.43738692832086851 0 0.4348950157581819 0.44944055480285622 0 0.4218482549460425 0.44522454524868982 0 0.41452613544840983 0.43452948979841399 0 0.4218482549460425 0.44522454524868982 0 0.40663234869705628 0.44875320586457701 0 0.4218482549460425 0.44522454524868982 0 0.40663234869705628 0.44875320586457701 0 0.4189793134097427 0.45558442061140259 0 0.40681644687009538 0.47111172813451602 0 0.42730864012721093 0.46620701659825148 0 0.42730864012721093 0.46620701659825148 0 0.4189793134097427 0.45558442061140259 0 0.40761767241573221 0.46212779821740319 0 0.40681644687009538 0.47111172813451602 0 0.42730864012721093 0.46620701659825148 0 0.40761767241573221 0.46212779821740319 0 0.40663234869705628 0.44875320586457701 0 0.4189793134097427 0.45558442061140259 0 0.40761767241573221 0.46212779821740319 0 0.40761767241573221 0.46212779821740319 0 0.38232039175456561 0.45468797963349078 0 0.40681644687009538 0.47111172813451602 0 0.40761767241573221 0.46212779821740319 0 0.3946397866553818 0.46549806782603648 0 0.40663234869705628 0.44875320586457701 0 0.40761767241573221 0.46212779821740319 0 0.38232039175456561 0.45468797963349078 0 0.40761767241573221 0.46212779821740319 0 0.3946397866553818 0.46549806782603648 0 0.38232039175456561 0.45468797963349078 0 0.40663234869705628 0.44875320586457701 0 0.39675726358372843 0.43876817020224052 0 0.38232039175456561 0.45468797963349078 0 0.41452613544840983 0.43452948979841399 0 0.40663234869705628 0.44875320586457701 0 0.39675726358372843 0.43876817020224052 0 0.377527293993424 0.42915528203593323 0 0.38232039175456561 0.45468797963349078 0 0.377527293993424 0.42915528203593323 0 0.39675726358372843 0.43876817020224052 0 0.38232039175456561 0.45468797963349078 0 0.36865552948334979 0.46437978376634331 0 0.38232039175456561 0.45468797963349078 0 0.38632425361297978 0.47601643967078039 0 0.38232039175456561 0.45468797963349078 0 0.38632425361297978 0.47601643967078039 0 0.3946397866553818 0.46549806782603648 0 0.38232039175456561 0.45468797963349078 0 0.38632425361297978 0.47601643967078039 0 0.36326847439399712 0.48153473363249089 0 0.38632425361297978 0.47601643967078039 0 0.3884059811431918 0.48710574394919121 0 0.36326847439399712 0.48153473363249089 0 0.3884059811431918 0.48710574394919121 0 0.38632425361297978 0.47601643967078039 0 0.3884059811431918 0.48710574394919121 0 0.39615406985963553 0.48114735686784149 0 0.38632425361297978 0.47601643967078039 0 0.3884059811431918 0.48710574394919121 0 0.36378637556344873 0.5 0 0.37408390909418338 0.49098400107223628 0 0.3908265412729075 0.50000000000000033 0 0.37408390909418338 0.49098400107223628 0 0.36326847439399712 0.48153473363249089 0 0.3884059811431918 0.48710574394919121 0 0.37408390909418338 0.49098400107223628 0 0.3884059811431918 0.48710574394919121 0 0.3908265412729075 0.50000000000000033 0 0.3884059811431918 0.48710574394919121 0 0.3908265412729075 0.50000000000000033 0 0.3884059811431918 0.48710574394919121 0 0.40306959781227403 0.49035551571687891 0 0.39615406985963553 0.48114735686784149 0 0.3884059811431918 0.48710574394919121 0 0.40306959781227403 0.49035551571687891 0 0.3884059811431918 0.48710574394919121 0 0.3908265412729075 0.50000000000000033 0 0.40306959781227403 0.49035551571687891 0 0.40681644687009538 0.47111172813451602 0 0.38632425361297978 0.47601643967078039 0 0.40681644687009538 0.47111172813451602 0 0.38632425361297978 0.47601643967078039 0 0.39615406985963553 0.48114735686784149 0 0.40681644687009538 0.47111172813451602 0 0.3946397866553818 0.46549806782603648 0 0.38632425361297978 0.47601643967078039 0 0.40681644687009538 0.47111172813451602 0 0.40306959781227403 0.49035551571687891 0 0.39615406985963553 0.48114735686784149 0 0.33106306128017049 0.081396907384751679 0 0.3327711880702765 0.087581823253575317 0 0.32506112856249642 0.086944373486956605 0 0.3327711880702765 0.087581823253575317 0 0.34515686275017032 0.074609299390069633 0 0.3327711880702765 0.087581823253575317 0 0.33244313390703439 0.059308849467375413 0 0.33106306128017049 0.081396907384751679 0 0.32630328309945239 0.060579282126202103 0 0.33106306128017049 0.081396907384751679 0 0.33244313390703439 0.059308849467375413 0 0.32630328309945239 0.060579282126202103 0 0.34515686275017032 0.074609299390069633 0 0.34628032495845779 0.056414101506778433 0 0.33244313390703439 0.059308849467375413 0 0.3327711880702765 0.087581823253575317 0 0.34515686275017032 0.074609299390069633 0 0.33244313390703439 0.059308849467375413 0 0.33106306128017049 0.081396907384751679 0 0.3327711880702765 0.087581823253575317 0 0.33244313390703439 0.059308849467375413 0 0.33106306128017049 0.081396907384751679 0 0.32229449579060082 0.071048967722057252 0 0.32227182251760461 0.08007958767372593 0 0.33106306128017049 0.081396907384751679 0 0.32229449579060082 0.071048967722057252 0 0.32630328309945239 0.060579282126202103 0 0.32229449579060082 0.071048967722057252 0 0.32067493273728098 0.063677185250902768 0 0.32630328309945239 0.060579282126202103 0 0.32229449579060082 0.071048967722057252 0 0.31473323145846582 0.064385186153578328 0 0.31519098908599052 0.075337625913043049 0 0.32229449579060082 0.071048967722057252 0 0.32067493273728098 0.063677185250902768 0 0.31473323145846582 0.064385186153578328 0 0.32229449579060082 0.071048967722057252 0 0.31519098908599052 0.075337625913043049 0 0.32227182251760461 0.08007958767372593 0 0.31519098908599052 0.075337625913043049 0 0.32227182251760461 0.08007958767372593 0 0.31709181024035271 0.086913051610390174 0 0.31519098908599052 0.075337625913043049 0 0.31709181024035271 0.086913051610390174 0 0.30702816691691842 0.085241035333875129 0 0.32227182251760461 0.08007958767372593 0 0.32506112856249642 0.086944373486956605 0 0.31709181024035271 0.086913051610390174 0 0.33106306128017049 0.081396907384751679 0 0.32227182251760461 0.08007958767372593 0 0.32506112856249642 0.086944373486956605 0 0.3327711880702765 0.087581823253575317 0 0.32506112856249642 0.086944373486956605 0 0.32210776070407721 0.098750497512339969 0 0.3327711880702765 0.087581823253575317 0 0.32210776070407721 0.098750497512339969 0 0.32506112856249642 0.086944373486956605 0 0.31709181024035271 0.086913051610390174 0 0.32210776070407721 0.098750497512339969 0 0.31709181024035271 0.086913051610390174 0 0.32210776070407721 0.098750497512339969 0 0.30925141146165308 0.097150597472212039 0 0.32210776070407721 0.098750497512339969 0 0.31144433333787819 0.109919171771105 0 0.30925141146165308 0.097150597472212039 0 0.32114376190800692 0.1079036630094878 0 0.32210776070407721 0.098750497512339969 0 0.31144433333787819 0.109919171771105 0 0.32210776070407721 0.098750497512339969 0 0.31144433333787819 0.109919171771105 0 0.32114376190800692 0.1079036630094878 0 0.32210776070407721 0.098750497512339969 0 0.33298236820266369 0.1057821420302662 0 0.32114376190800692 0.1079036630094878 0 0.31804058538740709 0.1171628407242396 0 0.31144433333787819 0.109919171771105 0 0.31804058538740709 0.1171628407242396 0 0.33305358462116957 0.1119198478095567 0 0.33298236820266369 0.1057821420302662 0 0.31804058538740709 0.1171628407242396 0 0.33298236820266369 0.1057821420302662 0 0.32114376190800692 0.1079036630094878 0 0.31804058538740709 0.1171628407242396 0 0.33298236820266369 0.1057821420302662 0 0.34439870615566998 0.1156055767678297 0 0.34072617752063089 0.13124216910105871 0 0.33103122596045559 0.125262255929046 0 0.31804058538740709 0.1171628407242396 0 0.34439870615566998 0.1156055767678297 0 0.33103122596045559 0.125262255929046 0 0.31804058538740709 0.1171628407242396 0 0.33305358462116957 0.1119198478095567 0 0.34439870615566998 0.1156055767678297 0 0.34439870615566998 0.1156055767678297 0 0.34072617752063089 0.13124216910105871 0 0.31804058538740709 0.1171628407242396 0 0.34439870615566998 0.1156055767678297 0 0.33305358462116957 0.1119198478095567 0 0.34018299334222701 0.10855711880363519 0 0.34439870615566998 0.1156055767678297 0 0.3327711880702765 0.087581823253575317 0 0.33298236820266369 0.1057821420302662 0 0.35531439209185223 0.088772522880273638 0 0.3327711880702765 0.087581823253575317 0 0.33298236820266369 0.1057821420302662 0 0.3327711880702765 0.087581823253575317 0 0.32210776070407721 0.098750497512339969 0 0.33298236820266369 0.1057821420302662 0 0.33305358462116957 0.1119198478095567 0 0.33298236820266369 0.1057821420302662 0 0.34018299334222701 0.10855711880363519 0 0.33305358462116957 0.1119198478095567 0 0.33298236820266369 0.1057821420302662 0 0.33298236820266369 0.1057821420302662 0 0.34018299334222701 0.10855711880363519 0 0.34840509246986973 0.098547512488388264 0 0.34840509246986973 0.098547512488388264 0 0.34439870615566998 0.1156055767678297 0 0.34018299334222701 0.10855711880363519 0 0.34840509246986973 0.098547512488388264 0 0.34439870615566998 0.1156055767678297 0 0.35323452311863418 0.1141024679328745 0 0.36359864767124328 0.1030809543219238 0 0.35531439209185223 0.088772522880273638 0 0.34840509246986973 0.098547512488388264 0 0.35323452311863418 0.1141024679328745 0 0.35531439209185223 0.088772522880273638 0 0.33298236820266369 0.1057821420302662 0 0.34840509246986973 0.098547512488388264 0 0.35531439209185223 0.088772522880273638 0 0.33298236820266369 0.1057821420302662 0 0.35531439209185223 0.088772522880273638 0 0.35323452311863418 0.1141024679328745 0 0.35531439209185223 0.088772522880273638 0 0.34439870615566998 0.1156055767678297 0 0.37231646619975872 0.113956167773826 0 0.34439870615566998 0.1156055767678297 0 0.37231646619975872 0.113956167773826 0 0.35793611067065872 0.12839318488311621 0 0.35323452311863418 0.1141024679328745 0 0.34439870615566998 0.1156055767678297 0 0.37231646619975872 0.113956167773826 0 0.34840509246986973 0.098547512488388264 0 0.35323452311863418 0.1141024679328745 0 0.34439870615566998 0.1156055767678297 0 0.37231646619975872 0.113956167773826 0 0.35793611067065872 0.12839318488311621 0 0.37509669529594891 0.13162193070138131 0 0.35323452311863418 0.1141024679328745 0 0.37231646619975872 0.113956167773826 0 0.36359864767124328 0.1030809543219238 0 0.36359864767124328 0.1030809543219238 0 0.37352920927472799 0.095492658700721073 0 0.35531439209185223 0.088772522880273638 0 0.37231646619975872 0.113956167773826 0 0.36359864767124328 0.1030809543219238 0 0.37352920927472799 0.095492658700721073 0 0.37352920927472799 0.095492658700721073 0 0.35531439209185223 0.088772522880273638 0 0.37044463300307762 0.077248281422147277 0 0.35531439209185223 0.088772522880273638 0 0.36647432064194052 0.074679275983830951 0 0.37044463300307762 0.077248281422147277 0 0.35531439209185223 0.088772522880273638 0 0.37044463300307762 0.077248281422147277 0 0.3327711880702765 0.087581823253575317 0 0.35531439209185223 0.088772522880273638 0 0.34515686275017032 0.074609299390069633 0 0.34515686275017032 0.074609299390069633 0 0.34628032495845779 0.056414101506778433 0 0.3575425374300637 0.061636775526563471 0 0.35531439209185223 0.088772522880273638 0 0.34515686275017032 0.074609299390069633 0 0.3575425374300637 0.061636775526563471 0 0.35531439209185223 0.088772522880273638 0 0.3575425374300637 0.061636775526563471 0 0.34515686275017032 0.074609299390069633 0 0.3575425374300637 0.061636775526563471 0 0.36540696231924569 0.066060677391709094 0 0.36647432064194052 0.074679275983830951 0 0.3575425374300637 0.061636775526563471 0 0.35531439209185223 0.088772522880273638 0 0.36647432064194052 0.074679275983830951 0 0.3575425374300637 0.061636775526563471 0 0.36540696231924569 0.066060677391709094 0 0.36647432064194052 0.074679275983830951 0 0.36842676107919892 0.071149791875036714 0 0.37044463300307762 0.077248281422147277 0 0.37146358584067762 0.069706563453520998 0 0.38075305900068651 0.069396668817517326 0 0.36647432064194052 0.074679275983830951 0 0.37044463300307762 0.077248281422147277 0 0.36647432064194052 0.074679275983830951 0 0.37044463300307762 0.077248281422147277 0 0.36842676107919892 0.071149791875036714 0 0.37044463300307762 0.077248281422147277 0 0.36842676107919892 0.071149791875036714 0 0.37146358584067762 0.069706563453520998 0 0.36912571665057781 0.065152071597952971 0 0.36834430359105252 0.068054161123974374 0 0.37146358584067762 0.069706563453520998 0 0.36540696231924569 0.066060677391709094 0 0.36842676107919892 0.071149791875036714 0 0.36834430359105252 0.068054161123974374 0 0.36540696231924569 0.066060677391709094 0 0.36912571665057781 0.065152071597952971 0 0.36834430359105252 0.068054161123974374 0 0.36842676107919892 0.071149791875036714 0 0.36834430359105252 0.068054161123974374 0 0.37146358584067762 0.069706563453520998 0 0.36912571665057781 0.065152071597952971 0 0.3740301351591665 0.066658298687181899 0 0.37146358584067762 0.069706563453520998 0 0.36912571665057781 0.065152071597952971 0 0.3740301351591665 0.066658298687181899 0 0.37456296680813972 0.064514540700330802 0 0.37456296680813972 0.064514540700330802 0 0.36328642902308289 0.055620730968186323 0 0.37531151832097548 0.051969731359513147 0 0.36328642902308289 0.055620730968186323 0 0.37840232873577789 0.039788620501115153 0 0.37456296680813972 0.064514540700330802 0 0.36328642902308289 0.055620730968186323 0 0.36912571665057781 0.065152071597952971 0 0.37456296680813972 0.064514540700330802 0 0.36328642902308289 0.055620730968186323 0 0.36328642902308289 0.055620730968186323 0 0.37840232873577789 0.039788620501115153 0 0.37531151832097548 0.051969731359513147 0 0.36540696231924569 0.066060677391709094 0 0.36912571665057781 0.065152071597952971 0 0.36328642902308289 0.055620730968186323 0 0.36540696231924569 0.066060677391709094 0 0.36328642902308289 0.055620730968186323 0 0.3575425374300637 0.061636775526563471 0 0.36328642902308289 0.055620730968186323 0 0.3575425374300637 0.061636775526563471 0 0.35835583188122261 0.051731967086805643 0 0.36328642902308289 0.055620730968186323 0 0.3575425374300637 0.061636775526563471 0 0.36328642902308289 0.055620730968186323 0 0.36281912195968857 0.04566061769587583 0 0.35835583188122261 0.051731967086805643 0 0.36328642902308289 0.055620730968186323 0 0.36787040205741628 0.044865235251782883 0 0.36281912195968857 0.04566061769587583 0 0.36328642902308289 0.055620730968186323 0 0.35835583188122261 0.051731967086805643 0 0.36787040205741628 0.044865235251782883 0 0.37337422304736589 0.037291809802265798 0 0.37840232873577789 0.039788620501115153 0 0.36328642902308289 0.055620730968186323 0 0.36787040205741628 0.044865235251782883 0 0.37840232873577789 0.039788620501115153 0 0.36787040205741628 0.044865235251782883 0 0.36919708254800332 0.036603360419794499 0 0.36498487125530138 0.03948200873416767 0 0.36787040205741628 0.044865235251782883 0 0.37337422304736589 0.037291809802265798 0 0.36919708254800332 0.036603360419794499 0 0.37337422304736589 0.037291809802265798 0 0.36919708254800332 0.036603360419794499 0 0.37295053760268321 0.031118772807971349 0 0.37337422304736589 0.037291809802265798 0 0.37295053760268321 0.031118772807971349 0 0.37845076429294888 0.034083060030665149 0 0.36919708254800332 0.036603360419794499 0 0.36606460127562068 0.032336080290677777 0 0.37295053760268321 0.031118772807971349 0 0.36606460127562068 0.032336080290677777 0 0.35959807558142132 0.036603146438434979 0 0.3580446349051819 0.026682968025309891 0 0.36919708254800332 0.036603360419794499 0 0.36606460127562068 0.032336080290677777 0 0.36498487125530138 0.03948200873416767 0 0.36606460127562068 0.032336080290677777 0 0.35959807558142132 0.036603146438434979 0 0.36498487125530138 0.03948200873416767 0 0.35959807558142132 0.036603146438434979 0 0.36498487125530138 0.03948200873416767 0 0.36281912195968857 0.04566061769587583 0 0.35959807558142132 0.036603146438434979 0 0.36281912195968857 0.04566061769587583 0 0.35835583188122261 0.051731967086805643 0 0.36787040205741628 0.044865235251782883 0 0.36498487125530138 0.03948200873416767 0 0.36281912195968857 0.04566061769587583 0 0.35959807558142132 0.036603146438434979 0 0.34523545581250858 0.041383921383990309 0 0.35835583188122261 0.051731967086805643 0 0.35959807558142132 0.036603146438434979 0 0.35835583188122261 0.051731967086805643 0 0.34523545581250858 0.041383921383990309 0 0.35835583188122261 0.051731967086805643 0 0.35959807558142132 0.036603146438434979 0 0.34786485384933719 0.031407584180303309 0 0.3580446349051819 0.026682968025309891 0 0.35959807558142132 0.036603146438434979 0 0.34786485384933719 0.031407584180303309 0 0.34523545581250858 0.041383921383990309 0 0.34523545581250858 0.041383921383990309 0 0.34628032495845779 0.056414101506778433 0 0.35835583188122261 0.051731967086805643 0 0.3575425374300637 0.061636775526563471 0 0.35835583188122261 0.051731967086805643 0 0.34628032495845779 0.056414101506778433 0 0.3575425374300637 0.061636775526563471 0 0.35835583188122261 0.051731967086805643 0 0.37285055003762979 0.0038105129310598632 0 0.3580446349051819 0.026682968025309891 0 0.37285055003762979 0.0038105129310598632 0 0.3580446349051819 0.026682968025309891 0 0.35179266185243191 0.0051268658735316389 0 0.37285055003762979 0.0038105129310598632 0 0.37161240576113319 0.023526225318388359 0 0.3580446349051819 0.026682968025309891 0 0.36606460127562068 0.032336080290677777 0 0.37161240576113319 0.023526225318388359 0 0.37295053760268321 0.031118772807971349 0 0.37161240576113319 0.023526225318388359 0 0.37295053760268321 0.031118772807971349 0 0.37742688159053989 0.026759663164329182 0 0.36606460127562068 0.032336080290677777 0 0.37161240576113319 0.023526225318388359 0 0.3580446349051819 0.026682968025309891 0 0.3580446349051819 0.026682968025309891 0 0.3443310232037789 0.021332009372607191 0 0.35179266185243191 0.0051268658735316389 0 0.34786485384933719 0.031407584180303309 0 0.3580446349051819 0.026682968025309891 0 0.3443310232037789 0.021332009372607191 0 0.3318894881276484 0.011593519618515701 0 0.321711975352448 0.0072373268474143502 0 0.33166389651150519 -0.0078488364441440597 0 0.3443310232037789 0.021332009372607191 0 0.35179266185243191 0.0051268658735316389 0 0.3318894881276484 0.011593519618515701 0 0.35179266185243191 0.0051268658735316389 0 0.3318894881276484 0.011593519618515701 0 0.33166389651150519 -0.0078488364441440597 0 0.3318894881276484 0.011593519618515701 0 0.33166389651150519 -0.0078488364441440597 0 0.34786485384933719 0.031407584180303309 0 0.3443310232037789 0.021332009372607191 0 0.33211507974379417 0.03103587568117544 0 0.3318894881276484 0.011593519618515701 0 0.33211507974379417 0.03103587568117544 0 0.3443310232037789 0.021332009372607191 0 0.3318894881276484 0.011593519618515701 0 0.33211507974379417 0.03103587568117544 0 0.33211507974379417 0.03103587568117544 0 0.31678372673801608 0.01894403160910299 0 0.32154350491873451 0.039761656867652519 0 0.31678372673801608 0.01894403160910299 0 0.32154350491873451 0.039761656867652519 0 0.30787990005368138 0.02760537647864687 0 0.3318894881276484 0.011593519618515701 0 0.33211507974379417 0.03103587568117544 0 0.31678372673801608 0.01894403160910299 0 0.31678372673801608 0.01894403160910299 0 0.32154350491873451 0.039761656867652519 0 0.33211507974379417 0.03103587568117544 0 0.31678372673801608 0.01894403160910299 0 0.31678372673801608 0.01894403160910299 0 0.31066069191976231 0.01411479166907505 0 0.31678372673801608 0.01894403160910299 0 0.31248272459104121 0.00013293421497175001 0 0.31678372673801608 0.01894403160910299 0 0.31248272459104121 0.00013293421497175001 0 0.31066069191976231 0.01411479166907505 0 0.31678372673801608 0.01894403160910299 0 0.321711975352448 0.0072373268474143502 0 0.31248272459104121 0.00013293421497175001 0 0.3318894881276484 0.011593519618515701 0 0.31678372673801608 0.01894403160910299 0 0.321711975352448 0.0072373268474143502 0 0.34523545581250858 0.041383921383990309 0 0.34628032495845779 0.056414101506778433 0 0.33244313390703439 0.059308849467375413 0 0.33211507974379417 0.03103587568117544 0 0.33244313390703439 0.059308849467375413 0 0.32154350491873451 0.039761656867652519 0 0.34523545581250858 0.041383921383990309 0 0.33211507974379417 0.03103587568117544 0 0.33244313390703439 0.059308849467375413 0 0.34786485384933719 0.031407584180303309 0 0.34523545581250858 0.041383921383990309 0 0.33211507974379417 0.03103587568117544 0 0.33211507974379417 0.03103587568117544 0 0.33244313390703439 0.059308849467375413 0 0.34523545581250858 0.041383921383990309 0 0.33211507974379417 0.03103587568117544 0 0.32154350491873451 0.039761656867652519 0 0.30857022612327351 0.040582903647738242 0 0.30787990005368138 0.02760537647864687 0 0.32154350491873451 0.039761656867652519 0 0.31644889806169169 0.05398789856107801 0 0.30857022612327351 0.040582903647738242 0 0.33244313390703439 0.059308849467375413 0 0.32154350491873451 0.039761656867652519 0 0.32630328309945239 0.060579282126202103 0 0.32154350491873451 0.039761656867652519 0 0.32630328309945239 0.060579282126202103 0 0.32154350491873451 0.039761656867652519 0 0.31644889806169169 0.05398789856107801 0 0.32630328309945239 0.060579282126202103 0 0.32067493273728098 0.063677185250902768 0 0.31644889806169169 0.05398789856107801 0 0.32630328309945239 0.060579282126202103 0 0.32067493273728098 0.063677185250902768 0 0.31473323145846582 0.064385186153578328 0 0.31644889806169169 0.05398789856107801 0 0.30610783958010152 0.053715290226463083 0 0.2928442551587811 0.062786457635822024 0 0.30518355937176322 0.070958351157927702 0 0.31473323145846582 0.064385186153578328 0 0.31644889806169169 0.05398789856107801 0 0.30610783958010152 0.053715290226463083 0 0.31644889806169169 0.05398789856107801 0 0.30610783958010152 0.053715290226463083 0 0.30857022612327351 0.040582903647738242 0 0.30610783958010152 0.053715290226463083 0 0.30857022612327351 0.040582903647738242 0 0.29047859277735077 0.034691926888673452 0 0.30857022612327351 0.040582903647738242 0 0.29047859277735077 0.034691926888673452 0 0.30787990005368138 0.02760537647864687 0 0.29047859277735077 0.034691926888673452 0 0.27129660501358382 0.051531255685777683 0 0.2928442551587811 0.062786457635822024 0 0.30610783958010152 0.053715290226463083 0 0.29047859277735077 0.034691926888673452 0 0.2928442551587811 0.062786457635822024 0 0.29047859277735077 0.034691926888673452 0 0.2928442551587811 0.062786457635822024 0 0.3020461684121627 0.0053875069631146751 0 0.28811293039592051 0.0065973961415248666 0 0.30078566315364058 -0.01063850742047741 0 0.3020461684121627 0.0053875069631146751 0 0.31248272459104121 0.00013293421497175001 0 0.31066069191976231 0.01411479166907505 0 0.3020461684121627 0.0053875069631146751 0 0.31066069191976231 0.01411479166907505 0 0.29983565671177548 0.017679399628206981 0 0.29047859277735077 0.034691926888673452 0 0.29983565671177548 0.017679399628206981 0 0.30787990005368138 0.02760537647864687 0 0.31678372673801608 0.01894403160910299 0 0.31066069191976231 0.01411479166907505 0 0.30787990005368138 0.02760537647864687 0 0.31066069191976231 0.01411479166907505 0 0.29983565671177548 0.017679399628206981 0 0.30787990005368138 0.02760537647864687 0 0.29047859277735077 0.034691926888673452 0 0.28811293039592051 0.0065973961415248666 0 0.27145467759526598 0.0261683195414865 0 0.29047859277735077 0.034691926888673452 0 0.29983565671177548 0.017679399628206981 0 0.28811293039592051 0.0065973961415248666 0 0.29047859277735077 0.034691926888673452 0 0.28811293039592051 0.0065973961415248666 0 0.3020461684121627 0.0053875069631146751 0 0.29983565671177548 0.017679399628206981 0 0.28811293039592051 0.0065973961415248666 0 0.28811293039592051 0.0065973961415248666 0 0.25793748997120008 0.0089236122805062303 0 0.26761999355251742 -0.011214393094296929 0 0.28811293039592051 0.0065973961415248666 0 0.27145467759526598 0.0261683195414865 0 0.25793748997120008 0.0089236122805062303 0 0.27145467759526598 0.0261683195414865 0 0.25793748997120008 0.0089236122805062303 0 0.25252678605513268 0.03574732225473342 0 0.29047859277735077 0.034691926888673452 0 0.27145467759526598 0.0261683195414865 0 0.27129660501358382 0.051531255685777683 0 0.27145467759526598 0.0261683195414865 0 0.27129660501358382 0.051531255685777683 0 0.25252678605513268 0.03574732225473342 0 0.27129660501358382 0.051531255685777683 0 0.25252678605513268 0.03574732225473342 0 0.25197250403477323 0.055584510812426449 0 0.27129660501358382 0.051531255685777683 0 0.25197250403477323 0.055584510812426449 0 0.26098081548767121 0.072760602023122956 0 0.24293874619262279 0.072483176463588109 0 0.26098081548767121 0.072760602023122956 0 0.25607320783504017 0.087112322323387378 0 0.24293874619262279 0.072483176463588109 0 0.25197250403477323 0.055584510812426449 0 0.26098081548767121 0.072760602023122956 0 0.24293874619262279 0.072483176463588109 0 0.26098081548767121 0.072760602023122956 0 0.25607320783504017 0.087112322323387378 0 0.27280751877209819 0.090367964667916745 0 0.26127035185367292 0.1031433965733573 0 0.26098081548767121 0.072760602023122956 0 0.25607320783504017 0.087112322323387378 0 0.27280751877209819 0.090367964667916745 0 0.26098081548767121 0.072760602023122956 0 0.27280751877209819 0.090367964667916745 0 0.27970263464207679 0.075171484007819062 0 0.27280751877209819 0.090367964667916745 0 0.27970263464207679 0.075171484007819062 0 0.28508973939000359 0.089298112349490436 0 0.27280751877209819 0.090367964667916745 0 0.28508973939000359 0.089298112349490436 0 0.28347815688633948 0.1004647216870007 0 0.27129660501358382 0.051531255685777683 0 0.26098081548767121 0.072760602023122956 0 0.27970263464207679 0.075171484007819062 0 0.27129660501358382 0.051531255685777683 0 0.27970263464207679 0.075171484007819062 0 0.2928442551587811 0.062786457635822024 0 0.27970263464207679 0.075171484007819062 0 0.2928442551587811 0.062786457635822024 0 0.29519687403032269 0.084284511684784624 0 0.27970263464207679 0.075171484007819062 0 0.28508973939000359 0.089298112349490436 0 0.29519687403032269 0.084284511684784624 0 0.29519687403032269 0.084284511684784624 0 0.29697611833662718 0.10129337126235111 0 0.28508973939000359 0.089298112349490436 0 0.29519687403032269 0.084284511684784624 0 0.29697611833662718 0.10129337126235111 0 0.29519687403032269 0.084284511684784624 0 0.30702816691691842 0.085241035333875129 0 0.29697611833662718 0.10129337126235111 0 0.29519687403032269 0.084284511684784624 0 0.30702816691691842 0.085241035333875129 0 0.30518355937176322 0.070958351157927702 0 0.31709181024035271 0.086913051610390174 0 0.30702816691691842 0.085241035333875129 0 0.30925141146165308 0.097150597472212039 0 0.31519098908599052 0.075337625913043049 0 0.30702816691691842 0.085241035333875129 0 0.30518355937176322 0.070958351157927702 0 0.2928442551587811 0.062786457635822024 0 0.29519687403032269 0.084284511684784624 0 0.30518355937176322 0.070958351157927702 0 0.31473323145846582 0.064385186153578328 0 0.30610783958010152 0.053715290226463083 0 0.30518355937176322 0.070958351157927702 0 0.31473323145846582 0.064385186153578328 0 0.31519098908599052 0.075337625913043049 0 0.30518355937176322 0.070958351157927702 0 0.31804058538740709 0.1171628407242396 0 0.29875536264293162 0.1183022308399176 0 0.30486522067063643 0.12719811281182919 0 0.29875536264293162 0.1183022308399176 0 0.31144433333787819 0.109919171771105 0 0.29697611833662718 0.10129337126235111 0 0.31804058538740709 0.1171628407242396 0 0.29875536264293162 0.1183022308399176 0 0.31144433333787819 0.109919171771105 0 0.31804058538740709 0.1171628407242396 0 0.29875536264293162 0.1183022308399176 0 0.29875536264293162 0.1183022308399176 0 0.29697611833662718 0.10129337126235111 0 0.29875536264293162 0.1183022308399176 0 0.30006814467523529 0.13085189878842679 0 0.31804058538740709 0.1171628407242396 0 0.30486522067063643 0.12719811281182919 0 0.30702816691691842 0.085241035333875129 0 0.30925141146165308 0.097150597472212039 0 0.29697611833662718 0.10129337126235111 0 0.31144433333787819 0.109919171771105 0 0.30925141146165308 0.097150597472212039 0 0.29697611833662718 0.10129337126235111 0 0.29697611833662718 0.10129337126235111 0 0.28347815688633948 0.1004647216870007 0 0.28715576949983329 0.11047211902129191 0 0.28508973939000359 0.089298112349490436 0 0.29697611833662718 0.10129337126235111 0 0.28347815688633948 0.1004647216870007 0 0.28347815688633948 0.1004647216870007 0 0.28715576949983329 0.11047211902129191 0 0.27795357362841699 0.1128081654227846 0 0.29875536264293162 0.1183022308399176 0 0.27861563600485079 0.11949210589440511 0 0.28929138551851968 0.12668368808903771 0 0.29875536264293162 0.1183022308399176 0 0.27861563600485079 0.11949210589440511 0 0.29875536264293162 0.1183022308399176 0 0.29697611833662718 0.10129337126235111 0 0.28715576949983329 0.11047211902129191 0 0.29875536264293162 0.1183022308399176 0 0.28715576949983329 0.11047211902129191 0 0.27861563600485079 0.11949210589440511 0 0.27861563600485079 0.11949210589440511 0 0.25776502136866952 0.1207239809179458 0 0.27861563600485079 0.11949210589440511 0 0.26961559762204818 0.1116931299528881 0 0.25776502136866952 0.1207239809179458 0 0.27861563600485079 0.11949210589440511 0 0.25776502136866952 0.1207239809179458 0 0.26897865482479921 0.13345118633688849 0 0.27861563600485079 0.11949210589440511 0 0.27795357362841699 0.1128081654227846 0 0.28715576949983329 0.11047211902129191 0 0.27861563600485079 0.11949210589440511 0 0.27795357362841699 0.1128081654227846 0 0.27861563600485079 0.11949210589440511 0 0.27795357362841699 0.1128081654227846 0 0.26961559762204818 0.1116931299528881 0 0.27280751877209819 0.090367964667916745 0 0.28347815688633948 0.1004647216870007 0 0.27297489116179829 0.1035684325058038 0 0.27795357362841699 0.1128081654227846 0 0.26961559762204818 0.1116931299528881 0 0.27297489116179829 0.1035684325058038 0 0.28347815688633948 0.1004647216870007 0 0.27795357362841699 0.1128081654227846 0 0.27297489116179829 0.1035684325058038 0 0.26961559762204818 0.1116931299528881 0 0.27297489116179829 0.1035684325058038 0 0.26127035185367292 0.1031433965733573 0 0.27280751877209819 0.090367964667916745 0 0.27297489116179829 0.1035684325058038 0 0.26127035185367292 0.1031433965733573 0 0.2490841133515064 0.097505850465394062 0 0.25607320783504017 0.087112322323387378 0 0.26127035185367292 0.1031433965733573 0 0.24580103785783761 0.111544873705254 0 0.2490841133515064 0.097505850465394062 0 0.26127035185367292 0.1031433965733573 0 0.26961559762204818 0.1116931299528881 0 0.26127035185367292 0.1031433965733573 0 0.25776502136866952 0.1207239809179458 0 0.24580103785783761 0.111544873705254 0 0.26127035185367292 0.1031433965733573 0 0.25776502136866952 0.1207239809179458 0 0.25776502136866952 0.1207239809179458 0 0.26897865482479921 0.13345118633688849 0 0.25803538347896532 0.14346215459876019 0 0.24363673082372869 0.13041656242538599 0 0.25776502136866952 0.1207239809179458 0 0.25803538347896532 0.14346215459876019 0 0.27861563600485079 0.11949210589440511 0 0.2811668687763258 0.1452484221884007 0 0.27861563600485079 0.11949210589440511 0 0.26897865482479921 0.13345118633688849 0 0.2811668687763258 0.1452484221884007 0 0.2811668687763258 0.1452484221884007 0 0.2646444080961558 0.15783307483721429 0 0.2811668687763258 0.1452484221884007 0 0.25803538347896532 0.14346215459876019 0 0.2646444080961558 0.15783307483721429 0 0.26897865482479921 0.13345118633688849 0 0.2811668687763258 0.1452484221884007 0 0.25803538347896532 0.14346215459876019 0 0.2481219474159862 0.17041772748602829 0 0.25803538347896532 0.14346215459876019 0 0.2646444080961558 0.15783307483721429 0 0.2481219474159862 0.17041772748602829 0 0.2646444080961558 0.15783307483721429 0 0.26774399784116898 0.1745435203321572 0 0.2481219474159862 0.17041772748602829 0 0.2646444080961558 0.15783307483721429 0 0.2481219474159862 0.17041772748602829 0 0.26774399784116898 0.1745435203321572 0 0.2619594054203454 0.1905242880155886 0 0.24467274315590151 0.18618091698556069 0 0.2481219474159862 0.17041772748602829 0 0.2619594054203454 0.1905242880155886 0 0.26774399784116898 0.1745435203321572 0 0.28341773407796439 0.16797233797232189 0 0.28566859937960293 0.19069625375624311 0 0.26774399784116898 0.1745435203321572 0 0.2619594054203454 0.1905242880155886 0 0.28566859937960293 0.19069625375624311 0 0.2811668687763258 0.1452484221884007 0 0.2646444080961558 0.15783307483721429 0 0.28341773407796439 0.16797233797232189 0 0.2646444080961558 0.15783307483721429 0 0.26774399784116898 0.1745435203321572 0 0.28341773407796439 0.16797233797232189 0 0.2811668687763258 0.1452484221884007 0 0.28341773407796439 0.16797233797232189 0 0.28512846658788171 0.15589337618245161 0 0.28341773407796439 0.16797233797232189 0 0.29547437566882617 0.1637986985282183 0 0.28512846658788171 0.15589337618245161 0 0.2811668687763258 0.1452484221884007 0 0.28341773407796439 0.16797233797232189 0 0.28341773407796439 0.16797233797232189 0 0.29547437566882617 0.1637986985282183 0 0.29508407518874552 0.1780707647822076 0 0.29547437566882617 0.1637986985282183 0 0.28512846658788171 0.15589337618245161 0 0.29547437566882617 0.1637986985282183 0 0.28973095516746072 0.15865543777746891 0 0.28512846658788171 0.15589337618245161 0 0.29547437566882617 0.1637986985282183 0 0.29653198024182859 0.15635145928610281 0 0.28973095516746072 0.15865543777746891 0 0.29547437566882617 0.1637986985282183 0 0.28973095516746072 0.15865543777746891 0 0.28341773407796439 0.16797233797232189 0 0.28566859937960293 0.19069625375624311 0 0.28341773407796439 0.16797233797232189 0 0.29508407518874552 0.1780707647822076 0 0.28566859937960293 0.19069625375624311 0 0.29508407518874552 0.1780707647822076 0 0.28566859937960293 0.19069625375624311 0 0.30136288481674578 0.19155400929376271 0 0.29508407518874552 0.1780707647822076 0 0.31100959425756969 0.1777105616771549 0 0.30136288481674578 0.19155400929376271 0 0.29547437566882617 0.1637986985282183 0 0.29508407518874552 0.1780707647822076 0 0.31100959425756969 0.1777105616771549 0 0.29547437566882617 0.1637986985282183 0 0.31100959425756969 0.1777105616771549 0 0.31141609687124622 0.17597978806471881 0 0.29547437566882617 0.1637986985282183 0 0.31141609687124622 0.17597978806471881 0 0.29547437566882617 0.1637986985282183 0 0.31141609687124622 0.17597978806471881 0 0.30344143955241931 0.16309924035723419 0 0.29547437566882617 0.1637986985282183 0 0.29653198024182859 0.15635145928610281 0 0.30344143955241931 0.16309924035723419 0 0.29547437566882617 0.1637986985282183 0 0.31100959425756969 0.1777105616771549 0 0.31141609687124622 0.17597978806471881 0 0.30344143955241931 0.16309924035723419 0 0.31503442819352112 0.16251422050283179 0 0.30344143955241931 0.16309924035723419 0 0.30998173608880242 0.15241433270777921 0 0.31503442819352112 0.16251422050283179 0 0.29653198024182859 0.15635145928610281 0 0.30344143955241931 0.16309924035723419 0 0.301754792113827 0.14697556957283051 0 0.30344143955241931 0.16309924035723419 0 0.30998173608880242 0.15241433270777921 0 0.301754792113827 0.14697556957283051 0 0.301754792113827 0.14697556957283051 0 0.30006814467523529 0.13085189878842679 0 0.29225833870661011 0.14922835019476199 0 0.30344143955241931 0.16309924035723419 0 0.301754792113827 0.14697556957283051 0 0.30998173608880242 0.15241433270777921 0 0.301754792113827 0.14697556957283051 0 0.30931012881379433 0.13800980442226871 0 0.301754792113827 0.14697556957283051 0 0.30931012881379433 0.13800980442226871 0 0.30006814467523529 0.13085189878842679 0 0.30931012881379433 0.13800980442226871 0 0.30486522067063643 0.12719811281182919 0 0.320959434778115 0.13703843712305719 0 0.301754792113827 0.14697556957283051 0 0.30006814467523529 0.13085189878842679 0 0.30931012881379433 0.13800980442226871 0 0.30486522067063643 0.12719811281182919 0 0.30006814467523529 0.13085189878842679 0 0.29875536264293162 0.1183022308399176 0 0.30486522067063643 0.12719811281182919 0 0.30006814467523529 0.13085189878842679 0 0.30486522067063643 0.12719811281182919 0 0.30006814467523529 0.13085189878842679 0 0.2811668687763258 0.1452484221884007 0 0.30006814467523529 0.13085189878842679 0 0.27861563600485079 0.11949210589440511 0 0.2811668687763258 0.1452484221884007 0 0.28929138551851968 0.12668368808903771 0 0.2811668687763258 0.1452484221884007 0 0.30006814467523529 0.13085189878842679 0 0.28929138551851968 0.12668368808903771 0 0.29875536264293162 0.1183022308399176 0 0.30006814467523529 0.13085189878842679 0 0.28929138551851968 0.12668368808903771 0 0.2811668687763258 0.1452484221884007 0 0.30006814467523529 0.13085189878842679 0 0.29225833870661011 0.14922835019476199 0 0.2811668687763258 0.1452484221884007 0 0.28512846658788171 0.15589337618245161 0 0.29225833870661011 0.14922835019476199 0 0.28973095516746072 0.15865543777746891 0 0.28512846658788171 0.15589337618245161 0 0.29225833870661011 0.14922835019476199 0 0.29653198024182859 0.15635145928610281 0 0.28973095516746072 0.15865543777746891 0 0.29225833870661011 0.14922835019476199 0 0.29653198024182859 0.15635145928610281 0 0.301754792113827 0.14697556957283051 0 0.29225833870661011 0.14922835019476199 0 0.2729492100550292 0.26011041335463803 0 0.2768150032315162 0.24421201810171511 0 0.26330248410392382 0.24083172747773951 0 0.2768150032315162 0.24421201810171511 0 0.27260137768095438 0.23137724300800749 0 0.28442666240579467 0.23597294274887101 0 0.2768150032315162 0.24421201810171511 0 0.26330248410392382 0.24083172747773951 0 0.27260137768095438 0.23137724300800749 0 0.25183994707326618 0.25847883665615179 0 0.26330248410392382 0.24083172747773951 0 0.24515090742476439 0.23966848062391871 0 0.25183994707326618 0.25847883665615179 0 0.26330248410392382 0.24083172747773951 0 0.24515090742476439 0.23966848062391871 0 0.26330248410392382 0.24083172747773951 0 0.25562002392340932 0.226510414300509 0 0.26330248410392382 0.24083172747773951 0 0.25562002392340932 0.226510414300509 0 0.27260137768095438 0.23137724300800749 0 0.25562002392340932 0.226510414300509 0 0.26909160883909827 0.21418152868780321 0 0.25118861121634251 0.2177712711195518 0 0.25562002392340932 0.226510414300509 0 0.27260137768095438 0.23137724300800749 0 0.26909160883909827 0.21418152868780321 0 0.27260137768095438 0.23137724300800749 0 0.26909160883909827 0.21418152868780321 0 0.28368214857140872 0.226544393057307 0 0.27260137768095438 0.23137724300800749 0 0.28368214857140872 0.226544393057307 0 0.28442666240579467 0.23597294274887101 0 0.26909160883909827 0.21418152868780321 0 0.25723858746686118 0.20401458323071489 0 0.2751625293747435 0.20274144634399871 0 0.26909160883909827 0.21418152868780321 0 0.2751625293747435 0.20274144634399871 0 0.28791946468124141 0.2134201695401643 0 0.24158094432660121 0.20953501689820889 0 0.26909160883909827 0.21418152868780321 0 0.25118861121634251 0.2177712711195518 0 0.24158094432660121 0.20953501689820889 0 0.26909160883909827 0.21418152868780321 0 0.24158094432660121 0.20953501689820889 0 0.26909160883909827 0.21418152868780321 0 0.25723858746686118 0.20401458323071489 0 0.25723858746686118 0.20401458323071489 0 0.2619594054203454 0.1905242880155886 0 0.2751625293747435 0.20274144634399871 0 0.23701013305145779 0.20077927230578349 0 0.25723858746686118 0.20401458323071489 0 0.2619594054203454 0.1905242880155886 0 0.2619594054203454 0.1905242880155886 0 0.2751625293747435 0.20274144634399871 0 0.28566859937960293 0.19069625375624311 0 0.2751625293747435 0.20274144634399871 0 0.28566859937960293 0.19069625375624311 0 0.28791946468124141 0.2134201695401643 0 0.28566859937960293 0.19069625375624311 0 0.30136288481674578 0.19155400929376271 0 0.2976019400783011 0.20610759549582031 0 0.28566859937960293 0.19069625375624311 0 0.28791946468124141 0.2134201695401643 0 0.31100959425756969 0.1777105616771549 0 0.30136288481674578 0.19155400929376271 0 0.31252896400807179 0.1950564823895497 0 0.30628413598818349 0.2016823976616004 0 0.31461493704046722 0.2077984956317559 0 0.31252896400807179 0.1950564823895497 0 0.30136288481674578 0.19155400929376271 0 0.30628413598818349 0.2016823976616004 0 0.31252896400807179 0.1950564823895497 0 0.30136288481674578 0.19155400929376271 0 0.30628413598818349 0.2016823976616004 0 0.2976019400783011 0.20610759549582031 0 0.30519542254989218 0.21373941027453991 0 0.2966022733515955 0.2188280404773974 0 0.31929126533499991 0.22266017869045471 0 0.30628413598818349 0.2016823976616004 0 0.2976019400783011 0.20610759549582031 0 0.30682476625431337 0.20927344281377611 0 0.2976019400783011 0.20610759549582031 0 0.30682476625431337 0.20927344281377611 0 0.30519542254989218 0.21373941027453991 0 0.30628413598818349 0.2016823976616004 0 0.30682476625431337 0.20927344281377611 0 0.31461493704046722 0.2077984956317559 0 0.30682476625431337 0.20927344281377611 0 0.31290320628495871 0.21261367326816291 0 0.31461493704046722 0.2077984956317559 0 0.30519542254989218 0.21373941027453991 0 0.31929126533499991 0.22266017869045471 0 0.31290320628495871 0.21261367326816291 0 0.30682476625431337 0.20927344281377611 0 0.30519542254989218 0.21373941027453991 0 0.31290320628495871 0.21261367326816291 0 0.2976019400783011 0.20610759549582031 0 0.30519542254989218 0.21373941027453991 0 0.2966022733515955 0.2188280404773974 0 0.28566859937960293 0.19069625375624311 0 0.2976019400783011 0.20610759549582031 0 0.28791946468124141 0.2134201695401643 0 0.26909160883909827 0.21418152868780321 0 0.2966022733515955 0.2188280404773974 0 0.26909160883909827 0.21418152868780321 0 0.28791946468124141 0.2134201695401643 0 0.2966022733515955 0.2188280404773974 0 0.2976019400783011 0.20610759549582031 0 0.28791946468124141 0.2134201695401643 0 0.2966022733515955 0.2188280404773974 0 0.26909160883909827 0.21418152868780321 0 0.28368214857140872 0.226544393057307 0 0.2966022733515955 0.2188280404773974 0 0.28368214857140872 0.226544393057307 0 0.29568882057960022 0.23236221036445581 0 0.28442666240579467 0.23597294274887101 0 0.28368214857140872 0.226544393057307 0 0.29568882057960022 0.23236221036445581 0 0.2966022733515955 0.2188280404773974 0 0.2966022733515955 0.2188280404773974 0 0.30558583362623998 0.22656151768393651 0 0.31929126533499991 0.22266017869045471 0 0.29568882057960022 0.23236221036445581 0 0.2966022733515955 0.2188280404773974 0 0.30558583362623998 0.22656151768393651 0 0.2966022733515955 0.2188280404773974 0 0.31929126533499991 0.22266017869045471 0 0.30558583362623998 0.22656151768393651 0 0.30810849941559959 0.23987649230043781 0 0.31589586180283841 0.232306196683112 0 0.29568882057960022 0.23236221036445581 0 0.30558583362623998 0.22656151768393651 0 0.30810849941559959 0.23987649230043781 0 0.29568882057960022 0.23236221036445581 0 0.30810849941559959 0.23987649230043781 0 0.29284259492690318 0.24898779679954219 0 0.31136976800877553 0.25810883315898242 0 0.30810849941559959 0.23987649230043781 0 0.29284259492690318 0.24898779679954219 0 0.29568882057960022 0.23236221036445581 0 0.29284259492690318 0.24898779679954219 0 0.28442666240579467 0.23597294274887101 0 0.2768150032315162 0.24421201810171511 0 0.29284259492690318 0.24898779679954219 0 0.28442666240579467 0.23597294274887101 0 0.34057100633135029 0.24046218560576019 0 0.32735027460913568 0.24544548620300091 0 0.32411293786409229 0.22347455226699339 0 0.34524058192319779 0.25689687518594218 0 0.34057100633135029 0.24046218560576019 0 0.32735027460913568 0.24544548620300091 0 0.32735027460913568 0.24544548620300091 0 0.32411293786409229 0.22347455226699339 0 0.30810849941559959 0.23987649230043781 0 0.32735027460913568 0.24544548620300091 0 0.31589586180283841 0.232306196683112 0 0.31136976800877553 0.25810883315898242 0 0.30810849941559959 0.23987649230043781 0 0.32735027460913568 0.24544548620300091 0 0.32735027460913568 0.24544548620300091 0 0.31589586180283841 0.232306196683112 0 0.32411293786409229 0.22347455226699339 0 0.30558583362623998 0.22656151768393651 0 0.31929126533499991 0.22266017869045471 0 0.32411293786409229 0.22347455226699339 0 0.30558583362623998 0.22656151768393651 0 0.31589586180283841 0.232306196683112 0 0.32411293786409229 0.22347455226699339 0 0.31929126533499991 0.22266017869045471 0 0.32411293786409229 0.22347455226699339 0 0.32216644980310521 0.21026426122740591 0 0.31929126533499991 0.22266017869045471 0 0.32411293786409229 0.22347455226699339 0 0.32411293786409229 0.22347455226699339 0 0.34572979318208341 0.21740125375030911 0 0.35172389051612818 0.2281380025795543 0 0.32411293786409229 0.22347455226699339 0 0.35172389051612818 0.2281380025795543 0 0.34057100633135029 0.24046218560576019 0 0.32411293786409229 0.22347455226699339 0 0.35172389051612818 0.2281380025795543 0 0.32411293786409229 0.22347455226699339 0 0.33364648801076668 0.21428607065634911 0 0.34572979318208341 0.21740125375030911 0 0.33997869815303611 0.21187141485251471 0 0.34218362681376918 0.20562705813614809 0 0.34572979318208341 0.21740125375030911 0 0.33997869815303611 0.21187141485251471 0 0.33364648801076668 0.21428607065634911 0 0.34572979318208341 0.21740125375030911 0 0.33997869815303611 0.21187141485251471 0 0.33550148937757179 0.20780182693003979 0 0.33364648801076668 0.21428607065634911 0 0.34218362681376918 0.20562705813614809 0 0.33550148937757179 0.20780182693003979 0 0.33090946545985028 0.2024826262041616 0 0.33997869815303611 0.21187141485251471 0 0.34218362681376918 0.20562705813614809 0 0.33550148937757179 0.20780182693003979 0 0.33550148937757179 0.20780182693003979 0 0.33364648801076668 0.21428607065634911 0 0.32216644980310521 0.21026426122740591 0 0.33550148937757179 0.20780182693003979 0 0.32216644980310521 0.21026426122740591 0 0.33090946545985028 0.2024826262041616 0 0.32216644980310521 0.21026426122740591 0 0.32178880674002702 0.20770129931034109 0 0.32654481284631431 0.1916224248260904 0 0.32411293786409229 0.22347455226699339 0 0.33364648801076668 0.21428607065634911 0 0.32216644980310521 0.21026426122740591 0 0.31929126533499991 0.22266017869045471 0 0.32216644980310521 0.21026426122740591 0 0.32411293786409229 0.22347455226699339 0 0.32216644980310521 0.21026426122740591 0 0.31929126533499991 0.22266017869045471 0 0.31290320628495871 0.21261367326816291 0 0.32216644980310521 0.21026426122740591 0 0.31290320628495871 0.21261367326816291 0 0.31461493704046722 0.2077984956317559 0 0.32216644980310521 0.21026426122740591 0 0.31461493704046722 0.2077984956317559 0 0.32216644980310521 0.21026426122740591 0 0.32178880674002702 0.20770129931034109 0 0.31461493704046722 0.2077984956317559 0 0.32178880674002702 0.20770129931034109 0 0.31810622045567838 0.20069005283714431 0 0.32216644980310521 0.21026426122740591 0 0.32178880674002702 0.20770129931034109 0 0.31100959425756969 0.1777105616771549 0 0.31252896400807179 0.1950564823895497 0 0.32654481284631431 0.1916224248260904 0 0.32216644980310521 0.21026426122740591 0 0.32654481284631431 0.1916224248260904 0 0.33090946545985028 0.2024826262041616 0 0.32216644980310521 0.21026426122740591 0 0.32654481284631431 0.1916224248260904 0 0.32178880674002702 0.20770129931034109 0 0.31810622045567838 0.20069005283714431 0 0.32654481284631431 0.1916224248260904 0 0.31461493704046722 0.2077984956317559 0 0.31810622045567838 0.20069005283714431 0 0.31252896400807179 0.1950564823895497 0 0.31810622045567838 0.20069005283714431 0 0.31252896400807179 0.1950564823895497 0 0.32654481284631431 0.1916224248260904 0 0.32654481284631431 0.1916224248260904 0 0.32735781807366632 0.18816087760121919 0 0.34218362681376918 0.20562705813614809 0 0.32654481284631431 0.1916224248260904 0 0.32735781807366632 0.18816087760121919 0 0.34254676612335239 0.19091614488039119 0 0.34589830554592932 0.20232768776446039 0 0.34218362681376918 0.20562705813614809 0 0.32654481284631431 0.1916224248260904 0 0.34589830554592932 0.20232768776446039 0 0.32735781807366632 0.18816087760121919 0 0.34589830554592932 0.20232768776446039 0 0.34218362681376918 0.20562705813614809 0 0.32654481284631431 0.1916224248260904 0 0.33090946545985028 0.2024826262041616 0 0.32654481284631431 0.1916224248260904 0 0.32735781807366632 0.18816087760121919 0 0.34589830554592932 0.20232768776446039 0 0.34254676612335239 0.19091614488039119 0 0.35300778398025012 0.19240144721257629 0 0.34719979825133152 0.18168106062138109 0 0.34254676612335239 0.19091614488039119 0 0.3485195074594451 0.1960262961435808 0 0.35300778398025012 0.19240144721257629 0 0.34254676612335239 0.19091614488039119 0 0.34589830554592932 0.20232768776446039 0 0.3485195074594451 0.1960262961435808 0 0.34589830554592932 0.20232768776446039 0 0.3485195074594451 0.1960262961435808 0 0.35469409424077092 0.19887029962213729 0 0.35469409424077092 0.19887029962213729 0 0.35300778398025012 0.19240144721257629 0 0.36497799368589873 0.196482233281946 0 0.34589830554592932 0.20232768776446039 0 0.35469409424077092 0.19887029962213729 0 0.36107383829746359 0.20473825344045121 0 0.3485195074594451 0.1960262961435808 0 0.35469409424077092 0.19887029962213729 0 0.35300778398025012 0.19240144721257629 0 0.36497799368589873 0.196482233281946 0 0.37103649758007962 0.2043079410970095 0 0.38101459703509533 0.19169005846978529 0 0.35300778398025012 0.19240144721257629 0 0.36497799368589873 0.196482233281946 0 0.36362071595050871 0.1846168299522267 0 0.36497799368589873 0.196482233281946 0 0.36362071595050871 0.1846168299522267 0 0.38101459703509533 0.19169005846978529 0 0.36497799368589873 0.196482233281946 0 0.36107383829746359 0.20473825344045121 0 0.37103649758007962 0.2043079410970095 0 0.35469409424077092 0.19887029962213729 0 0.36497799368589873 0.196482233281946 0 0.36107383829746359 0.20473825344045121 0 0.36107383829746359 0.20473825344045121 0 0.37103649758007962 0.2043079410970095 0 0.36443879301819249 0.21649449792770159 0 0.37103649758007962 0.2043079410970095 0 0.36443879301819249 0.21649449792770159 0 0.38017472010162928 0.2122457556809523 0 0.34218362681376918 0.20562705813614809 0 0.34589830554592932 0.20232768776446039 0 0.35782244078122522 0.21963169144620459 0 0.34589830554592932 0.20232768776446039 0 0.36107383829746359 0.20473825344045121 0 0.36443879301819249 0.21649449792770159 0 0.34589830554592932 0.20232768776446039 0 0.36443879301819249 0.21649449792770159 0 0.34218362681376918 0.20562705813614809 0 0.35782244078122522 0.21963169144620459 0 0.34218362681376918 0.20562705813614809 0 0.34572979318208341 0.21740125375030911 0 0.35782244078122522 0.21963169144620459 0 0.34589830554592932 0.20232768776446039 0 0.36443879301819249 0.21649449792770159 0 0.35782244078122522 0.21963169144620459 0 0.34572979318208341 0.21740125375030911 0 0.35172389051612818 0.2281380025795543 0 0.35782244078122522 0.21963169144620459 0 0.35172389051612818 0.2281380025795543 0 0.37933484316816363 0.2328014528921194 0 0.36443879301819249 0.21649449792770159 0 0.37933484316816363 0.2328014528921194 0 0.38017472010162928 0.2122457556809523 0 0.36443879301819249 0.21649449792770159 0 0.35782244078122522 0.21963169144620459 0 0.37933484316816363 0.2328014528921194 0 0.35172389051612818 0.2281380025795543 0 0.35782244078122522 0.21963169144620459 0 0.37933484316816363 0.2328014528921194 0 0.35172389051612818 0.2281380025795543 0 0.36797363405174488 0.24232821387984321 0 0.37933484316816363 0.2328014528921194 0 0.37851977033850781 0.25275007824881379 0 0.36797363405174488 0.24232821387984321 0 0.35442734674419801 0.24835601179330999 0 0.34057100633135029 0.24046218560576019 0 0.35172389051612818 0.2281380025795543 0 0.35442734674419801 0.24835601179330999 0 0.35172389051612818 0.2281380025795543 0 0.36797363405174488 0.24232821387984321 0 0.35442734674419801 0.24835601179330999 0 0.34524058192319779 0.25689687518594218 0 0.34057100633135029 0.24046218560576019 0 0.35442734674419801 0.24835601179330999 0 0.33705364888559208 0.14687876143428791 0 0.32036789177045027 0.15147282868373091 0 0.33220573347962928 0.1675198195177536 0 0.33705364888559208 0.14687876143428791 0 0.320959434778115 0.13703843712305719 0 0.33705364888559208 0.14687876143428791 0 0.34072617752063089 0.13124216910105871 0 0.35095646833815403 0.14154033085827669 0 0.33705364888559208 0.14687876143428791 0 0.34072617752063089 0.13124216910105871 0 0.34072617752063089 0.13124216910105871 0 0.33103122596045559 0.125262255929046 0 0.320959434778115 0.13703843712305719 0 0.33705364888559208 0.14687876143428791 0 0.34072617752063089 0.13124216910105871 0 0.320959434778115 0.13703843712305719 0 0.31804058538740709 0.1171628407242396 0 0.33103122596045559 0.125262255929046 0 0.320959434778115 0.13703843712305719 0 0.30486522067063643 0.12719811281182919 0 0.320959434778115 0.13703843712305719 0 0.31804058538740709 0.1171628407242396 0 0.30486522067063643 0.12719811281182919 0 0.320959434778115 0.13703843712305719 0 0.30931012881379433 0.13800980442226871 0 0.320959434778115 0.13703843712305719 0 0.32036789177045027 0.15147282868373091 0 0.30998173608880242 0.15241433270777921 0 0.30931012881379433 0.13800980442226871 0 0.32036789177045027 0.15147282868373091 0 0.33705364888559208 0.14687876143428791 0 0.320959434778115 0.13703843712305719 0 0.32036789177045027 0.15147282868373091 0 0.30998173608880242 0.15241433270777921 0 0.32036789177045027 0.15147282868373091 0 0.31503442819352112 0.16251422050283179 0 0.31141609687124622 0.17597978806471881 0 0.31503442819352112 0.16251422050283179 0 0.33220573347962928 0.1675198195177536 0 0.32036789177045027 0.15147282868373091 0 0.31503442819352112 0.16251422050283179 0 0.33220573347962928 0.1675198195177536 0 0.31141609687124622 0.17597978806471881 0 0.32735781807366632 0.18816087760121919 0 0.31100959425756969 0.1777105616771549 0 0.31141609687124622 0.17597978806471881 0 0.32735781807366632 0.18816087760121919 0 0.31100959425756969 0.1777105616771549 0 0.32654481284631431 0.1916224248260904 0 0.32735781807366632 0.18816087760121919 0 0.31141609687124622 0.17597978806471881 0 0.32735781807366632 0.18816087760121919 0 0.33220573347962928 0.1675198195177536 0 0.31100959425756969 0.1777105616771549 0 0.32654481284631431 0.1916224248260904 0 0.32735781807366632 0.18816087760121919 0 0.33674726561453538 0.1825705246108337 0 0.33220573347962928 0.1675198195177536 0 0.32735781807366632 0.18816087760121919 0 0.33220573347962928 0.1675198195177536 0 0.32735781807366632 0.18816087760121919 0 0.34254676612335239 0.19091614488039119 0 0.33674726561453538 0.1825705246108337 0 0.33674726561453538 0.1825705246108337 0 0.33220573347962928 0.1675198195177536 0 0.34719979825133152 0.18168106062138109 0 0.34254676612335239 0.19091614488039119 0 0.33674726561453538 0.1825705246108337 0 0.34719979825133152 0.18168106062138109 0 0.33705364888559208 0.14687876143428791 0 0.33220573347962928 0.1675198195177536 0 0.33705364888559208 0.14687876143428791 0 0.33220573347962928 0.1675198195177536 0 0.35820634045448529 0.1598119400103489 0 0.33220573347962928 0.1675198195177536 0 0.35820634045448529 0.1598119400103489 0 0.35611832403186672 0.173274953737624 0 0.33220573347962928 0.1675198195177536 0 0.35611832403186672 0.173274953737624 0 0.34719979825133152 0.18168106062138109 0 0.35300778398025012 0.19240144721257629 0 0.34719979825133152 0.18168106062138109 0 0.36362071595050871 0.1846168299522267 0 0.35611832403186672 0.173274953737624 0 0.34719979825133152 0.18168106062138109 0 0.36362071595050871 0.1846168299522267 0 0.36362071595050871 0.1846168299522267 0 0.37935903202337862 0.17274511858640959 0 0.38101459703509533 0.19169005846978529 0 0.35611832403186672 0.173274953737624 0 0.36362071595050871 0.1846168299522267 0 0.37935903202337862 0.17274511858640959 0 0.35820634045448529 0.1598119400103489 0 0.37935903202337862 0.17274511858640959 0 0.35820634045448529 0.1598119400103489 0 0.37676667496965771 0.14883217536070001 0 0.37935903202337862 0.17274511858640959 0 0.35820634045448529 0.1598119400103489 0 0.35611832403186672 0.173274953737624 0 0.37935903202337862 0.17274511858640959 0 0.35820634045448529 0.1598119400103489 0 0.36385786304065287 0.1389912608545002 0 0.37676667496965771 0.14883217536070001 0 0.33705364888559208 0.14687876143428791 0 0.35820634045448529 0.1598119400103489 0 0.35820634045448529 0.1598119400103489 0 0.35095646833815403 0.14154033085827669 0 0.36385786304065287 0.1389912608545002 0 0.33705364888559208 0.14687876143428791 0 0.35820634045448529 0.1598119400103489 0 0.35095646833815403 0.14154033085827669 0 0.34439870615566998 0.1156055767678297 0 0.34072617752063089 0.13124216910105871 0 0.35793611067065872 0.12839318488311621 0 0.34072617752063089 0.13124216910105871 0 0.35095646833815403 0.14154033085827669 0 0.35793611067065872 0.12839318488311621 0 0.35095646833815403 0.14154033085827669 0 0.35793611067065872 0.12839318488311621 0 0.36385786304065287 0.1389912608545002 0 0.35793611067065872 0.12839318488311621 0 0.36385786304065287 0.1389912608545002 0 0.37509669529594891 0.13162193070138131 0 0.36385786304065287 0.1389912608545002 0 0.37509669529594891 0.13162193070138131 0 0.37676667496965771 0.14883217536070001 0 0.37509669529594891 0.13162193070138131 0 0.3909971833976299 0.1366581456864577 0 0.37676667496965771 0.14883217536070001 0 0.37509669529594891 0.13162193070138131 0 0.3909971833976299 0.1366581456864577 0 0.38870587349733549 0.1229006496496876 0 0.3909971833976299 0.1366581456864577 0 0.38870587349733549 0.1229006496496876 0 0.40197601738710159 0.1243370303634941 0 0.3909971833976299 0.1366581456864577 0 0.406177124219818 0.13556949275727559 0 0.39929963952316327 0.14516783048991699 0 0.3909971833976299 0.1366581456864577 0 0.406177124219818 0.13556949275727559 0 0.40197601738710159 0.1243370303634941 0 0.3909971833976299 0.1366581456864577 0 0.39929963952316327 0.14516783048991699 0 0.39247486385733987 0.15603641634108409 0 0.39929963952316327 0.14516783048991699 0 0.39247486385733987 0.15603641634108409 0 0.4110529635943142 0.1488273514753668 0 0.406177124219818 0.13556949275727559 0 0.39929963952316327 0.14516783048991699 0 0.4110529635943142 0.1488273514753668 0 0.3909971833976299 0.1366581456864577 0 0.39247486385733987 0.15603641634108409 0 0.37676667496965771 0.14883217536070001 0 0.39247486385733987 0.15603641634108409 0 0.37676667496965771 0.14883217536070001 0 0.37935903202337862 0.17274511858640959 0 0.39247486385733987 0.15603641634108409 0 0.37935903202337862 0.17274511858640959 0 0.39505901161736118 0.17023623697216261 0 0.37935903202337862 0.17274511858640959 0 0.400511723592272 0.18567829716247031 0 0.37935903202337862 0.17274511858640959 0 0.400511723592272 0.18567829716247031 0 0.38101459703509533 0.19169005846978529 0 0.37935903202337862 0.17274511858640959 0 0.400511723592272 0.18567829716247031 0 0.39505901161736118 0.17023623697216261 0 0.400511723592272 0.18567829716247031 0 0.39505901161736118 0.17023623697216261 0 0.40789042699645378 0.16648511579868661 0 0.39247486385733987 0.15603641634108409 0 0.40789042699645378 0.16648511579868661 0 0.4110529635943142 0.1488273514753668 0 0.39247486385733987 0.15603641634108409 0 0.39505901161736118 0.17023623697216261 0 0.40789042699645378 0.16648511579868661 0 0.40789042699645378 0.16648511579868661 0 0.42768929591329191 0.15725218622803089 0 0.4110529635943142 0.1488273514753668 0 0.40789042699645378 0.16648511579868661 0 0.42235937856074801 0.1809032609301186 0 0.42768929591329191 0.15725218622803089 0 0.400511723592272 0.18567829716247031 0 0.40789042699645378 0.16648511579868661 0 0.42235937856074801 0.1809032609301186 0 0.42865918315431489 0.19746756918342301 0 0.43975313214669559 0.17750897425705031 0 0.42235937856074801 0.1809032609301186 0 0.42768929591329191 0.15725218622803089 0 0.43975313214669559 0.17750897425705031 0 0.42235937856074801 0.1809032609301186 0 0.42865918315431489 0.19746756918342301 0 0.43975313214669559 0.17750897425705031 0 0.42768929591329191 0.15725218622803089 0 0.44350746125327661 0.15902245724913969 0 0.43975313214669559 0.17750897425705031 0 0.42768929591329191 0.15725218622803089 0 0.43702038602891302 0.14900108785193769 0 0.4283856434041885 0.1378724623224955 0 0.42768929591329191 0.15725218622803089 0 0.43702038602891302 0.14900108785193769 0 0.44350746125327661 0.15902245724913969 0 0.42768929591329191 0.15725218622803089 0 0.4283856434041885 0.1378724623224955 0 0.4110529635943142 0.1488273514753668 0 0.42420817809672479 0.12822348032721309 0 0.4283856434041885 0.1378724623224955 0 0.4334173291429636 0.1179949995978536 0 0.4283856434041885 0.1378724623224955 0 0.44849914354489501 0.14185724560808469 0 0.4334173291429636 0.1179949995978536 0 0.42420817809672479 0.12822348032721309 0 0.4283856434041885 0.1378724623224955 0 0.41629157309629672 0.1350052662235221 0 0.4283856434041885 0.1378724623224955 0 0.41629157309629672 0.1350052662235221 0 0.4110529635943142 0.1488273514753668 0 0.42420817809672479 0.12822348032721309 0 0.41629157309629672 0.1350052662235221 0 0.41564689404465932 0.124413181356424 0 0.406177124219818 0.13556949275727559 0 0.41564689404465932 0.124413181356424 0 0.40197601738710159 0.1243370303634941 0 0.406177124219818 0.13556949275727559 0 0.41629157309629672 0.1350052662235221 0 0.41564689404465932 0.124413181356424 0 0.406177124219818 0.13556949275727559 0 0.41629157309629672 0.1350052662235221 0 0.4110529635943142 0.1488273514753668 0 0.39614381546124772 0.25596441761076982 0 0.39011742853436782 0.24472517694696769 0 0.40647128516955372 0.23738475903616871 0 0.37933484316816363 0.2328014528921194 0 0.40647128516955372 0.23738475903616871 0 0.39614381546124772 0.25596441761076982 0 0.40647128516955372 0.23738475903616871 0 0.39011742853436782 0.24472517694696769 0 0.37933484316816363 0.2328014528921194 0 0.40647128516955372 0.23738475903616871 0 0.37851977033850781 0.25275007824881379 0 0.37933484316816363 0.2328014528921194 0 0.37851977033850781 0.25275007824881379 0 0.39011742853436782 0.24472517694696769 0 0.37933484316816363 0.2328014528921194 0 0.37851977033850781 0.25275007824881379 0 0.36797363405174488 0.24232821387984321 0 0.37933484316816363 0.2328014528921194 0 0.37933484316816363 0.2328014528921194 0 0.38017472010162928 0.2122457556809523 0 0.37933484316816363 0.2328014528921194 0 0.39638364915621882 0.21899020232630989 0 0.38017472010162928 0.2122457556809523 0 0.37933484316816363 0.2328014528921194 0 0.39638364915621882 0.21899020232630989 0 0.40647128516955372 0.23738475903616871 0 0.39638364915621882 0.21899020232630989 0 0.40517300872114359 0.20515864950979651 0 0.3908724438355532 0.202494278200231 0 0.39638364915621882 0.21899020232630989 0 0.38017472010162928 0.2122457556809523 0 0.3908724438355532 0.202494278200231 0 0.38017472010162928 0.2122457556809523 0 0.38101459703509533 0.19169005846978529 0 0.38017472010162928 0.2122457556809523 0 0.38101459703509533 0.19169005846978529 0 0.3908724438355532 0.202494278200231 0 0.37103649758007962 0.2043079410970095 0 0.38017472010162928 0.2122457556809523 0 0.38101459703509533 0.19169005846978529 0 0.400511723592272 0.18567829716247031 0 0.40517300872114359 0.20515864950979651 0 0.3908724438355532 0.202494278200231 0 0.400511723592272 0.18567829716247031 0 0.38101459703509533 0.19169005846978529 0 0.3908724438355532 0.202494278200231 0 0.400511723592272 0.18567829716247031 0 0.42235937856074801 0.1809032609301186 0 0.42166441516116537 0.198611475738531 0 0.400511723592272 0.18567829716247031 0 0.40517300872114359 0.20515864950979651 0 0.42166441516116537 0.198611475738531 0 0.400511723592272 0.18567829716247031 0 0.42166441516116537 0.198611475738531 0 0.42235937856074801 0.1809032609301186 0 0.42166441516116537 0.198611475738531 0 0.42865918315431489 0.19746756918342301 0 0.42865918315431489 0.19746756918342301 0 0.438442162745727 0.19303715744382741 0 0.43975313214669559 0.17750897425705031 0 0.42865918315431489 0.19746756918342301 0 0.43023140181988562 0.208423480724337 0 0.43864476082891601 0.2033030233374678 0 0.42865918315431489 0.19746756918342301 0 0.43864476082891601 0.2033030233374678 0 0.438442162745727 0.19303715744382741 0 0.42865918315431489 0.19746756918342301 0 0.43023140181988562 0.208423480724337 0 0.41756523416193408 0.21742616410979571 0 0.42166441516116537 0.198611475738531 0 0.42865918315431489 0.19746756918342301 0 0.41756523416193408 0.21742616410979571 0 0.42865918315431489 0.19746756918342301 0 0.41756523416193408 0.21742616410979571 0 0.43023140181988562 0.208423480724337 0 0.43605642913437742 0.21549716626666171 0 0.41756523416193408 0.21742616410979571 0 0.43023140181988562 0.208423480724337 0 0.43605642913437742 0.21549716626666171 0 0.43864476082891601 0.2033030233374678 0 0.39638364915621882 0.21899020232630989 0 0.40517300872114359 0.20515864950979651 0 0.41756523416193408 0.21742616410979571 0 0.40517300872114359 0.20515864950979651 0 0.42166441516116537 0.198611475738531 0 0.41756523416193408 0.21742616410979571 0 0.41756523416193408 0.21742616410979571 0 0.40647128516955372 0.23738475903616871 0 0.39638364915621882 0.21899020232630989 0 0.41756523416193408 0.21742616410979571 0 0.40647128516955372 0.23738475903616871 0 0.41756523416193408 0.21742616410979571 0 0.42857487777656922 0.22775377910637201 0 0.40647128516955372 0.23738475903616871 0 0.42857487777656922 0.22775377910637201 0 0.43364103806289112 0.2419736913421088 0 0.45017746885900778 0.22822262090340739 0 0.43605642913437742 0.21549716626666171 0 0.41756523416193408 0.21742616410979571 0 0.42857487777656922 0.22775377910637201 0 0.42857487777656922 0.22775377910637201 0 0.43364103806289112 0.2419736913421088 0 0.40647128516955372 0.23738475903616871 0 0.41449912228422348 0.25931212722062591 0 0.43364103806289112 0.2419736913421088 0 0.40647128516955372 0.23738475903616871 0 0.43364103806289112 0.2419736913421088 0 0.40647128516955372 0.23738475903616871 0 0.46081079095622868 0.2465626236480481 0 0.45017746885900778 0.22822262090340739 0 0.47001844387956948 0.22840947936570741 0 0.43364103806289112 0.2419736913421088 0 0.46081079095622868 0.2465626236480481 0 0.43364103806289112 0.2419736913421088 0 0.46081079095622868 0.2465626236480481 0 0.45017746885900778 0.22822262090340739 0 0.43605642913437742 0.21549716626666171 0 0.42857487777656922 0.22775377910637201 0 0.45017746885900778 0.22822262090340739 0 0.45017746885900778 0.22822262090340739 0 0.46240204801478019 0.21752922636356339 0 0.47001844387956948 0.22840947936570741 0 0.45017746885900778 0.22822262090340739 0 0.46240204801478019 0.21752922636356339 0 0.45113587550922618 0.20872527943232011 0 0.46240204801478019 0.21752922636356339 0 0.46530839267721008 0.20537494326353939 0 0.45113587550922618 0.20872527943232011 0 0.46530839267721008 0.20537494326353939 0 0.45113587550922618 0.20872527943232011 0 0.45856293755054778 0.19603088612307271 0 0.43605642913437742 0.21549716626666171 0 0.45017746885900778 0.22822262090340739 0 0.45113587550922618 0.20872527943232011 0 0.43605642913437742 0.21549716626666171 0 0.43864476082891601 0.2033030233374678 0 0.45113587550922618 0.20872527943232011 0 0.43864476082891601 0.2033030233374678 0 0.45113587550922618 0.20872527943232011 0 0.44671157485298169 0.19386906299736861 0 0.438442162745727 0.19303715744382741 0 0.44671157485298169 0.19386906299736861 0 0.43975313214669559 0.17750897425705031 0 0.45113587550922618 0.20872527943232011 0 0.44671157485298169 0.19386906299736861 0 0.45856293755054778 0.19603088612307271 0 0.43864476082891601 0.2033030233374678 0 0.438442162745727 0.19303715744382741 0 0.44671157485298169 0.19386906299736861 0 0.45856293755054778 0.19603088612307271 0 0.47180759450059501 0.18877924645440711 0 0.45477798194930641 0.18317847128999179 0 0.46530839267721008 0.20537494326353939 0 0.45856293755054778 0.19603088612307271 0 0.47180759450059501 0.18877924645440711 0 0.44671157485298169 0.19386906299736861 0 0.45856293755054778 0.19603088612307271 0 0.45477798194930641 0.18317847128999179 0 0.47180759450059501 0.18877924645440711 0 0.48794525627495777 0.1956345281260673 0 0.48285982712924858 0.18261410692867339 0 0.47180759450059501 0.18877924645440711 0 0.48003423105436221 0.21183900129049929 0 0.46530839267721008 0.20537494326353939 0 0.47180759450059501 0.18877924645440711 0 0.48003423105436221 0.21183900129049929 0 0.47180759450059501 0.18877924645440711 0 0.48794525627495777 0.1956345281260673 0 0.48003423105436221 0.21183900129049929 0 0.48794525627495777 0.1956345281260673 0 0.5 0.209330463160775 0 0.5 0.18209911030812109 0 0.5 0.209330463160775 0 0.48003423105436221 0.21183900129049929 0 0.49158365782681968 0.22166949961947741 0 0.48794525627495777 0.1956345281260673 0 0.5 0.209330463160775 0 0.48003423105436221 0.21183900129049929 0 0.46240204801478019 0.21752922636356339 0 0.46530839267721008 0.20537494326353939 0 0.48003423105436221 0.21183900129049929 0 0.46240204801478019 0.21752922636356339 0 0.48003423105436221 0.21183900129049929 0 0.47001844387956948 0.22840947936570741 0 0.48003423105436221 0.21183900129049929 0 0.48826086760812948 0.23489875612659161 0 0.48003423105436221 0.21183900129049929 0 0.47001844387956948 0.22840947936570741 0 0.48826086760812948 0.23489875612659161 0 0.48003423105436221 0.21183900129049929 0 0.49158365782681968 0.22166949961947741 0 0.48826086760812948 0.23489875612659161 0 0.5 0.209330463160775 0 0.49158365782681968 0.22166949961947741 0 0.5 0.23656181601342871 0 0.49158365782681968 0.22166949961947741 0 0.48826086760812948 0.23489875612659161 0 0.5 0.23656181601342871 0 0.48798054384956618 0.25115155595398742 0 0.48826086760812948 0.23489875612659161 0 0.5 0.23656181601342871 0 0.48798054384956618 0.25115155595398742 0 0.46081079095622868 0.2465626236480481 0 0.46081079095622868 0.2465626236480481 0 0.47001844387956948 0.22840947936570741 0 0.48826086760812948 0.23489875612659161 0 0.48798054384956618 0.25115155595398742 0 0.46081079095622868 0.2465626236480481 0 0.48826086760812948 0.23489875612659161 0 0.44849914354489501 0.14185724560808469 0 0.46358095794682752 0.16571949161831501 0 0.46106175076526451 0.14749512669011081 0 0.44849914354489501 0.14185724560808469 0 0.46212226508702248 0.16163068819197871 0 0.44849914354489501 0.14185724560808469 0 0.45202841418215178 0.1591632401861281 0 0.46358095794682752 0.16571949161831501 0 0.46106175076526451 0.14749512669011081 0 0.45898181066234289 0.13683176865708721 0 0.44849914354489501 0.14185724560808469 0 0.46666383904422692 0.15409659945437609 0 0.46106175076526451 0.14749512669011081 0 0.46212226508702248 0.16163068819197871 0 0.46666383904422692 0.15409659945437609 0 0.46106175076526451 0.14749512669011081 0 0.47044250739000321 0.1406494329575885 0 0.46106175076526451 0.14749512669011081 0 0.45898181066234289 0.13683176865708721 0 0.47044250739000321 0.1406494329575885 0 0.45898181066234289 0.13683176865708721 0 0.47044250739000321 0.1406494329575885 0 0.4629419753443762 0.12459507429014779 0 0.45898181066234289 0.13683176865708721 0 0.45149999070974239 0.12969545328481949 0 0.4629419753443762 0.12459507429014779 0 0.45149999070974239 0.12969545328481949 0 0.44849914354489501 0.14185724560808469 0 0.4334173291429636 0.1179949995978536 0 0.45898181066234289 0.13683176865708721 0 0.45149999070974239 0.12969545328481949 0 0.44849914354489501 0.14185724560808469 0 0.44849914354489501 0.14185724560808469 0 0.4334173291429636 0.1179949995978536 0 0.43702038602891302 0.14900108785193769 0 0.44849914354489501 0.14185724560808469 0 0.44350746125327661 0.15902245724913969 0 0.44849914354489501 0.14185724560808469 0 0.44350746125327661 0.15902245724913969 0 0.45202841418215178 0.1591632401861281 0 0.43702038602891302 0.14900108785193769 0 0.4283856434041885 0.1378724623224955 0 0.44849914354489501 0.14185724560808469 0 0.44350746125327661 0.15902245724913969 0 0.45252609398360821 0.1700537662689732 0 0.43975313214669559 0.17750897425705031 0 0.44350746125327661 0.15902245724913969 0 0.45252609398360821 0.1700537662689732 0 0.45202841418215178 0.1591632401861281 0 0.44671157485298169 0.19386906299736861 0 0.43975313214669559 0.17750897425705031 0 0.45477798194930641 0.18317847128999179 0 0.45252609398360821 0.1700537662689732 0 0.43975313214669559 0.17750897425705031 0 0.45477798194930641 0.18317847128999179 0 0.47180759450059501 0.18877924645440711 0 0.45477798194930641 0.18317847128999179 0 0.46067315709508422 0.1769327439079218 0 0.47180759450059501 0.18877924645440711 0 0.46358095794682752 0.16571949161831501 0 0.47081112593088831 0.17715896717033161 0 0.47180759450059501 0.18877924645440711 0 0.46358095794682752 0.16571949161831501 0 0.47180759450059501 0.18877924645440711 0 0.46067315709508422 0.1769327439079218 0 0.46358095794682752 0.16571949161831501 0 0.45252609398360821 0.1700537662689732 0 0.45477798194930641 0.18317847128999179 0 0.46067315709508422 0.1769327439079218 0 0.44849914354489501 0.14185724560808469 0 0.46358095794682752 0.16571949161831501 0 0.46212226508702248 0.16163068819197871 0 0.45252609398360821 0.1700537662689732 0 0.46067315709508422 0.1769327439079218 0 0.46358095794682752 0.16571949161831501 0 0.45252609398360821 0.1700537662689732 0 0.45202841418215178 0.1591632401861281 0 0.46358095794682752 0.16571949161831501 0 0.46358095794682752 0.16571949161831501 0 0.47081112593088831 0.17715896717033161 0 0.46358095794682752 0.16571949161831501 0 0.4677008637841879 0.1617728276387693 0 0.47173007096109781 0.16744956427047131 0 0.46358095794682752 0.16571949161831501 0 0.47173007096109781 0.16744956427047131 0 0.47081112593088831 0.17715896717033161 0 0.46358095794682752 0.16571949161831501 0 0.4677008637841879 0.1617728276387693 0 0.46212226508702248 0.16163068819197871 0 0.46358095794682752 0.16571949161831501 0 0.46212226508702248 0.16163068819197871 0 0.46666383904422692 0.15409659945437609 0 0.4677008637841879 0.1617728276387693 0 0.46212226508702248 0.16163068819197871 0 0.46666383904422692 0.15409659945437609 0 0.4677008637841879 0.1617728276387693 0 0.47440718588176478 0.15996779465870531 0 0.4677008637841879 0.1617728276387693 0 0.47440718588176478 0.15996779465870531 0 0.47173007096109781 0.16744956427047131 0 0.47173007096109781 0.16744956427047131 0 0.48335776204952208 0.16848818702286061 0 0.47081112593088831 0.17715896717033161 0 0.47440718588176478 0.15996779465870531 0 0.47173007096109781 0.16744956427047131 0 0.48335776204952208 0.16848818702286061 0 0.47440718588176478 0.15996779465870531 0 0.48335776204952208 0.16848818702286061 0 0.48369612444365501 0.1552600083682544 0 0.47180759450059501 0.18877924645440711 0 0.47081112593088831 0.17715896717033161 0 0.48285982712924858 0.18261410692867339 0 0.48335776204952208 0.16848818702286061 0 0.47081112593088831 0.17715896717033161 0 0.48285982712924858 0.18261410692867339 0 0.48335776204952208 0.16848818702286061 0 0.48285982712924858 0.18261410692867339 0 0.5 0.18209911030812109 0 0.48794525627495777 0.1956345281260673 0 0.48285982712924858 0.18261410692867339 0 0.5 0.18209911030812109 0 0.48335776204952208 0.16848818702286061 0 0.5 0.1548677574554673 0 0.48369612444365501 0.1552600083682544 0 0.48335776204952208 0.16848818702286061 0 0.5 0.18209911030812109 0 0.5 0.1548677574554673 0 0.5 0.1548677574554673 0 0.48587714508724672 0.14249755439747769 0 0.5 0.12763640460281361 0 0.5 0.1548677574554673 0 0.48587714508724672 0.14249755439747769 0 0.48369612444365501 0.1552600083682544 0 0.47440718588176478 0.15996779465870531 0 0.48369612444365501 0.1552600083682544 0 0.47543788040948431 0.15017337774470729 0 0.48587714508724672 0.14249755439747769 0 0.48369612444365501 0.1552600083682544 0 0.47543788040948431 0.15017337774470729 0 0.48587714508724672 0.14249755439747769 0 0.47044250739000321 0.1406494329575885 0 0.47543788040948431 0.15017337774470729 0 0.46666383904422692 0.15409659945437609 0 0.47044250739000321 0.1406494329575885 0 0.47543788040948431 0.15017337774470729 0 0.46666383904422692 0.15409659945437609 0 0.47440718588176478 0.15996779465870531 0 0.47543788040948431 0.15017337774470729 0 0.47044250739000321 0.1406494329575885 0 0.48014443448645372 0.12702682872397841 0 0.4629419753443762 0.12459507429014779 0 0.48587714508724672 0.14249755439747769 0 0.47044250739000321 0.1406494329575885 0 0.48014443448645372 0.12702682872397841 0 0.48587714508724672 0.14249755439747769 0 0.48014443448645372 0.12702682872397841 0 0.5 0.12763640460281361 0 0.48014443448645372 0.12702682872397841 0 0.5 0.12763640460281361 0 0.4873885470994756 0.11405636652971569 0 0.5 0.12763640460281361 0 0.4873885470994756 0.11405636652971569 0 0.5 0.1004050517501598 0 0.4873885470994756 0.11405636652971569 0 0.5 0.1004050517501598 0 0.48227393671317809 0.1009203945793279 0 0.5 0.1004050517501598 0 0.48227393671317809 0.1009203945793279 0 0.48438197928764087 0.084817034129400115 0 0.4873885470994756 0.11405636652971569 0 0.48227393671317809 0.1009203945793279 0 0.4722480663162788 0.1119105419931372 0 0.48227393671317809 0.1009203945793279 0 0.4722480663162788 0.1119105419931372 0 0.46735109086249521 0.093412978494226584 0 0.48014443448645372 0.12702682872397841 0 0.4722480663162788 0.1119105419931372 0 0.4629419753443762 0.12459507429014779 0 0.48014443448645372 0.12702682872397841 0 0.4873885470994756 0.11405636652971569 0 0.4722480663162788 0.1119105419931372 0 0.48591448500820322 0.066473407354787462 0 0.5 0.073173698897505912 0 0.48438197928764087 0.084817034129400115 0 0.5 0.1004050517501598 0 0.5 0.073173698897505912 0 0.48438197928764087 0.084817034129400115 0 0.48438197928764087 0.084817034129400115 0 0.47241279652318641 0.073765257847211829 0 0.46735109086249521 0.093412978494226584 0 0.48227393671317809 0.1009203945793279 0 0.48438197928764087 0.084817034129400115 0 0.46735109086249521 0.093412978494226584 0 0.48591448500820322 0.066473407354787462 0 0.48438197928764087 0.084817034129400115 0 0.47241279652318641 0.073765257847211829 0 0.47241279652318641 0.073765257847211829 0 0.46404178634694532 0.064358095301954826 0 0.47654345657529579 0.054875772176265603 0 0.48591448500820322 0.066473407354787462 0 0.47241279652318641 0.073765257847211829 0 0.47654345657529579 0.054875772176265603 0 0.47241279652318641 0.073765257847211829 0 0.46404178634694532 0.064358095301954826 0 0.45649084055276973 0.076267078170212374 0 0.45349066873151272 0.062748176988599247 0 0.46404178634694532 0.064358095301954826 0 0.45649084055276973 0.076267078170212374 0 0.47241279652318641 0.073765257847211829 0 0.45649084055276973 0.076267078170212374 0 0.46735109086249521 0.093412978494226584 0 0.45649084055276973 0.076267078170212374 0 0.46735109086249521 0.093412978494226584 0 0.45163904258999399 0.092412454246146511 0 0.45649084055276973 0.076267078170212374 0 0.45163904258999399 0.092412454246146511 0 0.43894480813074932 0.082882664696323244 0 0.45163904258999399 0.092412454246146511 0 0.43894480813074932 0.082882664696323244 0 0.43967453735622131 0.1022442714438421 0 0.43894480813074932 0.082882664696323244 0 0.44656257997996951 0.062903224256722123 0 0.45649084055276973 0.076267078170212374 0 0.43894480813074932 0.082882664696323244 0 0.44656257997996951 0.062903224256722123 0 0.45349066873151272 0.062748176988599247 0 0.45649084055276973 0.076267078170212374 0 0.44656257997996951 0.062903224256722123 0 0.45349066873151272 0.062748176988599247 0 0.44656257997996951 0.062903224256722123 0 0.4722480663162788 0.1119105419931372 0 0.4629419753443762 0.12459507429014779 0 0.4557339360477346 0.1072552784261282 0 0.4629419753443762 0.12459507429014779 0 0.4557339360477346 0.1072552784261282 0 0.44865355372020771 0.1163570154085582 0 0.45149999070974239 0.12969545328481949 0 0.4629419753443762 0.12459507429014779 0 0.44865355372020771 0.1163570154085582 0 0.46735109086249521 0.093412978494226584 0 0.45163904258999399 0.092412454246146511 0 0.4557339360477346 0.1072552784261282 0 0.4722480663162788 0.1119105419931372 0 0.46735109086249521 0.093412978494226584 0 0.4557339360477346 0.1072552784261282 0 0.4557339360477346 0.1072552784261282 0 0.43967453735622131 0.1022442714438421 0 0.44865355372020771 0.1163570154085582 0 0.45163904258999399 0.092412454246146511 0 0.4557339360477346 0.1072552784261282 0 0.43967453735622131 0.1022442714438421 0 0.43967453735622131 0.1022442714438421 0 0.44865355372020771 0.1163570154085582 0 0.4334173291429636 0.1179949995978536 0 0.45149999070974239 0.12969545328481949 0 0.44865355372020771 0.1163570154085582 0 0.4334173291429636 0.1179949995978536 0 0.45149999070974239 0.12969545328481949 0 0.4334173291429636 0.1179949995978536 0 0.42420817809672479 0.12822348032721309 0 0.4334173291429636 0.1179949995978536 0 0.41564689404465932 0.124413181356424 0 0.4334173291429636 0.1179949995978536 0 0.41242643042966881 0.10441276020595069 0 0.4334173291429636 0.1179949995978536 0 0.4253837244585647 0.1052843371921771 0 0.4334173291429636 0.1179949995978536 0 0.41564689404465932 0.124413181356424 0 0.41144448482254847 0.1154591540071206 0 0.4334173291429636 0.1179949995978536 0 0.41144448482254847 0.1154591540071206 0 0.41242643042966881 0.10441276020595069 0 0.41144448482254847 0.1154591540071206 0 0.41242643042966881 0.10441276020595069 0 0.40023422624384741 0.1123067587798202 0 0.41564689404465932 0.124413181356424 0 0.41144448482254847 0.1154591540071206 0 0.40197601738710159 0.1243370303634941 0 0.41242643042966881 0.10441276020595069 0 0.4253837244585647 0.1052843371921771 0 0.42363125954693642 0.090586794430534565 0 0.43967453735622131 0.1022442714438421 0 0.4334173291429636 0.1179949995978536 0 0.4253837244585647 0.1052843371921771 0 0.4334173291429636 0.1179949995978536 0 0.41242643042966881 0.10441276020595069 0 0.4253837244585647 0.1052843371921771 0 0.43967453735622131 0.1022442714438421 0 0.4253837244585647 0.1052843371921771 0 0.42363125954693642 0.090586794430534565 0 0.43894480813074932 0.082882664696323244 0 0.43967453735622131 0.1022442714438421 0 0.42363125954693642 0.090586794430534565 0 0.43894480813074932 0.082882664696323244 0 0.42363125954693642 0.090586794430534565 0 0.4170534153926585 0.063563625056698408 0 0.43894480813074932 0.082882664696323244 0 0.44656257997996951 0.062903224256722123 0 0.4170534153926585 0.063563625056698408 0 0.44656257997996951 0.062903224256722123 0 0.4170534153926585 0.063563625056698408 0 0.41242643042966881 0.10441276020595069 0 0.42363125954693642 0.090586794430534565 0 0.40830464151375589 0.0851331079882158 0 0.42363125954693642 0.090586794430534565 0 0.4170534153926585 0.063563625056698408 0 0.40830464151375589 0.0851331079882158 0 0.41242643042966881 0.10441276020595069 0 0.40830464151375589 0.0851331079882158 0 0.3914355317163733 0.090830520814048799 0 0.40830464151375589 0.0851331079882158 0 0.3914355317163733 0.090830520814048799 0 0.39163709322920259 0.077980910842123968 0 0.4170534153926585 0.063563625056698408 0 0.40830464151375589 0.0851331079882158 0 0.39163709322920259 0.077980910842123968 0 0.4170534153926585 0.063563625056698408 0 0.38754425080534749 0.064224025856674721 0 0.4170534153926585 0.063563625056698408 0 0.39163709322920259 0.077980910842123968 0 0.38754425080534749 0.064224025856674721 0 0.37044463300307762 0.077248281422147277 0 0.39163709322920259 0.077980910842123968 0 0.38075305900068651 0.069396668817517326 0 0.38754425080534749 0.064224025856674721 0 0.38075305900068651 0.069396668817517326 0 0.39163709322920259 0.077980910842123968 0 0.38075305900068651 0.069396668817517326 0 0.39163709322920259 0.077980910842123968 0 0.38754425080534749 0.064224025856674721 0 0.38075305900068651 0.069396668817517326 0 0.37044463300307762 0.077248281422147277 0 0.38075305900068651 0.069396668817517326 0 0.37456296680813972 0.064514540700330802 0 0.38754425080534749 0.064224025856674721 0 0.38075305900068651 0.069396668817517326 0 0.3740301351591665 0.066658298687181899 0 0.37146358584067762 0.069706563453520998 0 0.38075305900068651 0.069396668817517326 0 0.37456296680813972 0.064514540700330802 0 0.38754425080534749 0.064224025856674721 0 0.37456296680813972 0.064514540700330802 0 0.38075305900068651 0.069396668817517326 0 0.3740301351591665 0.066658298687181899 0 0.37456296680813972 0.064514540700330802 0 0.38075305900068651 0.069396668817517326 0 0.37044463300307762 0.077248281422147277 0 0.3914355317163733 0.090830520814048799 0 0.39163709322920259 0.077980910842123968 0 0.37352920927472799 0.095492658700721073 0 0.37044463300307762 0.077248281422147277 0 0.3914355317163733 0.090830520814048799 0 0.37044463300307762 0.077248281422147277 0 0.3914355317163733 0.090830520814048799 0 0.37231646619975872 0.113956167773826 0 0.37352920927472799 0.095492658700721073 0 0.38682300323401458 0.1027682902031217 0 0.37352920927472799 0.095492658700721073 0 0.3914355317163733 0.090830520814048799 0 0.38682300323401458 0.1027682902031217 0 0.37231646619975872 0.113956167773826 0 0.38870587349733549 0.1229006496496876 0 0.40023422624384741 0.1123067587798202 0 0.37231646619975872 0.113956167773826 0 0.38682300323401458 0.1027682902031217 0 0.40023422624384741 0.1123067587798202 0 0.37231646619975872 0.113956167773826 0 0.37509669529594891 0.13162193070138131 0 0.38870587349733549 0.1229006496496876 0 0.37231646619975872 0.113956167773826 0 0.40023422624384741 0.1123067587798202 0 0.38870587349733549 0.1229006496496876 0 0.40197601738710159 0.1243370303634941 0 0.40023422624384741 0.1123067587798202 0 0.41144448482254847 0.1154591540071206 0 0.40197601738710159 0.1243370303634941 0 0.40023422624384741 0.1123067587798202 0 0.41242643042966881 0.10441276020595069 0 0.40023422624384741 0.1123067587798202 0 0.39772979790597601 0.1025795825007353 0 0.41242643042966881 0.10441276020595069 0 0.3914355317163733 0.090830520814048799 0 0.41242643042966881 0.10441276020595069 0 0.3914355317163733 0.090830520814048799 0 0.39772979790597601 0.1025795825007353 0 0.3914355317163733 0.090830520814048799 0 0.38682300323401458 0.1027682902031217 0 0.39772979790597601 0.1025795825007353 0 0.38682300323401458 0.1027682902031217 0 0.40023422624384741 0.1123067587798202 0 0.39772979790597601 0.1025795825007353 0 0.39557415348073027 0.01866170438662406 0 0.39736958955338442 0.023874130474410889 0 0.40190562074699832 0.024166707077128789 0 0.39557415348073027 0.01866170438662406 0 0.39351822844847312 0.02395651003404399 0 0.39736958955338442 0.023874130474410889 0 0.39351822844847312 0.02395651003404399 0 0.3978721282313914 0.03082538835150499 0 0.39000637002087601 0.035097490227577632 0 0.39351822844847312 0.02395651003404399 0 0.3978721282313914 0.03082538835150499 0 0.39736958955338442 0.023874130474410889 0 0.3978721282313914 0.03082538835150499 0 0.39736958955338442 0.023874130474410889 0 0.40190562074699832 0.024166707077128789 0 0.40190562074699832 0.024166707077128789 0 0.4038331886494223 0.030448911370398561 0 0.41133776685020851 0.02916652619258752 0 0.3978721282313914 0.03082538835150499 0 0.40190562074699832 0.024166707077128789 0 0.4038331886494223 0.030448911370398561 0 0.39557415348073027 0.01866170438662406 0 0.40190562074699832 0.024166707077128789 0 0.40921332145462808 0.01714021217413245 0 0.39557415348073027 0.01866170438662406 0 0.41269754266851177 0.0032403487425829731 0 0.39557415348073027 0.01866170438662406 0 0.40921332145462808 0.01714021217413245 0 0.41269754266851177 0.0032403487425829731 0 0.39557415348073027 0.01866170438662406 0 0.39618230624652639 0.0088619416030624957 0 0.41269754266851177 0.0032403487425829731 0 0.39618230624652639 0.0088619416030624957 0 0.41269754266851177 0.0032403487425829731 0 0.3935787898916836 -0.0015304420172186791 0 0.39618230624652639 0.0088619416030624957 0 0.38640970221078941 0.0098113681464623587 0 0.3935787898916836 -0.0015304420172186791 0 0.39618230624652639 0.0088619416030624957 0 0.39034200902688182 0.01486906067487993 0 0.38640970221078941 0.0098113681464623587 0 0.39557415348073027 0.01866170438662406 0 0.39618230624652639 0.0088619416030624957 0 0.39034200902688182 0.01486906067487993 0 0.37285055003762979 0.0038105129310598632 0 0.38640970221078941 0.0098113681464623587 0 0.38320187416948098 0.022141228563370832 0 0.37285055003762979 0.0038105129310598632 0 0.38640970221078941 0.0098113681464623587 0 0.3935787898916836 -0.0015304420172186791 0 0.39034200902688182 0.01486906067487993 0 0.38640970221078941 0.0098113681464623587 0 0.38320187416948098 0.022141228563370832 0 0.39557415348073027 0.01866170438662406 0 0.39351822844847312 0.02395651003404399 0 0.37845076429294888 0.034083060030665149 0 0.39557415348073027 0.01866170438662406 0 0.38320187416948098 0.022141228563370832 0 0.37845076429294888 0.034083060030665149 0 0.37285055003762979 0.0038105129310598632 0 0.37161240576113319 0.023526225318388359 0 0.38320187416948098 0.022141228563370832 0 0.39557415348073027 0.01866170438662406 0 0.37845076429294888 0.034083060030665149 0 0.39557415348073027 0.01866170438662406 0 0.39034200902688182 0.01486906067487993 0 0.38320187416948098 0.022141228563370832 0 0.37161240576113319 0.023526225318388359 0 0.38320187416948098 0.022141228563370832 0 0.37742688159053989 0.026759663164329182 0 0.38320187416948098 0.022141228563370832 0 0.37742688159053989 0.026759663164329182 0 0.37845076429294888 0.034083060030665149 0 0.37295053760268321 0.031118772807971349 0 0.37742688159053989 0.026759663164329182 0 0.37845076429294888 0.034083060030665149 0 0.39351822844847312 0.02395651003404399 0 0.37845076429294888 0.034083060030665149 0 0.37840232873577789 0.039788620501115153 0 0.39351822844847312 0.02395651003404399 0 0.37840232873577789 0.039788620501115153 0 0.39351822844847312 0.02395651003404399 0 0.37840232873577789 0.039788620501115153 0 0.39000637002087601 0.035097490227577632 0 0.37337422304736589 0.037291809802265798 0 0.37845076429294888 0.034083060030665149 0 0.37840232873577789 0.039788620501115153 0 0.37840232873577789 0.039788620501115153 0 0.37531151832097548 0.051969731359513147 0 0.3815785292224414 0.047149736260897003 0 0.37840232873577789 0.039788620501115153 0 0.38612709248569588 0.041261343048996653 0 0.3815785292224414 0.047149736260897003 0 0.38612709248569588 0.041261343048996653 0 0.38896610802045978 0.047304638027848567 0 0.3941120722030419 0.039655589202227427 0 0.38612709248569588 0.041261343048996653 0 0.3815785292224414 0.047149736260897003 0 0.38896610802045978 0.047304638027848567 0 0.38612709248569588 0.041261343048996653 0 0.39000637002087601 0.035097490227577632 0 0.3941120722030419 0.039655589202227427 0 0.37840232873577789 0.039788620501115153 0 0.38612709248569588 0.041261343048996653 0 0.39000637002087601 0.035097490227577632 0 0.37456296680813972 0.064514540700330802 0 0.37531151832097548 0.051969731359513147 0 0.38439813793371558 0.055264879519077818 0 0.37456296680813972 0.064514540700330802 0 0.38754425080534749 0.064224025856674721 0 0.38439813793371558 0.055264879519077818 0 0.37531151832097548 0.051969731359513147 0 0.3815785292224414 0.047149736260897003 0 0.38439813793371558 0.055264879519077818 0 0.3815785292224414 0.047149736260897003 0 0.38896610802045978 0.047304638027848567 0 0.38439813793371558 0.055264879519077818 0 0.38896610802045978 0.047304638027848567 0 0.38439813793371558 0.055264879519077818 0 0.40184821461505921 0.053329134379493347 0 0.38754425080534749 0.064224025856674721 0 0.38439813793371558 0.055264879519077818 0 0.40184821461505921 0.053329134379493347 0 0.4170534153926585 0.063563625056698408 0 0.38754425080534749 0.064224025856674721 0 0.40184821461505921 0.053329134379493347 0 0.38754425080534749 0.064224025856674721 0 0.40184821461505921 0.053329134379493347 0 0.40184821461505921 0.053329134379493347 0 0.3941120722030419 0.039655589202227427 0 0.40421723876909132 0.037637023860372973 0 0.3978721282313914 0.03082538835150499 0 0.39000637002087601 0.035097490227577632 0 0.3941120722030419 0.039655589202227427 0 0.38896610802045978 0.047304638027848567 0 0.40184821461505921 0.053329134379493347 0 0.3941120722030419 0.039655589202227427 0 0.3978721282313914 0.03082538835150499 0 0.3941120722030419 0.039655589202227427 0 0.40421723876909132 0.037637023860372973 0 0.3978721282313914 0.03082538835150499 0 0.4038331886494223 0.030448911370398561 0 0.40421723876909132 0.037637023860372973 0 0.4038331886494223 0.030448911370398561 0 0.40421723876909132 0.037637023860372973 0 0.41133776685020851 0.02916652619258752 0 0.40421723876909132 0.037637023860372973 0 0.41615217842477142 0.042434242902312617 0 0.41133776685020851 0.02916652619258752 0 0.40184821461505921 0.053329134379493347 0 0.40421723876909132 0.037637023860372973 0 0.41615217842477142 0.042434242902312617 0 0.41615217842477142 0.042434242902312617 0 0.42059966838130097 0.052828454393274972 0 0.42413621943461383 0.042373923741915703 0 0.41615217842477142 0.042434242902312617 0 0.42081492842693707 0.032368785916689659 0 0.42413621943461383 0.042373923741915703 0 0.41615217842477142 0.042434242902312617 0 0.42081492842693707 0.032368785916689659 0 0.41133776685020851 0.02916652619258752 0 0.40184821461505921 0.053329134379493347 0 0.41615217842477142 0.042434242902312617 0 0.42059966838130097 0.052828454393274972 0 0.4170534153926585 0.063563625056698408 0 0.40184821461505921 0.053329134379493347 0 0.42059966838130097 0.052828454393274972 0 0.40184821461505921 0.053329134379493347 0 0.41615217842477142 0.042434242902312617 0 0.44656257997996951 0.062903224256722123 0 0.4170534153926585 0.063563625056698408 0 0.4319044067927777 0.052979082678672559 0 0.4170534153926585 0.063563625056698408 0 0.42059966838130097 0.052828454393274972 0 0.4319044067927777 0.052979082678672559 0 0.42059966838130097 0.052828454393274972 0 0.4319044067927777 0.052979082678672559 0 0.42413621943461383 0.042373923741915703 0 0.4319044067927777 0.052979082678672559 0 0.43153469728125587 0.041416522233378307 0 0.44277625853433039 0.047415805779619902 0 0.4319044067927777 0.052979082678672559 0 0.43153469728125587 0.041416522233378307 0 0.42081492842693707 0.032368785916689659 0 0.42413621943461383 0.042373923741915703 0 0.43120991514728207 0.031259052818628723 0 0.42413621943461383 0.042373923741915703 0 0.43153469728125587 0.041416522233378307 0 0.43120991514728207 0.031259052818628723 0 0.4319044067927777 0.052979082678672559 0 0.42413621943461383 0.042373923741915703 0 0.43153469728125587 0.041416522233378307 0 0.43153469728125587 0.041416522233378307 0 0.43120991514728207 0.031259052818628723 0 0.43120991514728207 0.031259052818628723 0 0.42106265430491902 0.02043028458573163 0 0.4305154235017864 0.0095390229585848741 0 0.43120991514728207 0.031259052818628723 0 0.4305154235017864 0.0095390229585848741 0 0.43120991514728207 0.031259052818628723 0 0.4305154235017864 0.0095390229585848741 0 0.44419794038650812 0.018799738729757771 0 0.42081492842693707 0.032368785916689659 0 0.43120991514728207 0.031259052818628723 0 0.42106265430491902 0.02043028458573163 0 0.42081492842693707 0.032368785916689659 0 0.42106265430491902 0.02043028458573163 0 0.41133776685020851 0.02916652619258752 0 0.42106265430491902 0.02043028458573163 0 0.40921332145462808 0.01714021217413245 0 0.41133776685020851 0.02916652619258752 0 0.40190562074699832 0.024166707077128789 0 0.40921332145462808 0.01714021217413245 0 0.41133776685020851 0.02916652619258752 0 0.42106265430491902 0.02043028458573163 0 0.40921332145462808 0.01714021217413245 0 0.41269754266851177 0.0032403487425829731 0 0.42106265430491902 0.02043028458573163 0 0.41269754266851177 0.0032403487425829731 0 0.4305154235017864 0.0095390229585848741 0 0.41269754266851177 0.0032403487425829731 0 0.4305154235017864 0.0095390229585848741 0 0.42982093185629261 -0.01218100690145898 0 0.44162402566841358 0.001865891027720324 0 0.44419794038650812 0.018799738729757771 0 0.45366111590712399 0.0084059908387174517 0 0.4305154235017864 0.0095390229585848741 0 0.44162402566841358 0.001865891027720324 0 0.44419794038650812 0.018799738729757771 0 0.44162402566841358 0.001865891027720324 0 0.45366111590712399 0.0084059908387174517 0 0.44963847130774842 -0.0044990954415323001 0 0.43120991514728207 0.031259052818628723 0 0.44419794038650812 0.018799738729757771 0 0.45807854966377209 0.032699821614094522 0 0.44419794038650812 0.018799738729757771 0 0.45366111590712399 0.0084059908387174517 0 0.45807854966377209 0.032699821614094522 0 0.46737663760857812 0.0083133477248282621 0 0.45807854966377209 0.032699821614094522 0 0.45807854966377209 0.032699821614094522 0 0.47903927483188657 0.025705407403146901 0 0.46737663760857812 0.0083133477248282621 0 0.45366111590712399 0.0084059908387174517 0 0.45807854966377209 0.032699821614094522 0 0.46737663760857812 0.0083133477248282621 0 0.45807854966377209 0.032699821614094522 0 0.47903927483188657 0.025705407403146901 0 0.46737663760857812 0.0083133477248282621 0 0.45366111590712399 0.0084059908387174517 0 0.4610510708077239 -0.0067437586225644391 0 0.45349066873151272 0.062748176988599247 0 0.44656257997996951 0.062903224256722123 0 0.45232056482187122 0.047801522935408458 0 0.44656257997996951 0.062903224256722123 0 0.45232056482187122 0.047801522935408458 0 0.44656257997996951 0.062903224256722123 0 0.4319044067927777 0.052979082678672559 0 0.44277625853433039 0.047415805779619902 0 0.44656257997996951 0.062903224256722123 0 0.44277625853433039 0.047415805779619902 0 0.45232056482187122 0.047801522935408458 0 0.43153469728125587 0.041416522233378307 0 0.45807854966377209 0.032699821614094522 0 0.43153469728125587 0.041416522233378307 0 0.43120991514728207 0.031259052818628723 0 0.45807854966377209 0.032699821614094522 0 0.43153469728125587 0.041416522233378307 0 0.44277625853433039 0.047415805779619902 0 0.45807854966377209 0.032699821614094522 0 0.44277625853433039 0.047415805779619902 0 0.45232056482187122 0.047801522935408458 0 0.45807854966377209 0.032699821614094522 0 0.45232056482187122 0.047801522935408458 0 0.45807854966377209 0.032699821614094522 0 0.46887326195694962 0.042588581520600688 0 0.45807854966377209 0.032699821614094522 0 0.46887326195694962 0.042588581520600688 0 0.47903927483188657 0.025705407403146901 0 0.45232056482187122 0.047801522935408458 0 0.45807854966377209 0.032699821614094522 0 0.45232056482187122 0.047801522935408458 0 0.46291016467742591 0.054252877756340967 0 0.46887326195694962 0.042588581520600688 0 0.46404178634694532 0.064358095301954826 0 0.46291016467742591 0.054252877756340967 0 0.47654345657529579 0.054875772176265603 0 0.45349066873151272 0.062748176988599247 0 0.46404178634694532 0.064358095301954826 0 0.46291016467742591 0.054252877756340967 0 0.45349066873151272 0.062748176988599247 0 0.45232056482187122 0.047801522935408458 0 0.46291016467742591 0.054252877756340967 0 0.46291016467742591 0.054252877756340967 0 0.47654345657529579 0.054875772176265603 0 0.46887326195694962 0.042588581520600688 0 0.48434756117144601 0.040196087238347139 0 0.46887326195694962 0.042588581520600688 0 0.47903927483188657 0.025705407403146901 0 0.47654345657529579 0.054875772176265603 0 0.48434756117144601 0.040196087238347139 0 0.46887326195694962 0.042588581520600688 0 0.48434756117144601 0.040196087238347139 0 0.5 0.045942346044852263 0 0.50000000000000089 0.018710993192198461 0 0.48591448500820322 0.066473407354787462 0 0.5 0.073173698897505912 0 0.5 0.045942346044852263 0 0.48591448500820322 0.066473407354787462 0 0.47654345657529579 0.054875772176265603 0 0.5 0.045942346044852263 0 0.47654345657529579 0.054875772176265603 0 0.48434756117144601 0.040196087238347139 0 0.5 0.045942346044852263 0 0.46737663760857812 0.0083133477248282621 0 0.47903927483188657 0.025705407403146901 0 0.4852367940623456 0.0047356276136249651 0 0.47903927483188657 0.025705407403146901 0 0.50000000000000089 0.018710993192198461 0 0.47903927483188657 0.025705407403146901 0 0.50000000000000089 0.018710993192198461 0 0.4852367940623456 0.0047356276136249651 0 0.48434756117144601 0.040196087238347139 0 0.47903927483188657 0.025705407403146901 0 0.50000000000000089 0.018710993192198461 0 0.50000000000000089 0.018710993192198461 0 0.4852367940623456 0.0047356276136249651 0 0.5 -0.011109111026280431 0 0.4852367940623456 0.0047356276136249651 0 0.5 -0.011109111026280431 0 0.47667472555338491 -0.016073126164437821 0 0.46737663760857812 0.0083133477248282621 0 0.4852367940623456 0.0047356276136249651 0 0.47667472555338491 -0.016073126164437821 0 0.46737663760857812 0.0083133477248282621 0 0.47667472555338491 -0.016073126164437821 0 0.47667472555338491 -0.016073126164437821 0 0.47726608985119578 -0.034993231670850652 0 0.46236898295112511 -0.023721004692749601 0 0.5 -0.011109111026280431 0 0.5 -0.040929215244759447 0 0.47726608985119578 -0.034993231670850652 0 0.5 -0.011109111026280431 0 0.47667472555338491 -0.016073126164437821 0 0.47726608985119578 -0.034993231670850652 0 0.5 -0.040929215244759447 0 0.47769122489271482 -0.05514693322542015 0 0.47726608985119578 -0.034993231670850652 0 0.5 -0.040929215244759447 0 0.47769122489271482 -0.05514693322542015 0 0.5 -0.070749319463238258 0 0.47769122489271482 -0.05514693322542015 0 0.47726608985119578 -0.034993231670850652 0 0.46431298328593579 -0.048309917891053218 0 0.47726608985119578 -0.034993231670850652 0 0.45642941137677873 -0.037986861206872051 0 0.46236898295112511 -0.023721004692749601 0 0.47726608985119578 -0.034993231670850652 0 0.45642941137677873 -0.037986861206872051 0 0.46431298328593579 -0.048309917891053218 0 0.45642941137677873 -0.037986861206872051 0 0.46431298328593579 -0.048309917891053218 0 0.45377036392865872 -0.050245550929353823 0 0.47769122489271482 -0.05514693322542015 0 0.46431298328593579 -0.048309917891053218 0 0.45679357752118438 -0.062910940378586966 0 0.47769122489271482 -0.05514693322542015 0 0.45679357752118438 -0.062910940378586966 0 0.46431298328593579 -0.048309917891053218 0 0.45377036392865872 -0.050245550929353823 0 0.45679357752118438 -0.062910940378586966 0 0.45377036392865872 -0.050245550929353823 0 0.44646766067448201 -0.055552244760218861 0 0.45679357752118438 -0.062910940378586966 0 0.44646766067448201 -0.055552244760218861 0 0.441840489506236 -0.060716051366187712 0 0.45679357752118438 -0.062910940378586966 0 0.45377036392865872 -0.050245550929353823 0 0.44646766067448201 -0.055552244760218861 0 0.44669979226100948 -0.045190644597962237 0 0.44646766067448201 -0.055552244760218861 0 0.43999271687403319 -0.051800893697412698 0 0.44669979226100948 -0.045190644597962237 0 0.43999271687403319 -0.051800893697412698 0 0.441840489506236 -0.060716051366187712 0 0.43244522152542858 -0.060200967393911932 0 0.44646766067448201 -0.055552244760218861 0 0.43999271687403319 -0.051800893697412698 0 0.441840489506236 -0.060716051366187712 0 0.45642941137677873 -0.037986861206872051 0 0.44669979226100948 -0.045190644597962237 0 0.44612019205252701 -0.03098383884772021 0 0.45642941137677873 -0.037986861206872051 0 0.45377036392865872 -0.050245550929353823 0 0.44669979226100948 -0.045190644597962237 0 0.44669979226100948 -0.045190644597962237 0 0.43890561320013027 -0.041846508162088132 0 0.44612019205252701 -0.03098383884772021 0 0.43999271687403319 -0.051800893697412698 0 0.44669979226100948 -0.045190644597962237 0 0.43890561320013027 -0.041846508162088132 0 0.43890561320013027 -0.041846508162088132 0 0.44612019205252701 -0.03098383884772021 0 0.43679096784965638 -0.034238463389399412 0 0.44612019205252701 -0.03098383884772021 0 0.43572800608932949 -0.02719772019445079 0 0.43679096784965638 -0.034238463389399412 0 0.44612019205252701 -0.03098383884772021 0 0.44037127986738872 -0.021682669630913549 0 0.43572800608932949 -0.02719772019445079 0 0.44612019205252701 -0.03098383884772021 0 0.45131909394878678 -0.016322337044093731 0 0.44037127986738872 -0.021682669630913549 0 0.45131909394878678 -0.016322337044093731 0 0.44037127986738872 -0.021682669630913549 0 0.44135645752975372 -0.010563900628330141 0 0.44162402566841358 0.001865891027720324 0 0.44135645752975372 -0.010563900628330141 0 0.42982093185629261 -0.01218100690145898 0 0.44162402566841358 0.001865891027720324 0 0.44135645752975372 -0.010563900628330141 0 0.44963847130774842 -0.0044990954415323001 0 0.45131909394878678 -0.016322337044093731 0 0.44135645752975372 -0.010563900628330141 0 0.44963847130774842 -0.0044990954415323001 0 0.47667472555338491 -0.016073126164437821 0 0.4610510708077239 -0.0067437586225644391 0 0.46236898295112511 -0.023721004692749601 0 0.46737663760857812 0.0083133477248282621 0 0.47667472555338491 -0.016073126164437821 0 0.4610510708077239 -0.0067437586225644391 0 0.45131909394878678 -0.016322337044093731 0 0.4610510708077239 -0.0067437586225644391 0 0.46236898295112511 -0.023721004692749601 0 0.45131909394878678 -0.016322337044093731 0 0.44963847130774842 -0.0044990954415323001 0 0.4610510708077239 -0.0067437586225644391 0 0.45366111590712399 0.0084059908387174517 0 0.44963847130774842 -0.0044990954415323001 0 0.4610510708077239 -0.0067437586225644391 0 0.44612019205252701 -0.03098383884772021 0 0.45131909394878678 -0.016322337044093731 0 0.46236898295112511 -0.023721004692749601 0 0.45642941137677873 -0.037986861206872051 0 0.44612019205252701 -0.03098383884772021 0 0.46236898295112511 -0.023721004692749601 0 0.48187355707263668 -0.116032890165935 0 0.46358507414719458 -0.1080981490248667 0 0.47114492085608678 -0.13053914965837979 0 0.48187355707263668 -0.116032890165935 0 0.5 -0.1005694236817171 0 0.5 -0.1303895279001959 0 0.48187355707263668 -0.116032890165935 0 0.5 -0.1005694236817171 0 0.47281033560895402 -0.093944519189565256 0 0.48187355707263668 -0.116032890165935 0 0.47281033560895402 -0.093944519189565256 0 0.46358507414719458 -0.1080981490248667 0 0.48187355707263668 -0.116032890165935 0 0.47281033560895402 -0.093944519189565256 0 0.47281033560895402 -0.093944519189565256 0 0.48284973492938799 -0.078453268754627228 0 0.46374711414527131 -0.071856148213195414 0 0.5 -0.1005694236817171 0 0.47281033560895402 -0.093944519189565256 0 0.48284973492938799 -0.078453268754627228 0 0.5 -0.1005694236817171 0 0.48284973492938799 -0.078453268754627228 0 0.5 -0.070749319463238258 0 0.47769122489271482 -0.05514693322542015 0 0.48284973492938799 -0.078453268754627228 0 0.5 -0.070749319463238258 0 0.47769122489271482 -0.05514693322542015 0 0.48284973492938799 -0.078453268754627228 0 0.46374711414527131 -0.071856148213195414 0 0.47769122489271482 -0.05514693322542015 0 0.46374711414527131 -0.071856148213195414 0 0.45679357752118438 -0.062910940378586966 0 0.46374711414527131 -0.071856148213195414 0 0.45679357752118438 -0.062910940378586966 0 0.45177677220627238 -0.078166150645816279 0 0.45679357752118438 -0.062910940378586966 0 0.43589593014965289 -0.070674947531750826 0 0.45679357752118438 -0.062910940378586966 0 0.45177677220627238 -0.078166150645816279 0 0.43589593014965289 -0.070674947531750826 0 0.441840489506236 -0.060716051366187712 0 0.45679357752118438 -0.062910940378586966 0 0.43589593014965289 -0.070674947531750826 0 0.45177677220627238 -0.078166150645816279 0 0.44441878052314521 -0.096544464564590718 0 0.43589593014965289 -0.070674947531750826 0 0.45177677220627238 -0.078166150645816279 0 0.45832121992570829 -0.08911388897329911 0 0.44441878052314521 -0.096544464564590718 0 0.44441878052314521 -0.096544464564590718 0 0.43589593014965289 -0.070674947531750826 0 0.47281033560895402 -0.093944519189565256 0 0.46374711414527131 -0.071856148213195414 0 0.45832121992570829 -0.08911388897329911 0 0.46374711414527131 -0.071856148213195414 0 0.45177677220627238 -0.078166150645816279 0 0.45832121992570829 -0.08911388897329911 0 0.47281033560895402 -0.093944519189565256 0 0.46374711414527131 -0.071856148213195414 0 0.46358507414719458 -0.1080981490248667 0 0.44441878052314521 -0.096544464564590718 0 0.45294163089663758 -0.1224139815974306 0 0.45832121992570829 -0.08911388897329911 0 0.46358507414719458 -0.1080981490248667 0 0.44441878052314521 -0.096544464564590718 0 0.47281033560895402 -0.093944519189565256 0 0.45832121992570829 -0.08911388897329911 0 0.46358507414719458 -0.1080981490248667 0 0.44441878052314521 -0.096544464564590718 0 0.45294163089663758 -0.1224139815974306 0 0.44441878052314521 -0.096544464564590718 0 0.45294163089663758 -0.1224139815974306 0 0.42873196652757661 -0.1160488887097932 0 0.46358507414719458 -0.1080981490248667 0 0.45294163089663758 -0.1224139815974306 0 0.47114492085608678 -0.13053914965837979 0 0.40901765609992541 -0.10517309251824 0 0.40359577394570889 -0.1316996425593179 0 0.42873196652757661 -0.1160488887097932 0 0.40901765609992541 -0.10517309251824 0 0.40359577394570889 -0.1316996425593179 0 0.44441878052314521 -0.096544464564590718 0 0.42873196652757661 -0.1160488887097932 0 0.42287881542134859 -0.094188861294231443 0 0.42873196652757661 -0.1160488887097932 0 0.42287881542134859 -0.094188861294231443 0 0.40901765609992541 -0.10517309251824 0 0.40901765609992541 -0.10517309251824 0 0.41443953825414331 -0.078646542477162532 0 0.42287881542134859 -0.094188861294231443 0 0.40901765609992541 -0.10517309251824 0 0.41443953825414331 -0.078646542477162532 0 0.42287881542134859 -0.094188861294231443 0 0.41443953825414331 -0.078646542477162532 0 0.42491577765729949 -0.07662082616887711 0 0.44441878052314521 -0.096544464564590718 0 0.42491577765729949 -0.07662082616887711 0 0.43589593014965289 -0.070674947531750826 0 0.44441878052314521 -0.096544464564590718 0 0.42287881542134859 -0.094188861294231443 0 0.42491577765729949 -0.07662082616887711 0 0.42394180181812791 -0.075116210044503973 0 0.42491577765729949 -0.07662082616887711 0 0.43589593014965289 -0.070674947531750826 0 0.42394180181812791 -0.075116210044503973 0 0.43589593014965289 -0.070674947531750826 0 0.42738781223204358 -0.067699744330464801 0 0.42394180181812791 -0.075116210044503973 0 0.42491577765729949 -0.07662082616887711 0 0.42394180181812791 -0.075116210044503973 0 0.43589593014965289 -0.070674947531750826 0 0.43589593014965289 -0.070674947531750826 0 0.43244522152542858 -0.060200967393911932 0 0.441840489506236 -0.060716051366187712 0 0.43589593014965289 -0.070674947531750826 0 0.43244522152542858 -0.060200967393911932 0 0.43589593014965289 -0.070674947531750826 0 0.42738781223204358 -0.067699744330464801 0 0.43244522152542858 -0.060200967393911932 0 0.42738781223204358 -0.067699744330464801 0 0.41726829543496891 -0.064806852351693658 0 0.43244522152542858 -0.060200967393911932 0 0.42394180181812791 -0.075116210044503973 0 0.42738781223204358 -0.067699744330464801 0 0.41726829543496891 -0.064806852351693658 0 0.42394180181812791 -0.075116210044503973 0 0.41726829543496891 -0.064806852351693658 0 0.41443953825414331 -0.078646542477162532 0 0.41726829543496891 -0.064806852351693658 0 0.41443953825414331 -0.078646542477162532 0 0.42394180181812791 -0.075116210044503973 0 0.41726829543496891 -0.064806852351693658 0 0.41443953825414331 -0.078646542477162532 0 0.42394180181812791 -0.075116210044503973 0 0.42491577765729949 -0.07662082616887711 0 0.41443953825414331 -0.078646542477162532 0 0.42394180181812791 -0.075116210044503973 0 0.41443953825414331 -0.078646542477162532 0 0.41726829543496891 -0.064806852351693658 0 0.4047180639075143 -0.067760316052066963 0 0.39301037102727249 -0.063727293524915574 0 0.4047180639075143 -0.067760316052066963 0 0.39474131812304403 -0.085964931924719712 0 0.41443953825414331 -0.078646542477162532 0 0.4047180639075143 -0.067760316052066963 0 0.39474131812304403 -0.085964931924719712 0 0.39301037102727249 -0.063727293524915574 0 0.37917718400753408 -0.070762494692679839 0 0.39474131812304403 -0.085964931924719712 0 0.37504309799194369 -0.09328332137227395 0 0.39474131812304403 -0.085964931924719712 0 0.37917718400753408 -0.070762494692679839 0 0.37504309799194369 -0.09328332137227395 0 0.39474131812304403 -0.085964931924719712 0 0.41443953825414331 -0.078646542477162532 0 0.39474131812304403 -0.085964931924719712 0 0.40901765609992541 -0.10517309251824 0 0.41443953825414331 -0.078646542477162532 0 0.39474131812304403 -0.085964931924719712 0 0.40901765609992541 -0.10517309251824 0 0.39474131812304403 -0.085964931924719712 0 0.38858444348690863 -0.10513243439611419 0 0.37504309799194369 -0.09328332137227395 0 0.39474131812304403 -0.085964931924719712 0 0.38858444348690863 -0.10513243439611419 0 0.37504309799194369 -0.09328332137227395 0 0.38858444348690863 -0.10513243439611419 0 0.37556930614501688 -0.1157209417222073 0 0.38858444348690863 -0.10513243439611419 0 0.39038354154813781 -0.1208304864315118 0 0.37556930614501688 -0.1157209417222073 0 0.39038354154813781 -0.1208304864315118 0 0.37556930614501688 -0.1157209417222073 0 0.37881593301017907 -0.1370475249384431 0 0.40901765609992541 -0.10517309251824 0 0.39038354154813781 -0.1208304864315118 0 0.40359577394570889 -0.1316996425593179 0 0.40901765609992541 -0.10517309251824 0 0.38858444348690863 -0.10513243439611419 0 0.39038354154813781 -0.1208304864315118 0 0.4164127437509102 -0.0214858570533705 0 0.40697358792869198 -0.027659480514127151 0 0.42194077040086758 -0.04194677581861822 0 0.4164127437509102 -0.0214858570533705 0 0.4266132453667702 -0.019086699285543501 0 0.42194077040086758 -0.04194677581861822 0 0.4164127437509102 -0.0214858570533705 0 0.42079058925448592 -0.01242422519851279 0 0.4266132453667702 -0.019086699285543501 0 0.4164127437509102 -0.0214858570533705 0 0.40697358792869198 -0.027659480514127151 0 0.40531247330934811 -0.01296593696513555 0 0.4164127437509102 -0.0214858570533705 0 0.41455571044621309 -0.01129824878548971 0 0.40531247330934811 -0.01296593696513555 0 0.41269754266851177 0.0032403487425829731 0 0.41455571044621309 -0.01129824878548971 0 0.40531247330934811 -0.01296593696513555 0 0.41269754266851177 0.0032403487425829731 0 0.42982093185629261 -0.01218100690145898 0 0.41269754266851177 0.0032403487425829731 0 0.42079058925448592 -0.01242422519851279 0 0.41455571044621309 -0.01129824878548971 0 0.41269754266851177 0.0032403487425829731 0 0.42079058925448592 -0.01242422519851279 0 0.42982093185629261 -0.01218100690145898 0 0.4164127437509102 -0.0214858570533705 0 0.42079058925448592 -0.01242422519851279 0 0.41455571044621309 -0.01129824878548971 0 0.4305154235017864 0.0095390229585848741 0 0.44162402566841358 0.001865891027720324 0 0.42982093185629261 -0.01218100690145898 0 0.4305154235017864 0.0095390229585848741 0 0.42982093185629261 -0.01218100690145898 0 0.42079058925448592 -0.01242422519851279 0 0.42982093185629261 -0.01218100690145898 0 0.4266132453667702 -0.019086699285543501 0 0.44037127986738872 -0.021682669630913549 0 0.44135645752975372 -0.010563900628330141 0 0.42982093185629261 -0.01218100690145898 0 0.44037127986738872 -0.021682669630913549 0 0.42982093185629261 -0.01218100690145898 0 0.4266132453667702 -0.019086699285543501 0 0.42194077040086758 -0.04194677581861822 0 0.428856302741083 -0.032018262961603407 0 0.4266132453667702 -0.019086699285543501 0 0.42194077040086758 -0.04194677581861822 0 0.44037127986738872 -0.021682669630913549 0 0.42982093185629261 -0.01218100690145898 0 0.42945435251342962 -0.023645672206882171 0 0.42982093185629261 -0.01218100690145898 0 0.4266132453667702 -0.019086699285543501 0 0.42945435251342962 -0.023645672206882171 0 0.42982093185629261 -0.01218100690145898 0 0.42945435251342962 -0.023645672206882171 0 0.4266132453667702 -0.019086699285543501 0 0.42945435251342962 -0.023645672206882171 0 0.428856302741083 -0.032018262961603407 0 0.44037127986738872 -0.021682669630913549 0 0.42945435251342962 -0.023645672206882171 0 0.43572800608932949 -0.02719772019445079 0 0.42945435251342962 -0.023645672206882171 0 0.43572800608932949 -0.02719772019445079 0 0.428856302741083 -0.032018262961603407 0 0.43572800608932949 -0.02719772019445079 0 0.43679096784965638 -0.034238463389399412 0 0.428856302741083 -0.032018262961603407 0 0.43679096784965638 -0.034238463389399412 0 0.43201823565372999 -0.039469791247163308 0 0.428856302741083 -0.032018262961603407 0 0.43890561320013027 -0.041846508162088132 0 0.43679096784965638 -0.034238463389399412 0 0.43201823565372999 -0.039469791247163308 0 0.43890561320013027 -0.041846508162088132 0 0.43201823565372999 -0.039469791247163308 0 0.43359752407691271 -0.04729894590410736 0 0.43201823565372999 -0.039469791247163308 0 0.42194077040086758 -0.04194677581861822 0 0.43359752407691271 -0.04729894590410736 0 0.43201823565372999 -0.039469791247163308 0 0.42194077040086758 -0.04194677581861822 0 0.428856302741083 -0.032018262961603407 0 0.41726829543496891 -0.064806852351693658 0 0.42194077040086758 -0.04194677581861822 0 0.43244522152542858 -0.060200967393911932 0 0.42194077040086758 -0.04194677581861822 0 0.43244522152542858 -0.060200967393911932 0 0.43359752407691271 -0.04729894590410736 0 0.43999271687403319 -0.051800893697412698 0 0.43244522152542858 -0.060200967393911932 0 0.43359752407691271 -0.04729894590410736 0 0.43999271687403319 -0.051800893697412698 0 0.43890561320013027 -0.041846508162088132 0 0.43359752407691271 -0.04729894590410736 0 0.41726829543496891 -0.064806852351693658 0 0.4047180639075143 -0.067760316052066963 0 0.40246238030252562 -0.041934397257440421 0 0.41726829543496891 -0.064806852351693658 0 0.42194077040086758 -0.04194677581861822 0 0.41726829543496891 -0.064806852351693658 0 0.42194077040086758 -0.04194677581861822 0 0.40246238030252562 -0.041934397257440421 0 0.41726829543496891 -0.064806852351693658 0 0.40246238030252562 -0.041934397257440421 0 0.40697358792869198 -0.027659480514127151 0 0.42194077040086758 -0.04194677581861822 0 0.40246238030252562 -0.041934397257440421 0 0.40246238030252562 -0.041934397257440421 0 0.3829862073390804 -0.047595191906872752 0 0.38765646517007768 -0.01906194216319021 0 0.39301037102727249 -0.063727293524915574 0 0.4047180639075143 -0.067760316052066963 0 0.40246238030252562 -0.041934397257440421 0 0.39301037102727249 -0.063727293524915574 0 0.40246238030252562 -0.041934397257440421 0 0.3829862073390804 -0.047595191906872752 0 0.37917718400753408 -0.070762494692679839 0 0.3829862073390804 -0.047595191906872752 0 0.36842494970987372 -0.056104594647426613 0 0.39301037102727249 -0.063727293524915574 0 0.37917718400753408 -0.070762494692679839 0 0.3829862073390804 -0.047595191906872752 0 0.3829862073390804 -0.047595191906872752 0 0.38765646517007768 -0.01906194216319021 0 0.36718589381719891 -0.033980429155583892 0 0.40246238030252562 -0.041934397257440421 0 0.38765646517007768 -0.01906194216319021 0 0.40697358792869198 -0.027659480514127151 0 0.40246238030252562 -0.041934397257440421 0 0.38765646517007768 -0.01906194216319021 0 0.40697358792869198 -0.027659480514127151 0 0.38765646517007768 -0.01906194216319021 0 0.40531247330934811 -0.01296593696513555 0 0.41269754266851177 0.0032403487425829731 0 0.40531247330934811 -0.01296593696513555 0 0.3935787898916836 -0.0015304420172186791 0 0.38765646517007768 -0.01906194216319021 0 0.40531247330934811 -0.01296593696513555 0 0.3935787898916836 -0.0015304420172186791 0 0.37285055003762979 0.0038105129310598632 0 0.38765646517007768 -0.01906194216319021 0 0.37285055003762979 0.0038105129310598632 0 0.38765646517007768 -0.01906194216319021 0 0.36894282986132398 -0.01437868200180847 0 0.37285055003762979 0.0038105129310598632 0 0.38765646517007768 -0.01906194216319021 0 0.3935787898916836 -0.0015304420172186791 0 0.37285055003762979 0.0038105129310598632 0 0.35179266185243191 0.0051268658735316389 0 0.36894282986132398 -0.01437868200180847 0 0.38765646517007768 -0.01906194216319021 0 0.36894282986132398 -0.01437868200180847 0 0.36718589381719891 -0.033980429155583892 0 0.36894282986132398 -0.01437868200180847 0 0.35096326489519281 -0.016535907317678199 0 0.36718589381719891 -0.033980429155583892 0 0.35096326489519281 -0.016535907317678199 0 0.34635026305038491 -0.034003359702815053 0 0.36718589381719891 -0.033980429155583892 0 0.35179266185243191 0.0051268658735316389 0 0.36894282986132398 -0.01437868200180847 0 0.35096326489519281 -0.016535907317678199 0 0.35179266185243191 0.0051268658735316389 0 0.35096326489519281 -0.016535907317678199 0 0.33166389651150519 -0.0078488364441440597 0 0.35096326489519281 -0.016535907317678199 0 0.33128879209110479 -0.024701264197997772 0 0.34635026305038491 -0.034003359702815053 0 0.35096326489519281 -0.016535907317678199 0 0.33166389651150519 -0.0078488364441440597 0 0.33128879209110479 -0.024701264197997772 0 0.33128879209110479 -0.024701264197997772 0 0.31717941281868423 -0.01505287184610858 0 0.31017270832642052 -0.030964598616814831 0 0.33166389651150519 -0.0078488364441440597 0 0.33128879209110479 -0.024701264197997772 0 0.31717941281868423 -0.01505287184610858 0 0.321711975352448 0.0072373268474143502 0 0.31248272459104121 0.00013293421497175001 0 0.33166389651150519 -0.0078488364441440597 0 0.31248272459104121 0.00013293421497175001 0 0.33166389651150519 -0.0078488364441440597 0 0.31717941281868423 -0.01505287184610858 0 0.31490648375463348 -0.054128329374972743 0 0.33052182814955289 -0.04296717852052654 0 0.33205642642483801 -0.061841094909830592 0 0.33128879209110479 -0.024701264197997772 0 0.33052182814955289 -0.04296717852052654 0 0.31017270832642052 -0.030964598616814831 0 0.31490648375463348 -0.054128329374972743 0 0.33052182814955289 -0.04296717852052654 0 0.31017270832642052 -0.030964598616814831 0 0.33128879209110479 -0.024701264197997772 0 0.33052182814955289 -0.04296717852052654 0 0.34635026305038491 -0.034003359702815053 0 0.33052182814955289 -0.04296717852052654 0 0.35084700768737742 -0.054447768060733058 0 0.34635026305038491 -0.034003359702815053 0 0.33052182814955289 -0.04296717852052654 0 0.33205642642483801 -0.061841094909830592 0 0.35084700768737742 -0.054447768060733058 0 0.35084700768737742 -0.054447768060733058 0 0.34635026305038491 -0.034003359702815053 0 0.36718589381719891 -0.033980429155583892 0 0.3829862073390804 -0.047595191906872752 0 0.36718589381719891 -0.033980429155583892 0 0.36842494970987372 -0.056104594647426613 0 0.35084700768737742 -0.054447768060733058 0 0.36718589381719891 -0.033980429155583892 0 0.36842494970987372 -0.056104594647426613 0 0.35084700768737742 -0.054447768060733058 0 0.36842494970987372 -0.056104594647426613 0 0.36359843408973042 -0.071113213406531386 0 0.37917718400753408 -0.070762494692679839 0 0.36842494970987372 -0.056104594647426613 0 0.36359843408973042 -0.071113213406531386 0 0.37917718400753408 -0.070762494692679839 0 0.37504309799194369 -0.09328332137227395 0 0.36359843408973042 -0.071113213406531386 0 0.37504309799194369 -0.09328332137227395 0 0.34923298539806091 -0.081439205528913206 0 0.35946482618946229 -0.1023843661412689 0 0.37504309799194369 -0.09328332137227395 0 0.36359843408973042 -0.071113213406531386 0 0.34923298539806091 -0.081439205528913206 0 0.33205642642483801 -0.061841094909830592 0 0.35084700768737742 -0.054447768060733058 0 0.34923298539806091 -0.081439205528913206 0 0.35084700768737742 -0.054447768060733058 0 0.36359843408973042 -0.071113213406531386 0 0.34923298539806091 -0.081439205528913206 0 0.37556930614501688 -0.1157209417222073 0 0.35946482618946229 -0.1023843661412689 0 0.35323255708646012 -0.1179103122900074 0 0.37556930614501688 -0.1157209417222073 0 0.35323255708646012 -0.1179103122900074 0 0.36175866937084311 -0.13288675887092341 0 0.37504309799194369 -0.09328332137227395 0 0.37556930614501688 -0.1157209417222073 0 0.35946482618946229 -0.1023843661412689 0 0.34923298539806091 -0.081439205528913206 0 0.35946482618946229 -0.1023843661412689 0 0.34424618432582998 -0.1035680497929429 0 0.35946482618946229 -0.1023843661412689 0 0.34424618432582998 -0.1035680497929429 0 0.35323255708646012 -0.1179103122900074 0 0.34424618432582998 -0.1035680497929429 0 0.35323255708646012 -0.1179103122900074 0 0.34020449652140661 -0.1205873233631948 0 0.35323255708646012 -0.1179103122900074 0 0.34020449652140661 -0.1205873233631948 0 0.34108695580943982 -0.1345646051668293 0 0.34424618432582998 -0.1035680497929429 0 0.34020449652140661 -0.1205873233631948 0 0.33058209089337309 -0.11366740774655749 0 0.34020449652140661 -0.1205873233631948 0 0.33058209089337309 -0.11366740774655749 0 0.3309344017448318 -0.12759008385367951 0 0.34424618432582998 -0.1035680497929429 0 0.33058209089337309 -0.11366740774655749 0 0.32841442130853632 -0.095993134266162988 0 0.33058209089337309 -0.11366740774655749 0 0.32841442130853632 -0.095993134266162988 0 0.31558036490613939 -0.1099480374909305 0 0.32841442130853632 -0.095993134266162988 0 0.31558036490613939 -0.1099480374909305 0 0.3113157419697532 -0.093399421231786017 0 0.33058209089337309 -0.11366740774655749 0 0.31558036490613939 -0.1099480374909305 0 0.31986918686486632 -0.1239239168639065 0 0.31558036490613939 -0.1099480374909305 0 0.31986918686486632 -0.1239239168639065 0 0.3068724656253855 -0.1232527306167553 0 0.33058209089337309 -0.11366740774655749 0 0.31986918686486632 -0.1239239168639065 0 0.3309344017448318 -0.12759008385367951 0 0.33205642642483801 -0.061841094909830592 0 0.34923298539806091 -0.081439205528913206 0 0.3207236528471033 -0.077927671504172846 0 0.34923298539806091 -0.081439205528913206 0 0.32841442130853632 -0.095993134266162988 0 0.3207236528471033 -0.077927671504172846 0 0.34923298539806091 -0.081439205528913206 0 0.34424618432582998 -0.1035680497929429 0 0.32841442130853632 -0.095993134266162988 0 0.32841442130853632 -0.095993134266162988 0 0.3207236528471033 -0.077927671504172846 0 0.3113157419697532 -0.093399421231786017 0 0.31490648375463348 -0.054128329374972743 0 0.3207236528471033 -0.077927671504172846 0 0.30262627685673871 -0.070353714651555266 0 0.31490648375463348 -0.054128329374972743 0 0.33205642642483801 -0.061841094909830592 0 0.3207236528471033 -0.077927671504172846 0 0.29369318324316351 -0.088460013102491658 0 0.27993804241555648 -0.10043085237675541 0 0.27730849427775212 -0.068227542003556088 0 0.3207236528471033 -0.077927671504172846 0 0.30262627685673871 -0.070353714651555266 0 0.3113157419697532 -0.093399421231786017 0 0.30262627685673871 -0.070353714651555266 0 0.3113157419697532 -0.093399421231786017 0 0.29369318324316351 -0.088460013102491658 0 0.30262627685673871 -0.070353714651555266 0 0.29369318324316351 -0.088460013102491658 0 0.27730849427775212 -0.068227542003556088 0 0.3068724656253855 -0.1232527306167553 0 0.29578996297175031 -0.10967791339337821 0 0.28917343786042032 -0.12789561368113919 0 0.31558036490613939 -0.1099480374909305 0 0.3068724656253855 -0.1232527306167553 0 0.29578996297175031 -0.10967791339337821 0 0.31558036490613939 -0.1099480374909305 0 0.3113157419697532 -0.093399421231786017 0 0.29578996297175031 -0.10967791339337821 0 0.3113157419697532 -0.093399421231786017 0 0.29369318324316351 -0.088460013102491658 0 0.29578996297175031 -0.10967791339337821 0 0.29369318324316351 -0.088460013102491658 0 0.29578996297175031 -0.10967791339337821 0 0.27993804241555648 -0.10043085237675541 0 0.29578996297175031 -0.10967791339337821 0 0.27694034976763909 -0.118500546028017 0 0.28917343786042032 -0.12789561368113919 0 0.29578996297175031 -0.10967791339337821 0 0.27694034976763909 -0.118500546028017 0 0.27993804241555648 -0.10043085237675541 0 0.27694034976763909 -0.118500546028017 0 0.27993804241555648 -0.10043085237675541 0 0.26239216904638818 -0.1096352105652716 0 0.27694034976763909 -0.118500546028017 0 0.26239216904638818 -0.1096352105652716 0 0.26395777618274813 -0.1228764782406877 0 0.27993804241555648 -0.10043085237675541 0 0.26239216904638818 -0.1096352105652716 0 0.26314850868394168 -0.093467551238163069 0 0.26314850868394168 -0.093467551238163069 0 0.24526637103391191 -0.09498892688438948 0 0.2472054752640955 -0.112589567969996 0 0.26314850868394168 -0.093467551238163069 0 0.2472054752640955 -0.112589567969996 0 0.24898852309013139 -0.1187075604727701 0 0.26314850868394168 -0.093467551238163069 0 0.24898852309013139 -0.1187075604727701 0 0.26239216904638818 -0.1096352105652716 0 0.26314850868394168 -0.093467551238163069 0 0.24898852309013139 -0.1187075604727701 0 0.26239216904638818 -0.1096352105652716 0 0.2576821414475744 -0.11904896323923581 0 0.26395777618274813 -0.1228764782406877 0 0.26239216904638818 -0.1096352105652716 0 0.2576821414475744 -0.11904896323923581 0 0.24898852309013139 -0.1187075604727701 0 0.25539009747102998 -0.1249766036782137 0 0.2576821414475744 -0.11904896323923581 0 0.24898852309013139 -0.1187075604727701 0 0.25539009747102998 -0.1249766036782137 0 0.2576821414475744 -0.11904896323923581 0 0.26395777618274813 -0.1228764782406877 0 0.27993804241555648 -0.10043085237675541 0 0.27730849427775212 -0.068227542003556088 0 0.26314850868394168 -0.093467551238163069 0 0.27730849427775212 -0.068227542003556088 0 0.25251503921403129 -0.079288618637047004 0 0.2450142456146146 -0.061215004221688268 0 0.27730849427775212 -0.068227542003556088 0 0.26314850868394168 -0.093467551238163069 0 0.27730849427775212 -0.068227542003556088 0 0.26314850868394168 -0.093467551238163069 0 0.25251503921403129 -0.079288618637047004 0 0.26314850868394168 -0.093467551238163069 0 0.25251503921403129 -0.079288618637047004 0 0.24526637103391191 -0.09498892688438948 0 0.27730849427775212 -0.068227542003556088 0 0.26556712791671461 -0.037739316733790378 0 0.2450142456146146 -0.061215004221688268 0 0.27730849427775212 -0.068227542003556088 0 0.26556712791671461 -0.037739316733790378 0 0.29256634919475449 -0.046684550599191507 0 0.26556712791671461 -0.037739316733790378 0 0.2450142456146146 -0.061215004221688268 0 0.24268599680298419 -0.037776372377709852 0 0.26556712791671461 -0.037739316733790378 0 0.26761999355251742 -0.011214393094296929 0 0.2479902321550336 -0.018214773075862431 0 0.26556712791671461 -0.037739316733790378 0 0.24268599680298419 -0.037776372377709852 0 0.2479902321550336 -0.018214773075862431 0 0.25793748997120008 0.0089236122805062303 0 0.26761999355251742 -0.011214393094296929 0 0.2479902321550336 -0.018214773075862431 0 0.28811293039592051 0.0065973961415248666 0 0.26761999355251742 -0.011214393094296929 0 0.28574726801449007 -0.02149713460562375 0 0.26556712791671461 -0.037739316733790378 0 0.26761999355251742 -0.011214393094296929 0 0.28574726801449007 -0.02149713460562375 0 0.28811293039592051 0.0065973961415248666 0 0.28574726801449007 -0.02149713460562375 0 0.30078566315364058 -0.01063850742047741 0 0.28811293039592051 0.0065973961415248666 0 0.28574726801449007 -0.02149713460562375 0 0.31248272459104121 0.00013293421497175001 0 0.31717941281868423 -0.01505287184610858 0 0.30078566315364058 -0.01063850742047741 0 0.3020461684121627 0.0053875069631146751 0 0.31248272459104121 0.00013293421497175001 0 0.30078566315364058 -0.01063850742047741 0 0.31717941281868423 -0.01505287184610858 0 0.30078566315364058 -0.01063850742047741 0 0.31017270832642052 -0.030964598616814831 0 0.28574726801449007 -0.02149713460562375 0 0.30078566315364058 -0.01063850742047741 0 0.31017270832642052 -0.030964598616814831 0 0.31490648375463348 -0.054128329374972743 0 0.31017270832642052 -0.030964598616814831 0 0.29256634919475449 -0.046684550599191507 0 0.31490648375463348 -0.054128329374972743 0 0.30262627685673871 -0.070353714651555266 0 0.29256634919475449 -0.046684550599191507 0 0.30262627685673871 -0.070353714651555266 0 0.27730849427775212 -0.068227542003556088 0 0.29256634919475449 -0.046684550599191507 0 0.28574726801449007 -0.02149713460562375 0 0.31017270832642052 -0.030964598616814831 0 0.29256634919475449 -0.046684550599191507 0 0.26556712791671461 -0.037739316733790378 0 0.28574726801449007 -0.02149713460562375 0 0.29256634919475449 -0.046684550599191507 0 0.28333341114773969 -0.21375742778075779 0 0.29920193903996861 -0.1919981830127763 0 0.30331985804864131 -0.2102826425980312 0 0.28333341114773969 -0.21375742778075779 0 0.30331985804864131 -0.2102826425980312 0 0.29541253135751477 -0.22140799048422899 0 0.29920193903996861 -0.1919981830127763 0 0.27548964596010261 -0.19931647124577381 0 0.28333341114773969 -0.21375742778075779 0 0.29920193903996861 -0.1919981830127763 0 0.27548964596010261 -0.19931647124577381 0 0.28547602518916981 -0.18788488684752541 0 0.29920193903996861 -0.1919981830127763 0 0.27548964596010261 -0.19931647124577381 0 0.28333341114773969 -0.21375742778075779 0 0.29920193903996861 -0.1919981830127763 0 0.29920193903996861 -0.1919981830127763 0 0.30331985804864131 -0.2102826425980312 0 0.31631601541927012 -0.1988850783204433 0 0.30331985804864131 -0.2102826425980312 0 0.29541253135751477 -0.22140799048422899 0 0.31301195290636419 -0.21942204276283961 0 0.30696641114360579 -0.23279288798073311 0 0.29541253135751477 -0.22140799048422899 0 0.31301195290636419 -0.21942204276283961 0 0.30696641114360579 -0.23279288798073311 0 0.30156781060784271 -0.24771035881410489 0 0.28822249037555048 -0.23300460265467621 0 0.30156781060784271 -0.24771035881410489 0 0.31627785939269931 -0.24671969350905501 0 0.30951249882476461 -0.25552145918893249 0 0.30696641114360579 -0.23279288798073311 0 0.30156781060784271 -0.24771035881410489 0 0.31627785939269931 -0.24671969350905501 0 0.30156781060784271 -0.24771035881410489 0 0.28187800694090798 -0.24553789218868369 0 0.28822249037555048 -0.23300460265467621 0 0.30156781060784271 -0.24771035881410489 0 0.28187800694090798 -0.24553789218868369 0 0.28979144165464521 -0.25633909434951779 0 0.30696641114360579 -0.23279288798073311 0 0.29541253135751477 -0.22140799048422899 0 0.28822249037555048 -0.23300460265467621 0 0.28333341114773969 -0.21375742778075779 0 0.29541253135751477 -0.22140799048422899 0 0.28822249037555048 -0.23300460265467621 0 0.28333341114773969 -0.21375742778075779 0 0.28822249037555048 -0.23300460265467621 0 0.26746488325551881 -0.2355166725487452 0 0.28333341114773969 -0.21375742778075779 0 0.26746488325551881 -0.2355166725487452 0 0.26574967616220369 -0.21623116742891699 0 0.28333341114773969 -0.21375742778075779 0 0.26746488325551881 -0.2355166725487452 0 0.28187800694090798 -0.24553789218868369 0 0.26746488325551881 -0.2355166725487452 0 0.27118685911762869 -0.25789623979752829 0 0.28187800694090798 -0.24553789218868369 0 0.28822249037555048 -0.23300460265467621 0 0.26746488325551881 -0.2355166725487452 0 0.26746488325551881 -0.2355166725487452 0 0.25159635536329789 -0.25727591731673261 0 0.24803030827818129 -0.22967341167366881 0 0.26746488325551881 -0.2355166725487452 0 0.25159635536329789 -0.25727591731673261 0 0.26746488325551881 -0.2355166725487452 0 0.26574967616220369 -0.21623116742891699 0 0.24803030827818129 -0.22967341167366881 0 0.25177735288023279 -0.20663475947875959 0 0.26574967616220369 -0.21623116742891699 0 0.24803030827818129 -0.22967341167366881 0 0.25177735288023279 -0.20663475947875959 0 0.26574967616220369 -0.21623116742891699 0 0.27548964596010261 -0.19931647124577381 0 0.28333341114773969 -0.21375742778075779 0 0.26574967616220369 -0.21623116742891699 0 0.27548964596010261 -0.19931647124577381 0 0.28547602518916981 -0.18788488684752541 0 0.27548964596010261 -0.19931647124577381 0 0.27344333968045098 -0.18295776174442541 0 0.27548964596010261 -0.19931647124577381 0 0.25311750328474492 -0.1886483921017249 0 0.27344333968045098 -0.18295776174442541 0 0.25177735288023279 -0.20663475947875959 0 0.27548964596010261 -0.19931647124577381 0 0.25177735288023279 -0.20663475947875959 0 0.27548964596010261 -0.19931647124577381 0 0.25311750328474492 -0.1886483921017249 0 0.25311750328474492 -0.1886483921017249 0 0.27344333968045098 -0.18295776174442541 0 0.27305188916742262 -0.1641505439072771 0 0.27344333968045098 -0.18295776174442541 0 0.2451071564849216 -0.1706163668390856 0 0.25311750328474492 -0.1886483921017249 0 0.27344333968045098 -0.18295776174442541 0 0.2451071564849216 -0.1706163668390856 0 0.26081509660470431 -0.155507304122568 0 0.24978243152623819 -0.15271884650741541 0 0.2451071564849216 -0.1706163668390856 0 0.27305188916742262 -0.1641505439072771 0 0.26081509660470431 -0.155507304122568 0 0.2451071564849216 -0.1706163668390856 0 0.27305188916742262 -0.1641505439072771 0 0.2451071564849216 -0.1706163668390856 0 0.27305188916742262 -0.1641505439072771 0 0.27344333968045098 -0.18295776174442541 0 0.28531525669348862 -0.17051503950357419 0 0.25539009747102998 -0.1249766036782137 0 0.26395777618274813 -0.1228764782406877 0 0.26081910408868259 -0.13195536782387529 0 0.25539009747102998 -0.1249766036782137 0 0.24898852309013139 -0.1187075604727701 0 0.24810845424368949 -0.13258004626673661 0 0.25539009747102998 -0.1249766036782137 0 0.25381938404938942 -0.1334915628196541 0 0.24810845424368949 -0.13258004626673661 0 0.25539009747102998 -0.1249766036782137 0 0.26081910408868259 -0.13195536782387529 0 0.25381938404938942 -0.1334915628196541 0 0.26081910408868259 -0.13195536782387529 0 0.25381938404938942 -0.1334915628196541 0 0.25878911768176538 -0.1426578301772102 0 0.25381938404938942 -0.1334915628196541 0 0.25878911768176538 -0.1426578301772102 0 0.24751572911157591 -0.1417769346556676 0 0.26081910408868259 -0.13195536782387529 0 0.25878911768176538 -0.1426578301772102 0 0.27213914505848041 -0.13577436420361089 0 0.25878911768176538 -0.1426578301772102 0 0.24978243152623819 -0.15271884650741541 0 0.24751572911157591 -0.1417769346556676 0 0.25878911768176538 -0.1426578301772102 0 0.26081509660470431 -0.155507304122568 0 0.24978243152623819 -0.15271884650741541 0 0.25878911768176538 -0.1426578301772102 0 0.26081509660470431 -0.155507304122568 0 0.27126248191565921 -0.1482144289964854 0 0.27305188916742262 -0.1641505439072771 0 0.27126248191565921 -0.1482144289964854 0 0.28233023262221252 -0.15285161826287541 0 0.27305188916742262 -0.1641505439072771 0 0.26081509660470431 -0.155507304122568 0 0.27126248191565921 -0.1482144289964854 0 0.27126248191565921 -0.1482144289964854 0 0.28400993755584453 -0.14135677917227071 0 0.28233023262221252 -0.15285161826287541 0 0.27126248191565921 -0.1482144289964854 0 0.27213914505848041 -0.13577436420361089 0 0.28400993755584453 -0.14135677917227071 0 0.25878911768176538 -0.1426578301772102 0 0.27126248191565921 -0.1482144289964854 0 0.27213914505848041 -0.13577436420361089 0 0.27694034976763909 -0.118500546028017 0 0.26395777618274813 -0.1228764782406877 0 0.27213914505848041 -0.13577436420361089 0 0.27694034976763909 -0.118500546028017 0 0.27213914505848041 -0.13577436420361089 0 0.28917343786042032 -0.12789561368113919 0 0.26395777618274813 -0.1228764782406877 0 0.26081910408868259 -0.13195536782387529 0 0.27213914505848041 -0.13577436420361089 0 0.27213914505848041 -0.13577436420361089 0 0.28917343786042032 -0.12789561368113919 0 0.28400993755584453 -0.14135677917227071 0 0.28917343786042032 -0.12789561368113919 0 0.28400993755584453 -0.14135677917227071 0 0.30030307404053291 -0.13790451735585771 0 0.28400993755584453 -0.14135677917227071 0 0.30030307404053291 -0.13790451735585771 0 0.3009966218499236 -0.15768472097546851 0 0.28400993755584453 -0.14135677917227071 0 0.28233023262221252 -0.15285161826287541 0 0.3009966218499236 -0.15768472097546851 0 0.30030307404053291 -0.13790451735585771 0 0.3009966218499236 -0.15768472097546851 0 0.31299804118169428 -0.1461305291559033 0 0.3068724656253855 -0.1232527306167553 0 0.28917343786042032 -0.12789561368113919 0 0.30030307404053291 -0.13790451735585771 0 0.30030307404053291 -0.13790451735585771 0 0.31235724596723402 -0.13511054628619701 0 0.31299804118169428 -0.1461305291559033 0 0.3068724656253855 -0.1232527306167553 0 0.30030307404053291 -0.13790451735585771 0 0.31235724596723402 -0.13511054628619701 0 0.28547602518916981 -0.18788488684752541 0 0.27344333968045098 -0.18295776174442541 0 0.2937691760761571 -0.17726713138712591 0 0.27344333968045098 -0.18295776174442541 0 0.2937691760761571 -0.17726713138712591 0 0.27344333968045098 -0.18295776174442541 0 0.2937691760761571 -0.17726713138712591 0 0.28531525669348862 -0.17051503950357419 0 0.28547602518916981 -0.18788488684752541 0 0.29920193903996861 -0.1919981830127763 0 0.2937691760761571 -0.17726713138712591 0 0.27305188916742262 -0.1641505439072771 0 0.3009966218499236 -0.15768472097546851 0 0.2937691760761571 -0.17726713138712591 0 0.28531525669348862 -0.17051503950357419 0 0.3009966218499236 -0.15768472097546851 0 0.27305188916742262 -0.1641505439072771 0 0.28233023262221252 -0.15285161826287541 0 0.3009966218499236 -0.15768472097546851 0 0.27305188916742262 -0.1641505439072771 0 0.28531525669348862 -0.17051503950357419 0 0.3009966218499236 -0.15768472097546851 0 0.2937691760761571 -0.17726713138712591 0 0.3009966218499236 -0.15768472097546851 0 0.31409501247186339 -0.17157650102982691 0 0.29920193903996861 -0.1919981830127763 0 0.31409501247186339 -0.17157650102982691 0 0.2937691760761571 -0.17726713138712591 0 0.31409501247186339 -0.17157650102982691 0 0.29920193903996861 -0.1919981830127763 0 0.2937691760761571 -0.17726713138712591 0 0.31409501247186339 -0.17157650102982691 0 0.32628707436108229 -0.1836389397105205 0 0.31409501247186339 -0.17157650102982691 0 0.3387806790010563 -0.16466524775560079 0 0.29920193903996861 -0.1919981830127763 0 0.32628707436108229 -0.1836389397105205 0 0.31409501247186339 -0.17157650102982691 0 0.31409501247186339 -0.17157650102982691 0 0.3304632461335496 -0.15935389081727111 0 0.3387806790010563 -0.16466524775560079 0 0.3009966218499236 -0.15768472097546851 0 0.31409501247186339 -0.17157650102982691 0 0.32894135453242318 -0.15121889804365399 0 0.31409501247186339 -0.17157650102982691 0 0.3304632461335496 -0.15935389081727111 0 0.32894135453242318 -0.15121889804365399 0 0.31409501247186339 -0.17157650102982691 0 0.32894135453242318 -0.15121889804365399 0 0.31409501247186339 -0.17157650102982691 0 0.3387806790010563 -0.16466524775560079 0 0.3304632461335496 -0.15935389081727111 0 0.3387806790010563 -0.16466524775560079 0 0.33742215984218932 -0.1555017212615678 0 0.3387806790010563 -0.16466524775560079 0 0.33742215984218932 -0.1555017212615678 0 0.34401177152408913 -0.15310007777837481 0 0.32628707436108229 -0.1836389397105205 0 0.3387806790010563 -0.16466524775560079 0 0.34138067886579149 -0.1825070641775961 0 0.31986918686486632 -0.1239239168639065 0 0.32288855205223399 -0.13397469518931909 0 0.3309344017448318 -0.12759008385367951 0 0.31986918686486632 -0.1239239168639065 0 0.3068724656253855 -0.1232527306167553 0 0.31235724596723402 -0.13511054628619701 0 0.31986918686486632 -0.1239239168639065 0 0.31235724596723402 -0.13511054628619701 0 0.32288855205223399 -0.13397469518931909 0 0.31235724596723402 -0.13511054628619701 0 0.32288855205223399 -0.13397469518931909 0 0.32112419084496607 -0.1411860309937536 0 0.32288855205223399 -0.13397469518931909 0 0.32948088054263652 -0.13881667714975809 0 0.3309344017448318 -0.12759008385367951 0 0.32288855205223399 -0.13397469518931909 0 0.32112419084496607 -0.1411860309937536 0 0.32948088054263652 -0.13881667714975809 0 0.3009966218499236 -0.15768472097546851 0 0.31299804118169428 -0.1461305291559033 0 0.32894135453242318 -0.15121889804365399 0 0.3009966218499236 -0.15768472097546851 0 0.32894135453242318 -0.15121889804365399 0 0.32112419084496607 -0.1411860309937536 0 0.31299804118169428 -0.1461305291559033 0 0.32894135453242318 -0.15121889804365399 0 0.32112419084496607 -0.1411860309937536 0 0.32894135453242318 -0.15121889804365399 0 0.32948088054263652 -0.13881667714975809 0 0.31235724596723402 -0.13511054628619701 0 0.32112419084496607 -0.1411860309937536 0 0.31299804118169428 -0.1461305291559033 0 0.32894135453242318 -0.15121889804365399 0 0.32948088054263652 -0.13881667714975809 0 0.34108695580943982 -0.1345646051668293 0 0.32894135453242318 -0.15121889804365399 0 0.34108695580943982 -0.1345646051668293 0 0.32894135453242318 -0.15121889804365399 0 0.33656994077436653 -0.14841945310545829 0 0.34108695580943982 -0.1345646051668293 0 0.3304632461335496 -0.15935389081727111 0 0.32894135453242318 -0.15121889804365399 0 0.3325283327227791 -0.15312852256352019 0 0.32894135453242318 -0.15121889804365399 0 0.3325283327227791 -0.15312852256352019 0 0.33656994077436653 -0.14841945310545829 0 0.3304632461335496 -0.15935389081727111 0 0.3325283327227791 -0.15312852256352019 0 0.33742215984218932 -0.1555017212615678 0 0.3325283327227791 -0.15312852256352019 0 0.33742215984218932 -0.1555017212615678 0 0.33656994077436653 -0.14841945310545829 0 0.33742215984218932 -0.1555017212615678 0 0.3420186010686207 -0.147075203513539 0 0.34401177152408913 -0.15310007777837481 0 0.33742215984218932 -0.1555017212615678 0 0.33656994077436653 -0.14841945310545829 0 0.3420186010686207 -0.147075203513539 0 0.33656994077436653 -0.14841945310545829 0 0.3420186010686207 -0.147075203513539 0 0.34108695580943982 -0.1345646051668293 0 0.32948088054263652 -0.13881667714975809 0 0.34108695580943982 -0.1345646051668293 0 0.3309344017448318 -0.12759008385367951 0 0.34020449652140661 -0.1205873233631948 0 0.34108695580943982 -0.1345646051668293 0 0.3309344017448318 -0.12759008385367951 0 0.34108695580943982 -0.1345646051668293 0 0.35230349139853062 -0.14251942764846631 0 0.36175866937084311 -0.13288675887092341 0 0.35323255708646012 -0.1179103122900074 0 0.34108695580943982 -0.1345646051668293 0 0.35323255708646012 -0.1179103122900074 0 0.34108695580943982 -0.1345646051668293 0 0.36175866937084311 -0.13288675887092341 0 0.3420186010686207 -0.147075203513539 0 0.34108695580943982 -0.1345646051668293 0 0.35230349139853062 -0.14251942764846631 0 0.3420186010686207 -0.147075203513539 0 0.35230349139853062 -0.14251942764846631 0 0.34401177152408913 -0.15310007777837481 0 0.35230349139853062 -0.14251942764846631 0 0.34401177152408913 -0.15310007777837481 0 0.35011794080535003 -0.15497684406330281 0 0.35230349139853062 -0.14251942764846631 0 0.35011794080535003 -0.15497684406330281 0 0.36346634553024931 -0.15775399448137509 0 0.35230349139853062 -0.14251942764846631 0 0.37252775051790338 -0.16363608514496999 0 0.35230349139853062 -0.14251942764846631 0 0.36346634553024931 -0.15775399448137509 0 0.37252775051790338 -0.16363608514496999 0 0.35230349139853062 -0.14251942764846631 0 0.3700553162335552 -0.14544679806587649 0 0.37252775051790338 -0.16363608514496999 0 0.37556930614501688 -0.1157209417222073 0 0.36175866937084311 -0.13288675887092341 0 0.37881593301017907 -0.1370475249384431 0 0.3700553162335552 -0.14544679806587649 0 0.36175866937084311 -0.13288675887092341 0 0.37881593301017907 -0.1370475249384431 0 0.35230349139853062 -0.14251942764846631 0 0.3700553162335552 -0.14544679806587649 0 0.36175866937084311 -0.13288675887092341 0 0.34138067886579149 -0.1825070641775961 0 0.35610740455625162 -0.17901112516146059 0 0.35828030110547981 -0.1934394176384954 0 0.3387806790010563 -0.16466524775560079 0 0.34138067886579149 -0.1825070641775961 0 0.35243021711801958 -0.17064603047462801 0 0.35610740455625162 -0.17901112516146059 0 0.35243021711801958 -0.17064603047462801 0 0.36241597763674932 -0.169292720797107 0 0.34138067886579149 -0.1825070641775961 0 0.35610740455625162 -0.17901112516146059 0 0.35243021711801958 -0.17064603047462801 0 0.3387806790010563 -0.16466524775560079 0 0.35243021711801958 -0.17064603047462801 0 0.36346634553024931 -0.15775399448137509 0 0.3387806790010563 -0.16466524775560079 0 0.35011794080535003 -0.15497684406330281 0 0.36346634553024931 -0.15775399448137509 0 0.3387806790010563 -0.16466524775560079 0 0.36346634553024931 -0.15775399448137509 0 0.3387806790010563 -0.16466524775560079 0 0.34401177152408913 -0.15310007777837481 0 0.35011794080535003 -0.15497684406330281 0 0.35243021711801958 -0.17064603047462801 0 0.36241597763674932 -0.169292720797107 0 0.36346634553024931 -0.15775399448137509 0 0.36241597763674932 -0.169292720797107 0 0.37252775051790338 -0.16363608514496999 0 0.37326689847690919 -0.1818161526141569 0 0.36241597763674932 -0.169292720797107 0 0.36346634553024931 -0.15775399448137509 0 0.37252775051790338 -0.16363608514496999 0 0.35610740455625162 -0.17901112516146059 0 0.36241597763674932 -0.169292720797107 0 0.37326689847690919 -0.1818161526141569 0 0.35610740455625162 -0.17901112516146059 0 0.37326689847690919 -0.1818161526141569 0 0.35828030110547981 -0.1934394176384954 0 0.37326689847690919 -0.1818161526141569 0 0.35828030110547981 -0.1934394176384954 0 0.37735698938611067 -0.19527149300810759 0 0.36761566266204571 -0.20548527234936281 0 0.35828030110547981 -0.1934394176384954 0 0.37735698938611067 -0.19527149300810759 0 0.36761566266204571 -0.20548527234936281 0 0.35308942658609782 -0.2080416795672862 0 0.35828030110547981 -0.1934394176384954 0 0.36761566266204571 -0.20548527234936281 0 0.35478027001423718 -0.2218826609607957 0 0.36761566266204571 -0.20548527234936281 0 0.35308942658609782 -0.2080416795672862 0 0.35478027001423718 -0.2218826609607957 0 0.35308942658609782 -0.2080416795672862 0 0.34397115995752259 -0.2001290023117541 0 0.34353969551055741 -0.21095123108311259 0 0.35308942658609782 -0.2080416795672862 0 0.34618849741811741 -0.21955978765419329 0 0.35478027001423718 -0.2218826609607957 0 0.35308942658609782 -0.2080416795672862 0 0.34353969551055741 -0.21095123108311259 0 0.34618849741811741 -0.21955978765419329 0 0.34138067886579149 -0.1825070641775961 0 0.35828030110547981 -0.1934394176384954 0 0.34397115995752259 -0.2001290023117541 0 0.35308942658609782 -0.2080416795672862 0 0.35828030110547981 -0.1934394176384954 0 0.34397115995752259 -0.2001290023117541 0 0.34138067886579149 -0.1825070641775961 0 0.34397115995752259 -0.2001290023117541 0 0.32978143704095059 -0.19711806769220089 0 0.32628707436108229 -0.1836389397105205 0 0.34138067886579149 -0.1825070641775961 0 0.32978143704095059 -0.19711806769220089 0 0.34397115995752259 -0.2001290023117541 0 0.32978143704095059 -0.19711806769220089 0 0.33552520297603028 -0.2078293999865761 0 0.34397115995752259 -0.2001290023117541 0 0.34353969551055741 -0.21095123108311259 0 0.33552520297603028 -0.2078293999865761 0 0.33538245087297369 -0.21546019195287031 0 0.32298976860570783 -0.2113875585886878 0 0.32866908985445559 -0.22757298245178159 0 0.34353969551055741 -0.21095123108311259 0 0.33538245087297369 -0.21546019195287031 0 0.33552520297603028 -0.2078293999865761 0 0.34353969551055741 -0.21095123108311259 0 0.33538245087297369 -0.21546019195287031 0 0.34618849741811741 -0.21955978765419329 0 0.33538245087297369 -0.21546019195287031 0 0.33552520297603028 -0.2078293999865761 0 0.32298976860570783 -0.2113875585886878 0 0.32978143704095059 -0.19711806769220089 0 0.33552520297603028 -0.2078293999865761 0 0.32298976860570783 -0.2113875585886878 0 0.30331985804864131 -0.2102826425980312 0 0.32298976860570783 -0.2113875585886878 0 0.31301195290636419 -0.21942204276283961 0 0.30331985804864131 -0.2102826425980312 0 0.32298976860570783 -0.2113875585886878 0 0.31631601541927012 -0.1988850783204433 0 0.29920193903996861 -0.1919981830127763 0 0.32628707436108229 -0.1836389397105205 0 0.29920193903996861 -0.1919981830127763 0 0.32628707436108229 -0.1836389397105205 0 0.31631601541927012 -0.1988850783204433 0 0.32628707436108229 -0.1836389397105205 0 0.32978143704095059 -0.19711806769220089 0 0.31631601541927012 -0.1988850783204433 0 0.32978143704095059 -0.19711806769220089 0 0.32298976860570783 -0.2113875585886878 0 0.31631601541927012 -0.1988850783204433 0 0.30696641114360579 -0.23279288798073311 0 0.31627785939269931 -0.24671969350905501 0 0.32866908985445559 -0.22757298245178159 0 0.31627785939269931 -0.24671969350905501 0 0.32866908985445559 -0.22757298245178159 0 0.33657388358349638 -0.24514156715138369 0 0.31627785939269931 -0.24671969350905501 0 0.33657388358349638 -0.24514156715138369 0 0.31557201887679998 -0.2569677661610078 0 0.32298976860570783 -0.2113875585886878 0 0.31301195290636419 -0.21942204276283961 0 0.32866908985445559 -0.22757298245178159 0 0.30696641114360579 -0.23279288798073311 0 0.31301195290636419 -0.21942204276283961 0 0.32866908985445559 -0.22757298245178159 0 0.32866908985445559 -0.22757298245178159 0 0.33657388358349638 -0.24514156715138369 0 0.34618849741811741 -0.21955978765419329 0 0.33538245087297369 -0.21546019195287031 0 0.32866908985445559 -0.22757298245178159 0 0.34618849741811741 -0.21955978765419329 0 0.33657388358349638 -0.24514156715138369 0 0.36433195444473149 -0.24032169556663019 0 0.35629418190202933 -0.25770487126256941 0 0.33657388358349638 -0.24514156715138369 0 0.35478027001423718 -0.2218826609607957 0 0.36433195444473149 -0.24032169556663019 0 0.33657388358349638 -0.24514156715138369 0 0.34618849741811741 -0.21955978765419329 0 0.35478027001423718 -0.2218826609607957 0 0.33657388358349638 -0.24514156715138369 0 0.35478027001423718 -0.2218826609607957 0 0.34618849741811741 -0.21955978765419329 0 0.35478027001423718 -0.2218826609607957 0 0.36761566266204571 -0.20548527234936281 0 0.35478027001423718 -0.2218826609607957 0 0.38357183088911251 -0.22966675294688621 0 0.35478027001423718 -0.2218826609607957 0 0.38357183088911251 -0.22966675294688621 0 0.35478027001423718 -0.2218826609607957 0 0.36433195444473149 -0.24032169556663019 0 0.38357183088911251 -0.22966675294688621 0 0.36433195444473149 -0.24032169556663019 0 0.37899025053266361 -0.25208212774400213 0 0.36772741321968561 -0.25436609821888201 0 0.38469917524310338 -0.24673457812362551 0 0.38357183088911251 -0.22966675294688621 0 0.37899025053266361 -0.25208212774400213 0 0.36433195444473149 -0.24032169556663019 0 0.38357183088911251 -0.22966675294688621 0 0.37899025053266361 -0.25208212774400213 0 0.38357183088911251 -0.22966675294688621 0 0.37899025053266361 -0.25208212774400213 0 0.38469917524310338 -0.24673457812362551 0 0.39908851497546871 -0.24826550450183629 0 0.38357183088911251 -0.22966675294688621 0 0.39908851497546871 -0.24826550450183629 0 0.38357183088911251 -0.22966675294688621 0 0.40658641249989791 -0.23588897969791481 0 0.38357183088911251 -0.22966675294688621 0 0.40635745522205619 -0.21813655397179529 0 0.40658641249989791 -0.23588897969791481 0 0.38357183088911251 -0.22966675294688621 0 0.40658641249989791 -0.23588897969791481 0 0.38357183088911251 -0.22966675294688621 0 0.38816192026319418 -0.20720974779417989 0 0.36761566266204571 -0.20548527234936281 0 0.38357183088911251 -0.22966675294688621 0 0.38816192026319418 -0.20720974779417989 0 0.38816192026319418 -0.20720974779417989 0 0.37735698938611067 -0.19527149300810759 0 0.39275200963727619 -0.18475274264147359 0 0.38816192026319418 -0.20720974779417989 0 0.39275200963727619 -0.18475274264147359 0 0.36761566266204571 -0.20548527234936281 0 0.38816192026319418 -0.20720974779417989 0 0.37735698938611067 -0.19527149300810759 0 0.40826826643078662 -0.20095365652427169 0 0.39275200963727619 -0.18475274264147359 0 0.40826826643078662 -0.20095365652427169 0 0.39275200963727619 -0.18475274264147359 0 0.41293567887007249 -0.1775895882155519 0 0.38816192026319418 -0.20720974779417989 0 0.40826826643078662 -0.20095365652427169 0 0.39275200963727619 -0.18475274264147359 0 0.38816192026319418 -0.20720974779417989 0 0.40635745522205619 -0.21813655397179529 0 0.40826826643078662 -0.20095365652427169 0 0.38357183088911251 -0.22966675294688621 0 0.38816192026319418 -0.20720974779417989 0 0.40635745522205619 -0.21813655397179529 0 0.40635745522205619 -0.21813655397179529 0 0.42643088908214499 -0.20930631303106961 0 0.42512541216720029 -0.22579387383645311 0 0.40635745522205619 -0.21813655397179529 0 0.40826826643078662 -0.20095365652427169 0 0.42643088908214499 -0.20930631303106961 0 0.40826826643078662 -0.20095365652427169 0 0.4280669388204148 -0.19108922371129369 0 0.42643088908214499 -0.20930631303106961 0 0.40826826643078662 -0.20095365652427169 0 0.4280669388204148 -0.19108922371129369 0 0.41293567887007249 -0.1775895882155519 0 0.4280669388204148 -0.19108922371129369 0 0.42643088908214499 -0.20930631303106961 0 0.44412948396601432 -0.2021026180023433 0 0.42643088908214499 -0.20930631303106961 0 0.42512541216720029 -0.22579387383645311 0 0.44027077645017137 -0.2176588813801433 0 0.42643088908214499 -0.20930631303106961 0 0.44027077645017137 -0.2176588813801433 0 0.44412948396601432 -0.2021026180023433 0 0.42512541216720029 -0.22579387383645311 0 0.4363489642489462 -0.23787271641263841 0 0.44983772351034279 -0.23350057217320891 0 0.42512541216720029 -0.22579387383645311 0 0.44983772351034279 -0.23350057217320891 0 0.42512541216720029 -0.22579387383645311 0 0.4363489642489462 -0.23787271641263841 0 0.42960099411068242 -0.24211120644894721 0 0.39908851497546871 -0.24826550450183629 0 0.40658641249989791 -0.23588897969791481 0 0.41479787731583467 -0.24935090651472949 0 0.42512541216720029 -0.22579387383645311 0 0.42960099411068242 -0.24211120644894721 0 0.40658641249989791 -0.23588897969791481 0 0.42960099411068242 -0.24211120644894721 0 0.40658641249989791 -0.23588897969791481 0 0.42960099411068242 -0.24211120644894721 0 0.40658641249989791 -0.23588897969791481 0 0.41479787731583467 -0.24935090651472949 0 0.40635745522205619 -0.21813655397179529 0 0.42512541216720029 -0.22579387383645311 0 0.40658641249989791 -0.23588897969791481 0 0.39038354154813781 -0.1208304864315118 0 0.40359577394570889 -0.1316996425593179 0 0.37881593301017907 -0.1370475249384431 0 0.40359577394570889 -0.1316996425593179 0 0.37881593301017907 -0.1370475249384431 0 0.38487073687031992 -0.15114419372657989 0 0.3700553162335552 -0.14544679806587649 0 0.37252775051790338 -0.16363608514496999 0 0.38487073687031992 -0.15114419372657989 0 0.3700553162335552 -0.14544679806587649 0 0.37881593301017907 -0.1370475249384431 0 0.38487073687031992 -0.15114419372657989 0 0.40359577394570889 -0.1316996425593179 0 0.39817389179149248 -0.15822619260039569 0 0.40359577394570889 -0.1316996425593179 0 0.38487073687031992 -0.15114419372657989 0 0.39817389179149248 -0.15822619260039569 0 0.39817389179149248 -0.15822619260039569 0 0.39275200963727619 -0.18475274264147359 0 0.39817389179149248 -0.15822619260039569 0 0.38693429776909238 -0.16508499556504361 0 0.39275200963727619 -0.18475274264147359 0 0.38487073687031992 -0.15114419372657989 0 0.39817389179149248 -0.15822619260039569 0 0.38693429776909238 -0.16508499556504361 0 0.37252775051790338 -0.16363608514496999 0 0.38693429776909238 -0.16508499556504361 0 0.39275200963727619 -0.18475274264147359 0 0.37252775051790338 -0.16363608514496999 0 0.38487073687031992 -0.15114419372657989 0 0.38693429776909238 -0.16508499556504361 0 0.37252775051790338 -0.16363608514496999 0 0.37326689847690919 -0.1818161526141569 0 0.39275200963727619 -0.18475274264147359 0 0.37326689847690919 -0.1818161526141569 0 0.37735698938611067 -0.19527149300810759 0 0.39275200963727619 -0.18475274264147359 0 0.37252775051790338 -0.16363608514496999 0 0.39275200963727619 -0.18475274264147359 0 0.39817389179149248 -0.15822619260039569 0 0.39275200963727619 -0.18475274264147359 0 0.41293567887007249 -0.1775895882155519 0 0.4280669388204148 -0.19108922371129369 0 0.41293567887007249 -0.1775895882155519 0 0.42941003265773647 -0.1735676424073439 0 0.4280669388204148 -0.19108922371129369 0 0.42941003265773647 -0.1735676424073439 0 0.44722728191573419 -0.18301552408718219 0 0.42941003265773647 -0.1735676424073439 0 0.41894020167573909 -0.1569281434750133 0 0.44384314296250299 -0.1614767800815145 0 0.41293567887007249 -0.1775895882155519 0 0.42941003265773647 -0.1735676424073439 0 0.41894020167573909 -0.1569281434750133 0 0.39817389179149248 -0.15822619260039569 0 0.41293567887007249 -0.1775895882155519 0 0.41894020167573909 -0.1569281434750133 0 0.40359577394570889 -0.1316996425593179 0 0.41894020167573909 -0.1569281434750133 0 0.4339343733129104 -0.14055955483086011 0 0.40359577394570889 -0.1316996425593179 0 0.39817389179149248 -0.15822619260039569 0 0.41894020167573909 -0.1569281434750133 0 0.41894020167573909 -0.1569281434750133 0 0.4339343733129104 -0.14055955483086011 0 0.44384314296250299 -0.1614767800815145 0 0.42873196652757661 -0.1160488887097932 0 0.40359577394570889 -0.1316996425593179 0 0.4339343733129104 -0.14055955483086011 0 0.45294163089663758 -0.1224139815974306 0 0.46146448127013001 -0.14828349863027041 0 0.45294163089663758 -0.1224139815974306 0 0.46146448127013001 -0.14828349863027041 0 0.47114492085608678 -0.13053914965837979 0 0.45294163089663758 -0.1224139815974306 0 0.42873196652757661 -0.1160488887097932 0 0.4339343733129104 -0.14055955483086011 0 0.45294163089663758 -0.1224139815974306 0 0.4339343733129104 -0.14055955483086011 0 0.46146448127013001 -0.14828349863027041 0 0.4339343733129104 -0.14055955483086011 0 0.46146448127013001 -0.14828349863027041 0 0.44384314296250299 -0.1614767800815145 0 0.46146448127013001 -0.14828349863027041 0 0.44384314296250299 -0.1614767800815145 0 0.4699873316436225 -0.17415301566311031 0 0.46146448127013001 -0.14828349863027041 0 0.4699873316436225 -0.17415301566311031 0 0.42941003265773647 -0.1735676424073439 0 0.44384314296250299 -0.1614767800815145 0 0.44722728191573419 -0.18301552408718219 0 0.44722728191573419 -0.18301552408718219 0 0.4699873316436225 -0.17415301566311031 0 0.46174924758966779 -0.19782266932609191 0 0.44384314296250299 -0.1614767800815145 0 0.44722728191573419 -0.18301552408718219 0 0.4699873316436225 -0.17415301566311031 0 0.4699873316436225 -0.17415301566311031 0 0.5 -0.18561530594233311 0 0.47938106086962129 -0.19458011134506409 0 0.4699873316436225 -0.17415301566311031 0 0.5 -0.18561530594233311 0 0.50000000000000111 -0.1602096321186747 0 0.4699873316436225 -0.17415301566311031 0 0.50000000000000111 -0.1602096321186747 0 0.47939472629461949 -0.15203084928577021 0 0.46146448127013001 -0.14828349863027041 0 0.4699873316436225 -0.17415301566311031 0 0.47939472629461949 -0.15203084928577021 0 0.46146448127013001 -0.14828349863027041 0 0.47939472629461949 -0.15203084928577021 0 0.47114492085608678 -0.13053914965837979 0 0.50000000000000111 -0.1602096321186747 0 0.4909367785363194 -0.13812126114230469 0 0.50000000000000111 -0.1602096321186747 0 0.47939472629461949 -0.15203084928577021 0 0.4909367785363194 -0.13812126114230469 0 0.50000000000000111 -0.1602096321186747 0 0.5 -0.1303895279001959 0 0.4909367785363194 -0.13812126114230469 0 0.48187355707263668 -0.116032890165935 0 0.5 -0.1303895279001959 0 0.4909367785363194 -0.13812126114230469 0 0.48187355707263668 -0.116032890165935 0 0.4909367785363194 -0.13812126114230469 0 0.48187355707263668 -0.116032890165935 0 0.4909367785363194 -0.13812126114230469 0 0.47114492085608678 -0.13053914965837979 0 0.47939472629461949 -0.15203084928577021 0 0.4909367785363194 -0.13812126114230469 0 0.47114492085608678 -0.13053914965837979 0 0.46667560241285999 -0.22703667211739889 0 0.44983772351034279 -0.23350057217320891 0 0.45571834873958472 -0.21562032477110249 0 0.46667560241285999 -0.22703667211739889 0 0.44983772351034279 -0.23350057217320891 0 0.4745500348534854 -0.2412072705099646 0 0.46667560241285999 -0.22703667211739889 0 0.45571834873958472 -0.21562032477110249 0 0.46992960144061008 -0.21426918815577109 0 0.44983772351034279 -0.23350057217320891 0 0.4745500348534854 -0.2412072705099646 0 0.46640431407002331 -0.25206135917605449 0 0.44800265409035289 -0.24708628281250061 0 0.46640431407002331 -0.25206135917605449 0 0.44800265409035289 -0.24708628281250061 0 0.44983772351034279 -0.23350057217320891 0 0.46640431407002331 -0.25206135917605449 0 0.44983772351034279 -0.23350057217320891 0 0.4745500348534854 -0.2412072705099646 0 0.4363489642489462 -0.23787271641263841 0 0.42960099411068242 -0.24211120644894721 0 0.44800265409035289 -0.24708628281250061 0 0.42960099411068242 -0.24211120644894721 0 0.44800265409035289 -0.24708628281250061 0 0.4363489642489462 -0.23787271641263841 0 0.44800265409035289 -0.24708628281250061 0 0.44983772351034279 -0.23350057217320891 0 0.42512541216720029 -0.22579387383645311 0 0.44983772351034279 -0.23350057217320891 0 0.44027077645017137 -0.2176588813801433 0 0.44983772351034279 -0.23350057217320891 0 0.44027077645017137 -0.2176588813801433 0 0.45571834873958472 -0.21562032477110249 0 0.44027077645017137 -0.2176588813801433 0 0.44412948396601432 -0.2021026180023433 0 0.45571834873958472 -0.21562032477110249 0 0.4280669388204148 -0.19108922371129369 0 0.44722728191573419 -0.18301552408718219 0 0.44412948396601432 -0.2021026180023433 0 0.44722728191573419 -0.18301552408718219 0 0.44412948396601432 -0.2021026180023433 0 0.46174924758966779 -0.19782266932609191 0 0.44412948396601432 -0.2021026180023433 0 0.46174924758966779 -0.19782266932609191 0 0.45571834873958472 -0.21562032477110249 0 0.46174924758966779 -0.19782266932609191 0 0.45571834873958472 -0.21562032477110249 0 0.46992960144061008 -0.21426918815577109 0 0.46992960144061008 -0.21426918815577109 0 0.48351544340437169 -0.2113127604489492 0 0.47938106086962129 -0.19458011134506409 0 0.46992960144061008 -0.21426918815577109 0 0.48351544340437169 -0.2113127604489492 0 0.48475111130725518 -0.22538076252897021 0 0.46174924758966779 -0.19782266932609191 0 0.46992960144061008 -0.21426918815577109 0 0.47938106086962129 -0.19458011134506409 0 0.4699873316436225 -0.17415301566311031 0 0.46174924758966779 -0.19782266932609191 0 0.47938106086962129 -0.19458011134506409 0 0.5 -0.18561530594233311 0 0.47938106086962129 -0.19458011134506409 0 0.5 -0.21102097976599149 0 0.48351544340437169 -0.2113127604489492 0 0.47938106086962129 -0.19458011134506409 0 0.5 -0.21102097976599149 0 0.48351544340437169 -0.2113127604489492 0 0.5 -0.21102097976599149 0 0.48475111130725518 -0.22538076252897021 0 0.5 -0.21102097976599149 0 0.48475111130725518 -0.22538076252897021 0 0.5 -0.2364266535896499 0 0.48475111130725518 -0.22538076252897021 0 0.48964087308934212 -0.23798216386882631 0 0.5 -0.2364266535896499 0 0.46667560241285999 -0.22703667211739889 0 0.46992960144061008 -0.21426918815577109 0 0.48475111130725518 -0.22538076252897021 0 0.46667560241285999 -0.22703667211739889 0 0.48475111130725518 -0.22538076252897021 0 0.4745500348534854 -0.2412072705099646 0 0.48475111130725518 -0.22538076252897021 0 0.4745500348534854 -0.2412072705099646 0 0.48964087308934212 -0.23798216386882631 0 0.4745500348534854 -0.2412072705099646 0 0.48143273945861781 -0.25442098505650512 0 0.46640431407002331 -0.25206135917605449 0 0.4745500348534854 -0.2412072705099646 0 0.5 -0.2489139688467204 0 0.4745500348534854 -0.2412072705099646 0 0.48964087308934212 -0.23798216386882631 0 0.5 -0.2489139688467204 0 0.4745500348534854 -0.2412072705099646 0 0.5 -0.2489139688467204 0 0.48143273945861781 -0.25442098505650512 0 0.48964087308934212 -0.23798216386882631 0 0.5 -0.2364266535896499 0 0.5 -0.2489139688467204 0 0.5 -0.2489139688467204 0 0.5 -0.2618323274133082 0 0.490873683580765 -0.25794045052314868 0 0.5 -0.2489139688467204 0 0.490873683580765 -0.25794045052314868 0 0.48143273945861781 -0.25442098505650512 0 0.5 -0.2618323274133082 0 0.490873683580765 -0.25794045052314868 0 0.48279964866781422 -0.26659452077606127 0 0.490873683580765 -0.25794045052314868 0 0.48279964866781422 -0.26659452077606127 0 0.48143273945861781 -0.25442098505650512 0 0.5 -0.2618323274133082 0 0.49067808406443381 -0.27499056746876199 0 0.5 -0.28723800123696652 0 0.5 -0.2618323274133082 0 0.49067808406443381 -0.27499056746876199 0 0.48279964866781422 -0.26659452077606127 0 0.49067808406443381 -0.27499056746876199 0 0.48279964866781422 -0.26659452077606127 0 0.4751644157395355 -0.28487334808176501 0 0.48279964866781422 -0.26659452077606127 0 0.46842704501031868 -0.27180656216036281 0 0.4751644157395355 -0.28487334808176501 0 0.48279964866781422 -0.26659452077606127 0 0.47109379429662018 -0.26247472241397529 0 0.46842704501031868 -0.27180656216036281 0 0.48279964866781422 -0.26659452077606127 0 0.48143273945861781 -0.25442098505650512 0 0.47109379429662018 -0.26247472241397529 0 0.48143273945861781 -0.25442098505650512 0 0.47109379429662018 -0.26247472241397529 0 0.46640431407002331 -0.25206135917605449 0 0.44800265409035289 -0.24708628281250061 0 0.46640431407002331 -0.25206135917605449 0 0.45679581687058379 -0.26663663019054468 0 0.47109379429662018 -0.26247472241397529 0 0.46640431407002331 -0.25206135917605449 0 0.45679581687058379 -0.26663663019054468 0 0.47109379429662018 -0.26247472241397529 0 0.46842704501031868 -0.27180656216036281 0 0.45679581687058379 -0.26663663019054468 0 0.46842704501031868 -0.27180656216036281 0 0.45679581687058379 -0.26663663019054468 0 0.46196615605936131 -0.28142570226880459 0 0.45679581687058379 -0.26663663019054468 0 0.4450858514342293 -0.28749268973027942 0 0.46196615605936131 -0.28142570226880459 0 0.46842704501031868 -0.27180656216036281 0 0.46196615605936131 -0.28142570226880459 0 0.4751644157395355 -0.28487334808176501 0 0.4450858514342293 -0.28749268973027942 0 0.43734342277245569 -0.26480194808961338 0 0.45679581687058379 -0.26663663019054468 0 0.4450858514342293 -0.28749268973027942 0 0.43734342277245569 -0.26480194808961338 0 0.43954689856875112 -0.28495581852488733 0 0.4450858514342293 -0.28749268973027942 0 0.43734342277245569 -0.26480194808961338 0 0.44800265409035289 -0.24708628281250061 0 0.45679581687058379 -0.26663663019054468 0 0.43734342277245569 -0.26480194808961338 0 0.42960099411068242 -0.24211120644894721 0 0.44800265409035289 -0.24708628281250061 0 0.43734342277245569 -0.26480194808961338 0 0.4450858514342293 -0.28749268973027942 0 0.45352681087582791 -0.31223061606524188 0 0.45352681087582791 -0.31223061606524188 0 0.43007315507448352 -0.31780511051973448 0 0.4366908277106315 -0.29816499055017848 0 0.4450858514342293 -0.28749268973027942 0 0.45352681087582791 -0.31223061606524188 0 0.4366908277106315 -0.29816499055017848 0 0.43954689856875112 -0.28495581852488733 0 0.4450858514342293 -0.28749268973027942 0 0.4366908277106315 -0.29816499055017848 0 0.43954689856875112 -0.28495581852488733 0 0.4450858514342293 -0.28749268973027942 0 0.4450858514342293 -0.28749268973027942 0 0.46196615605936131 -0.28142570226880459 0 0.46435765124213912 -0.29631928118107093 0 0.4450858514342293 -0.28749268973027942 0 0.46435765124213912 -0.29631928118107093 0 0.46196615605936131 -0.28142570226880459 0 0.46435765124213912 -0.29631928118107093 0 0.4751644157395355 -0.28487334808176501 0 0.4450858514342293 -0.28749268973027942 0 0.46435765124213912 -0.29631928118107093 0 0.45352681087582791 -0.31223061606524188 0 0.46435765124213912 -0.29631928118107093 0 0.45352681087582791 -0.31223061606524188 0 0.4677049372831561 -0.3082429578430429 0 0.46435765124213912 -0.29631928118107093 0 0.48362945105004868 -0.30514587263186271 0 0.4677049372831561 -0.3082429578430429 0 0.48362945105004868 -0.30514587263186271 0 0.46930583596460851 -0.31927606149399651 0 0.46435765124213912 -0.29631928118107093 0 0.4677049372831561 -0.3082429578430429 0 0.48362945105004868 -0.30514587263186271 0 0.46435765124213912 -0.29631928118107093 0 0.48362945105004868 -0.30514587263186271 0 0.4751644157395355 -0.28487334808176501 0 0.48362945105004868 -0.30514587263186271 0 0.4751644157395355 -0.28487334808176501 0 0.48715376755724049 -0.29006822005031219 0 0.49067808406443381 -0.27499056746876199 0 0.4751644157395355 -0.28487334808176501 0 0.48715376755724049 -0.29006822005031219 0 0.48715376755724049 -0.29006822005031219 0 0.5 -0.28723800123696652 0 0.49999999999999789 -0.31264367506062468 0 0.49067808406443381 -0.27499056746876199 0 0.48715376755724049 -0.29006822005031219 0 0.49067808406443381 -0.27499056746876199 0 0.48715376755724049 -0.29006822005031219 0 0.5 -0.28723800123696652 0 0.48362945105004868 -0.30514587263186271 0 0.48715376755724049 -0.29006822005031219 0 0.49999999999999789 -0.31264367506062468 0 0.48362945105004868 -0.30514587263186271 0 0.49999999999999789 -0.31264367506062468 0 0.48362945105004868 -0.30514587263186271 0 0.48715376755724049 -0.29006822005031219 0 0.48362945105004868 -0.30514587263186271 0 0.49999999999999789 -0.31264367506062468 0 0.47701909040453522 -0.3334261706835146 0 0.49999999999999789 -0.31264367506062468 0 0.5 -0.33038215865954679 0 0.47701909040453522 -0.3334261706835146 0 0.5 -0.33038215865954679 0 0.47701909040453522 -0.3334261706835146 0 0.48753898094434239 -0.34701079457883882 0 0.5 -0.33038215865954679 0 0.49999999999999872 -0.34812064225846878 0 0.48753898094434239 -0.34701079457883882 0 0.47701909040453522 -0.3334261706835146 0 0.46930583596460851 -0.31927606149399651 0 0.46196777031742658 -0.3369685424002043 0 0.48362945105004868 -0.30514587263186271 0 0.47701909040453522 -0.3334261706835146 0 0.48362945105004868 -0.30514587263186271 0 0.47701909040453522 -0.3334261706835146 0 0.46930583596460851 -0.31927606149399651 0 0.49026708455815438 -0.36141853255749817 0 0.49017715711812843 -0.37916071578602528 0 0.47665593957331859 -0.38001517134821589 0 0.4999999999999985 -0.36019729460885169 0 0.49026708455815438 -0.36141853255749817 0 0.49017715711812843 -0.37916071578602528 0 0.4999999999999985 -0.36019729460885169 0 0.49026708455815438 -0.36141853255749817 0 0.49026708455815438 -0.36141853255749817 0 0.49999999999999872 -0.34812064225846878 0 0.49026708455815438 -0.36141853255749817 0 0.49999999999999872 -0.34812064225846878 0 0.48753898094434239 -0.34701079457883882 0 0.4999999999999985 -0.36019729460885169 0 0.49026708455815438 -0.36141853255749817 0 0.49999999999999872 -0.34812064225846878 0 0.47701909040453522 -0.3334261706835146 0 0.47040872975902431 -0.36170646873516721 0 0.46196777031742658 -0.3369685424002043 0 0.47701909040453522 -0.3334261706835146 0 0.47040872975902431 -0.36170646873516721 0 0.47701909040453522 -0.3334261706835146 0 0.48753898094434239 -0.34701079457883882 0 0.47040872975902431 -0.36170646873516721 0 0.49026708455815438 -0.36141853255749817 0 0.48753898094434239 -0.34701079457883882 0 0.47040872975902431 -0.36170646873516721 0 0.47112982429376837 -0.36381978104337859 0 0.47665593957331859 -0.38001517134821589 0 0.49026708455815438 -0.36141853255749817 0 0.47665593957331859 -0.38001517134821589 0 0.49026708455815438 -0.36141853255749817 0 0.47112982429376837 -0.36381978104337859 0 0.47665593957331859 -0.38001517134821589 0 0.49026708455815438 -0.36141853255749817 0 0.47112982429376837 -0.36381978104337859 0 0.49026708455815438 -0.36141853255749817 0 0.47040872975902431 -0.36170646873516721 0 0.47112982429376837 -0.36381978104337859 0 0.47040872975902431 -0.36170646873516721 0 0.47112982429376837 -0.36381978104337859 0 0.47040872975902431 -0.36170646873516721 0 0.45541892069855577 -0.36579110729117048 0 0.44965858129158731 -0.35198347877888259 0 0.47040872975902431 -0.36170646873516721 0 0.47112982429376837 -0.36381978104337859 0 0.45541892069855577 -0.36579110729117048 0 0.47112982429376837 -0.36381978104337859 0 0.45541892069855577 -0.36579110729117048 0 0.47112982429376837 -0.36381978104337859 0 0.45541892069855577 -0.36579110729117048 0 0.4655339955834859 -0.38256144818327897 0 0.47112982429376837 -0.36381978104337859 0 0.4655339955834859 -0.38256144818327897 0 0.47040872975902431 -0.36170646873516721 0 0.44965858129158731 -0.35198347877888259 0 0.46196777031742658 -0.3369685424002043 0 0.47040872975902431 -0.36170646873516721 0 0.46196777031742658 -0.3369685424002043 0 0.44965858129158731 -0.35198347877888259 0 0.44305680175724987 -0.33413293091219409 0 0.43483201001905469 -0.34998225427440588 0 0.44167411938542928 -0.35521456849500033 0 0.44054655086547151 -0.36384952347500421 0 0.43385476130710721 -0.35688414045815459 0 0.44167411938542928 -0.35521456849500033 0 0.44965858129158731 -0.35198347877888259 0 0.43483201001905469 -0.34998225427440588 0 0.44167411938542928 -0.35521456849500033 0 0.44965858129158731 -0.35198347877888259 0 0.44054655086547151 -0.36384952347500421 0 0.44054655086547151 -0.36384952347500421 0 0.44155676913063019 -0.38393501864717999 0 0.45139361138192502 -0.37715638513325289 0 0.45541892069855577 -0.36579110729117048 0 0.44965858129158731 -0.35198347877888259 0 0.44054655086547151 -0.36384952347500421 0 0.45541892069855577 -0.36579110729117048 0 0.44054655086547151 -0.36384952347500421 0 0.45139361138192502 -0.37715638513325289 0 0.45352681087582791 -0.31223061606524188 0 0.46196777031742658 -0.3369685424002043 0 0.45352681087582791 -0.31223061606524188 0 0.46930583596460851 -0.31927606149399651 0 0.46196777031742658 -0.3369685424002043 0 0.45352681087582791 -0.31223061606524188 0 0.4677049372831561 -0.3082429578430429 0 0.46930583596460851 -0.31927606149399651 0 0.44965858129158731 -0.35198347877888259 0 0.46196777031742658 -0.3369685424002043 0 0.44305680175724987 -0.33413293091219409 0 0.45352681087582791 -0.31223061606524188 0 0.44305680175724987 -0.33413293091219409 0 0.43007315507448352 -0.31780511051973448 0 0.45352681087582791 -0.31223061606524188 0 0.46196777031742658 -0.3369685424002043 0 0.44305680175724987 -0.33413293091219409 0 0.43007315507448352 -0.31780511051973448 0 0.42828248296511962 -0.3358275834346961 0 0.42046624077603101 -0.32808946973472292 0 0.43007315507448352 -0.31780511051973448 0 0.42828248296511962 -0.3358275834346961 0 0.44305680175724987 -0.33413293091219409 0 0.42828248296511962 -0.3358275834346961 0 0.43483201001905469 -0.34998225427440588 0 0.44305680175724987 -0.33413293091219409 0 0.43007315507448352 -0.31780511051973448 0 0.42828248296511962 -0.3358275834346961 0 0.42828248296511962 -0.3358275834346961 0 0.41900615868132679 -0.3415764306090921 0 0.42282780515062551 -0.34736948450983912 0 0.42828248296511962 -0.3358275834346961 0 0.41900615868132679 -0.3415764306090921 0 0.42046624077603101 -0.32808946973472292 0 0.41900615868132679 -0.3415764306090921 0 0.40681622288349861 -0.33474450248051291 0 0.42046624077603101 -0.32808946973472292 0 0.41900615868132679 -0.3415764306090921 0 0.40681622288349861 -0.33474450248051291 0 0.41735172781986862 -0.34966214143212648 0 0.40681622288349861 -0.33474450248051291 0 0.41735172781986862 -0.34966214143212648 0 0.40681622288349861 -0.33474450248051291 0 0.41327452311584589 -0.31867899161790297 0 0.42046624077603101 -0.32808946973472292 0 0.43007315507448352 -0.31780511051973448 0 0.41327452311584589 -0.31867899161790297 0 0.41873667311419183 -0.30942144321285181 0 0.43007315507448352 -0.31780511051973448 0 0.41327452311584589 -0.31867899161790297 0 0.42046624077603101 -0.32808946973472292 0 0.42572931540982573 -0.3615242996967043 0 0.44155676913063019 -0.38393501864717999 0 0.42572931540982573 -0.3615242996967043 0 0.42328738503440061 -0.38610145361628911 0 0.44054655086547151 -0.36384952347500421 0 0.42572931540982573 -0.3615242996967043 0 0.44155676913063019 -0.38393501864717999 0 0.42572931540982573 -0.3615242996967043 0 0.42034420781116272 -0.368085830558945 0 0.42145780999090748 -0.37986884918062269 0 0.44054655086547151 -0.36384952347500421 0 0.42572931540982573 -0.3615242996967043 0 0.43385476130710721 -0.35688414045815459 0 0.42572931540982573 -0.3615242996967043 0 0.42153309231453168 -0.36228656637280432 0 0.42034420781116272 -0.368085830558945 0 0.42572931540982573 -0.3615242996967043 0 0.4218347273952594 -0.35600979818800221 0 0.42153309231453168 -0.36228656637280432 0 0.42828248296511962 -0.3358275834346961 0 0.42649181085575549 -0.35385005634965772 0 0.43483201001905469 -0.34998225427440588 0 0.42828248296511962 -0.3358275834346961 0 0.42649181085575549 -0.35385005634965772 0 0.42282780515062551 -0.34736948450983912 0 0.42828248296511962 -0.3358275834346961 0 0.42649181085575549 -0.35385005634965772 0 0.42649181085575549 -0.35385005634965772 0 0.42282780515062551 -0.34736948450983912 0 0.4218347273952594 -0.35600979818800221 0 0.42572931540982573 -0.3615242996967043 0 0.42649181085575549 -0.35385005634965772 0 0.43385476130710721 -0.35688414045815459 0 0.42572931540982573 -0.3615242996967043 0 0.42649181085575549 -0.35385005634965772 0 0.4218347273952594 -0.35600979818800221 0 0.42572931540982573 -0.3615242996967043 0 0.4218347273952594 -0.35600979818800221 0 0.42649181085575549 -0.35385005634965772 0 0.4218347273952594 -0.35600979818800221 0 0.42572931540982573 -0.3615242996967043 0 0.42649181085575549 -0.35385005634965772 0 0.42649181085575549 -0.35385005634965772 0 0.43385476130710721 -0.35688414045815459 0 0.43483201001905469 -0.34998225427440588 0 0.44167411938542928 -0.35521456849500033 0 0.43385476130710721 -0.35688414045815459 0 0.43483201001905469 -0.34998225427440588 0 0.42649181085575549 -0.35385005634965772 0 0.43483201001905469 -0.34998225427440588 0 0.41735172781986862 -0.34966214143212648 0 0.4218347273952594 -0.35600979818800221 0 0.40225227871253311 -0.36509124026997031 0 0.42282780515062551 -0.34736948450983912 0 0.41735172781986862 -0.34966214143212648 0 0.4218347273952594 -0.35600979818800221 0 0.41900615868132679 -0.3415764306090921 0 0.42282780515062551 -0.34736948450983912 0 0.41735172781986862 -0.34966214143212648 0 0.41735172781986862 -0.34966214143212648 0 0.4218347273952594 -0.35600979818800221 0 0.4218347273952594 -0.35600979818800221 0 0.40225227871253311 -0.36509124026997031 0 0.4218347273952594 -0.35600979818800221 0 0.41588156125036069 -0.36434670784165218 0 0.40225227871253311 -0.36509124026997031 0 0.4218347273952594 -0.35600979818800221 0 0.42153309231453168 -0.36228656637280432 0 0.41588156125036069 -0.36434670784165218 0 0.42153309231453168 -0.36228656637280432 0 0.41588156125036069 -0.36434670784165218 0 0.42034420781116272 -0.368085830558945 0 0.41588156125036069 -0.36434670784165218 0 0.4100072760820086 -0.37354145367211861 0 0.40225227871253311 -0.36509124026997031 0 0.41711926009018852 -0.37240272970294103 0 0.42034420781116272 -0.368085830558945 0 0.42145780999090748 -0.37986884918062269 0 0.41588156125036069 -0.36434670784165218 0 0.41711926009018852 -0.37240272970294103 0 0.42034420781116272 -0.368085830558945 0 0.41588156125036069 -0.36434670784165218 0 0.4100072760820086 -0.37354145367211861 0 0.41711926009018852 -0.37240272970294103 0 0.4100072760820086 -0.37354145367211861 0 0.41711926009018852 -0.37240272970294103 0 0.41508860425551752 -0.37843703137258178 0 0.40225227871253311 -0.36509124026997031 0 0.38266983002980592 -0.37417268235193613 0 0.3983028975424624 -0.3804602052518341 0 0.40225227871253311 -0.36509124026997031 0 0.38266983002980592 -0.37417268235193613 0 0.40225227871253311 -0.36509124026997031 0 0.38977556297617372 -0.35151105153008372 0 0.38266983002980592 -0.37417268235193613 0 0.4100072760820086 -0.37354145367211861 0 0.40225227871253311 -0.36509124026997031 0 0.3983028975424624 -0.3804602052518341 0 0.40681622288349861 -0.33474450248051291 0 0.41735172781986862 -0.34966214143212648 0 0.38977556297617372 -0.35151105153008372 0 0.41735172781986862 -0.34966214143212648 0 0.40225227871253311 -0.36509124026997031 0 0.38977556297617372 -0.35151105153008372 0 0.41735172781986862 -0.34966214143212648 0 0.38977556297617372 -0.35151105153008372 0 0.38977556297617372 -0.35151105153008372 0 0.36219939813247881 -0.35335996162803979 0 0.38977556297617372 -0.35151105153008372 0 0.38266983002980592 -0.37417268235193613 0 0.36219939813247881 -0.35335996162803979 0 0.41327452311584589 -0.31867899161790297 0 0.3962807179471281 -0.31982686352889972 0 0.40865349400908563 -0.30324293265952218 0 0.40681622288349861 -0.33474450248051291 0 0.41327452311584589 -0.31867899161790297 0 0.3962807179471281 -0.31982686352889972 0 0.40681622288349861 -0.33474450248051291 0 0.3962807179471281 -0.31982686352889972 0 0.40681622288349861 -0.33474450248051291 0 0.3962807179471281 -0.31982686352889972 0 0.3898348993928491 -0.33357686260329977 0 0.40681622288349861 -0.33474450248051291 0 0.38977556297617372 -0.35151105153008372 0 0.3898348993928491 -0.33357686260329977 0 0.38977556297617372 -0.35151105153008372 0 0.3898348993928491 -0.33357686260329977 0 0.37083268238727779 -0.33422922485238399 0 0.3898348993928491 -0.33357686260329977 0 0.37862028171990808 -0.31513135188394648 0 0.37083268238727779 -0.33422922485238399 0 0.3962807179471281 -0.31982686352889972 0 0.3898348993928491 -0.33357686260329977 0 0.37862028171990808 -0.31513135188394648 0 0.3962807179471281 -0.31982686352889972 0 0.37862028171990808 -0.31513135188394648 0 0.38278510882245331 -0.29759431680783499 0 0.3962807179471281 -0.31982686352889972 0 0.39699180875604673 -0.29608769841802568 0 0.40865349400908563 -0.30324293265952218 0 0.3962807179471281 -0.31982686352889972 0 0.38278510882245331 -0.29759431680783499 0 0.39699180875604673 -0.29608769841802568 0 0.4044341670943008 -0.28778830843969688 0 0.39237999726913819 -0.2817924342807151 0 0.40859174584949259 -0.27472382393541939 0 0.38278510882245331 -0.29759431680783499 0 0.39699180875604673 -0.29608769841802568 0 0.39237999726913819 -0.2817924342807151 0 0.4044341670943008 -0.28778830843969688 0 0.39699180875604673 -0.29608769841802568 0 0.40865349400908563 -0.30324293265952218 0 0.4044341670943008 -0.28778830843969688 0 0.39699180875604673 -0.29608769841802568 0 0.39237999726913819 -0.2817924342807151 0 0.38278510882245331 -0.29759431680783499 0 0.39237999726913819 -0.2817924342807151 0 0.37323928385444372 -0.27381667736195942 0 0.39237999726913819 -0.2817924342807151 0 0.39386732101041277 -0.26390384240082931 0 0.37323928385444372 -0.27381667736195942 0 0.38469917524310338 -0.24673457812362551 0 0.37323928385444372 -0.27381667736195942 0 0.38469917524310338 -0.24673457812362551 0 0.39386732101041277 -0.26390384240082931 0 0.37323928385444372 -0.27381667736195942 0 0.38469917524310338 -0.24673457812362551 0 0.37899025053266361 -0.25208212774400213 0 0.37323928385444372 -0.27381667736195942 0 0.38469917524310338 -0.24673457812362551 0 0.39908851497546871 -0.24826550450183629 0 0.39386732101041277 -0.26390384240082931 0 0.39908851497546871 -0.24826550450183629 0 0.39386732101041277 -0.26390384240082931 0 0.40678592622458509 -0.25984498153123098 0 0.39237999726913819 -0.2817924342807151 0 0.39386732101041277 -0.26390384240082931 0 0.40859174584949259 -0.27472382393541939 0 0.39386732101041277 -0.26390384240082931 0 0.40859174584949259 -0.27472382393541939 0 0.40678592622458509 -0.25984498153123098 0 0.40859174584949259 -0.27472382393541939 0 0.40678592622458509 -0.25984498153123098 0 0.42134771620072642 -0.26373631741877213 0 0.40859174584949259 -0.27472382393541939 0 0.42159959776370148 -0.2789418572149821 0 0.42134771620072642 -0.26373631741877213 0 0.40859174584949259 -0.27472382393541939 0 0.42159959776370148 -0.2789418572149821 0 0.41600636157236243 -0.28899894080322991 0 0.39908851497546871 -0.24826550450183629 0 0.41479787731583467 -0.24935090651472949 0 0.40678592622458509 -0.25984498153123098 0 0.41479787731583467 -0.24935090651472949 0 0.40678592622458509 -0.25984498153123098 0 0.42134771620072642 -0.26373631741877213 0 0.42960099411068242 -0.24211120644894721 0 0.42134771620072642 -0.26373631741877213 0 0.43734342277245569 -0.26480194808961338 0 0.42960099411068242 -0.24211120644894721 0 0.41479787731583467 -0.24935090651472949 0 0.42134771620072642 -0.26373631741877213 0 0.42960099411068242 -0.24211120644894721 0 0.43734342277245569 -0.26480194808961338 0 0.43954689856875112 -0.28495581852488733 0 0.43734342277245569 -0.26480194808961338 0 0.42976087307175609 -0.27619658233098721 0 0.42134771620072642 -0.26373631741877213 0 0.43734342277245569 -0.26480194808961338 0 0.42976087307175609 -0.27619658233098721 0 0.42159959776370148 -0.2789418572149821 0 0.42976087307175609 -0.27619658233098721 0 0.42896673005314517 -0.28854697040668081 0 0.42159959776370148 -0.2789418572149821 0 0.42134771620072642 -0.26373631741877213 0 0.42976087307175609 -0.27619658233098721 0 0.43954689856875112 -0.28495581852488733 0 0.42976087307175609 -0.27619658233098721 0 0.42896673005314517 -0.28854697040668081 0 0.42159959776370148 -0.2789418572149821 0 0.42896673005314517 -0.28854697040668081 0 0.41600636157236243 -0.28899894080322991 0 0.42896673005314517 -0.28854697040668081 0 0.4366908277106315 -0.29816499055017848 0 0.42294552025735233 -0.29795873805424772 0 0.42896673005314517 -0.28854697040668081 0 0.42294552025735233 -0.29795873805424772 0 0.41600636157236243 -0.28899894080322991 0 0.43954689856875112 -0.28495581852488733 0 0.42896673005314517 -0.28854697040668081 0 0.4366908277106315 -0.29816499055017848 0 0.43007315507448352 -0.31780511051973448 0 0.4366908277106315 -0.29816499055017848 0 0.42294552025735233 -0.29795873805424772 0 0.43007315507448352 -0.31780511051973448 0 0.42294552025735233 -0.29795873805424772 0 0.41873667311419183 -0.30942144321285181 0 0.42294552025735233 -0.29795873805424772 0 0.41873667311419183 -0.30942144321285181 0 0.40865349400908563 -0.30324293265952218 0 0.41327452311584589 -0.31867899161790297 0 0.41873667311419183 -0.30942144321285181 0 0.40865349400908563 -0.30324293265952218 0 0.4044341670943008 -0.28778830843969688 0 0.40865349400908563 -0.30324293265952218 0 0.41600636157236243 -0.28899894080322991 0 0.4044341670943008 -0.28778830843969688 0 0.40859174584949259 -0.27472382393541939 0 0.41600636157236243 -0.28899894080322991 0 0.42294552025735233 -0.29795873805424772 0 0.40865349400908563 -0.30324293265952218 0 0.41600636157236243 -0.28899894080322991 0 0.4407831056616498 -0.4831757731208669 0 0.45691086619727361 -0.5 0 0.4328711323814497 -0.5 0 0.4407831056616498 -0.4831757731208669 0 0.46237456027617357 -0.46373491128687278 0 0.44928822037453942 -0.4600330266044097 0 0.4407831056616498 -0.4831757731208669 0 0.46986695717750859 -0.47836194924269732 0 0.46237456027617357 -0.46373491128687278 0 0.4407831056616498 -0.4831757731208669 0 0.46986695717750859 -0.47836194924269732 0 0.46986695717750859 -0.47836194924269732 0 0.46237456027617357 -0.46373491128687278 0 0.4407831056616498 -0.4831757731208669 0 0.45691086619727361 -0.5 0 0.46986695717750859 -0.47836194924269732 0 0.48095060001309758 -0.50000000000000222 0 0.46986695717750859 -0.47836194924269732 0 0.48095060001309758 -0.50000000000000222 0 0.4892635314749596 -0.48784489471672737 0 0.46986695717750859 -0.47836194924269732 0 0.45691086619727361 -0.5 0 0.48095060001309758 -0.50000000000000222 0 0.46986695717750859 -0.47836194924269732 0 0.48095060001309758 -0.50000000000000222 0 0.5 -0.5 0 0.4892635314749596 -0.48784489471672737 0 0.5 -0.5 0 0.4892635314749596 -0.48784489471672737 0 0.49999999999999972 -0.47337446809764377 0 0.49999999999999972 -0.47337446809764377 0 0.48493347858875402 -0.47586820867016999 0 0.4884777373103551 -0.45925191089868211 0 0.49999999999999972 -0.47337446809764377 0 0.48493347858875402 -0.47586820867016999 0 0.4892635314749596 -0.48784489471672737 0 0.49999999999999972 -0.47337446809764377 0 0.48493347858875402 -0.47586820867016999 0 0.48493347858875402 -0.47586820867016999 0 0.46986695717750859 -0.47836194924269732 0 0.47535793864441372 -0.46597487372255719 0 0.4892635314749596 -0.48784489471672737 0 0.48493347858875402 -0.47586820867016999 0 0.46986695717750859 -0.47836194924269732 0 0.48493347858875402 -0.47586820867016999 0 0.46986695717750859 -0.47836194924269732 0 0.46986695717750859 -0.47836194924269732 0 0.47535793864441372 -0.46597487372255719 0 0.46237456027617357 -0.46373491128687278 0 0.48493347858875402 -0.47586820867016999 0 0.47535793864441372 -0.46597487372255719 0 0.4884777373103551 -0.45925191089868211 0 0.47535793864441372 -0.46597487372255719 0 0.4884777373103551 -0.45925191089868211 0 0.47113695986927723 -0.45265738851436471 0 0.47535793864441372 -0.46597487372255719 0 0.47113695986927723 -0.45265738851436471 0 0.46237456027617357 -0.46373491128687278 0 0.49999999999999972 -0.47337446809764377 0 0.4884777373103551 -0.45925191089868211 0 0.5 -0.44508017472544581 0 0.4884777373103551 -0.45925191089868211 0 0.5 -0.44508017472544581 0 0.48368691934127628 -0.44358876790888052 0 0.5 -0.44508017472544581 0 0.48368691934127628 -0.44358876790888052 0 0.4871224012014822 -0.42864895662029417 0 0.4884777373103551 -0.45925191089868211 0 0.48368691934127628 -0.44358876790888052 0 0.47113695986927723 -0.45265738851436471 0 0.48368691934127628 -0.44358876790888052 0 0.47113695986927723 -0.45265738851436471 0 0.46690404956558229 -0.44131522230895198 0 0.47113695986927723 -0.45265738851436471 0 0.46690404956558229 -0.44131522230895198 0 0.45488216337483889 -0.44910787333104818 0 0.46690404956558229 -0.44131522230895198 0 0.45488216337483889 -0.44910787333104818 0 0.45330553450465549 -0.43487697869176012 0 0.47113695986927723 -0.45265738851436471 0 0.45488216337483889 -0.44910787333104818 0 0.46237456027617357 -0.46373491128687278 0 0.45488216337483889 -0.44910787333104818 0 0.46237456027617357 -0.46373491128687278 0 0.45488216337483889 -0.44910787333104818 0 0.46237456027617357 -0.46373491128687278 0 0.44928822037453942 -0.4600330266044097 0 0.44928822037453942 -0.4600330266044097 0 0.44489739189279293 -0.44421429420312109 0 0.43705956813233399 -0.45760448097719097 0 0.4407831056616498 -0.4831757731208669 0 0.44928822037453942 -0.4600330266044097 0 0.43705956813233399 -0.45760448097719097 0 0.45488216337483889 -0.44910787333104818 0 0.44928822037453942 -0.4600330266044097 0 0.44489739189279293 -0.44421429420312109 0 0.44489739189279293 -0.44421429420312109 0 0.4314699149509954 -0.44175194508958598 0 0.43705956813233399 -0.45760448097719097 0 0.45488216337483889 -0.44910787333104818 0 0.44489739189279293 -0.44421429420312109 0 0.45330553450465549 -0.43487697869176012 0 0.44489739189279293 -0.44421429420312109 0 0.44442706890121431 -0.42404884134362009 0 0.45330553450465549 -0.43487697869176012 0 0.44489739189279293 -0.44421429420312109 0 0.44442706890121431 -0.42404884134362009 0 0.4314699149509954 -0.44175194508958598 0 0.44442706890121431 -0.42404884134362009 0 0.45933042213445002 -0.40910143828853252 0 0.45330553450465549 -0.43487697869176012 0 0.44442706890121431 -0.42404884134362009 0 0.4314699149509954 -0.44175194508958598 0 0.44442706890121431 -0.42404884134362009 0 0.4408136074801694 -0.41169222202823219 0 0.4309340001047538 -0.42629190783467108 0 0.44442706890121431 -0.42404884134362009 0 0.45738422285143487 -0.40634573759765558 0 0.44442706890121431 -0.42404884134362009 0 0.4408136074801694 -0.41169222202823219 0 0.45738422285143487 -0.40634573759765558 0 0.45933042213445002 -0.40910143828853252 0 0.47150867073786318 -0.42634510309870649 0 0.44442706890121431 -0.42404884134362009 0 0.45933042213445002 -0.40910143828853252 0 0.45738422285143487 -0.40634573759765558 0 0.45933042213445002 -0.40910143828853252 0 0.47150867073786318 -0.42634510309870649 0 0.46910012085780101 -0.40913325246664878 0 0.45933042213445002 -0.40910143828853252 0 0.45738422285143487 -0.40634573759765558 0 0.45933042213445002 -0.40910143828853252 0 0.46910012085780101 -0.40913325246664878 0 0.46118994992803458 -0.40114604779503538 0 0.45933042213445002 -0.40910143828853252 0 0.45330553450465549 -0.43487697869176012 0 0.47150867073786318 -0.42634510309870649 0 0.46690404956558229 -0.44131522230895198 0 0.45330553450465549 -0.43487697869176012 0 0.47150867073786318 -0.42634510309870649 0 0.45933042213445002 -0.40910143828853252 0 0.45330553450465549 -0.43487697869176012 0 0.48368691934127628 -0.44358876790888052 0 0.46690404956558229 -0.44131522230895198 0 0.47150867073786318 -0.42634510309870649 0 0.48368691934127628 -0.44358876790888052 0 0.47150867073786318 -0.42634510309870649 0 0.4871224012014822 -0.42864895662029417 0 0.48368691934127628 -0.44358876790888052 0 0.47150867073786318 -0.42634510309870649 0 0.47150867073786318 -0.42634510309870649 0 0.4871224012014822 -0.42864895662029417 0 0.48041641592827139 -0.41144485601519071 0 0.5 -0.44508017472544581 0 0.4871224012014822 -0.42864895662029417 0 0.5 -0.41678588135324762 0 0.4871224012014822 -0.42864895662029417 0 0.5 -0.41678588135324762 0 0.48041641592827139 -0.41144485601519071 0 0.5 -0.41678588135324762 0 0.48041641592827139 -0.41144485601519071 0 0.48710041852014729 -0.39671022483372992 0 0.47150867073786318 -0.42634510309870649 0 0.48041641592827139 -0.41144485601519071 0 0.46910012085780101 -0.40913325246664878 0 0.47305514556038558 -0.39762881713577858 0 0.47665593957331859 -0.38001517134821589 0 0.46118994992803458 -0.40114604779503538 0 0.48041641592827139 -0.41144485601519071 0 0.46910012085780101 -0.40913325246664878 0 0.47305514556038558 -0.39762881713577858 0 0.47305514556038558 -0.39762881713577858 0 0.48710041852014729 -0.39671022483372992 0 0.47895379251409842 -0.38674949073108761 0 0.48041641592827139 -0.41144485601519071 0 0.47305514556038558 -0.39762881713577858 0 0.48710041852014729 -0.39671022483372992 0 0.5 -0.41678588135324762 0 0.48710041852014729 -0.39671022483372992 0 0.5 -0.38849158798104971 0 0.4999999999999985 -0.36019729460885169 0 0.5 -0.38849158798104971 0 0.49017715711812843 -0.37916071578602528 0 0.48710041852014729 -0.39671022483372992 0 0.5 -0.38849158798104971 0 0.49017715711812843 -0.37916071578602528 0 0.48710041852014729 -0.39671022483372992 0 0.49017715711812843 -0.37916071578602528 0 0.47895379251409842 -0.38674949073108761 0 0.49017715711812843 -0.37916071578602528 0 0.47665593957331859 -0.38001517134821589 0 0.47895379251409842 -0.38674949073108761 0 0.47665593957331859 -0.38001517134821589 0 0.46118994992803458 -0.40114604779503538 0 0.47112982429376837 -0.36381978104337859 0 0.47665593957331859 -0.38001517134821589 0 0.4655339955834859 -0.38256144818327897 0 0.47305514556038558 -0.39762881713577858 0 0.47665593957331859 -0.38001517134821589 0 0.47895379251409842 -0.38674949073108761 0 0.47665593957331859 -0.38001517134821589 0 0.47895379251409842 -0.38674949073108761 0 0.47665593957331859 -0.38001517134821589 0 0.4655339955834859 -0.38256144818327897 0 0.46118994992803458 -0.40114604779503538 0 0.45541892069855577 -0.36579110729117048 0 0.4655339955834859 -0.38256144818327897 0 0.45139361138192502 -0.37715638513325289 0 0.4655339955834859 -0.38256144818327897 0 0.45391182063148111 -0.38964482806963069 0 0.45139361138192502 -0.37715638513325289 0 0.4655339955834859 -0.38256144818327897 0 0.45391182063148111 -0.38964482806963069 0 0.46118994992803458 -0.40114604779503538 0 0.45738422285143487 -0.40634573759765558 0 0.45391182063148111 -0.38964482806963069 0 0.46118994992803458 -0.40114604779503538 0 0.4655339955834859 -0.38256144818327897 0 0.46118994992803458 -0.40114604779503538 0 0.46910012085780101 -0.40913325246664878 0 0.47305514556038558 -0.39762881713577858 0 0.46118994992803458 -0.40114604779503538 0 0.45933042213445002 -0.40910143828853252 0 0.45738422285143487 -0.40634573759765558 0 0.46118994992803458 -0.40114604779503538 0 0.45933042213445002 -0.40910143828853252 0 0.46118994992803458 -0.40114604779503538 0 0.45738422285143487 -0.40634573759765558 0 0.46118994992803458 -0.40114604779503538 0 0.45738422285143487 -0.40634573759765558 0 0.45391182063148111 -0.38964482806963069 0 0.44155676913063019 -0.38393501864717999 0 0.45738422285143487 -0.40634573759765558 0 0.44155676913063019 -0.38393501864717999 0 0.45738422285143487 -0.40634573759765558 0 0.44155676913063019 -0.38393501864717999 0 0.43644445345610922 -0.39945609074562388 0 0.4408136074801694 -0.41169222202823219 0 0.45738422285143487 -0.40634573759765558 0 0.43644445345610922 -0.39945609074562388 0 0.45391182063148111 -0.38964482806963069 0 0.44155676913063019 -0.38393501864717999 0 0.45139361138192502 -0.37715638513325289 0 0.44155676913063019 -0.38393501864717999 0 0.42328738503440061 -0.38610145361628911 0 0.43644445345610922 -0.39945609074562388 0 0.42572931540982573 -0.3615242996967043 0 0.44155676913063019 -0.38393501864717999 0 0.42328738503440061 -0.38610145361628911 0 0.42572931540982573 -0.3615242996967043 0 0.42328738503440061 -0.38610145361628911 0 0.42145780999090748 -0.37986884918062269 0 0.42328738503440061 -0.38610145361628911 0 0.42169107766799302 -0.38346076317646272 0 0.42145780999090748 -0.37986884918062269 0 0.42328738503440061 -0.38610145361628911 0 0.42169107766799302 -0.38346076317646272 0 0.42127486377495948 -0.38636186339386341 0 0.42328738503440061 -0.38610145361628911 0 0.43644445345610922 -0.39945609074562388 0 0.42084545465897399 -0.41067860753587387 0 0.42328738503440061 -0.38610145361628911 0 0.42084545465897399 -0.41067860753587387 0 0.42127486377495948 -0.38636186339386341 0 0.40358841900422998 -0.39716118197164452 0 0.42328738503440061 -0.38610145361628911 0 0.41690458708061029 -0.39773444619456511 0 0.42084545465897399 -0.41067860753587387 0 0.41690458708061029 -0.39773444619456511 0 0.40988734062933191 -0.39943332957723843 0 0.42127486377495948 -0.38636186339386341 0 0.40988734062933191 -0.39943332957723843 0 0.42127486377495948 -0.38636186339386341 0 0.40358841900422998 -0.39716118197164452 0 0.41690458708061029 -0.39773444619456511 0 0.40957467403518882 -0.40667797013483109 0 0.42084545465897399 -0.41067860753587387 0 0.41690458708061029 -0.39773444619456511 0 0.40988734062933191 -0.39943332957723843 0 0.40957467403518882 -0.40667797013483109 0 0.40988734062933191 -0.39943332957723843 0 0.40184458401380302 -0.40484916669907939 0 0.40957467403518882 -0.40667797013483109 0 0.41071002308959792 -0.38372456977989189 0 0.41529031488844148 -0.38479644230905907 0 0.40358841900422998 -0.39716118197164452 0 0.41529031488844148 -0.38479644230905907 0 0.42127486377495948 -0.38636186339386341 0 0.40358841900422998 -0.39716118197164452 0 0.42328738503440061 -0.38610145361628911 0 0.41690458708061029 -0.39773444619456511 0 0.42127486377495948 -0.38636186339386341 0 0.41529031488844148 -0.38479644230905907 0 0.41979000335448158 -0.38407856815543651 0 0.42127486377495948 -0.38636186339386341 0 0.41529031488844148 -0.38479644230905907 0 0.41979000335448158 -0.38407856815543651 0 0.42145780999090748 -0.37986884918062269 0 0.41979000335448158 -0.38407856815543651 0 0.42169107766799302 -0.38346076317646272 0 0.42127486377495948 -0.38636186339386341 0 0.41979000335448158 -0.38407856815543651 0 0.42169107766799302 -0.38346076317646272 0 0.42145780999090748 -0.37986884918062269 0 0.41529031488844148 -0.38479644230905907 0 0.42145780999090748 -0.37986884918062269 0 0.41508860425551752 -0.37843703137258178 0 0.41711926009018852 -0.37240272970294103 0 0.42145780999090748 -0.37986884918062269 0 0.41508860425551752 -0.37843703137258178 0 0.4100072760820086 -0.37354145367211861 0 0.41071002308959792 -0.38372456977989189 0 0.41508860425551752 -0.37843703137258178 0 0.4100072760820086 -0.37354145367211861 0 0.41071002308959792 -0.38372456977989189 0 0.3983028975424624 -0.3804602052518341 0 0.41071002308959792 -0.38372456977989189 0 0.41529031488844148 -0.38479644230905907 0 0.41508860425551752 -0.37843703137258178 0 0.41071002308959792 -0.38372456977989189 0 0.3983028975424624 -0.3804602052518341 0 0.39830599866154898 -0.39584253516465862 0 0.41071002308959792 -0.38372456977989189 0 0.39830599866154898 -0.39584253516465862 0 0.3983028975424624 -0.3804602052518341 0 0.38938999496167942 -0.38819535081798218 0 0.39830599866154898 -0.39584253516465862 0 0.38266983002980592 -0.37417268235193613 0 0.3983028975424624 -0.3804602052518341 0 0.38938999496167942 -0.38819535081798218 0 0.38266983002980592 -0.37417268235193613 0 0.38938999496167942 -0.38819535081798218 0 0.37758169743926723 -0.39101374834957381 0 0.37699423977061147 -0.40174788005984818 0 0.37758169743926723 -0.39101374834957381 0 0.38603976011532071 -0.39718251025953499 0 0.38938999496167942 -0.38819535081798218 0 0.37758169743926723 -0.39101374834957381 0 0.38603976011532071 -0.39718251025953499 0 0.38603976011532071 -0.39718251025953499 0 0.39830599866154898 -0.39584253516465862 0 0.38590197423350042 -0.40796050054942529 0 0.37699423977061147 -0.40174788005984818 0 0.38603976011532071 -0.39718251025953499 0 0.38590197423350042 -0.40796050054942529 0 0.40358841900422998 -0.39716118197164452 0 0.40184458401380302 -0.40484916669907939 0 0.38590197423350042 -0.40796050054942529 0 0.39830599866154898 -0.39584253516465862 0 0.38590197423350042 -0.40796050054942529 0 0.40358841900422998 -0.39716118197164452 0 0.38590197423350042 -0.40796050054942529 0 0.39830599866154898 -0.39584253516465862 0 0.40358841900422998 -0.39716118197164452 0 0.38590197423350042 -0.40796050054942529 0 0.38938999496167942 -0.38819535081798218 0 0.38603976011532071 -0.39718251025953499 0 0.39830599866154898 -0.39584253516465862 0 0.41071002308959792 -0.38372456977989189 0 0.39830599866154898 -0.39584253516465862 0 0.40358841900422998 -0.39716118197164452 0 0.40988734062933191 -0.39943332957723843 0 0.40358841900422998 -0.39716118197164452 0 0.40184458401380302 -0.40484916669907939 0 0.40184458401380302 -0.40484916669907939 0 0.40027051216676413 -0.41301285126225779 0 0.38590197423350042 -0.40796050054942529 0 0.40184458401380302 -0.40484916669907939 0 0.40027051216676413 -0.41301285126225779 0 0.40957467403518882 -0.40667797013483109 0 0.40027051216676413 -0.41301285126225779 0 0.40810082169743778 -0.42117041737596411 0 0.40957467403518882 -0.40667797013483109 0 0.40027051216676413 -0.41301285126225779 0 0.40035067730737378 -0.42046136877925722 0 0.40810082169743778 -0.42117041737596411 0 0.40027051216676413 -0.41301285126225779 0 0.40035067730737378 -0.42046136877925722 0 0.39280197807150052 -0.41969092920491752 0 0.40027051216676413 -0.41301285126225779 0 0.39280197807150052 -0.41969092920491752 0 0.38590197423350042 -0.40796050054942529 0 0.38590197423350042 -0.40796050054942529 0 0.36753082268564791 -0.41917790013299222 0 0.37214609503600549 -0.41292636596743759 0 0.38590197423350042 -0.40796050054942529 0 0.3816946023650537 -0.42180444647423182 0 0.36771952266110158 -0.42572363218808013 0 0.38590197423350042 -0.40796050054942529 0 0.36771952266110158 -0.42572363218808013 0 0.38590197423350042 -0.40796050054942529 0 0.36753082268564791 -0.41917790013299222 0 0.39280197807150052 -0.41969092920491752 0 0.38590197423350042 -0.40796050054942529 0 0.3816946023650537 -0.42180444647423182 0 0.37699423977061147 -0.40174788005984818 0 0.38590197423350042 -0.40796050054942529 0 0.37214609503600549 -0.41292636596743759 0 0.37815122909638049 -0.43494722079882298 0 0.38346066313850202 -0.42817858224743321 0 0.38495090073025662 -0.43359100895577313 0 0.37815122909638049 -0.43494722079882298 0 0.37639000262494893 -0.42821679876015112 0 0.38346066313850202 -0.42817858224743321 0 0.37815122909638049 -0.43494722079882298 0 0.37639000262494893 -0.42821679876015112 0 0.37232084284160788 -0.43097329430103531 0 0.3816946023650537 -0.42180444647423182 0 0.37639000262494893 -0.42821679876015112 0 0.36771952266110158 -0.42572363218808013 0 0.3816946023650537 -0.42180444647423182 0 0.37639000262494893 -0.42821679876015112 0 0.38346066313850202 -0.42817858224743321 0 0.3816946023650537 -0.42180444647423182 0 0.38346066313850202 -0.42817858224743321 0 0.38991474802489262 -0.42701539854577308 0 0.38346066313850202 -0.42817858224743321 0 0.38991474802489262 -0.42701539854577308 0 0.38495090073025662 -0.43359100895577313 0 0.39280197807150052 -0.41969092920491752 0 0.3816946023650537 -0.42180444647423182 0 0.38991474802489262 -0.42701539854577308 0 0.37815122909638049 -0.43494722079882298 0 0.38495090073025662 -0.43359100895577313 0 0.3861303863889734 -0.43993094189489362 0 0.38991474802489262 -0.42701539854577308 0 0.38495090073025662 -0.43359100895577313 0 0.39217795032974578 -0.43437213266126712 0 0.38495090073025662 -0.43359100895577313 0 0.39217795032974578 -0.43437213266126712 0 0.3861303863889734 -0.43993094189489362 0 0.38991474802489262 -0.42701539854577308 0 0.39217795032974578 -0.43437213266126712 0 0.40022939729379292 -0.42797127727388951 0 0.39217795032974578 -0.43437213266126712 0 0.40022939729379292 -0.42797127727388951 0 0.39928940389564382 -0.43812657524122439 0 0.39280197807150052 -0.41969092920491752 0 0.38991474802489262 -0.42701539854577308 0 0.40022939729379292 -0.42797127727388951 0 0.40035067730737378 -0.42046136877925722 0 0.39280197807150052 -0.41969092920491752 0 0.40022939729379292 -0.42797127727388951 0 0.40035067730737378 -0.42046136877925722 0 0.40022939729379292 -0.42797127727388951 0 0.40810082169743778 -0.42117041737596411 0 0.40022939729379292 -0.42797127727388951 0 0.40743838659872728 -0.43440912810247623 0 0.40810082169743778 -0.42117041737596411 0 0.40022939729379292 -0.42797127727388951 0 0.40743838659872728 -0.43440912810247623 0 0.39928940389564382 -0.43812657524122439 0 0.40743838659872728 -0.43440912810247623 0 0.41840352428354749 -0.43525576145545858 0 0.40810082169743778 -0.42117041737596411 0 0.41840352428354749 -0.43525576145545858 0 0.42084545465897399 -0.41067860753587387 0 0.41840352428354749 -0.43525576145545858 0 0.40810082169743778 -0.42117041737596411 0 0.42084545465897399 -0.41067860753587387 0 0.40810082169743778 -0.42117041737596411 0 0.40957467403518882 -0.40667797013483109 0 0.42084545465897399 -0.41067860753587387 0 0.4408136074801694 -0.41169222202823219 0 0.42084545465897399 -0.41067860753587387 0 0.4309340001047538 -0.42629190783467108 0 0.4408136074801694 -0.41169222202823219 0 0.43644445345610922 -0.39945609074562388 0 0.42084545465897399 -0.41067860753587387 0 0.44442706890121431 -0.42404884134362009 0 0.4309340001047538 -0.42629190783467108 0 0.4314699149509954 -0.44175194508958598 0 0.41840352428354749 -0.43525576145545858 0 0.42084545465897399 -0.41067860753587387 0 0.4309340001047538 -0.42629190783467108 0 0.41840352428354749 -0.43525576145545858 0 0.4309340001047538 -0.42629190783467108 0 0.4314699149509954 -0.44175194508958598 0 0.4314699149509954 -0.44175194508958598 0 0.43705956813233399 -0.45760448097719097 0 0.41851276100077722 -0.45945504883555238 0 0.4314699149509954 -0.44175194508958598 0 0.41851276100077722 -0.45945504883555238 0 0.41906225025370469 -0.45715382159873141 0 0.4314699149509954 -0.44175194508958598 0 0.41851276100077722 -0.45945504883555238 0 0.4314699149509954 -0.44175194508958598 0 0.41906225025370469 -0.45715382159873141 0 0.42122432084909212 -0.44849861087970477 0 0.41840352428354749 -0.43525576145545858 0 0.4314699149509954 -0.44175194508958598 0 0.42122432084909212 -0.44849861087970477 0 0.4407831056616498 -0.4831757731208669 0 0.43705956813233399 -0.45760448097719097 0 0.41851276100077722 -0.45945504883555238 0 0.41906225025370469 -0.45715382159873141 0 0.41596159390812099 -0.45983291537504339 0 0.42122432084909212 -0.44849861087970477 0 0.41851276100077722 -0.45945504883555238 0 0.41906225025370469 -0.45715382159873141 0 0.41851276100077722 -0.45945504883555238 0 0.41906225025370469 -0.45715382159873141 0 0.41596159390812099 -0.45983291537504339 0 0.40831001899523051 -0.46221009268094221 0 0.40405713720716657 -0.46641083734393191 0 0.40710053208137598 -0.47504735199943038 0 0.41851276100077722 -0.45945504883555238 0 0.40710053208137598 -0.47504735199943038 0 0.41851276100077722 -0.45945504883555238 0 0.41596159390812099 -0.45983291537504339 0 0.40710053208137598 -0.47504735199943038 0 0.41596159390812099 -0.45983291537504339 0 0.40831001899523051 -0.46221009268094221 0 0.40710053208137598 -0.47504735199943038 0 0.41596159390812099 -0.45983291537504339 0 0.40831001899523051 -0.46221009268094221 0 0.40912042004581012 -0.45226461111767469 0 0.40831001899523051 -0.46221009268094221 0 0.40912042004581012 -0.45226461111767469 0 0.40221089680824229 -0.45939483797394592 0 0.41840352428354749 -0.43525576145545858 0 0.41596159390812099 -0.45983291537504339 0 0.40912042004581012 -0.45226461111767469 0 0.41840352428354749 -0.43525576145545858 0 0.41596159390812099 -0.45983291537504339 0 0.41840352428354749 -0.43525576145545858 0 0.41596159390812099 -0.45983291537504339 0 0.42122432084909212 -0.44849861087970477 0 0.41840352428354749 -0.43525576145545858 0 0.40912042004581012 -0.45226461111767469 0 0.40529682688614838 -0.44531055538313002 0 0.40743838659872728 -0.43440912810247623 0 0.41840352428354749 -0.43525576145545858 0 0.40529682688614838 -0.44531055538313002 0 0.40529682688614838 -0.44531055538313002 0 0.39928940389564382 -0.43812657524122439 0 0.39690020438129309 -0.44447379816121663 0 0.40743838659872728 -0.43440912810247623 0 0.40529682688614838 -0.44531055538313002 0 0.39928940389564382 -0.43812657524122439 0 0.40529682688614838 -0.44531055538313002 0 0.39783971187255762 -0.45106561458460998 0 0.39690020438129309 -0.44447379816121663 0 0.40912042004581012 -0.45226461111767469 0 0.40529682688614838 -0.44531055538313002 0 0.40361696390318957 -0.45200890476484012 0 0.40529682688614838 -0.44531055538313002 0 0.40361696390318957 -0.45200890476484012 0 0.39783971187255762 -0.45106561458460998 0 0.39783971187255762 -0.45106561458460998 0 0.39128784575408948 -0.44616156718992239 0 0.38953011211391442 -0.45374077664386853 0 0.39783971187255762 -0.45106561458460998 0 0.39128784575408948 -0.44616156718992239 0 0.39690020438129309 -0.44447379816121663 0 0.39217795032974578 -0.43437213266126712 0 0.39928940389564382 -0.43812657524122439 0 0.39310210539502011 -0.44024905520965218 0 0.39928940389564382 -0.43812657524122439 0 0.39690020438129309 -0.44447379816121663 0 0.39310210539502011 -0.44024905520965218 0 0.39128784575408948 -0.44616156718992239 0 0.39690020438129309 -0.44447379816121663 0 0.39310210539502011 -0.44024905520965218 0 0.39128784575408948 -0.44616156718992239 0 0.3861303863889734 -0.43993094189489362 0 0.38530843661661979 -0.44887825415192317 0 0.3861303863889734 -0.43993094189489362 0 0.38530843661661979 -0.44887825415192317 0 0.37977225633149098 -0.44434215708776897 0 0.39217795032974578 -0.43437213266126712 0 0.39310210539502011 -0.44024905520965218 0 0.3861303863889734 -0.43993094189489362 0 0.39128784575408948 -0.44616156718992239 0 0.39310210539502011 -0.44024905520965218 0 0.3861303863889734 -0.43993094189489362 0 0.38530843661661979 -0.44887825415192317 0 0.38066868940517301 -0.45457143279583623 0 0.38953011211391442 -0.45374077664386853 0 0.39128784575408948 -0.44616156718992239 0 0.38530843661661979 -0.44887825415192317 0 0.38953011211391442 -0.45374077664386853 0 0.38530843661661979 -0.44887825415192317 0 0.37977225633149098 -0.44434215708776897 0 0.38066868940517301 -0.45457143279583623 0 0.37977225633149098 -0.44434215708776897 0 0.38066868940517301 -0.45457143279583623 0 0.37023581309692571 -0.44642385569597343 0 0.37815122909638049 -0.43494722079882298 0 0.37977225633149098 -0.44434215708776897 0 0.37468891866560849 -0.44028982995509569 0 0.37815122909638049 -0.43494722079882298 0 0.3861303863889734 -0.43993094189489362 0 0.37977225633149098 -0.44434215708776897 0 0.37942114110926961 -0.46772090891098922 0 0.38066868940517301 -0.45457143279583623 0 0.37148062025585188 -0.45769442394544518 0 0.38066868940517301 -0.45457143279583623 0 0.38953011211391442 -0.45374077664386853 0 0.38869966918372401 -0.46330227462595081 0 0.37942114110926961 -0.46772090891098922 0 0.38869966918372401 -0.46330227462595081 0 0.38688369032965181 -0.47294671018249118 0 0.37942114110926961 -0.46772090891098922 0 0.38066868940517301 -0.45457143279583623 0 0.38869966918372401 -0.46330227462595081 0 0.38869966918372401 -0.46330227462595081 0 0.39860710094381718 -0.46899106672140911 0 0.38688369032965181 -0.47294671018249118 0 0.38869966918372401 -0.46330227462595081 0 0.39537749818445111 -0.45929891410995688 0 0.39860710094381718 -0.46899106672140911 0 0.38953011211391442 -0.45374077664386853 0 0.38869966918372401 -0.46330227462595081 0 0.39537749818445111 -0.45929891410995688 0 0.39783971187255762 -0.45106561458460998 0 0.38953011211391442 -0.45374077664386853 0 0.39537749818445111 -0.45929891410995688 0 0.40361696390318957 -0.45200890476484012 0 0.39783971187255762 -0.45106561458460998 0 0.40221089680824229 -0.45939483797394592 0 0.39783971187255762 -0.45106561458460998 0 0.39537749818445111 -0.45929891410995688 0 0.40221089680824229 -0.45939483797394592 0 0.40912042004581012 -0.45226461111767469 0 0.40361696390318957 -0.45200890476484012 0 0.40221089680824229 -0.45939483797394592 0 0.40221089680824229 -0.45939483797394592 0 0.40405713720716657 -0.46641083734393191 0 0.39860710094381718 -0.46899106672140911 0 0.39537749818445111 -0.45929891410995688 0 0.40221089680824229 -0.45939483797394592 0 0.39860710094381718 -0.46899106672140911 0 0.40831001899523051 -0.46221009268094221 0 0.40221089680824229 -0.45939483797394592 0 0.40405713720716657 -0.46641083734393191 0 0.40405713720716657 -0.46641083734393191 0 0.39860710094381718 -0.46899106672140911 0 0.40710053208137598 -0.47504735199943038 0 0.39860710094381718 -0.46899106672140911 0 0.39397244007430809 -0.47778544992324379 0 0.40710053208137598 -0.47504735199943038 0 0.39397244007430809 -0.47778544992324379 0 0.39568830316197651 -0.49063965516330937 0 0.40710053208137598 -0.47504735199943038 0 0.39568830316197651 -0.49063965516330937 0 0.40710053208137598 -0.47504735199943038 0 0.39397244007430809 -0.47778544992324379 0 0.38713021251483121 -0.48340703707234922 0 0.39568830316197651 -0.49063965516330937 0 0.39860710094381718 -0.46899106672140911 0 0.39397244007430809 -0.47778544992324379 0 0.38688369032965181 -0.47294671018249118 0 0.38688369032965181 -0.47294671018249118 0 0.38713021251483121 -0.48340703707234922 0 0.38031316106728569 -0.47817051147270462 0 0.39397244007430809 -0.47778544992324379 0 0.38688369032965181 -0.47294671018249118 0 0.38713021251483121 -0.48340703707234922 0 0.38031316106728569 -0.47817051147270462 0 0.37931424996150942 -0.48540808013757802 0 0.3691617762881706 -0.47843053097765958 0 0.38713021251483121 -0.48340703707234922 0 0.38031316106728569 -0.47817051147270462 0 0.37931424996150942 -0.48540808013757802 0 0.37942114110926961 -0.46772090891098922 0 0.38031316106728569 -0.47817051147270462 0 0.3691617762881706 -0.47843053097765958 0 0.37942114110926961 -0.46772090891098922 0 0.38688369032965181 -0.47294671018249118 0 0.38031316106728569 -0.47817051147270462 0 0.38709307574634838 -0.49206229724182288 0 0.38883733336500798 -0.500000000000002 0 0.3722219230034019 -0.4903809681475807 0 0.37931424996150942 -0.48540808013757802 0 0.38709307574634838 -0.49206229724182288 0 0.3722219230034019 -0.4903809681475807 0 0.38713021251483121 -0.48340703707234922 0 0.37931424996150942 -0.48540808013757802 0 0.38709307574634838 -0.49206229724182288 0 0.38713021251483121 -0.48340703707234922 0 0.38709307574634838 -0.49206229724182288 0 0.39568830316197651 -0.49063965516330937 0 0.38709307574634838 -0.49206229724182288 0 0.38883733336500798 -0.500000000000002 0 0.39568830316197651 -0.49063965516330937 0 0.39568830316197651 -0.49063965516330937 0 0.40883139856562573 -0.50000000000000089 0 0.41169925414579173 -0.48798959699903949 0 0.39568830316197651 -0.49063965516330937 0 0.41169925414579173 -0.48798959699903949 0 0.39568830316197651 -0.49063965516330937 0 0.41169925414579173 -0.48798959699903949 0 0.40710053208137598 -0.47504735199943038 0 0.38883733336500798 -0.500000000000002 0 0.39568830316197651 -0.49063965516330937 0 0.38883733336500798 -0.500000000000002 0 0.39568830316197651 -0.49063965516330937 0 0.40883139856562573 -0.50000000000000089 0 0.38709307574634838 -0.49206229724182288 0 0.39568830316197651 -0.49063965516330937 0 0.40883139856562573 -0.50000000000000089 0 0.41169925414579173 -0.48798959699903949 0 0.40883139856562573 -0.50000000000000089 0 0.41169925414579173 -0.48798959699903949 0 0.4328711323814497 -0.5 0 0.41851276100077722 -0.45945504883555238 0 0.41169925414579173 -0.48798959699903949 0 0.41851276100077722 -0.45945504883555238 0 0.41169925414579173 -0.48798959699903949 0 0.40710053208137598 -0.47504735199943038 0 0.4407831056616498 -0.4831757731208669 0 0.41851276100077722 -0.45945504883555238 0 0.41169925414579173 -0.48798959699903949 0 0.4407831056616498 -0.4831757731208669 0 0.41169925414579173 -0.48798959699903949 0 0.4407831056616498 -0.4831757731208669 0 0.41169925414579173 -0.48798959699903949 0 0.4328711323814497 -0.5 0 0.31317216794390601 -0.47901302710404459 0 0.33951602707673378 -0.48113859732541892 0 0.32920018856540312 -0.5 0 0.31317216794390601 -0.47901302710404459 0 0.32920018856540312 -0.5 0 0.29938161616560072 -0.5 0 0.31317216794390601 -0.47901302710404459 0 0.33951602707673378 -0.48113859732541892 0 0.33135461951630452 -0.4612498954653898 0 0.31317216794390601 -0.47901302710404459 0 0.33135461951630452 -0.4612498954653898 0 0.33951602707673378 -0.48113859732541892 0 0.35023932053388152 -0.46602689754517768 0 0.33135461951630452 -0.4612498954653898 0 0.33951602707673378 -0.48113859732541892 0 0.32920018856540312 -0.5 0 0.35901876096520557 -0.5 0 0.33951602707673378 -0.48113859732541892 0 0.35901876096520557 -0.5 0 0.35708722776227608 -0.47936422932011541 0 0.38883733336500798 -0.500000000000002 0 0.35901876096520557 -0.5 0 0.3722219230034019 -0.4903809681475807 0 0.35901876096520557 -0.5 0 0.3722219230034019 -0.4903809681475807 0 0.35708722776227608 -0.47936422932011541 0 0.37931424996150942 -0.48540808013757802 0 0.3722219230034019 -0.4903809681475807 0 0.3691617762881706 -0.47843053097765958 0 0.37942114110926961 -0.46772090891098922 0 0.3691617762881706 -0.47843053097765958 0 0.36916401720291431 -0.46711817260021993 0 0.3722219230034019 -0.4903809681475807 0 0.3691617762881706 -0.47843053097765958 0 0.35708722776227608 -0.47936422932011541 0 0.3691617762881706 -0.47843053097765958 0 0.36097185444164209 -0.46842571410565792 0 0.36916401720291431 -0.46711817260021993 0 0.3691617762881706 -0.47843053097765958 0 0.35708722776227608 -0.47936422932011541 0 0.36097185444164209 -0.46842571410565792 0 0.33951602707673378 -0.48113859732541892 0 0.35708722776227608 -0.47936422932011541 0 0.35023932053388152 -0.46602689754517768 0 0.35708722776227608 -0.47936422932011541 0 0.35023932053388152 -0.46602689754517768 0 0.36097185444164209 -0.46842571410565792 0 0.35023932053388152 -0.46602689754517768 0 0.35097800742011032 -0.45416930041200582 0 0.33135461951630452 -0.4612498954653898 0 0.35023932053388152 -0.46602689754517768 0 0.35097800742011032 -0.45416930041200582 0 0.3618936636845993 -0.45657771909259881 0 0.35023932053388152 -0.46602689754517768 0 0.36097185444164209 -0.46842571410565792 0 0.3618936636845993 -0.45657771909259881 0 0.36097185444164209 -0.46842571410565792 0 0.3618936636845993 -0.45657771909259881 0 0.36916401720291431 -0.46711817260021993 0 0.3618936636845993 -0.45657771909259881 0 0.37148062025585188 -0.45769442394544518 0 0.36916401720291431 -0.46711817260021993 0 0.3618936636845993 -0.45657771909259881 0 0.37148062025585188 -0.45769442394544518 0 0.37023581309692571 -0.44642385569597343 0 0.37942114110926961 -0.46772090891098922 0 0.37148062025585188 -0.45769442394544518 0 0.36916401720291431 -0.46711817260021993 0 0.36186536227706312 -0.44350522613012799 0 0.34953707108870308 -0.44348676382673491 0 0.36771952266110158 -0.42572363218808013 0 0.37468891866560849 -0.44028982995509569 0 0.37023581309692571 -0.44642385569597343 0 0.36925757214864302 -0.43587461699124358 0 0.37977225633149098 -0.44434215708776897 0 0.37468891866560849 -0.44028982995509569 0 0.37023581309692571 -0.44642385569597343 0 0.38066868940517301 -0.45457143279583623 0 0.37148062025585188 -0.45769442394544518 0 0.37023581309692571 -0.44642385569597343 0 0.3618936636845993 -0.45657771909259881 0 0.37023581309692571 -0.44642385569597343 0 0.36186536227706312 -0.44350522613012799 0 0.37023581309692571 -0.44642385569597343 0 0.36186536227706312 -0.44350522613012799 0 0.36925757214864302 -0.43587461699124358 0 0.35097800742011032 -0.45416930041200582 0 0.34953707108870308 -0.44348676382673491 0 0.33135461951630452 -0.4612498954653898 0 0.35097800742011032 -0.45416930041200582 0 0.36186536227706312 -0.44350522613012799 0 0.34953707108870308 -0.44348676382673491 0 0.35097800742011032 -0.45416930041200582 0 0.3618936636845993 -0.45657771909259881 0 0.36186536227706312 -0.44350522613012799 0 0.34953707108870308 -0.44348676382673491 0 0.33135461951630452 -0.4612498954653898 0 0.32592985127774082 -0.44428311331585918 0 0.34953707108870308 -0.44348676382673491 0 0.33135461951630452 -0.4612498954653898 0 0.34953707108870308 -0.44348676382673491 0 0.32592985127774082 -0.44428311331585918 0 0.33535376484568002 -0.43310686311699859 0 0.31317216794390601 -0.47901302710404459 0 0.33135461951630452 -0.4612498954653898 0 0.31133289995487962 -0.45955925675523113 0 0.33135461951630452 -0.4612498954653898 0 0.32592985127774082 -0.44428311331585918 0 0.31133289995487962 -0.45955925675523113 0 0.32592985127774082 -0.44428311331585918 0 0.32344380507064191 -0.43226910668481161 0 0.31029664380548172 -0.43268720073909339 0 0.32765414331097309 -0.42481364213511519 0 0.32344380507064191 -0.43226910668481161 0 0.31798462211333339 -0.42645471411699137 0 0.32765414331097309 -0.42481364213511519 0 0.31798462211333339 -0.42645471411699137 0 0.32418357018123278 -0.41688733670966538 0 0.32344380507064191 -0.43226910668481161 0 0.31798462211333339 -0.42645471411699137 0 0.31029664380548172 -0.43268720073909339 0 0.31798462211333339 -0.42645471411699137 0 0.3151009394481068 -0.41844716190195042 0 0.31062596239285689 -0.42328135981577591 0 0.31798462211333339 -0.42645471411699137 0 0.31062596239285689 -0.42328135981577591 0 0.31029664380548172 -0.43268720073909339 0 0.31391760233165061 -0.4091411309899175 0 0.33022032863764211 -0.40414907529951632 0 0.3113964049805894 -0.40595131652164967 0 0.3151009394481068 -0.41844716190195042 0 0.32047634741089298 -0.41377476096229232 0 0.32418357018123278 -0.41688733670966538 0 0.31391760233165061 -0.4091411309899175 0 0.32047634741089298 -0.41377476096229232 0 0.33526272333976442 -0.41052870423605148 0 0.31391760233165061 -0.4091411309899175 0 0.33526272333976442 -0.41052870423605148 0 0.31798462211333339 -0.42645471411699137 0 0.3151009394481068 -0.41844716190195042 0 0.32418357018123278 -0.41688733670966538 0 0.31391760233165061 -0.4091411309899175 0 0.33526272333976442 -0.41052870423605148 0 0.33022032863764211 -0.40414907529951632 0 0.3151009394481068 -0.41844716190195042 0 0.31443639551841768 -0.41432436766320718 0 0.30825069288302048 -0.41593441679866872 0 0.3151009394481068 -0.41844716190195042 0 0.31443639551841768 -0.41432436766320718 0 0.32047634741089298 -0.41377476096229232 0 0.31443639551841768 -0.41432436766320718 0 0.31391760233165061 -0.4091411309899175 0 0.32047634741089298 -0.41377476096229232 0 0.32047634741089298 -0.41377476096229232 0 0.32418357018123278 -0.41688733670966538 0 0.33526272333976442 -0.41052870423605148 0 0.32765414331097309 -0.42481364213511519 0 0.32418357018123278 -0.41688733670966538 0 0.33067450403746779 -0.4182934716159683 0 0.33559757931790102 -0.420944203383041 0 0.33526272333976442 -0.41052870423605148 0 0.32418357018123278 -0.41688733670966538 0 0.33067450403746779 -0.4182934716159683 0 0.33526272333976442 -0.41052870423605148 0 0.32765414331097309 -0.42481364213511519 0 0.33559757931790102 -0.420944203383041 0 0.33067450403746779 -0.4182934716159683 0 0.33559757931790102 -0.420944203383041 0 0.33067450403746779 -0.4182934716159683 0 0.33526272333976442 -0.41052870423605148 0 0.33559757931790102 -0.420944203383041 0 0.33526272333976442 -0.41052870423605148 0 0.34643743324760262 -0.41984546142506413 0 0.33559757931790102 -0.420944203383041 0 0.34915967113779528 -0.43039529971655882 0 0.34643743324760262 -0.41984546142506413 0 0.33559757931790102 -0.420944203383041 0 0.33535376484568002 -0.43310686311699859 0 0.34915967113779528 -0.43039529971655882 0 0.32765414331097309 -0.42481364213511519 0 0.33559757931790102 -0.420944203383041 0 0.33535376484568002 -0.43310686311699859 0 0.32765414331097309 -0.42481364213511519 0 0.32344380507064191 -0.43226910668481161 0 0.33535376484568002 -0.43310686311699859 0 0.32592985127774082 -0.44428311331585918 0 0.32344380507064191 -0.43226910668481161 0 0.33535376484568002 -0.43310686311699859 0 0.34953707108870308 -0.44348676382673491 0 0.34915967113779528 -0.43039529971655882 0 0.36771952266110158 -0.42572363218808013 0 0.34915967113779528 -0.43039529971655882 0 0.36753082268564791 -0.41917790013299222 0 0.34643743324760262 -0.41984546142506413 0 0.34953707108870308 -0.44348676382673491 0 0.36771952266110158 -0.42572363218808013 0 0.34953707108870308 -0.44348676382673491 0 0.33535376484568002 -0.43310686311699859 0 0.34915967113779528 -0.43039529971655882 0 0.34915967113779528 -0.43039529971655882 0 0.36753082268564791 -0.41917790013299222 0 0.34915967113779528 -0.43039529971655882 0 0.36771952266110158 -0.42572363218808013 0 0.36753082268564791 -0.41917790013299222 0 0.36186536227706312 -0.44350522613012799 0 0.36771952266110158 -0.42572363218808013 0 0.36925757214864302 -0.43587461699124358 0 0.37639000262494893 -0.42821679876015112 0 0.36771952266110158 -0.42572363218808013 0 0.37232084284160788 -0.43097329430103531 0 0.37815122909638049 -0.43494722079882298 0 0.37468891866560849 -0.44028982995509569 0 0.36925757214864302 -0.43587461699124358 0 0.37815122909638049 -0.43494722079882298 0 0.37232084284160788 -0.43097329430103531 0 0.36925757214864302 -0.43587461699124358 0 0.36771952266110158 -0.42572363218808013 0 0.37232084284160788 -0.43097329430103531 0 0.36925757214864302 -0.43587461699124358 0 0.37214609503600549 -0.41292636596743759 0 0.35370440918788493 -0.41172753510174498 0 0.38590197423350042 -0.40796050054942529 0 0.36771952266110158 -0.42572363218808013 0 0.36753082268564791 -0.41917790013299222 0 0.36753082268564791 -0.41917790013299222 0 0.37214609503600549 -0.41292636596743759 0 0.35370440918788493 -0.41172753510174498 0 0.37214609503600549 -0.41292636596743759 0 0.35370440918788493 -0.41172753510174498 0 0.36617754477788128 -0.39901347202927451 0 0.36753082268564791 -0.41917790013299222 0 0.35370440918788493 -0.41172753510174498 0 0.34643743324760262 -0.41984546142506413 0 0.33526272333976442 -0.41052870423605148 0 0.35370440918788493 -0.41172753510174498 0 0.33526272333976442 -0.41052870423605148 0 0.35370440918788493 -0.41172753510174498 0 0.34486358434303138 -0.39807811976605878 0 0.33526272333976442 -0.41052870423605148 0 0.35370440918788493 -0.41172753510174498 0 0.34643743324760262 -0.41984546142506413 0 0.35370440918788493 -0.41172753510174498 0 0.35491911352359029 -0.39582108687068063 0 0.36617754477788128 -0.39901347202927451 0 0.35370440918788493 -0.41172753510174498 0 0.34486358434303138 -0.39807811976605878 0 0.35491911352359029 -0.39582108687068063 0 0.34486358434303138 -0.39807811976605878 0 0.35491911352359029 -0.39582108687068063 0 0.34676264796207518 -0.38703218302242293 0 0.37758169743926723 -0.39101374834957381 0 0.36617754477788128 -0.39901347202927451 0 0.36308738134707857 -0.38325412443390189 0 0.35491911352359029 -0.39582108687068063 0 0.36617754477788128 -0.39901347202927451 0 0.36308738134707857 -0.38325412443390189 0 0.37699423977061147 -0.40174788005984818 0 0.37758169743926723 -0.39101374834957381 0 0.36617754477788128 -0.39901347202927451 0 0.37699423977061147 -0.40174788005984818 0 0.37214609503600549 -0.41292636596743759 0 0.36617754477788128 -0.39901347202927451 0 0.38266983002980592 -0.37417268235193613 0 0.36308738134707857 -0.38325412443390189 0 0.38266983002980592 -0.37417268235193613 0 0.37758169743926723 -0.39101374834957381 0 0.36308738134707857 -0.38325412443390189 0 0.35491911352359029 -0.39582108687068063 0 0.36308738134707857 -0.38325412443390189 0 0.34676264796207518 -0.38703218302242293 0 0.36308738134707857 -0.38325412443390189 0 0.34676264796207518 -0.38703218302242293 0 0.34572285641445522 -0.37181487959985132 0 0.34676264796207518 -0.38703218302242293 0 0.33452228941037349 -0.3874979403748563 0 0.34572285641445522 -0.37181487959985132 0 0.33452228941037349 -0.3874979403748563 0 0.3337818554809826 -0.36446717651366117 0 0.32533261627796828 -0.37468897053810668 0 0.33452228941037349 -0.3874979403748563 0 0.3337818554809826 -0.36446717651366117 0 0.33526272333976442 -0.41052870423605148 0 0.33452228941037349 -0.3874979403748563 0 0.32934050911986729 -0.39871565896522049 0 0.33526272333976442 -0.41052870423605148 0 0.34486358434303138 -0.39807811976605878 0 0.33452228941037349 -0.3874979403748563 0 0.34486358434303138 -0.39807811976605878 0 0.34676264796207518 -0.38703218302242293 0 0.33452228941037349 -0.3874979403748563 0 0.33526272333976442 -0.41052870423605148 0 0.33452228941037349 -0.3874979403748563 0 0.33526272333976442 -0.41052870423605148 0 0.32934050911986729 -0.39871565896522049 0 0.33022032863764211 -0.40414907529951632 0 0.33452228941037349 -0.3874979403748563 0 0.32934050911986729 -0.39871565896522049 0 0.32396554474667572 -0.39184990499487021 0 0.32934050911986729 -0.39871565896522049 0 0.31941672468614452 -0.40294364666542049 0 0.30670965600647943 -0.40295853587529551 0 0.32934050911986729 -0.39871565896522049 0 0.31779224330972761 -0.39605828095972823 0 0.30670965600647943 -0.40295853587529551 0 0.33022032863764211 -0.40414907529951632 0 0.3113964049805894 -0.40595131652164967 0 0.33022032863764211 -0.40414907529951632 0 0.31941672468614452 -0.40294364666542049 0 0.3113964049805894 -0.40595131652164967 0 0.32934050911986729 -0.39871565896522049 0 0.32396554474667572 -0.39184990499487021 0 0.31779224330972761 -0.39605828095972823 0 0.32934050911986729 -0.39871565896522049 0 0.30670965600647943 -0.40295853587529551 0 0.32934050911986729 -0.39871565896522049 0 0.33022032863764211 -0.40414907529951632 0 0.31941672468614452 -0.40294364666542049 0 0.31941672468614452 -0.40294364666542049 0 0.3113964049805894 -0.40595131652164967 0 0.30670965600647943 -0.40295853587529551 0 0.32396554474667572 -0.39184990499487021 0 0.31687367318531162 -0.39115019781439919 0 0.31779224330972761 -0.39605828095972823 0 0.31687367318531162 -0.39115019781439919 0 0.30996593048395038 -0.39061758150033288 0 0.31207183349030398 -0.39561710714885601 0 0.31687367318531162 -0.39115019781439919 0 0.31779224330972761 -0.39605828095972823 0 0.31207183349030398 -0.39561710714885601 0 0.31687367318531162 -0.39115019781439919 0 0.31408219524944703 -0.38459069004051361 0 0.30996593048395038 -0.39061758150033288 0 0.31687367318531162 -0.39115019781439919 0 0.31408219524944703 -0.38459069004051361 0 0.3228982620393761 -0.38421320934420511 0 0.31408219524944703 -0.38459069004051361 0 0.31799925602188239 -0.37804591881414151 0 0.309932965451307 -0.37717425406958838 0 0.31408219524944703 -0.38459069004051361 0 0.31799925602188239 -0.37804591881414151 0 0.3228982620393761 -0.38421320934420511 0 0.33452228941037349 -0.3874979403748563 0 0.3228982620393761 -0.38421320934420511 0 0.32533261627796828 -0.37468897053810668 0 0.31799925602188239 -0.37804591881414151 0 0.3228982620393761 -0.38421320934420511 0 0.32533261627796828 -0.37468897053810668 0 0.33452228941037349 -0.3874979403748563 0 0.32396554474667572 -0.39184990499487021 0 0.3228982620393761 -0.38421320934420511 0 0.32396554474667572 -0.39184990499487021 0 0.31687367318531162 -0.39115019781439919 0 0.3228982620393761 -0.38421320934420511 0 0.29775080826815009 -0.38775846693959198 0 0.30570392189169782 -0.38522476245818787 0 0.30421215130453988 -0.39148636566764811 0 0.29775080826815009 -0.38775846693959198 0 0.29750366587857291 -0.38002110274659712 0 0.30570392189169782 -0.38522476245818787 0 0.29750366587857291 -0.38002110274659712 0 0.309932965451307 -0.37717425406958838 0 0.30570392189169782 -0.38522476245818787 0 0.31408219524944703 -0.38459069004051361 0 0.309932965451307 -0.37717425406958838 0 0.30570392189169782 -0.38522476245818787 0 0.31408219524944703 -0.38459069004051361 0 0.30570392189169782 -0.38522476245818787 0 0.30996593048395038 -0.39061758150033288 0 0.30570392189169782 -0.38522476245818787 0 0.30996593048395038 -0.39061758150033288 0 0.30421215130453988 -0.39148636566764811 0 0.3113964049805894 -0.40595131652164967 0 0.30670965600647943 -0.40295853587529551 0 0.29257248132353669 -0.40775355774378308 0 0.30996593048395038 -0.39061758150033288 0 0.31207183349030398 -0.39561710714885601 0 0.30689252928772742 -0.39529584980616211 0 0.31779224330972761 -0.39605828095972823 0 0.31207183349030398 -0.39561710714885601 0 0.30670965600647943 -0.40295853587529551 0 0.30689252928772742 -0.39529584980616211 0 0.30670965600647943 -0.40295853587529551 0 0.30072726043914338 -0.39609954505382261 0 0.31207183349030398 -0.39561710714885601 0 0.30689252928772742 -0.39529584980616211 0 0.30670965600647943 -0.40295853587529551 0 0.30996593048395038 -0.39061758150033288 0 0.30689252928772742 -0.39529584980616211 0 0.30421215130453988 -0.39148636566764811 0 0.30670965600647943 -0.40295853587529551 0 0.30072726043914338 -0.39609954505382261 0 0.29440688993006042 -0.3999635539567522 0 0.29775080826815009 -0.38775846693959198 0 0.30072726043914338 -0.39609954505382261 0 0.29349436397355672 -0.39494638397666437 0 0.29775080826815009 -0.38775846693959198 0 0.30421215130453988 -0.39148636566764811 0 0.30072726043914338 -0.39609954505382261 0 0.30689252928772742 -0.39529584980616211 0 0.30421215130453988 -0.39148636566764811 0 0.30072726043914338 -0.39609954505382261 0 0.30670965600647943 -0.40295853587529551 0 0.28407880289309162 -0.40720141278536981 0 0.29257248132353669 -0.40775355774378308 0 0.30670965600647943 -0.40295853587529551 0 0.28407880289309162 -0.40720141278536981 0 0.29349436397355672 -0.39494638397666437 0 0.28747856846364478 -0.3920569429238519 0 0.29121008761083778 -0.3869001716484195 0 0.30670965600647943 -0.40295853587529551 0 0.29440688993006042 -0.3999635539567522 0 0.28407880289309162 -0.40720141278536981 0 0.30072726043914338 -0.39609954505382261 0 0.29349436397355672 -0.39494638397666437 0 0.29440688993006042 -0.3999635539567522 0 0.29349436397355672 -0.39494638397666437 0 0.29440688993006042 -0.3999635539567522 0 0.28702436633803108 -0.39861189209260811 0 0.29349436397355672 -0.39494638397666437 0 0.28702436633803108 -0.39861189209260811 0 0.28747856846364478 -0.3920569429238519 0 0.29440688993006042 -0.3999635539567522 0 0.28702436633803108 -0.39861189209260811 0 0.28407880289309162 -0.40720141278536981 0 0.28702436633803108 -0.39861189209260811 0 0.28120520778740998 -0.40156528986636242 0 0.28407880289309162 -0.40720141278536981 0 0.28702436633803108 -0.39861189209260811 0 0.28062036075793101 -0.39407038079694778 0 0.28120520778740998 -0.40156528986636242 0 0.28702436633803108 -0.39861189209260811 0 0.28747856846364478 -0.3920569429238519 0 0.28062036075793101 -0.39407038079694778 0 0.28747856846364478 -0.3920569429238519 0 0.29121008761083778 -0.3869001716484195 0 0.2848694868272964 -0.37739304923589262 0 0.28747856846364478 -0.3920569429238519 0 0.2848694868272964 -0.37739304923589262 0 0.28062036075793101 -0.39407038079694778 0 0.29775080826815009 -0.38775846693959198 0 0.29349436397355672 -0.39494638397666437 0 0.29121008761083778 -0.3869001716484195 0 0.29775080826815009 -0.38775846693959198 0 0.29121008761083778 -0.3869001716484195 0 0.29252344163137439 -0.38137417116992117 0 0.29775080826815009 -0.38775846693959198 0 0.29750366587857291 -0.38002110274659712 0 0.29252344163137439 -0.38137417116992117 0 0.29121008761083778 -0.3869001716484195 0 0.29252344163137439 -0.38137417116992117 0 0.2848694868272964 -0.37739304923589262 0 0.29750366587857291 -0.38002110274659712 0 0.29252344163137439 -0.38137417116992117 0 0.28979638919127809 -0.3769927772479435 0 0.29252344163137439 -0.38137417116992117 0 0.28979638919127809 -0.3769927772479435 0 0.2848694868272964 -0.37739304923589262 0 0.28979638919127809 -0.3769927772479435 0 0.2848694868272964 -0.37739304923589262 0 0.2848694868272964 -0.37739304923589262 0 0.26765825082247469 -0.39327232026981862 0 0.28062036075793101 -0.39407038079694778 0 0.2848694868272964 -0.37739304923589262 0 0.26765825082247469 -0.39327232026981862 0 0.2848694868272964 -0.37739304923589262 0 0.25924715441336921 -0.37947466181385081 0 0.2848694868272964 -0.37739304923589262 0 0.25924715441336921 -0.37947466181385081 0 0.26765825082247469 -0.39327232026981862 0 0.25924715441336921 -0.37947466181385081 0 0.26765825082247469 -0.39327232026981862 0 0.24980309394558189 -0.39062738747504427 0 0.26765825082247469 -0.39327232026981862 0 0.24980309394558189 -0.39062738747504427 0 0.24927021174470429 -0.40052272147365892 0 0.26765825082247469 -0.39327232026981862 0 0.26919599746796352 -0.40999167045612778 0 0.25044701481765341 -0.40915159130374512 0 0.26765825082247469 -0.39327232026981862 0 0.25044701481765341 -0.40915159130374512 0 0.26765825082247469 -0.39327232026981862 0 0.25044701481765341 -0.40915159130374512 0 0.24927021174470429 -0.40052272147365892 0 0.26765825082247469 -0.39327232026981862 0 0.27506464645237438 -0.40065894495450127 0 0.26919599746796352 -0.40999167045612778 0 0.26765825082247469 -0.39327232026981862 0 0.28062036075793101 -0.39407038079694778 0 0.27506464645237438 -0.40065894495450127 0 0.27506464645237438 -0.40065894495450127 0 0.27844483930836478 -0.40683516809943421 0 0.26919599746796352 -0.40999167045612778 0 0.28062036075793101 -0.39407038079694778 0 0.27506464645237438 -0.40065894495450127 0 0.28120520778740998 -0.40156528986636242 0 0.28120520778740998 -0.40156528986636242 0 0.27844483930836478 -0.40683516809943421 0 0.28407880289309162 -0.40720141278536981 0 0.27506464645237438 -0.40065894495450127 0 0.28120520778740998 -0.40156528986636242 0 0.27844483930836478 -0.40683516809943421 0 0.26919599746796352 -0.40999167045612778 0 0.28407880289309162 -0.40720141278536981 0 0.27844483930836478 -0.40683516809943421 0 0.26919599746796352 -0.40999167045612778 0 0.28407880289309162 -0.40720141278536981 0 0.26919599746796352 -0.40999167045612778 0 0.29257248132353669 -0.40775355774378308 0 0.26919599746796352 -0.40999167045612778 0 0.28115135707190309 -0.42544977065294759 0 0.28966792524198448 -0.41838942983147498 0 0.26919599746796352 -0.40999167045612778 0 0.26721799607748942 -0.42548871211072348 0 0.28115135707190309 -0.42544977065294759 0 0.26919599746796352 -0.40999167045612778 0 0.25044701481765341 -0.40915159130374512 0 0.2473917177600676 -0.4120792571051406 0 0.25809645441138762 -0.41956365780611687 0 0.25065589714887798 -0.42254453981180962 0 0.2419172462010902 -0.41510594446541932 0 0.26919599746796352 -0.40999167045612778 0 0.2419172462010902 -0.41510594446541932 0 0.26919599746796352 -0.40999167045612778 0 0.2473917177600676 -0.4120792571051406 0 0.2419172462010902 -0.41510594446541932 0 0.26919599746796352 -0.40999167045612778 0 0.25809645441138762 -0.41956365780611687 0 0.2419172462010902 -0.41510594446541932 0 0.26919599746796352 -0.40999167045612778 0 0.2473917177600676 -0.4120792571051406 0 0.26919599746796352 -0.40999167045612778 0 0.25809645441138762 -0.41956365780611687 0 0.26721799607748942 -0.42548871211072348 0 0.25591807002390587 -0.42994073300465441 0 0.26721799607748942 -0.42548871211072348 0 0.26893956884348108 -0.44512438404284588 0 0.25809645441138762 -0.41956365780611687 0 0.25591807002390587 -0.42994073300465441 0 0.25065589714887798 -0.42254453981180962 0 0.25591807002390587 -0.42994073300465441 0 0.25065589714887798 -0.42254453981180962 0 0.2439032853903231 -0.42819447938012312 0 0.25809645441138762 -0.41956365780611687 0 0.25591807002390587 -0.42994073300465441 0 0.26721799607748942 -0.42548871211072348 0 0.26721799607748942 -0.42548871211072348 0 0.28115135707190309 -0.42544977065294759 0 0.26893956884348108 -0.44512438404284588 0 0.28115135707190309 -0.42544977065294759 0 0.29374207464694851 -0.43103060083699551 0 0.26893956884348108 -0.44512438404284588 0 0.29374207464694851 -0.43103060083699551 0 0.28966792524198448 -0.41838942983147498 0 0.30149691371434212 -0.42288330552217529 0 0.28115135707190309 -0.42544977065294759 0 0.29374207464694851 -0.43103060083699551 0 0.28966792524198448 -0.41838942983147498 0 0.26919599746796352 -0.40999167045612778 0 0.28407880289309162 -0.40720141278536981 0 0.29257248132353669 -0.40775355774378308 0 0.26919599746796352 -0.40999167045612778 0 0.29257248132353669 -0.40775355774378308 0 0.28966792524198448 -0.41838942983147498 0 0.28407880289309162 -0.40720141278536981 0 0.29257248132353669 -0.40775355774378308 0 0.27844483930836478 -0.40683516809943421 0 0.28407880289309162 -0.40720141278536981 0 0.29257248132353669 -0.40775355774378308 0 0.28966792524198448 -0.41838942983147498 0 0.30118112309890688 -0.41482036817720402 0 0.31391760233165061 -0.4091411309899175 0 0.29257248132353669 -0.40775355774378308 0 0.30118112309890688 -0.41482036817720402 0 0.31391760233165061 -0.4091411309899175 0 0.3113964049805894 -0.40595131652164967 0 0.29257248132353669 -0.40775355774378308 0 0.31391760233165061 -0.4091411309899175 0 0.29257248132353669 -0.40775355774378308 0 0.3113964049805894 -0.40595131652164967 0 0.29257248132353669 -0.40775355774378308 0 0.30118112309890688 -0.41482036817720402 0 0.30825069288302048 -0.41593441679866872 0 0.30149691371434212 -0.42288330552217529 0 0.28966792524198448 -0.41838942983147498 0 0.30118112309890688 -0.41482036817720402 0 0.30149691371434212 -0.42288330552217529 0 0.31391760233165061 -0.4091411309899175 0 0.30118112309890688 -0.41482036817720402 0 0.30825069288302048 -0.41593441679866872 0 0.31443639551841768 -0.41432436766320718 0 0.31391760233165061 -0.4091411309899175 0 0.30825069288302048 -0.41593441679866872 0 0.30825069288302048 -0.41593441679866872 0 0.31062596239285689 -0.42328135981577591 0 0.30149691371434212 -0.42288330552217529 0 0.3151009394481068 -0.41844716190195042 0 0.30825069288302048 -0.41593441679866872 0 0.31062596239285689 -0.42328135981577591 0 0.29374207464694851 -0.43103060083699551 0 0.31029664380548172 -0.43268720073909339 0 0.30149691371434212 -0.42288330552217529 0 0.31062596239285689 -0.42328135981577591 0 0.31029664380548172 -0.43268720073909339 0 0.30149691371434212 -0.42288330552217529 0 0.29374207464694851 -0.43103060083699551 0 0.31029664380548172 -0.43268720073909339 0 0.29743471006061101 -0.44470374867935247 0 0.32592985127774082 -0.44428311331585918 0 0.29743471006061101 -0.44470374867935247 0 0.31133289995487962 -0.45955925675523113 0 0.32592985127774082 -0.44428311331585918 0 0.31029664380548172 -0.43268720073909339 0 0.29743471006061101 -0.44470374867935247 0 0.32592985127774082 -0.44428311331585918 0 0.29743471006061101 -0.44470374867935247 0 0.29743471006061101 -0.44470374867935247 0 0.31133289995487962 -0.45955925675523113 0 0.28767194786074962 -0.47141550549163741 0 0.29743471006061101 -0.44470374867935247 0 0.26893956884348108 -0.44512438404284588 0 0.28767194786074962 -0.47141550549163741 0 0.29743471006061101 -0.44470374867935247 0 0.26893956884348108 -0.44512438404284588 0 0.29374207464694851 -0.43103060083699551 0 0.29743471006061101 -0.44470374867935247 0 0.26893956884348108 -0.44512438404284588 0 0.26893956884348108 -0.44512438404284588 0 0.25332902673342839 -0.47294262500005152 0 0.28767194786074962 -0.47141550549163741 0 0.26893956884348108 -0.44512438404284588 0 0.2404444276263514 -0.44554501940633923 0 0.25591807002390587 -0.42994073300465441 0 0.26893956884348108 -0.44512438404284588 0 0.2404444276263514 -0.44554501940633923 0 0.26893956884348108 -0.44512438404284588 0 0.25332902673342839 -0.47294262500005152 0 0.2404444276263514 -0.44554501940633923 0 0.25332902673342839 -0.47294262500005152 0 0.26956304376579793 -0.5 0 0.28767194786074962 -0.47141550549163741 0 0.25332902673342839 -0.47294262500005152 0 0.26956304376579793 -0.5 0 0.23974447136599519 -0.5 0 0.26956304376579793 -0.5 0 0.28767194786074962 -0.47141550549163741 0 0.29938161616560072 -0.5 0 0.31317216794390601 -0.47901302710404459 0 0.31133289995487962 -0.45955925675523113 0 0.28767194786074962 -0.47141550549163741 0 0.31317216794390601 -0.47901302710404459 0 0.28767194786074962 -0.47141550549163741 0 0.29938161616560072 -0.5 0 0.33264410559764412 -0.29859107593250372 0 0.31395814431235453 -0.29199032761393262 0 0.3423312056065812 -0.28016416989185422 0 0.33264410559764412 -0.29859107593250372 0 0.36177939246578411 -0.30089877660029302 0 0.33230098762220078 -0.31840564879127059 0 0.33264410559764412 -0.29859107593250372 0 0.31395814431235453 -0.29199032761393262 0 0.30954879147195241 -0.31558018188589271 0 0.33264410559764412 -0.29859107593250372 0 0.33230098762220078 -0.31840564879127059 0 0.30954879147195241 -0.31558018188589271 0 0.33657388358349638 -0.24514156715138369 0 0.31836749715275642 -0.26840047334197248 0 0.3423312056065812 -0.28016416989185422 0 0.31395814431235453 -0.29199032761393262 0 0.31836749715275642 -0.26840047334197248 0 0.31395814431235453 -0.29199032761393262 0 0.31836749715275642 -0.26840047334197248 0 0.31705557269807949 -0.27007647466911872 0 0.31395814431235453 -0.29199032761393262 0 0.31836749715275642 -0.26840047334197248 0 0.3423312056065812 -0.28016416989185422 0 0.31395814431235453 -0.29199032761393262 0 0.31705557269807949 -0.27007647466911872 0 0.30918021556182562 -0.27537326139459462 0 0.31283396998587037 -0.2693116849080987 0 0.31705557269807949 -0.27007647466911872 0 0.30918021556182562 -0.27537326139459462 0 0.31283396998587037 -0.2693116849080987 0 0.31836749715275642 -0.26840047334197248 0 0.31705557269807949 -0.27007647466911872 0 0.31283396998587037 -0.2693116849080987 0 0.31836749715275642 -0.26840047334197248 0 0.3120481379447777 -0.26424965353064139 0 0.31836749715275642 -0.26840047334197248 0 0.31890323064366338 -0.26553432145154138 0 0.3120481379447777 -0.26424965353064139 0 0.31836749715275642 -0.26840047334197248 0 0.31705557269807949 -0.27007647466911872 0 0.31836749715275642 -0.26840047334197248 0 0.31890323064366338 -0.26553432145154138 0 0.33657388358349638 -0.24514156715138369 0 0.31836749715275642 -0.26840047334197248 0 0.31890323064366338 -0.26553432145154138 0 0.33657388358349638 -0.24514156715138369 0 0.31557201887679998 -0.2569677661610078 0 0.31890323064366338 -0.26553432145154138 0 0.33657388358349638 -0.24514156715138369 0 0.31836749715275642 -0.26840047334197248 0 0.31627785939269931 -0.24671969350905501 0 0.31557201887679998 -0.2569677661610078 0 0.30951249882476461 -0.25552145918893249 0 0.31557201887679998 -0.2569677661610078 0 0.31890323064366338 -0.26553432145154138 0 0.3120481379447777 -0.26424965353064139 0 0.33657388358349638 -0.24514156715138369 0 0.3423312056065812 -0.28016416989185422 0 0.35629418190202933 -0.25770487126256941 0 0.3423312056065812 -0.28016416989185422 0 0.35629418190202933 -0.25770487126256941 0 0.37323928385444372 -0.27381667736195942 0 0.36433195444473149 -0.24032169556663019 0 0.35629418190202933 -0.25770487126256941 0 0.36772741321968561 -0.25436609821888201 0 0.37899025053266361 -0.25208212774400213 0 0.36772741321968561 -0.25436609821888201 0 0.37323928385444372 -0.27381667736195942 0 0.35629418190202933 -0.25770487126256941 0 0.36772741321968561 -0.25436609821888201 0 0.37323928385444372 -0.27381667736195942 0 0.38278510882245331 -0.29759431680783499 0 0.37323928385444372 -0.27381667736195942 0 0.36177939246578411 -0.30089877660029302 0 0.37323928385444372 -0.27381667736195942 0 0.36177939246578411 -0.30089877660029302 0 0.3423312056065812 -0.28016416989185422 0 0.37323928385444372 -0.27381667736195942 0 0.36177939246578411 -0.30089877660029302 0 0.33264410559764412 -0.29859107593250372 0 0.3423312056065812 -0.28016416989185422 0 0.36177939246578411 -0.30089877660029302 0 0.37862028171990808 -0.31513135188394648 0 0.38278510882245331 -0.29759431680783499 0 0.36177939246578411 -0.30089877660029302 0 0.37862028171990808 -0.31513135188394648 0 0.36177939246578411 -0.30089877660029302 0 0.36538796441252352 -0.31956005729381248 0 0.37862028171990808 -0.31513135188394648 0 0.36538796441252352 -0.31956005729381248 0 0.37083268238727779 -0.33422922485238399 0 0.36538796441252352 -0.31956005729381248 0 0.37083268238727779 -0.33422922485238399 0 0.35031950107712428 -0.32798087583862678 0 0.37083268238727779 -0.33422922485238399 0 0.35020324728745128 -0.34244306933950253 0 0.36219939813247881 -0.35335996162803979 0 0.37083268238727779 -0.33422922485238399 0 0.35020324728745128 -0.34244306933950253 0 0.35031950107712428 -0.32798087583862678 0 0.35020324728745128 -0.34244306933950253 0 0.35031950107712428 -0.32798087583862678 0 0.33304142155159178 -0.34143641265246588 0 0.36177939246578411 -0.30089877660029302 0 0.35031950107712428 -0.32798087583862678 0 0.36177939246578411 -0.30089877660029302 0 0.35031950107712428 -0.32798087583862678 0 0.33230098762220078 -0.31840564879127059 0 0.36177939246578411 -0.30089877660029302 0 0.36538796441252352 -0.31956005729381248 0 0.35031950107712428 -0.32798087583862678 0 0.38266983002980592 -0.37417268235193613 0 0.36308738134707857 -0.38325412443390189 0 0.36219939813247881 -0.35335996162803979 0 0.38977556297617372 -0.35151105153008372 0 0.37083268238727779 -0.33422922485238399 0 0.36219939813247881 -0.35335996162803979 0 0.36219939813247881 -0.35335996162803979 0 0.33462323328878391 -0.35520887172599602 0 0.35020324728745128 -0.34244306933950253 0 0.36219939813247881 -0.35335996162803979 0 0.33462323328878391 -0.35520887172599602 0 0.36219939813247881 -0.35335996162803979 0 0.34572285641445522 -0.37181487959985132 0 0.33462323328878391 -0.35520887172599602 0 0.36308738134707857 -0.38325412443390189 0 0.36219939813247881 -0.35335996162803979 0 0.34572285641445522 -0.37181487959985132 0 0.34572285641445522 -0.37181487959985132 0 0.3337818554809826 -0.36446717651366117 0 0.33462323328878391 -0.35520887172599602 0 0.33452228941037349 -0.3874979403748563 0 0.34572285641445522 -0.37181487959985132 0 0.3337818554809826 -0.36446717651366117 0 0.35020324728745128 -0.34244306933950253 0 0.33462323328878391 -0.35520887172599602 0 0.33304142155159178 -0.34143641265246588 0 0.3337818554809826 -0.36446717651366117 0 0.33304142155159178 -0.34143641265246588 0 0.3337818554809826 -0.36446717651366117 0 0.32676979615303842 -0.35124063839092479 0 0.33304142155159178 -0.34143641265246588 0 0.3337818554809826 -0.36446717651366117 0 0.33462323328878391 -0.35520887172599602 0 0.33304142155159178 -0.34143641265246588 0 0.32676979615303842 -0.35124063839092479 0 0.32137436091222182 -0.35618411883919932 0 0.3188815466673573 -0.34287484555837278 0 0.32676979615303842 -0.35124063839092479 0 0.33304142155159178 -0.34143641265246588 0 0.3188815466673573 -0.34287484555837278 0 0.32137436091222182 -0.35618411883919932 0 0.3188815466673573 -0.34287484555837278 0 0.30878364063381702 -0.35532959430828698 0 0.32137436091222182 -0.35618411883919932 0 0.31586148569865607 -0.36275116767379018 0 0.30878364063381702 -0.35532959430828698 0 0.3337818554809826 -0.36446717651366117 0 0.32676979615303842 -0.35124063839092479 0 0.32137436091222182 -0.35618411883919932 0 0.3337818554809826 -0.36446717651366117 0 0.32137436091222182 -0.35618411883919932 0 0.3226713819404865 -0.36523654374694958 0 0.31586148569865607 -0.36275116767379018 0 0.31775024109131361 -0.36956247007829379 0 0.30872780391544202 -0.36744311139622138 0 0.32137436091222182 -0.35618411883919932 0 0.3226713819404865 -0.36523654374694958 0 0.31586148569865607 -0.36275116767379018 0 0.3226713819404865 -0.36523654374694958 0 0.31586148569865607 -0.36275116767379018 0 0.31775024109131361 -0.36956247007829379 0 0.31799925602188239 -0.37804591881414151 0 0.309932965451307 -0.37717425406958838 0 0.31775024109131361 -0.36956247007829379 0 0.3226713819404865 -0.36523654374694958 0 0.31775024109131361 -0.36956247007829379 0 0.32533261627796828 -0.37468897053810668 0 0.3337818554809826 -0.36446717651366117 0 0.3226713819404865 -0.36523654374694958 0 0.32533261627796828 -0.37468897053810668 0 0.31799925602188239 -0.37804591881414151 0 0.31775024109131361 -0.36956247007829379 0 0.32533261627796828 -0.37468897053810668 0 0.33230098762220078 -0.31840564879127059 0 0.33304142155159178 -0.34143641265246588 0 0.31978243718893051 -0.33149342500917101 0 0.33230098762220078 -0.31840564879127059 0 0.33304142155159178 -0.34143641265246588 0 0.35031950107712428 -0.32798087583862678 0 0.33230098762220078 -0.31840564879127059 0 0.33304142155159178 -0.34143641265246588 0 0.33304142155159178 -0.34143641265246588 0 0.3188815466673573 -0.34287484555837278 0 0.31978243718893051 -0.33149342500917101 0 0.3188815466673573 -0.34287484555837278 0 0.31978243718893051 -0.33149342500917101 0 0.30513943863155019 -0.33917003615785279 0 0.33230098762220078 -0.31840564879127059 0 0.31978243718893051 -0.33149342500917101 0 0.30954879147195241 -0.31558018188589271 0 0.30954879147195241 -0.31558018188589271 0 0.30513943863155019 -0.33917003615785279 0 0.29288041172837243 -0.32870925843650112 0 0.30954879147195241 -0.31558018188589271 0 0.30513943863155019 -0.33917003615785279 0 0.31978243718893051 -0.33149342500917101 0 0.30954879147195241 -0.31558018188589271 0 0.30513943863155019 -0.33917003615785279 0 0.29288041172837243 -0.32870925843650112 0 0.28924367045951582 -0.34556131015016628 0 0.27635957959329688 -0.33093255837263169 0 0.30513943863155019 -0.33917003615785279 0 0.29288041172837243 -0.32870925843650112 0 0.28924367045951582 -0.34556131015016628 0 0.29288041172837243 -0.32870925843650112 0 0.28376213969582159 -0.31400556291945658 0 0.27635957959329688 -0.33093255837263169 0 0.30954879147195241 -0.31558018188589271 0 0.29288041172837243 -0.32870925843650112 0 0.28376213969582159 -0.31400556291945658 0 0.29750366587857291 -0.38002110274659712 0 0.30073008579114902 -0.36275989042981321 0 0.29750366587857291 -0.38002110274659712 0 0.30872780391544202 -0.36744311139622138 0 0.30073008579114902 -0.36275989042981321 0 0.309932965451307 -0.37717425406958838 0 0.31775024109131361 -0.36956247007829379 0 0.30872780391544202 -0.36744311139622138 0 0.29750366587857291 -0.38002110274659712 0 0.309932965451307 -0.37717425406958838 0 0.30872780391544202 -0.36744311139622138 0 0.30872780391544202 -0.36744311139622138 0 0.30073008579114902 -0.36275989042981321 0 0.30878364063381702 -0.35532959430828698 0 0.31586148569865607 -0.36275116767379018 0 0.30872780391544202 -0.36744311139622138 0 0.30878364063381702 -0.35532959430828698 0 0.30513943863155019 -0.33917003615785279 0 0.30073008579114902 -0.36275989042981321 0 0.30513943863155019 -0.33917003615785279 0 0.30073008579114902 -0.36275989042981321 0 0.30878364063381702 -0.35532959430828698 0 0.30513943863155019 -0.33917003615785279 0 0.30073008579114902 -0.36275989042981321 0 0.28924367045951582 -0.34556131015016628 0 0.3188815466673573 -0.34287484555837278 0 0.30513943863155019 -0.33917003615785279 0 0.30878364063381702 -0.35532959430828698 0 0.30073008579114902 -0.36275989042981321 0 0.30878364063381702 -0.35532959430828698 0 0.30073008579114902 -0.36275989042981321 0 0.28924367045951582 -0.34556131015016628 0 0.28303881130038561 -0.35898550253720662 0 0.28924367045951582 -0.34556131015016628 0 0.28303881130038561 -0.35898550253720662 0 0.27506094240206741 -0.34985766454595052 0 0.28979638919127809 -0.3769927772479435 0 0.2848694868272964 -0.37739304923589262 0 0.30073008579114902 -0.36275989042981321 0 0.29750366587857291 -0.38002110274659712 0 0.28979638919127809 -0.3769927772479435 0 0.30073008579114902 -0.36275989042981321 0 0.2848694868272964 -0.37739304923589262 0 0.30073008579114902 -0.36275989042981321 0 0.28303881130038561 -0.35898550253720662 0 0.2848694868272964 -0.37739304923589262 0 0.30073008579114902 -0.36275989042981321 0 0.2848694868272964 -0.37739304923589262 0 0.28303881130038561 -0.35898550253720662 0 0.26528987102189888 -0.35935559832421021 0 0.2848694868272964 -0.37739304923589262 0 0.25924715441336921 -0.37947466181385081 0 0.26528987102189888 -0.35935559832421021 0 0.28303881130038561 -0.35898550253720662 0 0.27506094240206741 -0.34985766454595052 0 0.26528987102189888 -0.35935559832421021 0 0.27506094240206741 -0.34985766454595052 0 0.26528987102189888 -0.35935559832421021 0 0.26529631559200367 -0.34076547082764919 0 0.25175086922076512 -0.34590536509074082 0 0.26528987102189888 -0.35935559832421021 0 0.26529631559200367 -0.34076547082764919 0 0.25175086922076512 -0.34590536509074082 0 0.26528987102189888 -0.35935559832421021 0 0.23579186891364981 -0.36125930167187448 0 0.25924715441336921 -0.37947466181385081 0 0.26528987102189888 -0.35935559832421021 0 0.23579186891364981 -0.36125930167187448 0 0.26801062288673511 -0.31544174152837962 0 0.27635957959329688 -0.33093255837263169 0 0.26045410980921663 -0.3274098308723955 0 0.28376213969582159 -0.31400556291945658 0 0.26801062288673511 -0.31544174152837962 0 0.27635957959329688 -0.33093255837263169 0 0.28924367045951582 -0.34556131015016628 0 0.27506094240206741 -0.34985766454595052 0 0.27635957959329688 -0.33093255837263169 0 0.27506094240206741 -0.34985766454595052 0 0.27635957959329688 -0.33093255837263169 0 0.26529631559200367 -0.34076547082764919 0 0.27635957959329688 -0.33093255837263169 0 0.26529631559200367 -0.34076547082764919 0 0.26045410980921663 -0.3274098308723955 0 0.25175086922076512 -0.34590536509074082 0 0.26045410980921663 -0.3274098308723955 0 0.24322417966084039 -0.32960901651381541 0 0.25175086922076512 -0.34590536509074082 0 0.26529631559200367 -0.34076547082764919 0 0.26045410980921663 -0.3274098308723955 0 0.26045410980921663 -0.3274098308723955 0 0.25366488491361472 -0.31462876815121898 0 0.24322417966084039 -0.32960901651381541 0 0.26801062288673511 -0.31544174152837962 0 0.26045410980921663 -0.3274098308723955 0 0.25366488491361472 -0.31462876815121898 0 0.25366488491361472 -0.31462876815121898 0 0.25974613114889128 -0.30414573440715292 0 0.2482059736230009 -0.2981260183302909 0 0.25974613114889128 -0.30414573440715292 0 0.26431380846871899 -0.29190555909945393 0 0.2482059736230009 -0.2981260183302909 0 0.26801062288673511 -0.31544174152837962 0 0.25366488491361472 -0.31462876815121898 0 0.25974613114889128 -0.30414573440715292 0 0.25477959088054219 -0.28416978447802299 0 0.26431380846871899 -0.29190555909945393 0 0.2482059736230009 -0.2981260183302909 0 0.25477959088054219 -0.28416978447802299 0 0.26431380846871899 -0.29190555909945393 0 0.2699016047679722 -0.27574483241012299 0 0.26431380846871899 -0.29190555909945393 0 0.27917265823233828 -0.28771899052371153 0 0.2699016047679722 -0.27574483241012299 0 0.26431380846871899 -0.29190555909945393 0 0.27917265823233828 -0.28771899052371153 0 0.2740768921595696 -0.30152799444742212 0 0.28376213969582159 -0.31400556291945658 0 0.26801062288673511 -0.31544174152837962 0 0.2740768921595696 -0.30152799444742212 0 0.26801062288673511 -0.31544174152837962 0 0.25974613114889128 -0.30414573440715292 0 0.2740768921595696 -0.30152799444742212 0 0.25974613114889128 -0.30414573440715292 0 0.26431380846871899 -0.29190555909945393 0 0.2740768921595696 -0.30152799444742212 0 0.28376213969582159 -0.31400556291945658 0 0.2740768921595696 -0.30152799444742212 0 0.29276619366055212 -0.29606232311667757 0 0.30954879147195241 -0.31558018188589271 0 0.28376213969582159 -0.31400556291945658 0 0.29276619366055212 -0.29606232311667757 0 0.27917265823233828 -0.28771899052371153 0 0.2740768921595696 -0.30152799444742212 0 0.29276619366055212 -0.29606232311667757 0 0.27917265823233828 -0.28771899052371153 0 0.29276619366055212 -0.29606232311667757 0 0.29191024050337638 -0.28060971756998387 0 0.27917265823233828 -0.28771899052371153 0 0.29191024050337638 -0.28060971756998387 0 0.28353615995451648 -0.27558384699939381 0 0.29276619366055212 -0.29606232311667757 0 0.30264420851421381 -0.28203116797741351 0 0.29191024050337638 -0.28060971756998387 0 0.31395814431235453 -0.29199032761393262 0 0.30264420851421381 -0.28203116797741351 0 0.30918021556182562 -0.27537326139459462 0 0.31395814431235453 -0.29199032761393262 0 0.29276619366055212 -0.29606232311667757 0 0.30264420851421381 -0.28203116797741351 0 0.31395814431235453 -0.29199032761393262 0 0.30954879147195241 -0.31558018188589271 0 0.29276619366055212 -0.29606232311667757 0 0.31395814431235453 -0.29199032761393262 0 0.30954879147195241 -0.31558018188589271 0 0.30156781060784271 -0.24771035881410489 0 0.30209666730170293 -0.26195982392985401 0 0.30951249882476461 -0.25552145918893249 0 0.30156781060784271 -0.24771035881410489 0 0.30209666730170293 -0.26195982392985401 0 0.28979144165464521 -0.25633909434951779 0 0.30209666730170293 -0.26195982392985401 0 0.3120481379447777 -0.26424965353064139 0 0.3074538806245663 -0.2688703836835884 0 0.30209666730170293 -0.26195982392985401 0 0.30951249882476461 -0.25552145918893249 0 0.3120481379447777 -0.26424965353064139 0 0.31557201887679998 -0.2569677661610078 0 0.30951249882476461 -0.25552145918893249 0 0.3120481379447777 -0.26424965353064139 0 0.3074538806245663 -0.2688703836835884 0 0.30918021556182562 -0.27537326139459462 0 0.30111041232865482 -0.27345749465475339 0 0.31283396998587037 -0.2693116849080987 0 0.3120481379447777 -0.26424965353064139 0 0.3074538806245663 -0.2688703836835884 0 0.31283396998587037 -0.2693116849080987 0 0.3074538806245663 -0.2688703836835884 0 0.30918021556182562 -0.27537326139459462 0 0.30264420851421381 -0.28203116797741351 0 0.30111041232865482 -0.27345749465475339 0 0.29191024050337638 -0.28060971756998387 0 0.30264420851421381 -0.28203116797741351 0 0.30918021556182562 -0.27537326139459462 0 0.30111041232865482 -0.27345749465475339 0 0.30209666730170293 -0.26195982392985401 0 0.3074538806245663 -0.2688703836835884 0 0.30111041232865482 -0.27345749465475339 0 0.30209666730170293 -0.26195982392985401 0 0.30111041232865482 -0.27345749465475339 0 0.29223181032998302 -0.26880448214795422 0 0.29223181032998302 -0.26880448214795422 0 0.29191024050337638 -0.28060971756998387 0 0.28353615995451648 -0.27558384699939381 0 0.30111041232865482 -0.27345749465475339 0 0.29223181032998302 -0.26880448214795422 0 0.29191024050337638 -0.28060971756998387 0 0.29223181032998302 -0.26880448214795422 0 0.28353615995451648 -0.27558384699939381 0 0.28268972744015503 -0.26548929558839002 0 0.29223181032998302 -0.26880448214795422 0 0.28268972744015503 -0.26548929558839002 0 0.28979144165464521 -0.25633909434951779 0 0.30209666730170293 -0.26195982392985401 0 0.29223181032998302 -0.26880448214795422 0 0.28979144165464521 -0.25633909434951779 0 0.28187800694090798 -0.24553789218868369 0 0.28979144165464521 -0.25633909434951779 0 0.27118685911762869 -0.25789623979752829 0 0.28268972744015503 -0.26548929558839002 0 0.28979144165464521 -0.25633909434951779 0 0.27118685911762869 -0.25789623979752829 0 0.28268972744015503 -0.26548929558839002 0 0.27118685911762869 -0.25789623979752829 0 0.2699016047679722 -0.27574483241012299 0 0.27917265823233828 -0.28771899052371153 0 0.28353615995451648 -0.27558384699939381 0 0.2699016047679722 -0.27574483241012299 0 0.28353615995451648 -0.27558384699939381 0 0.28268972744015503 -0.26548929558839002 0 0.2699016047679722 -0.27574483241012299 0 0.27118685911762869 -0.25789623979752829 0 0.2699016047679722 -0.27574483241012299 0 0.25486030168848439 -0.27307915899609059 0 0.25477959088054219 -0.28416978447802299 0 0.2699016047679722 -0.27574483241012299 0 0.25486030168848439 -0.27307915899609059 0 0.25477959088054219 -0.28416978447802299 0 0.25486030168848439 -0.27307915899609059 0 0.2459695725303887 -0.28435301788941658 0 0.26746488325551881 -0.2355166725487452 0 0.27118685911762869 -0.25789623979752829 0 0.25159635536329789 -0.25727591731673261 0 0.27118685911762869 -0.25789623979752829 0 0.25486030168848439 -0.27307915899609059 0 0.25159635536329789 -0.25727591731673261 0 0.25159635536329789 -0.25727591731673261 0 0.23365639747897329 -0.26249790100623599 0 0.23364005360691339 -0.24700310711603751 0 0.25159635536329789 -0.25727591731673261 0 0.23572782747107701 -0.27903516208472001 0 0.25486030168848439 -0.27307915899609059 0 0.23572782747107701 -0.27903516208472001 0 0.2459695725303887 -0.28435301788941658 0 0.25486030168848439 -0.27307915899609059 0 0.25159635536329789 -0.25727591731673261 0 0.23572782747107701 -0.27903516208472001 0 0.25159635536329789 -0.25727591731673261 0 0.23572782747107701 -0.27903516208472001 0 0.23365639747897329 -0.26249790100623599 0 0.23572782747107701 -0.27903516208472001 0 0.22477868624561509 -0.27063930261786517 0 0.23365639747897329 -0.26249790100623599 0 0.23572782747107701 -0.27903516208472001 0 0.22477868624561509 -0.27063930261786517 0 0.21734503064558039 -0.28222970647762552 0 0.22477868624561509 -0.27063930261786517 0 0.22253906470796289 -0.25853601589582492 0 0.2124538451847873 -0.27009420774995369 0 0.23365639747897329 -0.26249790100623599 0 0.22253906470796289 -0.25853601589582492 0 0.23364005360691339 -0.24700310711603751 0 0.22477868624561509 -0.27063930261786517 0 0.23365639747897329 -0.26249790100623599 0 0.22253906470796289 -0.25853601589582492 0 0.22253906470796289 -0.25853601589582492 0 0.20550489294392019 -0.25703356722612059 0 0.2124538451847873 -0.27009420774995369 0 0.22253906470796289 -0.25853601589582492 0 0.20550489294392019 -0.25703356722612059 0 0.21636696533907829 -0.24409877470365249 0 0.20550489294392019 -0.25703356722612059 0 0.2124538451847873 -0.27009420774995369 0 0.19853659502913981 -0.2689906254028504 0 0.2124538451847873 -0.27009420774995369 0 0.2047752982638831 -0.28186376221103598 0 0.21734503064558039 -0.28222970647762552 0 0.22477868624561509 -0.27063930261786517 0 0.2124538451847873 -0.27009420774995369 0 0.21734503064558039 -0.28222970647762552 0 0.2124538451847873 -0.27009420774995369 0 0.19853659502913981 -0.2689906254028504 0 0.2047752982638831 -0.28186376221103598 0 0.19853659502913981 -0.2689906254028504 0 0.18558891066252339 -0.25856023572730119 0 0.18361314927116479 -0.27697658741872327 0 0.19853659502913981 -0.2689906254028504 0 0.2047752982638831 -0.28186376221103598 0 0.18361314927116479 -0.27697658741872327 0 0.20550489294392019 -0.25703356722612059 0 0.18558891066252339 -0.25856023572730119 0 0.197025850376437 -0.241391432765308 0 0.20550489294392019 -0.25703356722612059 0 0.19853659502913981 -0.2689906254028504 0 0.18558891066252339 -0.25856023572730119 0 0.18990794518323509 -0.310379606587667 0 0.19476344457462669 -0.29410179173248358 0 0.20393866608619979 -0.30468169049149341 0 0.19476344457462669 -0.29410179173248358 0 0.20910396702818901 -0.29274128610820183 0 0.20393866608619979 -0.30468169049149341 0 0.19476344457462669 -0.29410179173248358 0 0.2047752982638831 -0.28186376221103598 0 0.18361314927116479 -0.27697658741872327 0 0.19476344457462669 -0.29410179173248358 0 0.20910396702818901 -0.29274128610820183 0 0.2047752982638831 -0.28186376221103598 0 0.20910396702818901 -0.29274128610820183 0 0.21734503064558039 -0.28222970647762552 0 0.21985929957885611 -0.30079440685270742 0 0.20910396702818901 -0.29274128610820183 0 0.2047752982638831 -0.28186376221103598 0 0.21734503064558039 -0.28222970647762552 0 0.21985929957885611 -0.30079440685270742 0 0.20399077168663521 -0.32255365162069499 0 0.20910396702818901 -0.29274128610820183 0 0.20393866608619979 -0.30468169049149341 0 0.21985929957885611 -0.30079440685270742 0 0.21985929957885611 -0.30079440685270742 0 0.21886733506788761 -0.31387504179284781 0 0.20399077168663521 -0.32255365162069499 0 0.20393866608619979 -0.30468169049149341 0 0.21985929957885611 -0.30079440685270742 0 0.20399077168663521 -0.32255365162069499 0 0.21985929957885611 -0.30079440685270742 0 0.235914222958688 -0.28995181952678573 0 0.21886733506788761 -0.31387504179284781 0 0.235914222958688 -0.28995181952678573 0 0.21886733506788761 -0.31387504179284781 0 0.23400551508038239 -0.30391888241858789 0 0.235914222958688 -0.28995181952678573 0 0.21886733506788761 -0.31387504179284781 0 0.23400551508038239 -0.30391888241858789 0 0.21886733506788761 -0.31387504179284781 0 0.23079331470703249 -0.31312690095245499 0 0.23572782747107701 -0.27903516208472001 0 0.21985929957885611 -0.30079440685270742 0 0.23572782747107701 -0.27903516208472001 0 0.21734503064558039 -0.28222970647762552 0 0.21985929957885611 -0.30079440685270742 0 0.23572782747107701 -0.27903516208472001 0 0.21985929957885611 -0.30079440685270742 0 0.235914222958688 -0.28995181952678573 0 0.23572782747107701 -0.27903516208472001 0 0.235914222958688 -0.28995181952678573 0 0.2459695725303887 -0.28435301788941658 0 0.235914222958688 -0.28995181952678573 0 0.2459695725303887 -0.28435301788941658 0 0.2482059736230009 -0.2981260183302909 0 0.25477959088054219 -0.28416978447802299 0 0.2459695725303887 -0.28435301788941658 0 0.2482059736230009 -0.2981260183302909 0 0.25366488491361472 -0.31462876815121898 0 0.2482059736230009 -0.2981260183302909 0 0.24040721737642889 -0.31267248356720101 0 0.23400551508038239 -0.30391888241858789 0 0.2482059736230009 -0.2981260183302909 0 0.24040721737642889 -0.31267248356720101 0 0.23400551508038239 -0.30391888241858789 0 0.24040721737642889 -0.31267248356720101 0 0.23079331470703249 -0.31312690095245499 0 0.23400551508038239 -0.30391888241858789 0 0.235914222958688 -0.28995181952678573 0 0.2482059736230009 -0.2981260183302909 0 0.24040721737642889 -0.31267248356720101 0 0.24322417966084039 -0.32960901651381541 0 0.22989319130343119 -0.32204119603118347 0 0.25366488491361472 -0.31462876815121898 0 0.24040721737642889 -0.31267248356720101 0 0.24322417966084039 -0.32960901651381541 0 0.25175086922076512 -0.34590536509074082 0 0.24322417966084039 -0.32960901651381541 0 0.2366573608174628 -0.34564133386294771 0 0.24322417966084039 -0.32960901651381541 0 0.2274849760905974 -0.33652125505508512 0 0.2366573608174628 -0.34564133386294771 0 0.24322417966084039 -0.32960901651381541 0 0.2274849760905974 -0.33652125505508512 0 0.22989319130343119 -0.32204119603118347 0 0.2274849760905974 -0.33652125505508512 0 0.21844128936984189 -0.33026346574459631 0 0.21305051863068711 -0.34154364482502891 0 0.2274849760905974 -0.33652125505508512 0 0.2217079216484476 -0.35036034461553189 0 0.21305051863068711 -0.34154364482502891 0 0.2274849760905974 -0.33652125505508512 0 0.22989319130343119 -0.32204119603118347 0 0.21844128936984189 -0.33026346574459631 0 0.21886733506788761 -0.31387504179284781 0 0.22989319130343119 -0.32204119603118347 0 0.21844128936984189 -0.33026346574459631 0 0.21886733506788761 -0.31387504179284781 0 0.23079331470703249 -0.31312690095245499 0 0.22989319130343119 -0.32204119603118347 0 0.24040721737642889 -0.31267248356720101 0 0.23079331470703249 -0.31312690095245499 0 0.22989319130343119 -0.32204119603118347 0 0.25924715441336921 -0.37947466181385081 0 0.23579186891364981 -0.36125930167187448 0 0.23362482199944179 -0.38155627439180828 0 0.25175086922076512 -0.34590536509074082 0 0.23579186891364981 -0.36125930167187448 0 0.2366573608174628 -0.34564133386294771 0 0.23579186891364981 -0.36125930167187448 0 0.2217079216484476 -0.35036034461553189 0 0.21318539226783739 -0.36193290780295012 0 0.2274849760905974 -0.33652125505508512 0 0.2366573608174628 -0.34564133386294771 0 0.2217079216484476 -0.35036034461553189 0 0.23579186891364981 -0.36125930167187448 0 0.2366573608174628 -0.34564133386294771 0 0.2217079216484476 -0.35036034461553189 0 0.23579186891364981 -0.36125930167187448 0 0.2218971792495826 -0.37244859432082111 0 0.21318539226783739 -0.36193290780295012 0 0.23579186891364981 -0.36125930167187448 0 0.2218971792495826 -0.37244859432082111 0 0.23362482199944179 -0.38155627439180828 0 0.23579186891364981 -0.36125930167187448 0 0.2218971792495826 -0.37244859432082111 0 0.21318539226783739 -0.36193290780295012 0 0.20241391889394461 -0.35298793129146028 0 0.201285700502744 -0.36863158164582571 0 0.21109269040141959 -0.37166274268484062 0 0.21318539226783739 -0.36193290780295012 0 0.201285700502744 -0.36863158164582571 0 0.21109269040141959 -0.37166274268484062 0 0.201285700502744 -0.36863158164582571 0 0.20800248958551459 -0.38363788696976669 0 0.2218971792495826 -0.37244859432082111 0 0.21109269040141959 -0.37166274268484062 0 0.21318539226783739 -0.36193290780295012 0 0.2217079216484476 -0.35036034461553189 0 0.20241391889394461 -0.35298793129146028 0 0.21305051863068711 -0.34154364482502891 0 0.2217079216484476 -0.35036034461553189 0 0.21318539226783739 -0.36193290780295012 0 0.20241391889394461 -0.35298793129146028 0 0.20241391889394461 -0.35298793129146028 0 0.21305051863068711 -0.34154364482502891 0 0.20182044717708711 -0.33779826405890973 0 0.20182044717708711 -0.33779826405890973 0 0.18477355928628689 -0.36172148632497148 0 0.20241391889394461 -0.35298793129146028 0 0.20182044717708711 -0.33779826405890973 0 0.18477355928628689 -0.36172148632497148 0 0.18812224379441431 -0.3443128963886824 0 0.20182044717708711 -0.33779826405890973 0 0.18477355928628689 -0.36172148632497148 0 0.20241391889394461 -0.35298793129146028 0 0.201285700502744 -0.36863158164582571 0 0.18477355928628689 -0.36172148632497148 0 0.20241391889394461 -0.35298793129146028 0 0.201285700502744 -0.36863158164582571 0 0.201285700502744 -0.36863158164582571 0 0.18477355928628689 -0.36172148632497148 0 0.19112201924033359 -0.37517040223335502 0 0.21886733506788761 -0.31387504179284781 0 0.20399077168663521 -0.32255365162069499 0 0.20182044717708711 -0.33779826405890973 0 0.21886733506788761 -0.31387504179284781 0 0.21844128936984189 -0.33026346574459631 0 0.20182044717708711 -0.33779826405890973 0 0.21886733506788761 -0.31387504179284781 0 0.20182044717708711 -0.33779826405890973 0 0.21844128936984189 -0.33026346574459631 0 0.21305051863068711 -0.34154364482502891 0 0.20182044717708711 -0.33779826405890973 0 0.18812224379441431 -0.3443128963886824 0 0.20399077168663521 -0.32255365162069499 0 0.18812224379441431 -0.3443128963886824 0 0.20399077168663521 -0.32255365162069499 0 0.20182044717708711 -0.33779826405890973 0 0.18812224379441431 -0.3443128963886824 0 0.20399077168663521 -0.32255365162069499 0 0.18659155145034961 -0.3261563080785197 0 0.18990794518323509 -0.310379606587667 0 0.20393866608619979 -0.30468169049149341 0 0.20399077168663521 -0.32255365162069499 0 0.18990794518323509 -0.310379606587667 0 0.20399077168663521 -0.32255365162069499 0 0.18659155145034961 -0.3261563080785197 0 0.18659155145034961 -0.3261563080785197 0 0.1733389938724211 -0.31546590666584579 0 0.17528377384454041 -0.3348482146476256 0 0.18990794518323509 -0.310379606587667 0 0.18659155145034961 -0.3261563080785197 0 0.1733389938724211 -0.31546590666584579 0 0.18812224379441431 -0.3443128963886824 0 0.18659155145034961 -0.3261563080785197 0 0.17528377384454041 -0.3348482146476256 0 0.18812224379441431 -0.3443128963886824 0 0.17528377384454041 -0.3348482146476256 0 0.1707005026265751 -0.34835359422796341 0 0.17528377384454041 -0.3348482146476256 0 0.16059634184859331 -0.34101145875556638 0 0.15569379521063209 -0.32361987928279268 0 0.17528377384454041 -0.3348482146476256 0 0.16059634184859331 -0.34101145875556638 0 0.1707005026265751 -0.34835359422796341 0 0.1733389938724211 -0.31546590666584579 0 0.17528377384454041 -0.3348482146476256 0 0.15569379521063209 -0.32361987928279268 0 0.1733389938724211 -0.31546590666584579 0 0.15569379521063209 -0.32361987928279268 0 0.1548360082024578 -0.30132573864671008 0 0.18477355928628689 -0.36172148632497148 0 0.19112201924033359 -0.37517040223335502 0 0.17827133506075971 -0.38605330896242901 0 0.18477355928628689 -0.36172148632497148 0 0.1677266713954865 -0.38564470859103339 0 0.18477355928628689 -0.36172148632497148 0 0.17225371590219329 -0.36607214115666992 0 0.1677266713954865 -0.38564470859103339 0 0.18812224379441431 -0.3443128963886824 0 0.18477355928628689 -0.36172148632497148 0 0.17225371590219329 -0.36607214115666992 0 0.18812224379441431 -0.3443128963886824 0 0.17225371590219329 -0.36607214115666992 0 0.1707005026265751 -0.34835359422796341 0 0.18812224379441431 -0.3443128963886824 0 0.17225371590219329 -0.36607214115666992 0 0.17225371590219329 -0.36607214115666992 0 0.1707005026265751 -0.34835359422796341 0 0.15724643774313429 -0.35552326019127278 0 0.16059634184859331 -0.34101145875556638 0 0.1707005026265751 -0.34835359422796341 0 0.15724643774313429 -0.35552326019127278 0 0.17225371590219329 -0.36607214115666992 0 0.15724643774313429 -0.35552326019127278 0 0.1566703605233869 -0.37125287041514948 0 0.15724643774313429 -0.35552326019127278 0 0.1566703605233869 -0.37125287041514948 0 0.14231171430806769 -0.36383602803281612 0 0.1566703605233869 -0.37125287041514948 0 0.14231171430806769 -0.36383602803281612 0 0.1505119922327755 -0.37788502074297259 0 0.16059634184859331 -0.34101145875556638 0 0.15724643774313429 -0.35552326019127278 0 0.1379427225264642 -0.33905225746637119 0 0.15724643774313429 -0.35552326019127278 0 0.14231171430806769 -0.36383602803281612 0 0.1379427225264642 -0.33905225746637119 0 0.14231171430806769 -0.36383602803281612 0 0.1379427225264642 -0.33905225746637119 0 0.14231171430806769 -0.36383602803281612 0 0.1379427225264642 -0.33905225746637119 0 0.1192003511384198 -0.361942383907009 0 0.1364292476267964 -0.3764984564803715 0 0.12218230561496619 -0.38400314725248952 0 0.1192003511384198 -0.361942383907009 0 0.14231171430806769 -0.36383602803281612 0 0.1364292476267964 -0.3764984564803715 0 0.1192003511384198 -0.361942383907009 0 0.15569379521063209 -0.32361987928279268 0 0.1379427225264642 -0.33905225746637119 0 0.1335737307448607 -0.3142684868999262 0 0.15569379521063209 -0.32361987928279268 0 0.1335737307448607 -0.3142684868999262 0 0.1548360082024578 -0.30132573864671008 0 0.16059634184859331 -0.34101145875556638 0 0.15569379521063209 -0.32361987928279268 0 0.1379427225264642 -0.33905225746637119 0 0.1379427225264642 -0.33905225746637119 0 0.1335737307448607 -0.3142684868999262 0 0.1379427225264642 -0.33905225746637119 0 0.1335737307448607 -0.3142684868999262 0 0.1145176125443565 -0.31909559966374218 0 0.1548360082024578 -0.30132573864671008 0 0.13743007115626291 -0.28593392299956988 0 0.1599381996273247 -0.26802557398641302 0 0.1335737307448607 -0.3142684868999262 0 0.13743007115626291 -0.28593392299956988 0 0.1158546905422492 -0.29566781046140012 0 0.1335737307448607 -0.3142684868999262 0 0.1548360082024578 -0.30132573864671008 0 0.13743007115626291 -0.28593392299956988 0 0.13743007115626291 -0.28593392299956988 0 0.13554402609957381 -0.26081854476635269 0 0.11827233300642701 -0.27195341323579908 0 0.13554402609957381 -0.26081854476635269 0 0.1599381996273247 -0.26802557398641302 0 0.1466835354833794 -0.24353370691204809 0 0.1599381996273247 -0.26802557398641302 0 0.1466835354833794 -0.24353370691204809 0 0.13743007115626291 -0.28593392299956988 0 0.13554402609957381 -0.26081854476635269 0 0.1599381996273247 -0.26802557398641302 0 0.1599381996273247 -0.26802557398641302 0 0.17319286377126999 -0.29251744106077771 0 0.1599381996273247 -0.26802557398641302 0 0.17177551692569271 -0.23945944404520539 0 0.1466835354833794 -0.24353370691204809 0 0.1599381996273247 -0.26802557398641302 0 0.18558891066252339 -0.25856023572730119 0 0.17177551692569271 -0.23945944404520539 0 0.1599381996273247 -0.26802557398641302 0 0.18558891066252339 -0.25856023572730119 0 0.18361314927116479 -0.27697658741872327 0 0.1599381996273247 -0.26802557398641302 0 0.18361314927116479 -0.27697658741872327 0 0.17319286377126999 -0.29251744106077771 0 0.1548360082024578 -0.30132573864671008 0 0.1599381996273247 -0.26802557398641302 0 0.17319286377126999 -0.29251744106077771 0 0.19476344457462669 -0.29410179173248358 0 0.18361314927116479 -0.27697658741872327 0 0.17319286377126999 -0.29251744106077771 0 0.18990794518323509 -0.310379606587667 0 0.1733389938724211 -0.31546590666584579 0 0.17319286377126999 -0.29251744106077771 0 0.18990794518323509 -0.310379606587667 0 0.19476344457462669 -0.29410179173248358 0 0.17319286377126999 -0.29251744106077771 0 0.1733389938724211 -0.31546590666584579 0 0.1548360082024578 -0.30132573864671008 0 0.17319286377126999 -0.29251744106077771 0 0.19315092846073259 -0.48142670228047107 0 0.2099258989661926 -0.5 0 0.18010732656638989 -0.49999999999999889 0 0.19315092846073259 -0.48142670228047107 0 0.19524922941433881 -0.45233208131660108 0 0.1829544030980047 -0.47481410806356161 0 0.19315092846073259 -0.48142670228047107 0 0.21090972965598451 -0.48036407344036991 0 0.20510835468759089 -0.46765011402009898 0 0.21090972965598451 -0.48036407344036991 0 0.21840708648846879 -0.46764139228593321 0 0.20510835468759089 -0.46765011402009898 0 0.21090972965598451 -0.48036407344036991 0 0.2099258989661926 -0.5 0 0.22809329589876601 -0.48221734946945549 0 0.19315092846073259 -0.48142670228047107 0 0.21090972965598451 -0.48036407344036991 0 0.2099258989661926 -0.5 0 0.2099258989661926 -0.5 0 0.23974447136599519 -0.5 0 0.22809329589876601 -0.48221734946945549 0 0.25332902673342839 -0.47294262500005152 0 0.23974447136599519 -0.5 0 0.22809329589876601 -0.48221734946945549 0 0.25332902673342839 -0.47294262500005152 0 0.22809329589876601 -0.48221734946945549 0 0.235216843855653 -0.46459944740782699 0 0.22809329589876601 -0.48221734946945549 0 0.235216843855653 -0.46459944740782699 0 0.21840708648846879 -0.46764139228593321 0 0.21090972965598451 -0.48036407344036991 0 0.22809329589876601 -0.48221734946945549 0 0.21840708648846879 -0.46764139228593321 0 0.235216843855653 -0.46459944740782699 0 0.22399201603048499 -0.44738694497070208 0 0.21840708648846879 -0.46764139228593321 0 0.25332902673342839 -0.47294262500005152 0 0.235216843855653 -0.46459944740782699 0 0.2404444276263514 -0.44554501940633923 0 0.235216843855653 -0.46459944740782699 0 0.2404444276263514 -0.44554501940633923 0 0.22399201603048499 -0.44738694497070208 0 0.2404444276263514 -0.44554501940633923 0 0.22399201603048499 -0.44738694497070208 0 0.23055545458650911 -0.42981136445742107 0 0.22399201603048499 -0.44738694497070208 0 0.21171542431116119 -0.44065525216829088 0 0.2186585830444169 -0.43204776401327849 0 0.21171542431116119 -0.44065525216829088 0 0.20463798206831529 -0.44545855545175539 0 0.2018122132822093 -0.43476190981623741 0 0.20463798206831529 -0.44545855545175539 0 0.20977506126555201 -0.4540849785058923 0 0.19524922941433881 -0.45233208131660108 0 0.21171542431116119 -0.44065525216829088 0 0.20463798206831529 -0.44545855545175539 0 0.20977506126555201 -0.4540849785058923 0 0.22399201603048499 -0.44738694497070208 0 0.21171542431116119 -0.44065525216829088 0 0.20977506126555201 -0.4540849785058923 0 0.22399201603048499 -0.44738694497070208 0 0.21840708648846879 -0.46764139228593321 0 0.20977506126555201 -0.4540849785058923 0 0.21840708648846879 -0.46764139228593321 0 0.20510835468759089 -0.46765011402009898 0 0.20977506126555201 -0.4540849785058923 0 0.20510835468759089 -0.46765011402009898 0 0.20977506126555201 -0.4540849785058923 0 0.19524922941433881 -0.45233208131660108 0 0.19315092846073259 -0.48142670228047107 0 0.20510835468759089 -0.46765011402009898 0 0.19524922941433881 -0.45233208131660108 0 0.19524922941433881 -0.45233208131660108 0 0.18580147962961949 -0.44962821612712439 0 0.1829544030980047 -0.47481410806356161 0 0.19315092846073259 -0.48142670228047107 0 0.19524922941433881 -0.45233208131660108 0 0.19524922941433881 -0.45233208131660108 0 0.18864855616123469 -0.42444232419068723 0 0.18580147962961949 -0.44962821612712439 0 0.19524922941433881 -0.45233208131660108 0 0.1973475303679455 -0.42323746035273102 0 0.20463798206831529 -0.44545855545175539 0 0.19524922941433881 -0.45233208131660108 0 0.2018122132822093 -0.43476190981623741 0 0.19524922941433881 -0.45233208131660108 0 0.1973475303679455 -0.42323746035273102 0 0.2018122132822093 -0.43476190981623741 0 0.19524922941433881 -0.45233208131660108 0 0.1973475303679455 -0.42323746035273102 0 0.18864855616123469 -0.42444232419068723 0 0.1973475303679455 -0.42323746035273102 0 0.20272398272264061 -0.42741036596820808 0 0.2018122132822093 -0.43476190981623741 0 0.1973475303679455 -0.42323746035273102 0 0.2029764894327383 -0.42245781334363303 0 0.1973475303679455 -0.42323746035273102 0 0.2029764894327383 -0.42245781334363303 0 0.20272398272264061 -0.42741036596820808 0 0.1973475303679455 -0.42323746035273102 0 0.18864855616123469 -0.42444232419068723 0 0.1973475303679455 -0.42323746035273102 0 0.18864855616123469 -0.42444232419068723 0 0.1890490676631133 -0.42089930759327271 0 0.18864855616123469 -0.42444232419068723 0 0.1890490676631133 -0.42089930759327271 0 0.1973475303679455 -0.42323746035273102 0 0.2029764894327383 -0.42245781334363303 0 0.1985350498092181 -0.40677155350953742 0 0.1973475303679455 -0.42323746035273102 0 0.1890490676631133 -0.42089930759327271 0 0.1985350498092181 -0.40677155350953742 0 0.1973475303679455 -0.42323746035273102 0 0.1985350498092181 -0.40677155350953742 0 0.1890490676631133 -0.42089930759327271 0 0.18911889131910031 -0.40860042573246508 0 0.1985350498092181 -0.40677155350953742 0 0.2029764894327383 -0.42245781334363303 0 0.1985350498092181 -0.40677155350953742 0 0.20843274019692401 -0.41272011159253869 0 0.2029764894327383 -0.42245781334363303 0 0.20843274019692401 -0.41272011159253869 0 0.21463849493421691 -0.4202202184747108 0 0.1985350498092181 -0.40677155350953742 0 0.20843274019692401 -0.41272011159253869 0 0.20869372569379199 -0.40303358558980612 0 0.20843274019692401 -0.41272011159253869 0 0.2174778687547258 -0.40958817286035731 0 0.20869372569379199 -0.40303358558980612 0 0.20843274019692401 -0.41272011159253869 0 0.2174778687547258 -0.40958817286035731 0 0.21463849493421691 -0.4202202184747108 0 0.21463849493421691 -0.4202202184747108 0 0.20875969780767001 -0.42918428036023132 0 0.2186585830444169 -0.43204776401327849 0 0.2029764894327383 -0.42245781334363303 0 0.21463849493421691 -0.4202202184747108 0 0.20875969780767001 -0.42918428036023132 0 0.2029764894327383 -0.42245781334363303 0 0.20272398272264061 -0.42741036596820808 0 0.20875969780767001 -0.42918428036023132 0 0.21171542431116119 -0.44065525216829088 0 0.2018122132822093 -0.43476190981623741 0 0.20875969780767001 -0.42918428036023132 0 0.20272398272264061 -0.42741036596820808 0 0.2018122132822093 -0.43476190981623741 0 0.20875969780767001 -0.42918428036023132 0 0.21171542431116119 -0.44065525216829088 0 0.20875969780767001 -0.42918428036023132 0 0.2186585830444169 -0.43204776401327849 0 0.22399201603048499 -0.44738694497070208 0 0.2186585830444169 -0.43204776401327849 0 0.23055545458650911 -0.42981136445742107 0 0.21463849493421691 -0.4202202184747108 0 0.2186585830444169 -0.43204776401327849 0 0.23055545458650911 -0.42981136445742107 0 0.2404444276263514 -0.44554501940633923 0 0.23055545458650911 -0.42981136445742107 0 0.2439032853903231 -0.42819447938012312 0 0.25591807002390587 -0.42994073300465441 0 0.2404444276263514 -0.44554501940633923 0 0.2439032853903231 -0.42819447938012312 0 0.23055545458650911 -0.42981136445742107 0 0.2439032853903231 -0.42819447938012312 0 0.2419172462010902 -0.41510594446541932 0 0.25065589714887798 -0.42254453981180962 0 0.2439032853903231 -0.42819447938012312 0 0.2419172462010902 -0.41510594446541932 0 0.24296705791707779 -0.40959000694497832 0 0.2473917177600676 -0.4120792571051406 0 0.2419172462010902 -0.41510594446541932 0 0.24296705791707779 -0.40959000694497832 0 0.24664030873998391 -0.40718251901438818 0 0.24312554146041651 -0.40456901824441799 0 0.24296705791707779 -0.40959000694497832 0 0.24664030873998391 -0.40718251901438818 0 0.2473917177600676 -0.4120792571051406 0 0.25044701481765341 -0.40915159130374512 0 0.24664030873998391 -0.40718251901438818 0 0.2473917177600676 -0.4120792571051406 0 0.2419172462010902 -0.41510594446541932 0 0.23602122386867341 -0.40823091925137123 0 0.22754353006446379 -0.41149877121789941 0 0.24296705791707779 -0.40959000694497832 0 0.2419172462010902 -0.41510594446541932 0 0.23602122386867341 -0.40823091925137123 0 0.24296705791707779 -0.40959000694497832 0 0.23602122386867341 -0.40823091925137123 0 0.24312554146041651 -0.40456901824441799 0 0.21463849493421691 -0.4202202184747108 0 0.2419172462010902 -0.41510594446541932 0 0.21463849493421691 -0.4202202184747108 0 0.23055545458650911 -0.42981136445742107 0 0.2419172462010902 -0.41510594446541932 0 0.21463849493421691 -0.4202202184747108 0 0.2419172462010902 -0.41510594446541932 0 0.22754353006446379 -0.41149877121789941 0 0.23602122386867341 -0.40823091925137123 0 0.22754353006446379 -0.41149877121789941 0 0.227294194247115 -0.40284071469717231 0 0.2174778687547258 -0.40958817286035731 0 0.21463849493421691 -0.4202202184747108 0 0.22754353006446379 -0.41149877121789941 0 0.2174778687547258 -0.40958817286035731 0 0.22754353006446379 -0.41149877121789941 0 0.227294194247115 -0.40284071469717231 0 0.22274757985794091 -0.39334650752122968 0 0.23820780912695791 -0.39755111589038472 0 0.23362482199944179 -0.38155627439180828 0 0.22274757985794091 -0.39334650752122968 0 0.227294194247115 -0.40284071469717231 0 0.21763628766383469 -0.40078337254391549 0 0.2174778687547258 -0.40958817286035731 0 0.227294194247115 -0.40284071469717231 0 0.21763628766383469 -0.40078337254391549 0 0.22274757985794091 -0.39334650752122968 0 0.227294194247115 -0.40284071469717231 0 0.23820780912695791 -0.39755111589038472 0 0.23602122386867341 -0.40823091925137123 0 0.227294194247115 -0.40284071469717231 0 0.23820780912695791 -0.39755111589038472 0 0.23602122386867341 -0.40823091925137123 0 0.23820780912695791 -0.39755111589038472 0 0.24312554146041651 -0.40456901824441799 0 0.23820780912695791 -0.39755111589038472 0 0.24980309394558189 -0.39062738747504427 0 0.24927021174470429 -0.40052272147365892 0 0.25044701481765341 -0.40915159130374512 0 0.24664030873998391 -0.40718251901438818 0 0.24927021174470429 -0.40052272147365892 0 0.23820780912695791 -0.39755111589038472 0 0.24927021174470429 -0.40052272147365892 0 0.24312554146041651 -0.40456901824441799 0 0.24664030873998391 -0.40718251901438818 0 0.24927021174470429 -0.40052272147365892 0 0.24312554146041651 -0.40456901824441799 0 0.25924715441336921 -0.37947466181385081 0 0.23362482199944179 -0.38155627439180828 0 0.25924715441336921 -0.37947466181385081 0 0.24980309394558189 -0.39062738747504427 0 0.23362482199944179 -0.38155627439180828 0 0.23820780912695791 -0.39755111589038472 0 0.24980309394558189 -0.39062738747504427 0 0.23362482199944179 -0.38155627439180828 0 0.22274757985794091 -0.39334650752122968 0 0.23362482199944179 -0.38155627439180828 0 0.20800248958551459 -0.38363788696976669 0 0.2218971792495826 -0.37244859432082111 0 0.23362482199944179 -0.38155627439180828 0 0.20800248958551459 -0.38363788696976669 0 0.23362482199944179 -0.38155627439180828 0 0.20800248958551459 -0.38363788696976669 0 0.201285700502744 -0.36863158164582571 0 0.20800248958551459 -0.38363788696976669 0 0.2001574821115438 -0.38427523200019109 0 0.2218971792495826 -0.37244859432082111 0 0.21109269040141959 -0.37166274268484062 0 0.20800248958551459 -0.38363788696976669 0 0.2218971792495826 -0.37244859432082111 0 0.20800248958551459 -0.38363788696976669 0 0.20800248958551459 -0.38363788696976669 0 0.2117198765247813 -0.39370968063433182 0 0.19972256925049239 -0.39030564666634388 0 0.20800248958551459 -0.38363788696976669 0 0.19972256925049239 -0.39030564666634388 0 0.20800248958551459 -0.38363788696976669 0 0.2001574821115438 -0.38427523200019109 0 0.22274757985794091 -0.39334650752122968 0 0.20800248958551459 -0.38363788696976669 0 0.2117198765247813 -0.39370968063433182 0 0.22274757985794091 -0.39334650752122968 0 0.2117198765247813 -0.39370968063433182 0 0.21763628766383469 -0.40078337254391549 0 0.2174778687547258 -0.40958817286035731 0 0.21763628766383469 -0.40078337254391549 0 0.20869372569379199 -0.40303358558980612 0 0.2117198765247813 -0.39370968063433182 0 0.21763628766383469 -0.40078337254391549 0 0.20869372569379199 -0.40303358558980612 0 0.2117198765247813 -0.39370968063433182 0 0.20869372569379199 -0.40303358558980612 0 0.19972256925049239 -0.39030564666634388 0 0.1985350498092181 -0.40677155350953742 0 0.20869372569379199 -0.40303358558980612 0 0.19972256925049239 -0.39030564666634388 0 0.1985350498092181 -0.40677155350953742 0 0.19972256925049239 -0.39030564666634388 0 0.18911889131910031 -0.40860042573246508 0 0.1985350498092181 -0.40677155350953742 0 0.19972256925049239 -0.39030564666634388 0 0.19972256925049239 -0.39030564666634388 0 0.17662865627113891 -0.4089030070236308 0 0.19972256925049239 -0.39030564666634388 0 0.19854739692153081 -0.38748222104576929 0 0.17454505738687229 -0.39900493446146862 0 0.18911889131910031 -0.40860042573246508 0 0.19972256925049239 -0.39030564666634388 0 0.17662865627113891 -0.4089030070236308 0 0.19112201924033359 -0.37517040223335502 0 0.2001574821115438 -0.38427523200019109 0 0.17827133506075971 -0.38605330896242901 0 0.2001574821115438 -0.38427523200019109 0 0.17827133506075971 -0.38605330896242901 0 0.2001574821115438 -0.38427523200019109 0 0.19854739692153081 -0.38748222104576929 0 0.17827133506075971 -0.38605330896242901 0 0.201285700502744 -0.36863158164582571 0 0.2001574821115438 -0.38427523200019109 0 0.201285700502744 -0.36863158164582571 0 0.19112201924033359 -0.37517040223335502 0 0.2001574821115438 -0.38427523200019109 0 0.20800248958551459 -0.38363788696976669 0 0.2001574821115438 -0.38427523200019109 0 0.19972256925049239 -0.39030564666634388 0 0.2001574821115438 -0.38427523200019109 0 0.19972256925049239 -0.39030564666634388 0 0.2001574821115438 -0.38427523200019109 0 0.19972256925049239 -0.39030564666634388 0 0.19854739692153081 -0.38748222104576929 0 0.18477355928628689 -0.36172148632497148 0 0.17827133506075971 -0.38605330896242901 0 0.1677266713954865 -0.38564470859103339 0 0.19854739692153081 -0.38748222104576929 0 0.17827133506075971 -0.38605330896242901 0 0.17454505738687229 -0.39900493446146862 0 0.19972256925049239 -0.39030564666634388 0 0.17454505738687229 -0.39900493446146862 0 0.17662865627113891 -0.4089030070236308 0 0.19854739692153081 -0.38748222104576929 0 0.17454505738687229 -0.39900493446146862 0 0.17454505738687229 -0.39900493446146862 0 0.15748272437758751 -0.39901634101204109 0 0.15054271785221399 -0.410527647877168 0 0.17454505738687229 -0.39900493446146862 0 0.15748272437758751 -0.39901634101204109 0 0.156385188009975 -0.38783138592465932 0 0.17454505738687229 -0.39900493446146862 0 0.15054271785221399 -0.410527647877168 0 0.17827133506075971 -0.38605330896242901 0 0.17454505738687229 -0.39900493446146862 0 0.156385188009975 -0.38783138592465932 0 0.17454505738687229 -0.39900493446146862 0 0.15054271785221399 -0.410527647877168 0 0.17662865627113891 -0.4089030070236308 0 0.17827133506075971 -0.38605330896242901 0 0.1677266713954865 -0.38564470859103339 0 0.156385188009975 -0.38783138592465932 0 0.17225371590219329 -0.36607214115666992 0 0.1566703605233869 -0.37125287041514948 0 0.156385188009975 -0.38783138592465932 0 0.17225371590219329 -0.36607214115666992 0 0.1677266713954865 -0.38564470859103339 0 0.156385188009975 -0.38783138592465932 0 0.17225371590219329 -0.36607214115666992 0 0.156385188009975 -0.38783138592465932 0 0.17827133506075971 -0.38605330896242901 0 0.156385188009975 -0.38783138592465932 0 0.1566703605233869 -0.37125287041514948 0 0.156385188009975 -0.38783138592465932 0 0.1505119922327755 -0.37788502074297259 0 0.14231171430806769 -0.36383602803281612 0 0.14668070608967221 -0.38861979859926088 0 0.1364292476267964 -0.3764984564803715 0 0.14231171430806769 -0.36383602803281612 0 0.1505119922327755 -0.37788502074297259 0 0.14668070608967221 -0.38861979859926088 0 0.14231171430806769 -0.36383602803281612 0 0.14668070608967221 -0.38861979859926088 0 0.156385188009975 -0.38783138592465932 0 0.1505119922327755 -0.37788502074297259 0 0.14668070608967221 -0.38861979859926088 0 0.156385188009975 -0.38783138592465932 0 0.14668070608967221 -0.38861979859926088 0 0.14668070608967221 -0.38861979859926088 0 0.14277049240266751 -0.38893747264477208 0 0.1364292476267964 -0.3764984564803715 0 0.14668070608967221 -0.38861979859926088 0 0.14277049240266751 -0.38893747264477208 0 0.14277049240266751 -0.38893747264477208 0 0.1364292476267964 -0.3764984564803715 0 0.1315813848452328 -0.39209846746845722 0 0.1364292476267964 -0.3764984564803715 0 0.1315813848452328 -0.39209846746845722 0 0.12218230561496619 -0.38400314725248952 0 0.1375033395134804 -0.40012598058108689 0 0.14845793426128659 -0.39870139578486752 0 0.13406413884983751 -0.41843845769919891 0 0.1315813848452328 -0.39209846746845722 0 0.1226282343010138 -0.39707420156349399 0 0.12218230561496619 -0.38400314725248952 0 0.1293802788735029 -0.40456021592767749 0 0.1315813848452328 -0.39209846746845722 0 0.1226282343010138 -0.39707420156349399 0 0.14277049240266751 -0.38893747264477208 0 0.1315813848452328 -0.39209846746845722 0 0.1375033395134804 -0.40012598058108689 0 0.1293802788735029 -0.40456021592767749 0 0.1315813848452328 -0.39209846746845722 0 0.1375033395134804 -0.40012598058108689 0 0.14277049240266751 -0.38893747264477208 0 0.1375033395134804 -0.40012598058108689 0 0.14845793426128659 -0.39870139578486752 0 0.14668070608967221 -0.38861979859926088 0 0.14845793426128659 -0.39870139578486752 0 0.14668070608967221 -0.38861979859926088 0 0.14277049240266751 -0.38893747264477208 0 0.14845793426128659 -0.39870139578486752 0 0.156385188009975 -0.38783138592465932 0 0.14845793426128659 -0.39870139578486752 0 0.156385188009975 -0.38783138592465932 0 0.14668070608967221 -0.38861979859926088 0 0.14845793426128659 -0.39870139578486752 0 0.15748272437758751 -0.39901634101204109 0 0.156385188009975 -0.38783138592465932 0 0.14845793426128659 -0.39870139578486752 0 0.14845793426128659 -0.39870139578486752 0 0.15054271785221399 -0.410527647877168 0 0.15748272437758751 -0.39901634101204109 0 0.14845793426128659 -0.39870139578486752 0 0.15054271785221399 -0.410527647877168 0 0.14845793426128659 -0.39870139578486752 0 0.13406413884983751 -0.41843845769919891 0 0.15054271785221399 -0.410527647877168 0 0.1535347432917849 -0.42750036738091701 0 0.15054271785221399 -0.410527647877168 0 0.13406413884983751 -0.41843845769919891 0 0.15082706085388181 -0.4296808443782848 0 0.14845793426128659 -0.39870139578486752 0 0.15054271785221399 -0.410527647877168 0 0.13406413884983751 -0.41843845769919891 0 0.15054271785221399 -0.410527647877168 0 0.13406413884983751 -0.41843845769919891 0 0.1293802788735029 -0.40456021592767749 0 0.1375033395134804 -0.40012598058108689 0 0.13406413884983751 -0.41843845769919891 0 0.13406413884983751 -0.41843845769919891 0 0.12774854705154429 -0.42147036024507523 0 0.1262166591879825 -0.41370554445907848 0 0.13406413884983751 -0.41843845769919891 0 0.12774854705154429 -0.42147036024507523 0 0.1293802788735029 -0.40456021592767749 0 0.13406413884983751 -0.41843845769919891 0 0.1262166591879825 -0.41370554445907848 0 0.1293802788735029 -0.40456021592767749 0 0.1262166591879825 -0.41370554445907848 0 0.1198554547203636 -0.40804821205215258 0 0.13406413884983751 -0.41843845769919891 0 0.15082706085388181 -0.4296808443782848 0 0.12306064374587319 -0.43352667160894831 0 0.15082706085388181 -0.4296808443782848 0 0.13037747694464669 -0.44614874574505009 0 0.12306064374587319 -0.43352667160894831 0 0.15082706085388181 -0.4296808443782848 0 0.12306064374587319 -0.43352667160894831 0 0.13406413884983751 -0.41843845769919891 0 0.12774854705154429 -0.42147036024507523 0 0.12306064374587319 -0.43352667160894831 0 0.13406413884983751 -0.41843845769919891 0 0.12306064374587319 -0.43352667160894831 0 0.15054271785221399 -0.410527647877168 0 0.15082706085388181 -0.4296808443782848 0 0.1535347432917849 -0.42750036738091701 0 0.15082706085388181 -0.4296808443782848 0 0.15384542928613251 -0.4292627809506625 0 0.15082706085388181 -0.4296808443782848 0 0.1535347432917849 -0.42750036738091701 0 0.15082706085388181 -0.4296808443782848 0 0.15384542928613251 -0.4292627809506625 0 0.1535347432917849 -0.42750036738091701 0 0.15384542928613251 -0.4292627809506625 0 0.1535347432917849 -0.42750036738091701 0 0.15082706085388181 -0.4296808443782848 0 0.15384542928613251 -0.4292627809506625 0 0.15618176942106349 -0.44251602580984861 0 0.15384542928613251 -0.4292627809506625 0 0.15618176942106349 -0.44251602580984861 0 0.15384542928613251 -0.4292627809506625 0 0.16317328131416639 -0.4351907903699343 0 0.15618176942106349 -0.44251602580984861 0 0.15384542928613251 -0.4292627809506625 0 0.1712469927236836 -0.42685255257067528 0 0.15384542928613251 -0.4292627809506625 0 0.1535347432917849 -0.42750036738091701 0 0.1712469927236836 -0.42685255257067528 0 0.15384542928613251 -0.4292627809506625 0 0.16317328131416639 -0.4351907903699343 0 0.1712469927236836 -0.42685255257067528 0 0.16317328131416639 -0.4351907903699343 0 0.1712469927236836 -0.42685255257067528 0 0.1714189338257858 -0.44213180214855052 0 0.1535347432917849 -0.42750036738091701 0 0.1712469927236836 -0.42685255257067528 0 0.17662865627113891 -0.4089030070236308 0 0.15054271785221399 -0.410527647877168 0 0.1535347432917849 -0.42750036738091701 0 0.17662865627113891 -0.4089030070236308 0 0.1535347432917849 -0.42750036738091701 0 0.17662865627113891 -0.4089030070236308 0 0.1712469927236836 -0.42685255257067528 0 0.17662865627113891 -0.4089030070236308 0 0.18293843282765421 -0.41793952342214652 0 0.18911889131910031 -0.40860042573246508 0 0.17662865627113891 -0.4089030070236308 0 0.18293843282765421 -0.41793952342214652 0 0.1890490676631133 -0.42089930759327271 0 0.18911889131910031 -0.40860042573246508 0 0.18293843282765421 -0.41793952342214652 0 0.18864855616123469 -0.42444232419068723 0 0.1890490676631133 -0.42089930759327271 0 0.18293843282765421 -0.41793952342214652 0 0.18864855616123469 -0.42444232419068723 0 0.1712469927236836 -0.42685255257067528 0 0.18293843282765421 -0.41793952342214652 0 0.18864855616123469 -0.42444232419068723 0 0.1712469927236836 -0.42685255257067528 0 0.1714189338257858 -0.44213180214855052 0 0.18864855616123469 -0.42444232419068723 0 0.18580147962961949 -0.44962821612712439 0 0.18864855616123469 -0.42444232419068723 0 0.1712469927236836 -0.42685255257067528 0 0.18864855616123469 -0.42444232419068723 0 0.18580147962961949 -0.44962821612712439 0 0.1714189338257858 -0.44213180214855052 0 0.18580147962961949 -0.44962821612712439 0 0.17068107031211699 -0.45824935092686669 0 0.1714189338257858 -0.44213180214855052 0 0.18580147962961949 -0.44962821612712439 0 0.17068107031211699 -0.45824935092686669 0 0.1829544030980047 -0.47481410806356161 0 0.18580147962961949 -0.44962821612712439 0 0.1829544030980047 -0.47481410806356161 0 0.17068107031211699 -0.45824935092686669 0 0.15871293824530319 -0.45424786298594938 0 0.16115430243562931 -0.47121718851593131 0 0.15871293824530319 -0.45424786298594938 0 0.14913631470145561 -0.46216034416730739 0 0.16115430243562931 -0.47121718851593131 0 0.17068107031211699 -0.45824935092686669 0 0.16115430243562931 -0.47121718851593131 0 0.1829544030980047 -0.47481410806356161 0 0.17068107031211699 -0.45824935092686669 0 0.15871293824530319 -0.45424786298594938 0 0.1714189338257858 -0.44213180214855052 0 0.15871293824530319 -0.45424786298594938 0 0.1714189338257858 -0.44213180214855052 0 0.15618176942106349 -0.44251602580984861 0 0.16317328131416639 -0.4351907903699343 0 0.1714189338257858 -0.44213180214855052 0 0.15618176942106349 -0.44251602580984861 0 0.15082706085388181 -0.4296808443782848 0 0.1471439766804149 -0.44085089291701868 0 0.13037747694464669 -0.44614874574505009 0 0.15618176942106349 -0.44251602580984861 0 0.14809763405708201 -0.4499386897092138 0 0.1471439766804149 -0.44085089291701868 0 0.15082706085388181 -0.4296808443782848 0 0.15618176942106349 -0.44251602580984861 0 0.1471439766804149 -0.44085089291701868 0 0.15871293824530319 -0.45424786298594938 0 0.15618176942106349 -0.44251602580984861 0 0.14809763405708201 -0.4499386897092138 0 0.14809763405708201 -0.4499386897092138 0 0.1471439766804149 -0.44085089291701868 0 0.14019120928827439 -0.44686033471842601 0 0.14809763405708201 -0.4499386897092138 0 0.14019120928827439 -0.44686033471842601 0 0.1392284060066819 -0.45345558138833142 0 0.1471439766804149 -0.44085089291701868 0 0.14019120928827439 -0.44686033471842601 0 0.13037747694464669 -0.44614874574505009 0 0.15082706085388181 -0.4296808443782848 0 0.13037747694464669 -0.44614874574505009 0 0.14019120928827439 -0.44686033471842601 0 0.1336550126810864 -0.4481650962706335 0 0.13037747694464669 -0.44614874574505009 0 0.14019120928827439 -0.44686033471842601 0 0.1336550126810864 -0.4481650962706335 0 0.1392284060066819 -0.45345558138833142 0 0.1336550126810864 -0.4481650962706335 0 0.13177946918681049 -0.45453000283582751 0 0.1392284060066819 -0.45345558138833142 0 0.1336550126810864 -0.4481650962706335 0 0.13037747694464669 -0.44614874574505009 0 0.1336550126810864 -0.4481650962706335 0 0.13037747694464669 -0.44614874574505009 0 0.13177946918681049 -0.45453000283582751 0 0.135414415810692 -0.46220345140431679 0 0.1286097875823807 -0.47157827882685333 0 0.12368887246644369 -0.46069289112303141 0 0.13177946918681049 -0.45453000283582751 0 0.135414415810692 -0.46220345140431679 0 0.12368887246644369 -0.46069289112303141 0 0.13037747694464669 -0.44614874574505009 0 0.13177946918681049 -0.45453000283582751 0 0.12368887246644369 -0.46069289112303141 0 0.13177946918681049 -0.45453000283582751 0 0.1392284060066819 -0.45345558138833142 0 0.135414415810692 -0.46220345140431679 0 0.135414415810692 -0.46220345140431679 0 0.1404151268034724 -0.47213787424760589 0 0.1286097875823807 -0.47157827882685333 0 0.135414415810692 -0.46220345140431679 0 0.14913631470145561 -0.46216034416730739 0 0.1404151268034724 -0.47213787424760589 0 0.14809763405708201 -0.4499386897092138 0 0.1392284060066819 -0.45345558138833142 0 0.14913631470145561 -0.46216034416730739 0 0.1392284060066819 -0.45345558138833142 0 0.135414415810692 -0.46220345140431679 0 0.14913631470145561 -0.46216034416730739 0 0.15871293824530319 -0.45424786298594938 0 0.14809763405708201 -0.4499386897092138 0 0.14913631470145561 -0.46216034416730739 0 0.14913631470145561 -0.46216034416730739 0 0.151771710758072 -0.47958894912390249 0 0.1404151268034724 -0.47213787424760589 0 0.14913631470145561 -0.46216034416730739 0 0.151771710758072 -0.47958894912390249 0 0.16115430243562931 -0.47121718851593131 0 0.151771710758072 -0.47958894912390249 0 0.1404151268034724 -0.47213787424760589 0 0.13714340516476159 -0.4851583477156497 0 0.1286097875823807 -0.47157827882685333 0 0.13714340516476159 -0.4851583477156497 0 0.1203232821897557 -0.48202517569502251 0 0.1404151268034724 -0.47213787424760589 0 0.1286097875823807 -0.47157827882685333 0 0.13714340516476159 -0.4851583477156497 0 0.1273452333770714 -0.5 0 0.13714340516476159 -0.4851583477156497 0 0.15372627997173069 -0.5 0 0.1273452333770714 -0.5 0 0.13714340516476159 -0.4851583477156497 0 0.1203232821897557 -0.48202517569502251 0 0.151771710758072 -0.47958894912390249 0 0.13714340516476159 -0.4851583477156497 0 0.15372627997173069 -0.5 0 0.151771710758072 -0.47958894912390249 0 0.15372627997173069 -0.5 0 0.16745089803580801 -0.48567982689460543 0 0.15372627997173069 -0.5 0 0.16745089803580801 -0.48567982689460543 0 0.18010732656638989 -0.49999999999999889 0 0.16745089803580801 -0.48567982689460543 0 0.16115430243562931 -0.47121718851593131 0 0.1829544030980047 -0.47481410806356161 0 0.151771710758072 -0.47958894912390249 0 0.16745089803580801 -0.48567982689460543 0 0.16115430243562931 -0.47121718851593131 0 0.1829544030980047 -0.47481410806356161 0 0.18010732656638989 -0.49999999999999889 0 0.19315092846073259 -0.48142670228047107 0 0.1829544030980047 -0.47481410806356161 0 0.18010732656638989 -0.49999999999999889 0 0.16745089803580801 -0.48567982689460543 0 0.1829544030980047 -0.47481410806356161 0 0.18010732656638989 -0.49999999999999889 0 0.074583140187752694 -0.49999999999999861 0 0.068261211595817328 -0.48404361043706617 0 0.047603815031855401 -0.5 0 0.074583140187752694 -0.49999999999999861 0 0.068261211595817328 -0.48404361043706617 0 0.087237119101773952 -0.48264860947724308 0 0.068261211595817328 -0.48404361043706617 0 0.077261447368831782 -0.46404460845191681 0 0.054620536288873457 -0.47352483425617309 0 0.068261211595817328 -0.48404361043706617 0 0.087237119101773952 -0.48264860947724308 0 0.077261447368831782 -0.46404460845191681 0 0.087237119101773952 -0.48264860947724308 0 0.099891098015791685 -0.46529721895448511 0 0.077261447368831782 -0.46404460845191681 0 0.087237119101773952 -0.48264860947724308 0 0.099891098015791685 -0.46529721895448511 0 0.087237119101773952 -0.48264860947724308 0 0.093991391511003552 -0.49030469852929548 0 0.097684009776995512 -0.48007543076997822 0 0.074583140187752694 -0.49999999999999861 0 0.087237119101773952 -0.48264860947724308 0 0.093991391511003552 -0.49030469852929548 0 0.074583140187752694 -0.49999999999999861 0 0.087237119101773952 -0.48264860947724308 0 0.074583140187752694 -0.49999999999999861 0 0.10096418678241199 -0.5 0 0.093991391511003552 -0.49030469852929548 0 0.10096418678241199 -0.5 0 0.093991391511003552 -0.49030469852929548 0 0.10790793555355251 -0.48783778246379372 0 0.093991391511003552 -0.49030469852929548 0 0.10790793555355251 -0.48783778246379372 0 0.097684009776995512 -0.48007543076997822 0 0.1273452333770714 -0.5 0 0.10096418678241199 -0.5 0 0.10790793555355251 -0.48783778246379372 0 0.1273452333770714 -0.5 0 0.10790793555355251 -0.48783778246379372 0 0.1203232821897557 -0.48202517569502251 0 0.1286097875823807 -0.47157827882685333 0 0.1174007234674566 -0.47051598705995151 0 0.1203232821897557 -0.48202517569502251 0 0.10790793555355251 -0.48783778246379372 0 0.1203232821897557 -0.48202517569502251 0 0.10634922660781081 -0.47414055482073442 0 0.1174007234674566 -0.47051598705995151 0 0.10634922660781081 -0.47414055482073442 0 0.1080324484908923 -0.46414303483411551 0 0.1174007234674566 -0.47051598705995151 0 0.1203232821897557 -0.48202517569502251 0 0.10634922660781081 -0.47414055482073442 0 0.087237119101773952 -0.48264860947724308 0 0.097684009776995512 -0.48007543076997822 0 0.099891098015791685 -0.46529721895448511 0 0.10790793555355251 -0.48783778246379372 0 0.10634922660781081 -0.47414055482073442 0 0.097684009776995512 -0.48007543076997822 0 0.10634922660781081 -0.47414055482073442 0 0.097684009776995512 -0.48007543076997822 0 0.099891098015791685 -0.46529721895448511 0 0.097684009776995512 -0.48007543076997822 0 0.099891098015791685 -0.46529721895448511 0 0.099891098015791685 -0.46529721895448511 0 0.109431811424318 -0.45221480074107462 0 0.099891098015791685 -0.46529721895448511 0 0.1080324484908923 -0.46414303483411551 0 0.109431811424318 -0.45221480074107462 0 0.10634922660781081 -0.47414055482073442 0 0.099891098015791685 -0.46529721895448511 0 0.1080324484908923 -0.46414303483411551 0 0.1174007234674566 -0.47051598705995151 0 0.1080324484908923 -0.46414303483411551 0 0.12368887246644369 -0.46069289112303141 0 0.13037747694464669 -0.44614874574505009 0 0.1080324484908923 -0.46414303483411551 0 0.12368887246644369 -0.46069289112303141 0 0.13037747694464669 -0.44614874574505009 0 0.1080324484908923 -0.46414303483411551 0 0.13037747694464669 -0.44614874574505009 0 0.1080324484908923 -0.46414303483411551 0 0.109431811424318 -0.45221480074107462 0 0.1286097875823807 -0.47157827882685333 0 0.1174007234674566 -0.47051598705995151 0 0.12368887246644369 -0.46069289112303141 0 0.1189725248328392 -0.4391323825276604 0 0.109431811424318 -0.45221480074107462 0 0.11228628933185281 -0.43501898894456592 0 0.13037747694464669 -0.44614874574505009 0 0.1189725248328392 -0.4391323825276604 0 0.109431811424318 -0.45221480074107462 0 0.13037747694464669 -0.44614874574505009 0 0.1189725248328392 -0.4391323825276604 0 0.13037747694464669 -0.44614874574505009 0 0.1189725248328392 -0.4391323825276604 0 0.12306064374587319 -0.43352667160894831 0 0.1189725248328392 -0.4391323825276604 0 0.109431811424318 -0.45221480074107462 0 0.099891098015791685 -0.46529721895448511 0 0.109431811424318 -0.45221480074107462 0 0.1042467723502802 -0.43613251371835521 0 0.109431811424318 -0.45221480074107462 0 0.1042467723502802 -0.43613251371835521 0 0.11228628933185281 -0.43501898894456592 0 0.099891098015791685 -0.46529721895448511 0 0.090321830456559671 -0.44992577980521509 0 0.1042467723502802 -0.43613251371835521 0 0.099891098015791685 -0.46529721895448511 0 0.1042467723502802 -0.43613251371835521 0 0.074828332585282306 -0.4402071567049467 0 0.1042467723502802 -0.43613251371835521 0 0.090321830456559671 -0.44992577980521509 0 0.077261447368831782 -0.46404460845191681 0 0.074828332585282306 -0.4402071567049467 0 0.090321830456559671 -0.44992577980521509 0 0.074828332585282306 -0.4402071567049467 0 0.1042467723502802 -0.43613251371835521 0 0.099891098015791685 -0.46529721895448511 0 0.090321830456559671 -0.44992577980521509 0 0.077261447368831782 -0.46404460845191681 0 0.077261447368831782 -0.46404460845191681 0 0.061294448392290778 -0.45451625189833389 0 0.054620536288873457 -0.47352483425617309 0 0.077261447368831782 -0.46404460845191681 0 0.074828332585282306 -0.4402071567049467 0 0.061294448392290778 -0.45451625189833389 0 0.074828332585282306 -0.4402071567049467 0 0.08020034471877166 -0.41527961263049218 0 0.053408945275825133 -0.42478426490261417 0 0.08020034471877166 -0.41527961263049218 0 0.055325102640455828 -0.39997628370536031 0 0.08020034471877166 -0.41527961263049218 0 0.055325102640455828 -0.39997628370536031 0 0.053408945275825133 -0.42478426490261417 0 0.074828332585282306 -0.4402071567049467 0 0.091087759112855105 -0.43055055615235438 0 0.1042467723502802 -0.43613251371835521 0 0.074828332585282306 -0.4402071567049467 0 0.08020034471877166 -0.41527961263049218 0 0.091087759112855105 -0.43055055615235438 0 0.08020034471877166 -0.41527961263049218 0 0.1050755867970876 -0.4305829415556241 0 0.08020034471877166 -0.41527961263049218 0 0.091087759112855105 -0.43055055615235438 0 0.1050755867970876 -0.4305829415556241 0 0.1050755867970876 -0.4305829415556241 0 0.1076086671240455 -0.41362195333615881 0 0.091087759112855105 -0.43055055615235438 0 0.1042467723502802 -0.43613251371835521 0 0.1050755867970876 -0.4305829415556241 0 0.1050755867970876 -0.4305829415556241 0 0.11222241013049659 -0.42782571937201808 0 0.1076086671240455 -0.41362195333615881 0 0.1042467723502802 -0.43613251371835521 0 0.11228628933185281 -0.43501898894456592 0 0.1042467723502802 -0.43613251371835521 0 0.1050755867970876 -0.4305829415556241 0 0.11228628933185281 -0.43501898894456592 0 0.1042467723502802 -0.43613251371835521 0 0.1050755867970876 -0.4305829415556241 0 0.1050755867970876 -0.4305829415556241 0 0.11228628933185281 -0.43501898894456592 0 0.11228628933185281 -0.43501898894456592 0 0.11222241013049659 -0.42782571937201808 0 0.12306064374587319 -0.43352667160894831 0 0.1189725248328392 -0.4391323825276604 0 0.11228628933185281 -0.43501898894456592 0 0.1050755867970876 -0.4305829415556241 0 0.11228628933185281 -0.43501898894456592 0 0.11222241013049659 -0.42782571937201808 0 0.12774854705154429 -0.42147036024507523 0 0.1172077113768373 -0.42342038347546668 0 0.12306064374587319 -0.43352667160894831 0 0.11222241013049659 -0.42782571937201808 0 0.1172077113768373 -0.42342038347546668 0 0.12306064374587319 -0.43352667160894831 0 0.11228628933185281 -0.43501898894456592 0 0.12306064374587319 -0.43352667160894831 0 0.1189725248328392 -0.4391323825276604 0 0.11228628933185281 -0.43501898894456592 0 0.12306064374587319 -0.43352667160894831 0 0.1189725248328392 -0.4391323825276604 0 0.12306064374587319 -0.43352667160894831 0 0.1262166591879825 -0.41370554445907848 0 0.1198554547203636 -0.40804821205215258 0 0.1200348764446601 -0.41601047637128552 0 0.12774854705154429 -0.42147036024507523 0 0.1262166591879825 -0.41370554445907848 0 0.1200348764446601 -0.41601047637128552 0 0.12774854705154429 -0.42147036024507523 0 0.1172077113768373 -0.42342038347546668 0 0.1200348764446601 -0.41601047637128552 0 0.11222241013049659 -0.42782571937201808 0 0.1172077113768373 -0.42342038347546668 0 0.1076086671240455 -0.41362195333615881 0 0.1172077113768373 -0.42342038347546668 0 0.1200348764446601 -0.41601047637128552 0 0.1076086671240455 -0.41362195333615881 0 0.1198554547203636 -0.40804821205215258 0 0.1200348764446601 -0.41601047637128552 0 0.1076086671240455 -0.41362195333615881 0 0.08020034471877166 -0.41527961263049218 0 0.1050755867970876 -0.4305829415556241 0 0.1076086671240455 -0.41362195333615881 0 0.08020034471877166 -0.41527961263049218 0 0.1076086671240455 -0.41362195333615881 0 0.094656536209618794 -0.40301793696953381 0 0.1076086671240455 -0.41362195333615881 0 0.1101417474510034 -0.39666096511669352 0 0.1076086671240455 -0.41362195333615881 0 0.094656536209618794 -0.40301793696953381 0 0.1101417474510034 -0.39666096511669352 0 0.094656536209618794 -0.40301793696953381 0 0.1101417474510034 -0.39666096511669352 0 0.084541075409576255 -0.38923868158215652 0 0.1198554547203636 -0.40804821205215258 0 0.1076086671240455 -0.41362195333615881 0 0.1101417474510034 -0.39666096511669352 0 0.1101417474510034 -0.39666096511669352 0 0.1226282343010138 -0.39707420156349399 0 0.12218230561496619 -0.38400314725248952 0 0.1198554547203636 -0.40804821205215258 0 0.1101417474510034 -0.39666096511669352 0 0.1226282343010138 -0.39707420156349399 0 0.1293802788735029 -0.40456021592767749 0 0.1198554547203636 -0.40804821205215258 0 0.1226282343010138 -0.39707420156349399 0 0.12218230561496619 -0.38400314725248952 0 0.1060013463361119 -0.37981740164684052 0 0.1192003511384198 -0.361942383907009 0 0.1101417474510034 -0.39666096511669352 0 0.12218230561496619 -0.38400314725248952 0 0.1060013463361119 -0.37981740164684052 0 0.1101417474510034 -0.39666096511669352 0 0.1060013463361119 -0.37981740164684052 0 0.084541075409576255 -0.38923868158215652 0 0.1060013463361119 -0.37981740164684052 0 0.084541075409576255 -0.38923868158215652 0 0.093941252066593678 -0.36724183037585378 0 0.08020034471877166 -0.41527961263049218 0 0.094656536209618794 -0.40301793696953381 0 0.084541075409576255 -0.38923868158215652 0 0.08020034471877166 -0.41527961263049218 0 0.084541075409576255 -0.38923868158215652 0 0.055325102640455828 -0.39997628370536031 0 0.084541075409576255 -0.38923868158215652 0 0.058196065517447632 -0.38081457038616628 0 0.070961307223835271 -0.36638948574448083 0 0.084541075409576255 -0.38923868158215652 0 0.058196065517447632 -0.38081457038616628 0 0.055325102640455828 -0.39997628370536031 0 0.058196065517447632 -0.38081457038616628 0 0.055325102640455828 -0.39997628370536031 0 0.032346590512742059 -0.38746745034544061 0 0.055325102640455828 -0.39997628370536031 0 0.032346590512742059 -0.38746745034544061 0 0.03542332620328166 -0.41299492746798278 0 0.058196065517447632 -0.38081457038616628 0 0.032346590512742059 -0.38746745034544061 0 0.047806251800628738 -0.36100095055339321 0 0.032346590512742059 -0.38746745034544061 0 0.0035087631850650078 -0.38357939351345249 0 0.02158849945224971 -0.36220735543072419 0 0.032346590512742059 -0.38746745034544061 0 0.0035087631850650078 -0.38357939351345249 0 0.0077876948577881864 -0.41268454513509001 0 0.0035087631850650078 -0.38357939351345249 0 0.0077876948577881864 -0.41268454513509001 0 0.032346590512742059 -0.38746745034544061 0 0.0077876948577881864 -0.41268454513509001 0 0.03542332620328166 -0.41299492746798278 0 0.0077876948577881864 -0.41268454513509001 0 0.029266672686875151 -0.43596580921536587 0 0.03542332620328166 -0.41299492746798278 0 -0.001797328619806037 -0.43308705460344787 0 0.0077876948577881864 -0.41268454513509001 0 0.01206662653051137 -0.44178969675672741 0 0.0077876948577881864 -0.41268454513509001 0 0.01206662653051137 -0.44178969675672741 0 0.0077876948577881864 -0.41268454513509001 0 0.029266672686875151 -0.43596580921536587 0 0.01206662653051137 -0.44178969675672741 0 0.029266672686875151 -0.43596580921536587 0 0.053408945275825133 -0.42478426490261417 0 0.045409892820284153 -0.44428179969153803 0 0.029266672686875151 -0.43596580921536587 0 0.03542332620328166 -0.41299492746798278 0 0.053408945275825133 -0.42478426490261417 0 0.055325102640455828 -0.39997628370536031 0 0.03542332620328166 -0.41299492746798278 0 0.053408945275825133 -0.42478426490261417 0 0.074828332585282306 -0.4402071567049467 0 0.053408945275825133 -0.42478426490261417 0 0.045409892820284153 -0.44428179969153803 0 0.074828332585282306 -0.4402071567049467 0 0.061294448392290778 -0.45451625189833389 0 0.045409892820284153 -0.44428179969153803 0 0.074828332585282306 -0.4402071567049467 0 0.045409892820284153 -0.44428179969153803 0 0.061294448392290778 -0.45451625189833389 0 0.034067625975273692 -0.46005945123202269 0 0.045409892820284153 -0.44428179969153803 0 0.061294448392290778 -0.45451625189833389 0 0.034067625975273692 -0.46005945123202269 0 0.054620536288873457 -0.47352483425617309 0 0.034067625975273692 -0.46005945123202269 0 0.045409892820284153 -0.44428179969153803 0 0.015991453055286129 -0.44835644267812919 0 0.045409892820284153 -0.44428179969153803 0 0.015991453055286129 -0.44835644267812919 0 0.029266672686875151 -0.43596580921536587 0 0.015991453055286129 -0.44835644267812919 0 0.01206662653051137 -0.44178969675672741 0 0.029266672686875151 -0.43596580921536587 0 0.045409892820284153 -0.44428179969153803 0 0.015991453055286129 -0.44835644267812919 0 0.01206662653051137 -0.44178969675672741 0 0.00097962958243571693 -0.44626959229588059 0 0.0014444894161211681 -0.45821843620244318 0 -0.001797328619806037 -0.43308705460344787 0 0.01206662653051137 -0.44178969675672741 0 0.00097962958243571693 -0.44626959229588059 0 0.01206662653051137 -0.44178969675672741 0 0.016345558203234519 -0.47089484837836471 0 0.01206662653051137 -0.44178969675672741 0 0.0014444894161211681 -0.45821843620244318 0 0.016345558203234519 -0.47089484837836471 0 0.015991453055286129 -0.44835644267812919 0 0.01206662653051137 -0.44178969675672741 0 0.016345558203234519 -0.47089484837836471 0 0.034067625975273692 -0.46005945123202269 0 0.015991453055286129 -0.44835644267812919 0 0.016345558203234519 -0.47089484837836471 0 0.016345558203234519 -0.47089484837836471 0 0.020624489875957979 -0.500000000000002 0 0.035578600657916772 -0.48114068233314072 0 0.034067625975273692 -0.46005945123202269 0 0.016345558203234519 -0.47089484837836471 0 0.035578600657916772 -0.48114068233314072 0 -0.0043742609926308721 -0.47814885755577552 0 0.016345558203234519 -0.47089484837836471 0 0.020624489875957979 -0.500000000000002 0 -0.0043742609926308721 -0.47814885755577552 0 0.0014444894161211681 -0.45821843620244318 0 0.016345558203234519 -0.47089484837836471 0 -0.0081488941096850565 -0.5 0 -0.0043742609926308721 -0.47814885755577552 0 0.020624489875957979 -0.500000000000002 0 0.016345558203234519 -0.47089484837836471 0 0.020624489875957979 -0.500000000000002 0 0.035578600657916772 -0.48114068233314072 0 0.054620536288873457 -0.47352483425617309 0 0.047603815031855401 -0.5 0 0.020624489875957979 -0.500000000000002 0 0.035578600657916772 -0.48114068233314072 0 0.047603815031855401 -0.5 0 0.034067625975273692 -0.46005945123202269 0 0.035578600657916772 -0.48114068233314072 0 0.054620536288873457 -0.47352483425617309 0 0.068261211595817328 -0.48404361043706617 0 0.054620536288873457 -0.47352483425617309 0 0.047603815031855401 -0.5 0 0.077700302072759825 -0.29114087482385109 0 0.098190002729387826 -0.28144101742796351 0 0.095876569455660116 -0.30315408593603388 0 0.077032512595882896 -0.31185321985398079 0 0.077700302072759825 -0.29114087482385109 0 0.095876569455660116 -0.30315408593603388 0 0.077032512595882896 -0.31185321985398079 0 0.077700302072759825 -0.29114087482385109 0 0.057939837779491209 -0.30189047407450642 0 0.077032512595882896 -0.31185321985398079 0 0.061051555337533203 -0.31785754542855721 0 0.057939837779491209 -0.30189047407450642 0 0.077700302072759825 -0.29114087482385109 0 0.057939837779491209 -0.30189047407450642 0 0.060269914397391502 -0.281094662416291 0 0.077700302072759825 -0.29114087482385109 0 0.077670049455080339 -0.26609572065174741 0 0.060269914397391502 -0.281094662416291 0 0.077670049455080339 -0.26609572065174741 0 0.059314668909085433 -0.25766053947940609 0 0.060269914397391502 -0.281094662416291 0 0.077670049455080339 -0.26609572065174741 0 0.059314668909085433 -0.25766053947940609 0 0.066291712778726572 -0.23884337725274621 0 0.077670049455080339 -0.26609572065174741 0 0.089672187937474612 -0.24432340338472711 0 0.077670049455080339 -0.26609572065174741 0 0.099956213053382315 -0.26195140908261882 0 0.089672187937474612 -0.24432340338472711 0 0.077670049455080339 -0.26609572065174741 0 0.099956213053382315 -0.26195140908261882 0 0.098190002729387826 -0.28144101742796351 0 0.077700302072759825 -0.29114087482385109 0 0.077670049455080339 -0.26609572065174741 0 0.098190002729387826 -0.28144101742796351 0 0.099956213053382315 -0.26195140908261882 0 0.11827233300642701 -0.27195341323579908 0 0.098190002729387826 -0.28144101742796351 0 0.099956213053382315 -0.26195140908261882 0 0.11457284659363121 -0.25025118324294621 0 0.089672187937474612 -0.24432340338472711 0 0.13554402609957381 -0.26081854476635269 0 0.11457284659363121 -0.25025118324294621 0 0.11827233300642701 -0.27195341323579908 0 0.099956213053382315 -0.26195140908261882 0 0.11457284659363121 -0.25025118324294621 0 0.11827233300642701 -0.27195341323579908 0 0.11827233300642701 -0.27195341323579908 0 0.1158546905422492 -0.29566781046140012 0 0.098190002729387826 -0.28144101742796351 0 0.13743007115626291 -0.28593392299956988 0 0.11827233300642701 -0.27195341323579908 0 0.1158546905422492 -0.29566781046140012 0 0.1158546905422492 -0.29566781046140012 0 0.098190002729387826 -0.28144101742796351 0 0.095876569455660116 -0.30315408593603388 0 0.1158546905422492 -0.29566781046140012 0 0.095876569455660116 -0.30315408593603388 0 0.1145176125443565 -0.31909559966374218 0 0.1335737307448607 -0.3142684868999262 0 0.1158546905422492 -0.29566781046140012 0 0.1145176125443565 -0.31909559966374218 0 0.1379427225264642 -0.33905225746637119 0 0.1145176125443565 -0.31909559966374218 0 0.1103021738478063 -0.33869865169800201 0 0.1103021738478063 -0.33869865169800201 0 0.095397324500813729 -0.32637444053344811 0 0.097685092566412501 -0.35022646573167321 0 0.1145176125443565 -0.31909559966374218 0 0.1103021738478063 -0.33869865169800201 0 0.095397324500813729 -0.32637444053344811 0 0.095876569455660116 -0.30315408593603388 0 0.1145176125443565 -0.31909559966374218 0 0.095397324500813729 -0.32637444053344811 0 0.1379427225264642 -0.33905225746637119 0 0.1103021738478063 -0.33869865169800201 0 0.1192003511384198 -0.361942383907009 0 0.1103021738478063 -0.33869865169800201 0 0.1192003511384198 -0.361942383907009 0 0.097685092566412501 -0.35022646573167321 0 0.1192003511384198 -0.361942383907009 0 0.097685092566412501 -0.35022646573167321 0 0.093941252066593678 -0.36724183037585378 0 0.1060013463361119 -0.37981740164684052 0 0.1192003511384198 -0.361942383907009 0 0.093941252066593678 -0.36724183037585378 0 0.093941252066593678 -0.36724183037585378 0 0.080174339487412316 -0.35338057633821163 0 0.070961307223835271 -0.36638948574448083 0 0.084541075409576255 -0.38923868158215652 0 0.093941252066593678 -0.36724183037585378 0 0.070961307223835271 -0.36638948574448083 0 0.097685092566412501 -0.35022646573167321 0 0.080174339487412316 -0.35338057633821163 0 0.076969985994764137 -0.33521862031725669 0 0.097685092566412501 -0.35022646573167321 0 0.093941252066593678 -0.36724183037585378 0 0.080174339487412316 -0.35338057633821163 0 0.080174339487412316 -0.35338057633821163 0 0.070961307223835271 -0.36638948574448083 0 0.061314059585456007 -0.34782647952179357 0 0.080174339487412316 -0.35338057633821163 0 0.076969985994764137 -0.33521862031725669 0 0.061314059585456007 -0.34782647952179357 0 0.077032512595882896 -0.31185321985398079 0 0.095397324500813729 -0.32637444053344811 0 0.076969985994764137 -0.33521862031725669 0 0.077032512595882896 -0.31185321985398079 0 0.095876569455660116 -0.30315408593603388 0 0.095397324500813729 -0.32637444053344811 0 0.095397324500813729 -0.32637444053344811 0 0.097685092566412501 -0.35022646573167321 0 0.076969985994764137 -0.33521862031725669 0 0.076969985994764137 -0.33521862031725669 0 0.051465984101162453 -0.33160294135327978 0 0.061314059585456007 -0.34782647952179357 0 0.076969985994764137 -0.33521862031725669 0 0.061051555337533203 -0.31785754542855721 0 0.051465984101162453 -0.33160294135327978 0 0.077032512595882896 -0.31185321985398079 0 0.076969985994764137 -0.33521862031725669 0 0.061051555337533203 -0.31785754542855721 0 0.061051555337533203 -0.31785754542855721 0 0.051465984101162453 -0.33160294135327978 0 0.040812203109340708 -0.3146535913237502 0 0.051465984101162453 -0.33160294135327978 0 0.061314059585456007 -0.34782647952179357 0 0.034740613591755953 -0.34450101577224618 0 0.051465984101162453 -0.33160294135327978 0 0.032636224039359868 -0.3306833810032343 0 0.034740613591755953 -0.34450101577224618 0 0.051465984101162453 -0.33160294135327978 0 0.032636224039359868 -0.3306833810032343 0 0.040812203109340708 -0.3146535913237502 0 0.032636224039359868 -0.3306833810032343 0 0.040812203109340708 -0.3146535913237502 0 0.02194935475272532 -0.32280316352272609 0 0.058196065517447632 -0.38081457038616628 0 0.070961307223835271 -0.36638948574448083 0 0.047806251800628738 -0.36100095055339321 0 0.070961307223835271 -0.36638948574448083 0 0.047806251800628738 -0.36100095055339321 0 0.061314059585456007 -0.34782647952179357 0 0.047806251800628738 -0.36100095055339321 0 0.061314059585456007 -0.34782647952179357 0 0.034740613591755953 -0.34450101577224618 0 0.047806251800628738 -0.36100095055339321 0 0.034740613591755953 -0.34450101577224618 0 0.02158849945224971 -0.36220735543072419 0 0.032346590512742059 -0.38746745034544061 0 0.047806251800628738 -0.36100095055339321 0 0.02158849945224971 -0.36220735543072419 0 0.034740613591755953 -0.34450101577224618 0 0.02158849945224971 -0.36220735543072419 0 0.01421296464181496 -0.33985619304416909 0 -0.00077016848765817068 -0.35447424189181498 0 0.02158849945224971 -0.36220735543072419 0 0.01421296464181496 -0.33985619304416909 0 -0.002183485025459596 -0.33753000442901321 0 -0.00077016848765817068 -0.35447424189181498 0 0.01421296464181496 -0.33985619304416909 0 -0.00077016848765817068 -0.35447424189181498 0 0.0035087631850650078 -0.38357939351345249 0 0.02158849945224971 -0.36220735543072419 0 -0.00077016848765817068 -0.35447424189181498 0 0.0035087631850650078 -0.38357939351345249 0 0.040812203109340708 -0.3146535913237502 0 0.02194935475272532 -0.32280316352272609 0 0.025541917487681299 -0.30185497362930008 0 0.032636224039359868 -0.3306833810032343 0 0.034740613591755953 -0.34450101577224618 0 0.01421296464181496 -0.33985619304416909 0 0.032636224039359868 -0.3306833810032343 0 0.02194935475272532 -0.32280316352272609 0 0.01421296464181496 -0.33985619304416909 0 -0.0029732972699850549 -0.32029311522913467 0 -0.002183485025459596 -0.33753000442901321 0 0.01421296464181496 -0.33985619304416909 0 -0.0029732972699850549 -0.32029311522913467 0 0.01421296464181496 -0.33985619304416909 0 -0.0029732972699850549 -0.32029311522913467 0 0.02194935475272532 -0.32280316352272609 0 0.01421296464181496 -0.33985619304416909 0 -0.0029732972699850549 -0.32029311522913467 0 0.02194935475272532 -0.32280316352272609 0 0.0095272080445482007 -0.3094143916565264 0 -0.0029732972699850549 -0.32029311522913467 0 0.02194935475272532 -0.32280316352272609 0 -0.0024297493602513272 -0.30423326012381352 0 -0.0029732972699850549 -0.32029311522913467 0 0.0095272080445482007 -0.3094143916565264 0 0.0095272080445482007 -0.3094143916565264 0 0.0084259895826347183 -0.2955299687392306 0 0.025541917487681299 -0.30185497362930008 0 -0.0024297493602513272 -0.30423326012381352 0 0.0095272080445482007 -0.3094143916565264 0 0.0084259895826347183 -0.2955299687392306 0 -0.0098515494933118612 -0.29073103106618531 0 0.0084259895826347183 -0.2955299687392306 0 0.001744876337285421 -0.28084471353780871 0 0.0084259895826347183 -0.2955299687392306 0 0.020340977249531871 -0.27933908705579968 0 0.001744876337285421 -0.28084471353780871 0 0.025541917487681299 -0.30185497362930008 0 0.040802519202604443 -0.28902380331566391 0 0.020340977249531871 -0.27933908705579968 0 0.0084259895826347183 -0.2955299687392306 0 0.025541917487681299 -0.30185497362930008 0 0.020340977249531871 -0.27933908705579968 0 0.02194935475272532 -0.32280316352272609 0 0.0095272080445482007 -0.3094143916565264 0 0.025541917487681299 -0.30185497362930008 0 0.040812203109340708 -0.3146535913237502 0 0.040802519202604443 -0.28902380331566391 0 0.057939837779491209 -0.30189047407450642 0 0.040812203109340708 -0.3146535913237502 0 0.025541917487681299 -0.30185497362930008 0 0.040802519202604443 -0.28902380331566391 0 0.040802519202604443 -0.28902380331566391 0 0.057939837779491209 -0.30189047407450642 0 0.060269914397391502 -0.281094662416291 0 0.061051555337533203 -0.31785754542855721 0 0.040812203109340708 -0.3146535913237502 0 0.057939837779491209 -0.30189047407450642 0 0.059314668909085433 -0.25766053947940609 0 0.047561988846516509 -0.2704144982567086 0 0.041049313962692797 -0.24845166679913719 0 0.040802519202604443 -0.28902380331566391 0 0.060269914397391502 -0.281094662416291 0 0.047561988846516509 -0.2704144982567086 0 0.059314668909085433 -0.25766053947940609 0 0.060269914397391502 -0.281094662416291 0 0.047561988846516509 -0.2704144982567086 0 0.040802519202604443 -0.28902380331566391 0 0.032888245498773318 -0.26961014316334808 0 0.020340977249531871 -0.27933908705579968 0 0.040802519202604443 -0.28902380331566391 0 0.047561988846516509 -0.2704144982567086 0 0.032888245498773318 -0.26961014316334808 0 0.032888245498773318 -0.26961014316334808 0 0.023930740249240561 -0.25744099337477311 0 0.041049313962692797 -0.24845166679913719 0 0.047561988846516509 -0.2704144982567086 0 0.032888245498773318 -0.26961014316334808 0 0.041049313962692797 -0.24845166679913719 0 0.023930740249240561 -0.25744099337477311 0 0.002528124606417811 -0.25939633599466022 0 0.02046108646093622 -0.24127600944405461 0 0.032888245498773318 -0.26961014316334808 0 0.023930740249240561 -0.25744099337477311 0 0.020340977249531871 -0.27933908705579968 0 0.020340977249531871 -0.27933908705579968 0 0.001744876337285421 -0.28084471353780871 0 0.002528124606417811 -0.25939633599466022 0 0.023930740249240561 -0.25744099337477311 0 0.020340977249531871 -0.27933908705579968 0 0.002528124606417811 -0.25939633599466022 0 0.002528124606417811 -0.25939633599466022 0 0.0044201085073492328 -0.23423603289523109 0 0.02046108646093622 -0.24127600944405461 0 0.0044201085073492328 -0.23423603289523109 0 0.028234179476955661 -0.22509309340120109 0 0.0082707050215391209 -0.21271008468098329 0 0.0044201085073492328 -0.23423603289523109 0 0.028234179476955661 -0.22509309340120109 0 0.02046108646093622 -0.24127600944405461 0 0.023930740249240561 -0.25744099337477311 0 0.02046108646093622 -0.24127600944405461 0 0.041049313962692797 -0.24845166679913719 0 0.028234179476955661 -0.22509309340120109 0 0.02046108646093622 -0.24127600944405461 0 0.041049313962692797 -0.24845166679913719 0 -0.0095123721634875619 -0.19844028543060019 0 0.0093436273548723747 -0.18807609032811151 0 0.0082707050215391209 -0.21271008468098329 0 0.0093436273548723747 -0.18807609032811151 0 0.0082707050215391209 -0.21271008468098329 0 0.025015657263026039 -0.20005927276359151 0 0.028234179476955661 -0.22509309340120109 0 0.025015657263026039 -0.20005927276359151 0 0.039862429357653197 -0.21027963306930711 0 0.028234179476955661 -0.22509309340120109 0 0.0082707050215391209 -0.21271008468098329 0 0.025015657263026039 -0.20005927276359151 0 0.025015657263026039 -0.20005927276359151 0 0.040914952151542637 -0.18790887612330251 0 0.023830929229574721 -0.18083883493054601 0 0.0093436273548723747 -0.18807609032811151 0 0.025015657263026039 -0.20005927276359151 0 0.023830929229574721 -0.18083883493054601 0 0.040914952151542637 -0.18790887612330251 0 0.039862429357653197 -0.21027963306930711 0 0.05695061253110012 -0.2060212335522702 0 0.025015657263026039 -0.20005927276359151 0 0.040914952151542637 -0.18790887612330251 0 0.039862429357653197 -0.21027963306930711 0 0.039862429357653197 -0.21027963306930711 0 0.05695061253110012 -0.2060212335522702 0 0.048812197741544022 -0.22579897567246049 0 0.05695061253110012 -0.2060212335522702 0 0.048812197741544022 -0.22579897567246049 0 0.076889878085365876 -0.2170922892346096 0 0.05695061253110012 -0.2060212335522702 0 0.06956056844074035 -0.1968514090625319 0 0.058905255914405763 -0.18409541556804221 0 0.040914952151542637 -0.18790887612330251 0 0.05695061253110012 -0.2060212335522702 0 0.058905255914405763 -0.18409541556804221 0 0.028234179476955661 -0.22509309340120109 0 0.039862429357653197 -0.21027963306930711 0 0.048812197741544022 -0.22579897567246049 0 0.028234179476955661 -0.22509309340120109 0 0.041049313962692797 -0.24845166679913719 0 0.048812197741544022 -0.22579897567246049 0 0.041049313962692797 -0.24845166679913719 0 0.048812197741544022 -0.22579897567246049 0 0.066291712778726572 -0.23884337725274621 0 0.059314668909085433 -0.25766053947940609 0 0.041049313962692797 -0.24845166679913719 0 0.066291712778726572 -0.23884337725274621 0 0.077670049455080339 -0.26609572065174741 0 0.066291712778726572 -0.23884337725274621 0 0.089672187937474612 -0.24432340338472711 0 0.089672187937474612 -0.24432340338472711 0 0.076889878085365876 -0.2170922892346096 0 0.1016743264198689 -0.22255108611770691 0 0.048812197741544022 -0.22579897567246049 0 0.066291712778726572 -0.23884337725274621 0 0.076889878085365876 -0.2170922892346096 0 0.066291712778726572 -0.23884337725274621 0 0.089672187937474612 -0.24432340338472711 0 0.076889878085365876 -0.2170922892346096 0 0.076889878085365876 -0.2170922892346096 0 0.06956056844074035 -0.1968514090625319 0 0.085016941131938861 -0.19637836201549619 0 0.05695061253110012 -0.2060212335522702 0 0.076889878085365876 -0.2170922892346096 0 0.06956056844074035 -0.1968514090625319 0 0.06956056844074035 -0.1968514090625319 0 0.074196976700201978 -0.18197599444281329 0 0.058905255914405763 -0.18409541556804221 0 0.06956056844074035 -0.1968514090625319 0 0.085016941131938861 -0.19637836201549619 0 0.074196976700201978 -0.18197599444281329 0 0.085016941131938861 -0.19637836201549619 0 0.1002556608659888 -0.19207193499575351 0 0.089823472301401669 -0.18072102885890931 0 0.076889878085365876 -0.2170922892346096 0 0.097617177490445448 -0.20612026607359049 0 0.1016743264198689 -0.22255108611770691 0 0.076889878085365876 -0.2170922892346096 0 0.085016941131938861 -0.19637836201549619 0 0.097617177490445448 -0.20612026607359049 0 0.097617177490445448 -0.20612026607359049 0 0.1136764649022631 -0.20077876885068671 0 0.1016743264198689 -0.22255108611770691 0 0.1136764649022631 -0.20077876885068671 0 0.1016743264198689 -0.22255108611770691 0 0.097617177490445448 -0.20612026607359049 0 0.1002556608659888 -0.19207193499575351 0 0.1136764649022631 -0.20077876885068671 0 0.085016941131938861 -0.19637836201549619 0 0.097617177490445448 -0.20612026607359049 0 0.1002556608659888 -0.19207193499575351 0 0.1002556608659888 -0.19207193499575351 0 0.1136764649022631 -0.20077876885068671 0 0.1110889773200454 -0.18545013715525441 0 0.1136764649022631 -0.20077876885068671 0 0.12567860338465731 -0.17900645158366649 0 0.1136764649022631 -0.20077876885068671 0 0.1110889773200454 -0.18545013715525441 0 0.12567860338465731 -0.17900645158366649 0 0.1136764649022631 -0.20077876885068671 0 0.1213069549757318 -0.19664305545188779 0 0.12567860338465731 -0.17900645158366649 0 0.1136764649022631 -0.20077876885068671 0 0.1213069549757318 -0.19664305545188779 0 0.1190113517285296 -0.20511605251460491 0 0.1136764649022631 -0.20077876885068671 0 0.1156455288897725 -0.21547230764514169 0 0.1016743264198689 -0.22255108611770691 0 0.1136764649022631 -0.20077876885068671 0 0.1156455288897725 -0.21547230764514169 0 0.1190113517285296 -0.20511605251460491 0 0.1156455288897725 -0.21547230764514169 0 0.1190113517285296 -0.20511605251460491 0 0.1235584016110331 -0.2099041032935236 0 0.1213069549757318 -0.19664305545188779 0 0.1190113517285296 -0.20511605251460491 0 0.1235584016110331 -0.2099041032935236 0 0.1156455288897725 -0.21547230764514169 0 0.1235584016110331 -0.2099041032935236 0 0.12296627672248869 -0.22370945914287241 0 0.1156455288897725 -0.21547230764514169 0 0.11210169513706029 -0.23250388461534521 0 0.1016743264198689 -0.22255108611770691 0 0.11210169513706029 -0.23250388461534521 0 0.12296627672248869 -0.22370945914287241 0 0.12807900425912619 -0.23871586815867721 0 0.1156455288897725 -0.21547230764514169 0 0.11210169513706029 -0.23250388461534521 0 0.12296627672248869 -0.22370945914287241 0 0.11457284659363121 -0.25025118324294621 0 0.11210169513706029 -0.23250388461534521 0 0.12807900425912619 -0.23871586815867721 0 0.11457284659363121 -0.25025118324294621 0 0.089672187937474612 -0.24432340338472711 0 0.11210169513706029 -0.23250388461534521 0 0.089672187937474612 -0.24432340338472711 0 0.1016743264198689 -0.22255108611770691 0 0.089672187937474612 -0.24432340338472711 0 0.11210169513706029 -0.23250388461534521 0 0.1016743264198689 -0.22255108611770691 0 0.098658493202937805 -0.14819232939297339 0 0.1033802987928262 -0.13687462457801089 0 0.1142497899340363 -0.1496031055300277 0 0.098658493202937805 -0.14819232939297339 0 0.1142497899340363 -0.1496031055300277 0 0.1130554313677571 -0.16282170556098721 0 0.098658493202937805 -0.14819232939297339 0 0.1033802987928262 -0.13687462457801089 0 0.092035781782435058 -0.13661310264194509 0 0.1194654566465532 -0.13593475243890901 0 0.1045304293287585 -0.1198410580656661 0 0.1027539818090452 -0.1243930669336869 0 0.1033802987928262 -0.13687462457801089 0 0.1194654566465532 -0.13593475243890901 0 0.1027539818090452 -0.1243930669336869 0 0.095001548534397434 -0.12701362017455339 0 0.1033802987928262 -0.13687462457801089 0 0.092035781782435058 -0.13661310264194509 0 0.095001548534397434 -0.12701362017455339 0 0.1033802987928262 -0.13687462457801089 0 0.1027539818090452 -0.1243930669336869 0 0.1194654566465532 -0.13593475243890901 0 0.1045304293287585 -0.1198410580656661 0 0.11643836339844579 -0.1199999224362126 0 0.1194654566465532 -0.13593475243890901 0 0.11643836339844579 -0.1199999224362126 0 0.12600232087334701 -0.12094039202749469 0 0.1194654566465532 -0.13593475243890901 0 0.1045304293287585 -0.1198410580656661 0 0.1194654566465532 -0.13593475243890901 0 0.1142497899340363 -0.1496031055300277 0 0.13440048396434831 -0.1520284468121515 0 0.1033802987928262 -0.13687462457801089 0 0.1194654566465532 -0.13593475243890901 0 0.1142497899340363 -0.1496031055300277 0 0.1142497899340363 -0.1496031055300277 0 0.1130554313677571 -0.16282170556098721 0 0.12738614834789361 -0.1646596171467474 0 0.1130554313677571 -0.16282170556098721 0 0.11336537884365119 -0.17498736406443241 0 0.12738614834789361 -0.1646596171467474 0 0.11336537884365119 -0.17498736406443241 0 0.12567860338465731 -0.17900645158366649 0 0.12738614834789361 -0.1646596171467474 0 0.11336537884365119 -0.17498736406443241 0 0.1110889773200454 -0.18545013715525441 0 0.12567860338465731 -0.17900645158366649 0 0.11336537884365119 -0.17498736406443241 0 0.1024687786036665 -0.1804061662817332 0 0.097070058079713695 -0.1665952102279831 0 0.1002556608659888 -0.19207193499575351 0 0.1110889773200454 -0.18545013715525441 0 0.1024687786036665 -0.1804061662817332 0 0.11336537884365119 -0.17498736406443241 0 0.1110889773200454 -0.18545013715525441 0 0.1024687786036665 -0.1804061662817332 0 0.1024687786036665 -0.1804061662817332 0 0.097070058079713695 -0.1665952102279831 0 0.089823472301401669 -0.18072102885890931 0 0.1002556608659888 -0.19207193499575351 0 0.1024687786036665 -0.1804061662817332 0 0.089823472301401669 -0.18072102885890931 0 0.1130554313677571 -0.16282170556098721 0 0.11336537884365119 -0.17498736406443241 0 0.097070058079713695 -0.1665952102279831 0 0.098658493202937805 -0.14819232939297339 0 0.1130554313677571 -0.16282170556098721 0 0.097070058079713695 -0.1665952102279831 0 0.097070058079713695 -0.1665952102279831 0 0.079932418426900242 -0.16689850518967639 0 0.089823472301401669 -0.18072102885890931 0 0.097070058079713695 -0.1665952102279831 0 0.079932418426900242 -0.16689850518967639 0 0.084893526086385215 -0.15160938243459021 0 0.079932418426900242 -0.16689850518967639 0 0.071397382049567762 -0.15383547628245239 0 0.084893526086385215 -0.15160938243459021 0 0.085016941131938861 -0.19637836201549619 0 0.089823472301401669 -0.18072102885890931 0 0.074196976700201978 -0.18197599444281329 0 0.079932418426900242 -0.16689850518967639 0 0.089823472301401669 -0.18072102885890931 0 0.074196976700201978 -0.18197599444281329 0 0.079932418426900242 -0.16689850518967639 0 0.074196976700201978 -0.18197599444281329 0 0.065523352155865328 -0.16914091377159521 0 0.074196976700201978 -0.18197599444281329 0 0.065523352155865328 -0.16914091377159521 0 0.058905255914405763 -0.18409541556804221 0 0.079932418426900242 -0.16689850518967639 0 0.065523352155865328 -0.16914091377159521 0 0.071397382049567762 -0.15383547628245239 0 0.065523352155865328 -0.16914091377159521 0 0.071397382049567762 -0.15383547628245239 0 0.058540384888074573 -0.15649538185865811 0 0.071397382049567762 -0.15383547628245239 0 0.084893526086385215 -0.15160938243459021 0 0.077048421198120665 -0.1374135210879994 0 0.071397382049567762 -0.15383547628245239 0 0.06244618954206068 -0.14145515335219519 0 0.058540384888074573 -0.15649538185865811 0 0.071397382049567762 -0.15383547628245239 0 0.077048421198120665 -0.1374135210879994 0 0.06244618954206068 -0.14145515335219519 0 0.098658493202937805 -0.14819232939297339 0 0.097070058079713695 -0.1665952102279831 0 0.084893526086385215 -0.15160938243459021 0 0.084893526086385215 -0.15160938243459021 0 0.092035781782435058 -0.13661310264194509 0 0.077048421198120665 -0.1374135210879994 0 0.098658493202937805 -0.14819232939297339 0 0.084893526086385215 -0.15160938243459021 0 0.092035781782435058 -0.13661310264194509 0 0.077048421198120665 -0.1374135210879994 0 0.086649866109524576 -0.12279928877015529 0 0.073227525625784176 -0.1207054353631199 0 0.095001548534397434 -0.12701362017455339 0 0.092035781782435058 -0.13661310264194509 0 0.086649866109524576 -0.12279928877015529 0 0.092035781782435058 -0.13661310264194509 0 0.077048421198120665 -0.1374135210879994 0 0.086649866109524576 -0.12279928877015529 0 0.077048421198120665 -0.1374135210879994 0 0.060705191809859067 -0.12682524133453979 0 0.073227525625784176 -0.1207054353631199 0 0.077048421198120665 -0.1374135210879994 0 0.060705191809859067 -0.12682524133453979 0 0.06244618954206068 -0.14145515335219519 0 0.060705191809859067 -0.12682524133453979 0 0.06244618954206068 -0.14145515335219519 0 0.044302192538149827 -0.13455820454276551 0 0.060705191809859067 -0.12682524133453979 0 0.044302192538149827 -0.13455820454276551 0 0.044219461840220263 -0.1153802369626524 0 0.06244618954206068 -0.14145515335219519 0 0.042952247119214138 -0.15175102876412069 0 0.044302192538149827 -0.13455820454276551 0 0.06244618954206068 -0.14145515335219519 0 0.042952247119214138 -0.15175102876412069 0 0.058540384888074573 -0.15649538185865811 0 0.042952247119214138 -0.15175102876412069 0 0.044302192538149827 -0.13455820454276551 0 0.028537735404959241 -0.1472235569867052 0 0.042952247119214138 -0.15175102876412069 0 0.032462438325231477 -0.16760266587220479 0 0.028537735404959241 -0.1472235569867052 0 0.044302192538149827 -0.13455820454276551 0 0.02536843549440744 -0.12787936975533831 0 0.028537735404959241 -0.1472235569867052 0 0.044302192538149827 -0.13455820454276551 0 0.02536843549440744 -0.12787936975533831 0 0.044219461840220263 -0.1153802369626524 0 0.040914952151542637 -0.18790887612330251 0 0.058905255914405763 -0.18409541556804221 0 0.049800123302002682 -0.169225473388421 0 0.065523352155865328 -0.16914091377159521 0 0.058905255914405763 -0.18409541556804221 0 0.049800123302002682 -0.169225473388421 0 0.042952247119214138 -0.15175102876412069 0 0.049800123302002682 -0.169225473388421 0 0.058540384888074573 -0.15649538185865811 0 0.065523352155865328 -0.16914091377159521 0 0.049800123302002682 -0.169225473388421 0 0.058540384888074573 -0.15649538185865811 0 0.042952247119214138 -0.15175102876412069 0 0.049800123302002682 -0.169225473388421 0 0.032462438325231477 -0.16760266587220479 0 0.040914952151542637 -0.18790887612330251 0 0.032462438325231477 -0.16760266587220479 0 0.023830929229574721 -0.18083883493054601 0 0.040914952151542637 -0.18790887612330251 0 0.049800123302002682 -0.169225473388421 0 0.032462438325231477 -0.16760266587220479 0 0.032462438325231477 -0.16760266587220479 0 0.023830929229574721 -0.18083883493054601 0 0.01163026957655516 -0.16473107762400341 0 0.032462438325231477 -0.16760266587220479 0 0.01163026957655516 -0.16473107762400341 0 0.032462438325231477 -0.16760266587220479 0 0.01163026957655516 -0.16473107762400341 0 0.028537735404959241 -0.1472235569867052 0 -0.0092018991721211536 -0.16185948937580211 0 0.01163026957655516 -0.16473107762400341 0 -0.002569755866629865 -0.17574766087700811 0 0.0093436273548723747 -0.18807609032811151 0 0.01163026957655516 -0.16473107762400341 0 0.0093436273548723747 -0.18807609032811151 0 0.023830929229574721 -0.18083883493054601 0 0.01163026957655516 -0.16473107762400341 0 0.02536843549440744 -0.12787936975533831 0 0.028537735404959241 -0.1472235569867052 0 0.01259735311594975 -0.14010609864743501 0 0.01163026957655516 -0.16473107762400341 0 0.028537735404959241 -0.1472235569867052 0 0.01259735311594975 -0.14010609864743501 0 -0.0050531176289645126 -0.14420320963432051 0 0.01163026957655516 -0.16473107762400341 0 0.01259735311594975 -0.14010609864743501 0 0.02536843549440744 -0.12787936975533831 0 0.01259735311594975 -0.14010609864743501 0 0.0040652259800201488 -0.12257454176842621 0 -0.0050531176289645126 -0.14420320963432051 0 0.01259735311594975 -0.14010609864743501 0 0.0040652259800201488 -0.12257454176842621 0 -0.0080288730825291057 -0.1032184692933187 0 0.0040652259800201488 -0.12257454176842621 0 0.018488644087145411 -0.1074335796240453 0 0.02536843549440744 -0.12787936975533831 0 0.018488644087145411 -0.1074335796240453 0 0.044219461840220263 -0.1153802369626524 0 0.02536843549440744 -0.12787936975533831 0 0.0040652259800201488 -0.12257454176842621 0 0.018488644087145411 -0.1074335796240453 0 0.018488644087145411 -0.1074335796240453 0 0.025402549969638189 -0.087710755671402157 0 0.039656176439448958 -0.096001173102252743 0 -0.0080288730825291057 -0.1032184692933187 0 0.018488644087145411 -0.1074335796240453 0 0.0099361380484255905 -0.085693296239407024 0 -0.0080288730825291057 -0.1032184692933187 0 0.018488644087145411 -0.1074335796240453 0 -0.0040832436918835022 -0.086972387210106444 0 0.0099361380484255905 -0.085693296239407024 0 0.0031983312488128601 -0.073661712566750581 0 0.0099361380484255905 -0.085693296239407024 0 0.01494978423743294 -0.070166118565733765 0 0.02096186443612922 -0.078255151452783195 0 0.0099361380484255905 -0.085693296239407024 0 0.0031983312488128601 -0.073661712566750581 0 0.01494978423743294 -0.070166118565733765 0 0.0031983312488128601 -0.073661712566750581 0 0.01494978423743294 -0.070166118565733765 0 0.0099115431434426554 -0.060271286802789842 0 0.01494978423743294 -0.070166118565733765 0 0.0099115431434426554 -0.060271286802789842 0 0.01494978423743294 -0.070166118565733765 0 0.01878773384853975 -0.065087146859924533 0 0.0099115431434426554 -0.060271286802789842 0 0.01878773384853975 -0.065087146859924533 0 0.02480908030695823 -0.069875933622183833 0 0.025480527706325161 -0.060035248448990733 0 0.01494978423743294 -0.070166118565733765 0 0.01878773384853975 -0.065087146859924533 0 0.02480908030695823 -0.069875933622183833 0 0.01494978423743294 -0.070166118565733765 0 0.02480908030695823 -0.069875933622183833 0 0.02096186443612922 -0.078255151452783195 0 0.02971176961819116 -0.077829653165189208 0 0.02480908030695823 -0.069875933622183833 0 0.02096186443612922 -0.078255151452783195 0 0.02971176961819116 -0.077829653165189208 0 0.02480908030695823 -0.069875933622183833 0 0.034508185057792358 -0.070599116281054003 0 0.02480908030695823 -0.069875933622183833 0 0.030937891757635672 -0.064540162917733901 0 0.025480527706325161 -0.060035248448990733 0 0.02480908030695823 -0.069875933622183833 0 0.030937891757635672 -0.064540162917733901 0 0.034508185057792358 -0.070599116281054003 0 0.018488644087145411 -0.1074335796240453 0 0.0099361380484255905 -0.085693296239407024 0 0.025402549969638189 -0.087710755671402157 0 0.0099361380484255905 -0.085693296239407024 0 0.02096186443612922 -0.078255151452783195 0 0.025402549969638189 -0.087710755671402157 0 0.02971176961819116 -0.077829653165189208 0 0.02096186443612922 -0.078255151452783195 0 0.025402549969638189 -0.087710755671402157 0 0.02971176961819116 -0.077829653165189208 0 0.025402549969638189 -0.087710755671402157 0 0.036058224679091262 -0.083912637348999841 0 0.025402549969638189 -0.087710755671402157 0 0.036058224679091262 -0.083912637348999841 0 0.039656176439448958 -0.096001173102252743 0 0.02971176961819116 -0.077829653165189208 0 0.036058224679091262 -0.083912637348999841 0 0.040061941739770977 -0.077389643563879909 0 0.036058224679091262 -0.083912637348999841 0 0.043828639765707882 -0.086980933808510796 0 0.040061941739770977 -0.077389643563879909 0 0.043828639765707882 -0.086980933808510796 0 0.040061941739770977 -0.077389643563879909 0 0.047517330312272413 -0.080560613998766073 0 0.043828639765707882 -0.086980933808510796 0 0.051992447405485448 -0.090740840653491139 0 0.039656176439448958 -0.096001173102252743 0 0.036058224679091262 -0.083912637348999841 0 0.043828639765707882 -0.086980933808510796 0 0.039656176439448958 -0.096001173102252743 0 0.030937891757635672 -0.064540162917733901 0 0.037841160291990188 -0.063597800931296827 0 0.034508185057792358 -0.070599116281054003 0 0.030937891757635672 -0.064540162917733901 0 0.037841160291990188 -0.063597800931296827 0 0.034211021768339227 -0.059637456164520569 0 0.02971176961819116 -0.077829653165189208 0 0.034508185057792358 -0.070599116281054003 0 0.040061941739770977 -0.077389643563879909 0 0.045022965022675429 -0.070536828924041242 0 0.040061941739770977 -0.077389643563879909 0 0.047517330312272413 -0.080560613998766073 0 0.034508185057792358 -0.070599116281054003 0 0.045022965022675429 -0.070536828924041242 0 0.040061941739770977 -0.077389643563879909 0 0.037841160291990188 -0.063597800931296827 0 0.034508185057792358 -0.070599116281054003 0 0.045022965022675429 -0.070536828924041242 0 0.037841160291990188 -0.063597800931296827 0 0.045022965022675429 -0.070536828924041242 0 0.04390620326628062 -0.062123576786787219 0 0.045022965022675429 -0.070536828924041242 0 0.053973496659187832 -0.065361892710327801 0 0.04390620326628062 -0.062123576786787219 0 0.045022965022675429 -0.070536828924041242 0 0.047517330312272413 -0.080560613998766073 0 0.055182921924703497 -0.078181061519560585 0 0.045022965022675429 -0.070536828924041242 0 0.053973496659187832 -0.065361892710327801 0 0.055182921924703497 -0.078181061519560585 0 0.053973496659187832 -0.065361892710327801 0 0.055182921924703497 -0.078181061519560585 0 0.06452030341641056 -0.076726926128263317 0 0.053973496659187832 -0.065361892710327801 0 0.06452030341641056 -0.076726926128263317 0 0.053973496659187832 -0.065361892710327801 0 0.067607102801836239 -0.065979538438905611 0 0.06452030341641056 -0.076726926128263317 0 0.043828639765707882 -0.086980933808510796 0 0.051992447405485448 -0.090740840653491139 0 0.047517330312272413 -0.080560613998766073 0 0.051992447405485448 -0.090740840653491139 0 0.047517330312272413 -0.080560613998766073 0 0.055182921924703497 -0.078181061519560585 0 0.055182921924703497 -0.078181061519560585 0 0.062384309633451901 -0.084163869842794101 0 0.06452030341641056 -0.076726926128263317 0 0.051992447405485448 -0.090740840653491139 0 0.055182921924703497 -0.078181061519560585 0 0.062384309633451901 -0.084163869842794101 0 0.051992447405485448 -0.090740840653491139 0 0.062384309633451901 -0.084163869842794101 0 0.062847039477337552 -0.095993494896420076 0 0.051992447405485448 -0.090740840653491139 0 0.05046709625584949 -0.1040337664620424 0 0.062847039477337552 -0.095993494896420076 0 0.05046709625584949 -0.1040337664620424 0 0.044219461840220263 -0.1153802369626524 0 0.062850451564641807 -0.1078321661130499 0 0.051992447405485448 -0.090740840653491139 0 0.05046709625584949 -0.1040337664620424 0 0.039656176439448958 -0.096001173102252743 0 0.05046709625584949 -0.1040337664620424 0 0.062850451564641807 -0.1078321661130499 0 0.062847039477337552 -0.095993494896420076 0 0.060705191809859067 -0.12682524133453979 0 0.044219461840220263 -0.1153802369626524 0 0.062850451564641807 -0.1078321661130499 0 0.05046709625584949 -0.1040337664620424 0 0.044219461840220263 -0.1153802369626524 0 0.039656176439448958 -0.096001173102252743 0 0.018488644087145411 -0.1074335796240453 0 0.044219461840220263 -0.1153802369626524 0 0.039656176439448958 -0.096001173102252743 0 0.018391145462340101 -0.0025103805534233978 0 0.02224263705202317 -0.017066368555873991 0 0.035666962343994003 -0.013140715364951819 0 0.036691164956592158 0.0020929491879979321 0 0.018391145462340101 -0.0025103805534233978 0 0.035666962343994003 -0.013140715364951819 0 0.018391145462340101 -0.0025103805534233978 0 0.008821337616188217 -0.018882087659208839 0 0.02224263705202317 -0.017066368555873991 0 0.018391145462340101 -0.0025103805534233978 0 0.0039791465726569976 -0.0051270665085446556 0 0.008821337616188217 -0.018882087659208839 0 -0.0023515276728300698 -0.036187282016129758 0 0.008821337616188217 -0.018882087659208839 0 0.012354443708085231 -0.031213828734728229 0 0.008821337616188217 -0.018882087659208839 0 0.012354443708085231 -0.031213828734728229 0 0.019146548483235219 -0.025323539581513121 0 0.012354443708085231 -0.031213828734728229 0 0.019146548483235219 -0.025323539581513121 0 0.023641888446124779 -0.033185497218311447 0 0.008821337616188217 -0.018882087659208839 0 0.019146548483235219 -0.025323539581513121 0 0.02224263705202317 -0.017066368555873991 0 0.02224263705202317 -0.017066368555873991 0 0.029590210715365831 -0.02422018986242459 0 0.035666962343994003 -0.013140715364951819 0 0.019146548483235219 -0.025323539581513121 0 0.02224263705202317 -0.017066368555873991 0 0.029590210715365831 -0.02422018986242459 0 0.029590210715365831 -0.02422018986242459 0 0.023641888446124779 -0.033185497218311447 0 0.034503222620027772 -0.03204159945385758 0 0.019146548483235219 -0.025323539581513121 0 0.029590210715365831 -0.02422018986242459 0 0.023641888446124779 -0.033185497218311447 0 0.023641888446124779 -0.033185497218311447 0 0.026615428730821931 -0.039461870294105979 0 0.035600492028277933 -0.042105525121299871 0 0.023641888446124779 -0.033185497218311447 0 0.035600492028277933 -0.042105525121299871 0 0.034503222620027772 -0.03204159945385758 0 0.023641888446124779 -0.033185497218311447 0 0.035600492028277933 -0.042105525121299871 0 0.02916104322656966 -0.04620743937504989 0 0.026615428730821931 -0.039461870294105979 0 0.035600492028277933 -0.042105525121299871 0 0.026615428730821931 -0.039461870294105979 0 0.035600492028277933 -0.042105525121299871 0 0.02916104322656966 -0.04620743937504989 0 0.026615428730821931 -0.039461870294105979 0 0.020548702509818099 -0.044701375203151907 0 0.026615428730821931 -0.039461870294105979 0 0.020548702509818099 -0.044701375203151907 0 0.01943800789607095 -0.03842578881209123 0 0.020548702509818099 -0.044701375203151907 0 0.01943800789607095 -0.03842578881209123 0 0.01282965442033452 -0.040744960809986963 0 0.012354443708085231 -0.031213828734728229 0 0.023641888446124779 -0.033185497218311447 0 0.01943800789607095 -0.03842578881209123 0 0.023641888446124779 -0.033185497218311447 0 0.026615428730821931 -0.039461870294105979 0 0.01943800789607095 -0.03842578881209123 0 0.012354443708085231 -0.031213828734728229 0 0.01943800789607095 -0.03842578881209123 0 0.01282965442033452 -0.040744960809986963 0 -0.0023515276728300698 -0.036187282016129758 0 0.012354443708085231 -0.031213828734728229 0 0.01282965442033452 -0.040744960809986963 0 -0.0023515276728300698 -0.036187282016129758 0 0.01282965442033452 -0.040744960809986963 0 0.01267064536533203 -0.049151342071786577 0 0.020548702509818099 -0.044701375203151907 0 0.01282965442033452 -0.040744960809986963 0 0.01267064536533203 -0.049151342071786577 0 -0.0023515276728300698 -0.036187282016129758 0 0.0099115431434426554 -0.060271286802789842 0 0.01267064536533203 -0.049151342071786577 0 0.0099115431434426554 -0.060271286802789842 0 0.02262021989185441 -0.05168133520563202 0 -0.0023515276728300698 -0.036187282016129758 0 -0.005502050822162932 -0.052955514221292542 0 0.0099115431434426554 -0.060271286802789842 0 -0.0023515276728300698 -0.036187282016129758 0 0.01267064536533203 -0.049151342071786577 0 0.0099115431434426554 -0.060271286802789842 0 0.0099115431434426554 -0.060271286802789842 0 0.037775507320757608 -0.052138124693431077 0 0.0099115431434426554 -0.060271286802789842 0 0.025480527706325161 -0.060035248448990733 0 0.037775507320757608 -0.052138124693431077 0 0.0099115431434426554 -0.060271286802789842 0 0.02262021989185441 -0.05168133520563202 0 0.037775507320757608 -0.052138124693431077 0 0.01878773384853975 -0.065087146859924533 0 0.0099115431434426554 -0.060271286802789842 0 0.025480527706325161 -0.060035248448990733 0 0.020548702509818099 -0.044701375203151907 0 0.01267064536533203 -0.049151342071786577 0 0.02262021989185441 -0.05168133520563202 0 0.02916104322656966 -0.04620743937504989 0 0.020548702509818099 -0.044701375203151907 0 0.02262021989185441 -0.05168133520563202 0 0.02916104322656966 -0.04620743937504989 0 0.02262021989185441 -0.05168133520563202 0 0.037775507320757608 -0.052138124693431077 0 0.030937891757635672 -0.064540162917733901 0 0.025480527706325161 -0.060035248448990733 0 0.034211021768339227 -0.059637456164520569 0 0.051603797415057107 -0.05404253178010273 0 0.035600492028277933 -0.042105525121299871 0 0.043426689901960767 -0.053996859292396331 0 0.051603797415057107 -0.05404253178010273 0 0.035600492028277933 -0.042105525121299871 0 0.025480527706325161 -0.060035248448990733 0 0.034211021768339227 -0.059637456164520569 0 0.037775507320757608 -0.052138124693431077 0 0.039020021764987478 -0.057875943831150301 0 0.034211021768339227 -0.059637456164520569 0 0.037775507320757608 -0.052138124693431077 0 0.037841160291990188 -0.063597800931296827 0 0.039020021764987478 -0.057875943831150301 0 0.034211021768339227 -0.059637456164520569 0 0.037775507320757608 -0.052138124693431077 0 0.043426689901960767 -0.053996859292396331 0 0.035600492028277933 -0.042105525121299871 0 0.039020021764987478 -0.057875943831150301 0 0.037775507320757608 -0.052138124693431077 0 0.043426689901960767 -0.053996859292396331 0 0.039020021764987478 -0.057875943831150301 0 0.043426689901960767 -0.053996859292396331 0 0.04390620326628062 -0.062123576786787219 0 0.037841160291990188 -0.063597800931296827 0 0.039020021764987478 -0.057875943831150301 0 0.04390620326628062 -0.062123576786787219 0 0.053973496659187832 -0.065361892710327801 0 0.043426689901960767 -0.053996859292396331 0 0.053973496659187832 -0.065361892710327801 0 0.051603797415057107 -0.05404253178010273 0 0.067607102801836239 -0.065979538438905611 0 0.053973496659187832 -0.065361892710327801 0 0.043426689901960767 -0.053996859292396331 0 0.04390620326628062 -0.062123576786787219 0 0.053973496659187832 -0.065361892710327801 0 0.043426689901960767 -0.053996859292396331 0 0.051603797415057107 -0.05404253178010273 0 0.053518119489330357 -0.047377388074414287 0 0.071435746950382684 -0.052649251027528959 0 0.051603797415057107 -0.05404253178010273 0 0.067607102801836239 -0.065979538438905611 0 0.053518119489330357 -0.047377388074414287 0 0.051603797415057107 -0.05404253178010273 0 0.035600492028277933 -0.042105525121299871 0 0.053518119489330357 -0.047377388074414287 0 0.051603797415057107 -0.05404253178010273 0 0.071435746950382684 -0.052649251027528959 0 0.053518119489330357 -0.047377388074414287 0 0.056900255793975042 -0.02879533568122947 0 0.064974256974480726 -0.039616728446270663 0 0.053518119489330357 -0.047377388074414287 0 0.044375461581965633 -0.034966277750978353 0 0.056900255793975042 -0.02879533568122947 0 0.053518119489330357 -0.047377388074414287 0 0.035600492028277933 -0.042105525121299871 0 0.053518119489330357 -0.047377388074414287 0 0.044375461581965633 -0.034966277750978353 0 0.035600492028277933 -0.042105525121299871 0 0.02916104322656966 -0.04620743937504989 0 0.037775507320757608 -0.052138124693431077 0 0.035600492028277933 -0.042105525121299871 0 0.044375461581965633 -0.034966277750978353 0 0.035600492028277933 -0.042105525121299871 0 0.034503222620027772 -0.03204159945385758 0 0.029590210715365831 -0.02422018986242459 0 0.034503222620027772 -0.03204159945385758 0 0.041355217978217618 -0.024511540424089859 0 0.029590210715365831 -0.02422018986242459 0 0.041355217978217618 -0.024511540424089859 0 0.035666962343994003 -0.013140715364951819 0 0.041355217978217618 -0.024511540424089859 0 0.048941167180212609 -0.01174425301338459 0 0.035666962343994003 -0.013140715364951819 0 0.044375461581965633 -0.034966277750978353 0 0.034503222620027772 -0.03204159945385758 0 0.041355217978217618 -0.024511540424089859 0 0.044375461581965633 -0.034966277750978353 0 0.041355217978217618 -0.024511540424089859 0 0.056900255793975042 -0.02879533568122947 0 0.041355217978217618 -0.024511540424089859 0 0.056900255793975042 -0.02879533568122947 0 0.048941167180212609 -0.01174425301338459 0 0.056900255793975042 -0.02879533568122947 0 0.048941167180212609 -0.01174425301338459 0 0.064486286323592698 -0.0091377794792813893 0 0.04924372524146034 0.0078888802168881542 0 0.048941167180212609 -0.01174425301338459 0 0.064486286323592698 -0.0091377794792813893 0 0.036691164956592158 0.0020929491879979321 0 0.048941167180212609 -0.01174425301338459 0 0.035666962343994003 -0.013140715364951819 0 0.036691164956592158 0.0020929491879979321 0 0.04924372524146034 0.0078888802168881542 0 0.048941167180212609 -0.01174425301338459 0 0.084650064378087003 -0.0066406269762908504 0 0.064486286323592698 -0.0091377794792813893 0 0.078042905664234843 -0.029644939001909908 0 0.056900255793975042 -0.02879533568122947 0 0.064486286323592698 -0.0091377794792813893 0 0.078042905664234843 -0.029644939001909908 0 0.084650064378087003 -0.0066406269762908504 0 0.078042905664234843 -0.029644939001909908 0 0.1005283734079875 -0.031875171187885028 0 0.084650064378087003 -0.0066406269762908504 0 0.078042905664234843 -0.029644939001909908 0 0.078042905664234843 -0.029644939001909908 0 0.087551341445600075 -0.044826884150282111 0 0.071435746950382684 -0.052649251027528959 0 0.078042905664234843 -0.029644939001909908 0 0.087551341445600075 -0.044826884150282111 0 0.1005283734079875 -0.031875171187885028 0 0.078042905664234843 -0.029644939001909908 0 0.064974256974480726 -0.039616728446270663 0 0.071435746950382684 -0.052649251027528959 0 0.078042905664234843 -0.029644939001909908 0 0.071435746950382684 -0.052649251027528959 0 0.056900255793975042 -0.02879533568122947 0 0.078042905664234843 -0.029644939001909908 0 0.064974256974480726 -0.039616728446270663 0 0.053518119489330357 -0.047377388074414287 0 0.064974256974480726 -0.039616728446270663 0 0.071435746950382684 -0.052649251027528959 0 0.051603797415057107 -0.05404253178010273 0 0.071435746950382684 -0.052649251027528959 0 0.067607102801836239 -0.065979538438905611 0 0.071435746950382684 -0.052649251027528959 0 0.067607102801836239 -0.065979538438905611 0 0.087551341445600075 -0.044826884150282111 0 0.071435746950382684 -0.052649251027528959 0 0.096862618126953015 -0.060130541754261073 0 0.071435746950382684 -0.052649251027528959 0 0.096862618126953015 -0.060130541754261073 0 0.067607102801836239 -0.065979538438905611 0 0.071435746950382684 -0.052649251027528959 0 0.096862618126953015 -0.060130541754261073 0 0.087551341445600075 -0.044826884150282111 0 0.096862618126953015 -0.060130541754261073 0 0.11355863921447699 -0.050335462850557469 0 0.096862618126953015 -0.060130541754261073 0 0.11355863921447699 -0.050335462850557469 0 0.12228948930352369 -0.067611832480992548 0 0.11355863921447699 -0.050335462850557469 0 0.12228948930352369 -0.067611832480992548 0 0.13272193064017801 -0.047602524391959847 0 0.11355863921447699 -0.050335462850557469 0 0.11669448312643051 -0.035444347228613907 0 0.13272193064017801 -0.047602524391959847 0 0.11355863921447699 -0.050335462850557469 0 0.11669448312643051 -0.035444347228613907 0 0.1005283734079875 -0.031875171187885028 0 0.087551341445600075 -0.044826884150282111 0 0.11355863921447699 -0.050335462850557469 0 0.1005283734079875 -0.031875171187885028 0 0.1005283734079875 -0.031875171187885028 0 0.11881072421063769 -0.018494587312512401 0 0.1061001943303819 -0.0038864985403933238 0 0.11669448312643051 -0.035444347228613907 0 0.1005283734079875 -0.031875171187885028 0 0.11881072421063769 -0.018494587312512401 0 0.11669448312643051 -0.035444347228613907 0 0.11881072421063769 -0.018494587312512401 0 0.12976148291803261 -0.030546701300957331 0 0.11881072421063769 -0.018494587312512401 0 0.1061001943303819 -0.0038864985403933238 0 0.12880624959034009 -0.002636456239975347 0 0.084650064378087003 -0.0066406269762908504 0 0.1005283734079875 -0.031875171187885028 0 0.1061001943303819 -0.0038864985403933238 0 0.079718623372660502 -0.093104339517462165 0 0.094916943328907571 -0.10948175290666361 0 0.078883697446774759 -0.10865695950985529 0 0.094916943328907571 -0.10948175290666361 0 0.093019652422887539 -0.096001683745534319 0 0.079718623372660502 -0.093104339517462165 0 0.094916943328907571 -0.10948175290666361 0 0.078883697446774759 -0.10865695950985529 0 0.079718623372660502 -0.093104339517462165 0 0.094916943328907571 -0.10948175290666361 0 0.078883697446774759 -0.10865695950985529 0 0.086649866109524576 -0.12279928877015529 0 0.094916943328907571 -0.10948175290666361 0 0.095001548534397434 -0.12701362017455339 0 0.086649866109524576 -0.12279928877015529 0 0.096329835828404251 -0.12017079427784649 0 0.086649866109524576 -0.12279928877015529 0 0.096329835828404251 -0.12017079427784649 0 0.094916943328907571 -0.10948175290666361 0 0.078883697446774759 -0.10865695950985529 0 0.086649866109524576 -0.12279928877015529 0 0.073227525625784176 -0.1207054353631199 0 0.078883697446774759 -0.10865695950985529 0 0.073227525625784176 -0.1207054353631199 0 0.062850451564641807 -0.1078321661130499 0 0.060705191809859067 -0.12682524133453979 0 0.073227525625784176 -0.1207054353631199 0 0.062850451564641807 -0.1078321661130499 0 0.078883697446774759 -0.10865695950985529 0 0.062850451564641807 -0.1078321661130499 0 0.072302765223136209 -0.10050494808304911 0 0.062847039477337552 -0.095993494896420076 0 0.079718623372660502 -0.093104339517462165 0 0.078883697446774759 -0.10865695950985529 0 0.062850451564641807 -0.1078321661130499 0 0.072302765223136209 -0.10050494808304911 0 0.078883697446774759 -0.10865695950985529 0 0.072302765223136209 -0.10050494808304911 0 0.079718623372660502 -0.093104339517462165 0 0.062850451564641807 -0.1078321661130499 0 0.072302765223136209 -0.10050494808304911 0 0.062847039477337552 -0.095993494896420076 0 0.06452030341641056 -0.076726926128263317 0 0.079718623372660502 -0.093104339517462165 0 0.075473161194075447 -0.079632043189322252 0 0.06452030341641056 -0.076726926128263317 0 0.079718623372660502 -0.093104339517462165 0 0.062384309633451901 -0.084163869842794101 0 0.062847039477337552 -0.095993494896420076 0 0.079718623372660502 -0.093104339517462165 0 0.062384309633451901 -0.084163869842794101 0 0.06452030341641056 -0.076726926128263317 0 0.079718623372660502 -0.093104339517462165 0 0.062384309633451901 -0.084163869842794101 0 0.06452030341641056 -0.076726926128263317 0 0.075473161194075447 -0.079632043189322252 0 0.067607102801836239 -0.065979538438905611 0 0.09004661518539768 -0.082717368672658859 0 0.075473161194075447 -0.079632043189322252 0 0.067607102801836239 -0.065979538438905611 0 0.06452030341641056 -0.076726926128263317 0 0.067607102801836239 -0.065979538438905611 0 0.06452030341641056 -0.076726926128263317 0 0.067607102801836239 -0.065979538438905611 0 0.09004661518539768 -0.082717368672658859 0 0.096862618126953015 -0.060130541754261073 0 0.067607102801836239 -0.065979538438905611 0 0.09004661518539768 -0.082717368672658859 0 0.075473161194075447 -0.079632043189322252 0 0.079718623372660502 -0.093104339517462165 0 0.09004661518539768 -0.082717368672658859 0 0.093019652422887539 -0.096001683745534319 0 0.079718623372660502 -0.093104339517462165 0 0.09004661518539768 -0.082717368672658859 0 0.09004661518539768 -0.082717368672658859 0 0.11248612756895821 -0.099455198906413231 0 0.093019652422887539 -0.096001683745534319 0 0.09004661518539768 -0.082717368672658859 0 0.11248612756895821 -0.099455198906413231 0 0.09004661518539768 -0.082717368672658859 0 0.10737089312295819 -0.072136860088606258 0 0.1118348784684539 -0.083357876246629922 0 0.09004661518539768 -0.082717368672658859 0 0.1118348784684539 -0.083357876246629922 0 0.11248612756895821 -0.099455198906413231 0 0.096862618126953015 -0.060130541754261073 0 0.09004661518539768 -0.082717368672658859 0 0.10737089312295819 -0.072136860088606258 0 0.096862618126953015 -0.060130541754261073 0 0.10737089312295819 -0.072136860088606258 0 0.12228948930352369 -0.067611832480992548 0 0.096862618126953015 -0.060130541754261073 0 0.12228948930352369 -0.067611832480992548 0 0.10737089312295819 -0.072136860088606258 0 0.1148554397352668 -0.075730237018461349 0 0.1118348784684539 -0.083357876246629922 0 0.10737089312295819 -0.072136860088606258 0 0.1148554397352668 -0.075730237018461349 0 0.12228948930352369 -0.067611832480992548 0 0.1148554397352668 -0.075730237018461349 0 0.12260402910456809 -0.073528861649186428 0 0.1118348784684539 -0.083357876246629922 0 0.1148554397352668 -0.075730237018461349 0 0.12260402910456809 -0.073528861649186428 0 0.12228948930352369 -0.067611832480992548 0 0.12260402910456809 -0.073528861649186428 0 0.11248612756895821 -0.099455198906413231 0 0.12260402910456809 -0.073528861649186428 0 0.1118348784684539 -0.083357876246629922 0 0.11248612756895821 -0.099455198906413231 0 0.12260402910456809 -0.073528861649186428 0 0.1243623722901768 -0.085900795695986784 0 0.11248612756895821 -0.099455198906413231 0 0.1243623722901768 -0.085900795695986784 0 0.11248612756895821 -0.099455198906413231 0 0.12561614245372441 -0.092899878452985196 0 0.11869129353007379 -0.10765858573260351 0 0.1083044426233746 -0.11017044196556899 0 0.126419111007739 -0.10984793416116199 0 0.11248612756895821 -0.099455198906413231 0 0.12793324187659841 -0.10149776712279331 0 0.12561614245372441 -0.092899878452985196 0 0.11248612756895821 -0.099455198906413231 0 0.126419111007739 -0.10984793416116199 0 0.12793324187659841 -0.10149776712279331 0 0.11248612756895821 -0.099455198906413231 0 0.126419111007739 -0.10984793416116199 0 0.11869129353007379 -0.10765858573260351 0 0.11248612756895821 -0.099455198906413231 0 0.126419111007739 -0.10984793416116199 0 0.11248612756895821 -0.099455198906413231 0 0.1083044426233746 -0.11017044196556899 0 0.11869129353007379 -0.10765858573260351 0 0.11248612756895821 -0.099455198906413231 0 0.1083044426233746 -0.11017044196556899 0 0.093019652422887539 -0.096001683745534319 0 0.11248612756895821 -0.099455198906413231 0 0.1021817914860316 -0.1037772693810454 0 0.1021817914860316 -0.1037772693810454 0 0.094916943328907571 -0.10948175290666361 0 0.1083044426233746 -0.11017044196556899 0 0.11248612756895821 -0.099455198906413231 0 0.1021817914860316 -0.1037772693810454 0 0.1083044426233746 -0.11017044196556899 0 0.093019652422887539 -0.096001683745534319 0 0.1021817914860316 -0.1037772693810454 0 0.094916943328907571 -0.10948175290666361 0 0.096329835828404251 -0.12017079427784649 0 0.1045304293287585 -0.1198410580656661 0 0.1027539818090452 -0.1243930669336869 0 0.095001548534397434 -0.12701362017455339 0 0.096329835828404251 -0.12017079427784649 0 0.1027539818090452 -0.1243930669336869 0 0.096329835828404251 -0.12017079427784649 0 0.094916943328907571 -0.10948175290666361 0 0.1045304293287585 -0.1198410580656661 0 0.094916943328907571 -0.10948175290666361 0 0.1045304293287585 -0.1198410580656661 0 0.094916943328907571 -0.10948175290666361 0 0.1083044426233746 -0.11017044196556899 0 0.1083044426233746 -0.11017044196556899 0 0.1045304293287585 -0.1198410580656661 0 0.1113015065406566 -0.11589587849143811 0 0.1083044426233746 -0.11017044196556899 0 0.1045304293287585 -0.1198410580656661 0 0.094916943328907571 -0.10948175290666361 0 0.1083044426233746 -0.11017044196556899 0 0.1045304293287585 -0.1198410580656661 0 0.1045304293287585 -0.1198410580656661 0 0.1027539818090452 -0.1243930669336869 0 0.1083044426233746 -0.11017044196556899 0 0.1170164094967433 -0.11472906085106201 0 0.126419111007739 -0.10984793416116199 0 0.1083044426233746 -0.11017044196556899 0 0.126419111007739 -0.10984793416116199 0 0.1045304293287585 -0.1198410580656661 0 0.11643836339844579 -0.1199999224362126 0 0.1113015065406566 -0.11589587849143811 0 0.1083044426233746 -0.11017044196556899 0 0.1113015065406566 -0.11589587849143811 0 0.1170164094967433 -0.11472906085106201 0 0.11643836339844579 -0.1199999224362126 0 0.1113015065406566 -0.11589587849143811 0 0.1170164094967433 -0.11472906085106201 0 0.1170164094967433 -0.11472906085106201 0 0.1214822420010159 -0.1164182934648204 0 0.126419111007739 -0.10984793416116199 0 0.1214822420010159 -0.1164182934648204 0 0.12600232087334701 -0.12094039202749469 0 0.126419111007739 -0.10984793416116199 0 0.11643836339844579 -0.1199999224362126 0 0.1170164094967433 -0.11472906085106201 0 0.1214822420010159 -0.1164182934648204 0 0.11643836339844579 -0.1199999224362126 0 0.1214822420010159 -0.1164182934648204 0 0.12600232087334701 -0.12094039202749469 0 0.12600232087334701 -0.12094039202749469 0 0.13636575600258879 -0.1179433002620376 0 0.1349654639868019 -0.12711344240839809 0 0.126419111007739 -0.10984793416116199 0 0.14680654321707259 -0.11215109382897009 0 0.126419111007739 -0.10984793416116199 0 0.13636575600258879 -0.1179433002620376 0 0.14680654321707259 -0.11215109382897009 0 0.12600232087334701 -0.12094039202749469 0 0.126419111007739 -0.10984793416116199 0 0.13636575600258879 -0.1179433002620376 0 0.14680654321707259 -0.11215109382897009 0 0.15182151608782549 -0.12625169888313609 0 0.16997449881163601 -0.12522860452042289 0 0.13636575600258879 -0.1179433002620376 0 0.14680654321707259 -0.11215109382897009 0 0.15182151608782549 -0.12625169888313609 0 0.13636575600258879 -0.1179433002620376 0 0.1349654639868019 -0.12711344240839809 0 0.15182151608782549 -0.12625169888313609 0 0.14680654321707259 -0.11215109382897009 0 0.1400167387672967 -0.098069254917822091 0 0.1513746923809616 -0.093482179640552485 0 0.14680654321707259 -0.11215109382897009 0 0.1513746923809616 -0.093482179640552485 0 0.16229737034260969 -0.100413699872411 0 0.126419111007739 -0.10984793416116199 0 0.14680654321707259 -0.11215109382897009 0 0.12793324187659841 -0.10149776712279331 0 0.1400167387672967 -0.098069254917822091 0 0.12793324187659841 -0.10149776712279331 0 0.13286327203104201 -0.093456690052173982 0 0.14680654321707259 -0.11215109382897009 0 0.1400167387672967 -0.098069254917822091 0 0.12793324187659841 -0.10149776712279331 0 0.14680654321707259 -0.11215109382897009 0 0.12793324187659841 -0.10149776712279331 0 0.12793324187659841 -0.10149776712279331 0 0.12561614245372441 -0.092899878452985196 0 0.13286327203104201 -0.093456690052173982 0 0.12561614245372441 -0.092899878452985196 0 0.13093807204512839 -0.086043871838904051 0 0.13286327203104201 -0.093456690052173982 0 0.1243623722901768 -0.085900795695986784 0 0.12561614245372441 -0.092899878452985196 0 0.13093807204512839 -0.086043871838904051 0 0.1243623722901768 -0.085900795695986784 0 0.13093807204512839 -0.086043871838904051 0 0.13063894984763921 -0.078139124546086847 0 0.12260402910456809 -0.073528861649186428 0 0.1243623722901768 -0.085900795695986784 0 0.13063894984763921 -0.078139124546086847 0 0.13093807204512839 -0.086043871838904051 0 0.13063894984763921 -0.078139124546086847 0 0.13725617175342489 -0.081630834017743736 0 0.13093807204512839 -0.086043871838904051 0 0.13725617175342489 -0.081630834017743736 0 0.13981216501246199 -0.088772677928365296 0 0.13093807204512839 -0.086043871838904051 0 0.13981216501246199 -0.088772677928365296 0 0.13286327203104201 -0.093456690052173982 0 0.1400167387672967 -0.098069254917822091 0 0.13981216501246199 -0.088772677928365296 0 0.13286327203104201 -0.093456690052173982 0 0.12260402910456809 -0.073528861649186428 0 0.13262892317531699 -0.066414290941017182 0 0.13272193064017801 -0.047602524391959847 0 0.12260402910456809 -0.073528861649186428 0 0.12228948930352369 -0.067611832480992548 0 0.13272193064017801 -0.047602524391959847 0 0.12260402910456809 -0.073528861649186428 0 0.13063894984763921 -0.078139124546086847 0 0.13262892317531699 -0.066414290941017182 0 0.13063894984763921 -0.078139124546086847 0 0.13262892317531699 -0.066414290941017182 0 0.13868196492731449 -0.073293918571229022 0 0.13063894984763921 -0.078139124546086847 0 0.13725617175342489 -0.081630834017743736 0 0.13868196492731449 -0.073293918571229022 0 0.13262892317531699 -0.066414290941017182 0 0.13868196492731449 -0.073293918571229022 0 0.14243294921529329 -0.060837781986075951 0 0.13868196492731449 -0.073293918571229022 0 0.15178801617935769 -0.071152760540933752 0 0.14243294921529329 -0.060837781986075951 0 0.13868196492731449 -0.073293918571229022 0 0.15178801617935769 -0.071152760540933752 0 0.14620970693458041 -0.081904577204133508 0 0.15178801617935769 -0.071152760540933752 0 0.14243294921529329 -0.060837781986075951 0 0.15377680706831809 -0.058248397234877437 0 0.1400167387672967 -0.098069254917822091 0 0.13981216501246199 -0.088772677928365296 0 0.1513746923809616 -0.093482179640552485 0 0.13981216501246199 -0.088772677928365296 0 0.14620970693458041 -0.081904577204133508 0 0.1513746923809616 -0.093482179640552485 0 0.13725617175342489 -0.081630834017743736 0 0.13981216501246199 -0.088772677928365296 0 0.14620970693458041 -0.081904577204133508 0 0.13725617175342489 -0.081630834017743736 0 0.13868196492731449 -0.073293918571229022 0 0.14620970693458041 -0.081904577204133508 0 0.15178801617935769 -0.071152760540933752 0 0.14620970693458041 -0.081904577204133508 0 0.16060159326226189 -0.085445164071667273 0 0.14620970693458041 -0.081904577204133508 0 0.1513746923809616 -0.093482179640552485 0 0.16060159326226189 -0.085445164071667273 0 0.16060159326226189 -0.085445164071667273 0 0.16746585938289041 -0.067328861943829282 0 0.17371632958545119 -0.082107406466414165 0 0.1513746923809616 -0.093482179640552485 0 0.16060159326226189 -0.085445164071667273 0 0.16229737034260969 -0.100413699872411 0 0.16060159326226189 -0.085445164071667273 0 0.17371632958545119 -0.082107406466414165 0 0.17665184869096581 -0.09734822489140052 0 0.15178801617935769 -0.071152760540933752 0 0.16746585938289041 -0.067328861943829282 0 0.15377680706831809 -0.058248397234877437 0 0.15178801617935769 -0.071152760540933752 0 0.16060159326226189 -0.085445164071667273 0 0.16746585938289041 -0.067328861943829282 0 0.16746585938289041 -0.067328861943829282 0 0.1818395013815623 -0.056149484588966389 0 0.18948122874312581 -0.07325910608083043 0 0.16746585938289041 -0.067328861943829282 0 0.17371632958545119 -0.082107406466414165 0 0.18948122874312581 -0.07325910608083043 0 0.17371632958545119 -0.082107406466414165 0 0.17665184869096581 -0.09734822489140052 0 0.19463860586428941 -0.090785643213687123 0 0.17371632958545119 -0.082107406466414165 0 0.19463860586428941 -0.090785643213687123 0 0.18948122874312581 -0.07325910608083043 0 0.17371632958545119 -0.082107406466414165 0 0.19463860586428941 -0.090785643213687123 0 0.17665184869096581 -0.09734822489140052 0 0.17454248089144189 -0.1135779052442137 0 0.1886317811393475 -0.1074744023501789 0 0.17665184869096581 -0.09734822489140052 0 0.1886317811393475 -0.1074744023501789 0 0.19463860586428941 -0.090785643213687123 0 0.18440837496499871 -0.1209258924411699 0 0.17454248089144189 -0.1135779052442137 0 0.1886317811393475 -0.1074744023501789 0 0.18440837496499871 -0.1209258924411699 0 0.17454248089144189 -0.1135779052442137 0 0.16997449881163601 -0.12522860452042289 0 0.14680654321707259 -0.11215109382897009 0 0.16997449881163601 -0.12522860452042289 0 0.14680654321707259 -0.11215109382897009 0 0.17454248089144189 -0.1135779052442137 0 0.16997449881163601 -0.12522860452042289 0 0.14680654321707259 -0.11215109382897009 0 0.17454248089144189 -0.1135779052442137 0 0.17665184869096581 -0.09734822489140052 0 0.17454248089144189 -0.1135779052442137 0 0.16229737034260969 -0.100413699872411 0 0.14680654321707259 -0.11215109382897009 0 0.17454248089144189 -0.1135779052442137 0 0.16229737034260969 -0.100413699872411 0 0.16060159326226189 -0.085445164071667273 0 0.17665184869096581 -0.09734822489140052 0 0.16229737034260969 -0.100413699872411 0 0.15175326260012839 -0.0046037803033096942 0 0.1386480843941881 -0.019191105239265021 0 0.15675897032247901 -0.020939671629786091 0 0.15175326260012839 -0.0046037803033096942 0 0.12880624959034009 -0.002636456239975347 0 0.1386480843941881 -0.019191105239265021 0 0.11881072421063769 -0.018494587312512401 0 0.12880624959034009 -0.002636456239975347 0 0.1386480843941881 -0.019191105239265021 0 0.1386480843941881 -0.019191105239265021 0 0.12976148291803261 -0.030546701300957331 0 0.14644298246489429 -0.035171949931591409 0 0.11881072421063769 -0.018494587312512401 0 0.1386480843941881 -0.019191105239265021 0 0.12976148291803261 -0.030546701300957331 0 0.1386480843941881 -0.019191105239265021 0 0.14644298246489429 -0.035171949931591409 0 0.15675897032247901 -0.020939671629786091 0 0.14644298246489429 -0.035171949931591409 0 0.14681847920536331 -0.048759119254415173 0 0.1610575394601558 -0.044939714623115613 0 0.14644298246489429 -0.035171949931591409 0 0.13272193064017801 -0.047602524391959847 0 0.14681847920536331 -0.048759119254415173 0 0.11669448312643051 -0.035444347228613907 0 0.12976148291803261 -0.030546701300957331 0 0.13272193064017801 -0.047602524391959847 0 0.12976148291803261 -0.030546701300957331 0 0.14644298246489429 -0.035171949931591409 0 0.13272193064017801 -0.047602524391959847 0 0.13262892317531699 -0.066414290941017182 0 0.13272193064017801 -0.047602524391959847 0 0.14243294921529329 -0.060837781986075951 0 0.12260402910456809 -0.073528861649186428 0 0.13272193064017801 -0.047602524391959847 0 0.14243294921529329 -0.060837781986075951 0 0.14681847920536331 -0.048759119254415173 0 0.15377680706831809 -0.058248397234877437 0 0.13272193064017801 -0.047602524391959847 0 0.14243294921529329 -0.060837781986075951 0 0.14681847920536331 -0.048759119254415173 0 0.14681847920536331 -0.048759119254415173 0 0.15377680706831809 -0.058248397234877437 0 0.1610575394601558 -0.044939714623115613 0 0.16746585938289041 -0.067328861943829282 0 0.15377680706831809 -0.058248397234877437 0 0.1610575394601558 -0.044939714623115613 0 0.16746585938289041 -0.067328861943829282 0 0.1818395013815623 -0.056149484588966389 0 0.1610575394601558 -0.044939714623115613 0 0.1818395013815623 -0.056149484588966389 0 0.17182979488742911 -0.030932655717659172 0 0.1951498113552918 -0.044214195043485172 0 0.1818395013815623 -0.056149484588966389 0 0.1610575394601558 -0.044939714623115613 0 0.17182979488742911 -0.030932655717659172 0 0.14644298246489429 -0.035171949931591409 0 0.1610575394601558 -0.044939714623115613 0 0.17182979488742911 -0.030932655717659172 0 0.14644298246489429 -0.035171949931591409 0 0.17182979488742911 -0.030932655717659172 0 0.15675897032247901 -0.020939671629786091 0 0.17182979488742911 -0.030932655717659172 0 0.17601105874852249 -0.0092918975221894656 0 0.14644298246489429 -0.035171949931591409 0 0.15675897032247901 -0.020939671629786091 0 0.17182979488742911 -0.030932655717659172 0 0.17182979488742911 -0.030932655717659172 0 0.17601105874852249 -0.0092918975221894656 0 0.19721660730996379 -0.026693361503726951 0 0.17182979488742911 -0.030932655717659172 0 0.19721660730996379 -0.026693361503726951 0 0.1647838567098362 0.01362444789774981 0 0.15175326260012839 -0.0046037803033096942 0 0.17601105874852249 -0.0092918975221894656 0 0.15175326260012839 -0.0046037803033096942 0 0.15675897032247901 -0.020939671629786091 0 0.17601105874852249 -0.0092918975221894656 0 0.2025414862440805 -0.0061684535584014891 0 0.22260341973249859 -0.0224540672897947 0 0.22029341025675611 -0.0047905929507190814 0 0.18929273458246709 0.01271136884722447 0 0.17601105874852249 -0.0092918975221894656 0 0.2025414862440805 -0.0061684535584014891 0 0.17601105874852249 -0.0092918975221894656 0 0.2025414862440805 -0.0061684535584014891 0 0.19721660730996379 -0.026693361503726951 0 0.2025414862440805 -0.0061684535584014891 0 0.19721660730996379 -0.026693361503726951 0 0.22260341973249859 -0.0224540672897947 0 0.19721660730996379 -0.026693361503726951 0 0.22260341973249859 -0.0224540672897947 0 0.19721660730996379 -0.026693361503726951 0 0.21058302958675251 -0.037767440209399622 0 0.22260341973249859 -0.0224540672897947 0 0.17182979488742911 -0.030932655717659172 0 0.19721660730996379 -0.026693361503726951 0 0.1951498113552918 -0.044214195043485172 0 0.19721660730996379 -0.026693361503726951 0 0.21058302958675251 -0.037767440209399622 0 0.1951498113552918 -0.044214195043485172 0 0.1818395013815623 -0.056149484588966389 0 0.1951498113552918 -0.044214195043485172 0 0.206591612591673 -0.062395625371877157 0 0.21058302958675251 -0.037767440209399622 0 0.206591612591673 -0.062395625371877157 0 0.22542451714095749 -0.048097493038763463 0 0.21058302958675251 -0.037767440209399622 0 0.1951498113552918 -0.044214195043485172 0 0.206591612591673 -0.062395625371877157 0 0.206591612591673 -0.062395625371877157 0 0.22542451714095749 -0.048097493038763463 0 0.22404352662453261 -0.06737227133780066 0 0.22542451714095749 -0.048097493038763463 0 0.2450142456146146 -0.061215004221688268 0 0.22404352662453261 -0.06737227133780066 0 0.22542451714095749 -0.048097493038763463 0 0.2450142456146146 -0.061215004221688268 0 0.24268599680298419 -0.037776372377709852 0 0.22542451714095749 -0.048097493038763463 0 0.24268599680298419 -0.037776372377709852 0 0.22260341973249859 -0.0224540672897947 0 0.21058302958675251 -0.037767440209399622 0 0.22542451714095749 -0.048097493038763463 0 0.22260341973249859 -0.0224540672897947 0 0.24268599680298419 -0.037776372377709852 0 0.22260341973249859 -0.0224540672897947 0 0.2479902321550336 -0.018214773075862431 0 0.22260341973249859 -0.0224540672897947 0 0.2479902321550336 -0.018214773075862431 0 0.23611856669769951 0.0033885814039986352 0 0.25793748997120008 0.0089236122805062303 0 0.2479902321550336 -0.018214773075862431 0 0.23611856669769951 0.0033885814039986352 0 0.2479902321550336 -0.018214773075862431 0 0.22029341025675611 -0.0047905929507190814 0 0.22260341973249859 -0.0224540672897947 0 0.2479902321550336 -0.018214773075862431 0 0.22029341025675611 -0.0047905929507190814 0 0.2155608821431278 -0.099463879960959692 0 0.19463860586428941 -0.090785643213687123 0 0.2155608821431278 -0.099463879960959692 0 0.2014135592066412 -0.1066015131347714 0 0.19463860586428941 -0.090785643213687123 0 0.2155608821431278 -0.099463879960959692 0 0.20984557973335111 -0.1152587626741481 0 0.2014135592066412 -0.1066015131347714 0 0.2155608821431278 -0.099463879960959692 0 0.20984557973335111 -0.1152587626741481 0 0.2208772437222454 -0.12143537311006911 0 0.20984557973335111 -0.1152587626741481 0 0.2208772437222454 -0.12143537311006911 0 0.21124039637699249 -0.13318581198910939 0 0.2155608821431278 -0.099463879960959692 0 0.2208772437222454 -0.12143537311006911 0 0.20984557973335111 -0.1152587626741481 0 0.19839094715309019 -0.120024877474883 0 0.21124039637699249 -0.13318581198910939 0 0.20984557973335111 -0.1152587626741481 0 0.19839094715309019 -0.120024877474883 0 0.2014135592066412 -0.1066015131347714 0 0.19839094715309019 -0.120024877474883 0 0.1886317811393475 -0.1074744023501789 0 0.2014135592066412 -0.1066015131347714 0 0.18440837496499871 -0.1209258924411699 0 0.19839094715309019 -0.120024877474883 0 0.1886317811393475 -0.1074744023501789 0 0.1886317811393475 -0.1074744023501789 0 0.2014135592066412 -0.1066015131347714 0 0.19463860586428941 -0.090785643213687123 0 0.19463860586428941 -0.090785643213687123 0 0.18948122874312581 -0.07325910608083043 0 0.2110762473674008 -0.080929752666418359 0 0.1818395013815623 -0.056149484588966389 0 0.206591612591673 -0.062395625371877157 0 0.18948122874312581 -0.07325910608083043 0 0.206591612591673 -0.062395625371877157 0 0.18948122874312581 -0.07325910608083043 0 0.2110762473674008 -0.080929752666418359 0 0.206591612591673 -0.062395625371877157 0 0.2110762473674008 -0.080929752666418359 0 0.206591612591673 -0.062395625371877157 0 0.2110762473674008 -0.080929752666418359 0 0.22404352662453261 -0.06737227133780066 0 0.2155608821431278 -0.099463879960959692 0 0.2110762473674008 -0.080929752666418359 0 0.2155608821431278 -0.099463879960959692 0 0.19463860586428941 -0.090785643213687123 0 0.2110762473674008 -0.080929752666418359 0 0.2155608821431278 -0.099463879960959692 0 0.2110762473674008 -0.080929752666418359 0 0.2321110104080176 -0.084223481390256136 0 0.2450142456146146 -0.061215004221688268 0 0.2321110104080176 -0.084223481390256136 0 0.22404352662453261 -0.06737227133780066 0 0.2110762473674008 -0.080929752666418359 0 0.2321110104080176 -0.084223481390256136 0 0.22404352662453261 -0.06737227133780066 0 0.25251503921403129 -0.079288618637047004 0 0.2450142456146146 -0.061215004221688268 0 0.2321110104080176 -0.084223481390256136 0 0.25251503921403129 -0.079288618637047004 0 0.2321110104080176 -0.084223481390256136 0 0.24526637103391191 -0.09498892688438948 0 0.24526637103391191 -0.09498892688438948 0 0.2313831787036115 -0.1060267239654781 0 0.2472054752640955 -0.112589567969996 0 0.2313831787036115 -0.1060267239654781 0 0.2472054752640955 -0.112589567969996 0 0.2321110104080176 -0.084223481390256136 0 0.24526637103391191 -0.09498892688438948 0 0.2313831787036115 -0.1060267239654781 0 0.2155608821431278 -0.099463879960959692 0 0.2313831787036115 -0.1060267239654781 0 0.2208772437222454 -0.12143537311006911 0 0.2155608821431278 -0.099463879960959692 0 0.2321110104080176 -0.084223481390256136 0 0.2313831787036115 -0.1060267239654781 0 0.2155608821431278 -0.099463879960959692 0 0.2313831787036115 -0.1060267239654781 0 0.2208772437222454 -0.12143537311006911 0 0.23815436067169071 -0.1179498442878647 0 0.23548921892340879 -0.12777910384815891 0 0.2313831787036115 -0.1060267239654781 0 0.2208772437222454 -0.12143537311006911 0 0.23815436067169071 -0.1179498442878647 0 0.2313831787036115 -0.1060267239654781 0 0.23815436067169071 -0.1179498442878647 0 0.2472054752640955 -0.112589567969996 0 0.23815436067169071 -0.1179498442878647 0 0.24898852309013139 -0.1187075604727701 0 0.23548921892340879 -0.12777910384815891 0 0.23815436067169071 -0.1179498442878647 0 0.2472054752640955 -0.112589567969996 0 0.24898852309013139 -0.1187075604727701 0 0.24898852309013139 -0.1187075604727701 0 0.23548921892340879 -0.12777910384815891 0 0.23482853749632079 -0.14394756970737729 0 0.24898852309013139 -0.1187075604727701 0 0.24810845424368949 -0.13258004626673661 0 0.23482853749632079 -0.14394756970737729 0 0.24898852309013139 -0.1187075604727701 0 0.23482853749632079 -0.14394756970737729 0 0.25381938404938942 -0.1334915628196541 0 0.24810845424368949 -0.13258004626673661 0 0.24751572911157591 -0.1417769346556676 0 0.24810845424368949 -0.13258004626673661 0 0.24751572911157591 -0.1417769346556676 0 0.23482853749632079 -0.14394756970737729 0 0.24978243152623819 -0.15271884650741541 0 0.24751572911157591 -0.1417769346556676 0 0.240788158047434 -0.1529888472704749 0 0.24751572911157591 -0.1417769346556676 0 0.23482853749632079 -0.14394756970737729 0 0.240788158047434 -0.1529888472704749 0 0.23482853749632079 -0.14394756970737729 0 0.240788158047434 -0.1529888472704749 0 0.23452341509576541 -0.1592313273413701 0 0.23482853749632079 -0.14394756970737729 0 0.2261936053013624 -0.14340686625917881 0 0.21970184312110669 -0.15677076965426909 0 0.23482853749632079 -0.14394756970737729 0 0.2261936053013624 -0.14340686625917881 0 0.23101270695124879 -0.1356661927234061 0 0.2261936053013624 -0.14340686625917881 0 0.2163104100007622 -0.15138362590332921 0 0.21970184312110669 -0.15677076965426909 0 0.2208772437222454 -0.12143537311006911 0 0.2261936053013624 -0.14340686625917881 0 0.21124039637699249 -0.13318581198910939 0 0.23548921892340879 -0.12777910384815891 0 0.23482853749632079 -0.14394756970737729 0 0.23101270695124879 -0.1356661927234061 0 0.2208772437222454 -0.12143537311006911 0 0.2261936053013624 -0.14340686625917881 0 0.2208772437222454 -0.12143537311006911 0 0.2261936053013624 -0.14340686625917881 0 0.23101270695124879 -0.1356661927234061 0 0.2208772437222454 -0.12143537311006911 0 0.23548921892340879 -0.12777910384815891 0 0.23101270695124879 -0.1356661927234061 0 0.21124039637699249 -0.13318581198910939 0 0.2163104100007622 -0.15138362590332921 0 0.19314245440619909 -0.13830611521187611 0 0.2163104100007622 -0.15138362590332921 0 0.19314245440619909 -0.13830611521187611 0 0.2261936053013624 -0.14340686625917881 0 0.21124039637699249 -0.13318581198910939 0 0.2163104100007622 -0.15138362590332921 0 0.2163104100007622 -0.15138362590332921 0 0.19402678691903349 -0.15565031818968031 0 0.19314245440619909 -0.13830611521187611 0 0.19402678691903349 -0.15565031818968031 0 0.19314245440619909 -0.13830611521187611 0 0.1795808829061829 -0.1511646038560133 0 0.19839094715309019 -0.120024877474883 0 0.21124039637699249 -0.13318581198910939 0 0.19314245440619909 -0.13830611521187611 0 0.18440837496499871 -0.1209258924411699 0 0.19839094715309019 -0.120024877474883 0 0.19314245440619909 -0.13830611521187611 0 0.1980216637779062 -0.17765671994558019 0 0.20263206136511461 -0.18816860451024631 0 0.1851774987692611 -0.18004274032433701 0 0.1980216637779062 -0.17765671994558019 0 0.1964027029548904 -0.16732546052419489 0 0.20787439202235861 -0.17509007442354249 0 0.1980216637779062 -0.17765671994558019 0 0.20787439202235861 -0.17509007442354249 0 0.20263206136511461 -0.18816860451024631 0 0.1980216637779062 -0.17765671994558019 0 0.1964027029548904 -0.16732546052419489 0 0.1851774987692611 -0.18004274032433701 0 0.19402678691903349 -0.15565031818968031 0 0.1964027029548904 -0.16732546052419489 0 0.180687658794566 -0.16413861826461859 0 0.19402678691903349 -0.15565031818968031 0 0.1964027029548904 -0.16732546052419489 0 0.20711267145848061 -0.16310530559443659 0 0.1964027029548904 -0.16732546052419489 0 0.20711267145848061 -0.16310530559443659 0 0.20787439202235861 -0.17509007442354249 0 0.20711267145848061 -0.16310530559443659 0 0.213839364626114 -0.16603843215355821 0 0.20787439202235861 -0.17509007442354249 0 0.2163104100007622 -0.15138362590332921 0 0.19402678691903349 -0.15565031818968031 0 0.20711267145848061 -0.16310530559443659 0 0.2163104100007622 -0.15138362590332921 0 0.20711267145848061 -0.16310530559443659 0 0.21970184312110669 -0.15677076965426909 0 0.213839364626114 -0.16603843215355821 0 0.21970184312110669 -0.15677076965426909 0 0.22066855190251031 -0.16918757894198461 0 0.20711267145848061 -0.16310530559443659 0 0.213839364626114 -0.16603843215355821 0 0.21970184312110669 -0.15677076965426909 0 0.213839364626114 -0.16603843215355821 0 0.20787439202235861 -0.17509007442354249 0 0.22066855190251031 -0.16918757894198461 0 0.2164604920406015 -0.17668839658552679 0 0.20787439202235861 -0.17509007442354249 0 0.22066855190251031 -0.16918757894198461 0 0.2164604920406015 -0.17668839658552679 0 0.20787439202235861 -0.17509007442354249 0 0.20650856630869979 -0.19442758817659181 0 0.2164604920406015 -0.17668839658552679 0 0.22066855190251031 -0.16918757894198461 0 0.20787439202235861 -0.17509007442354249 0 0.20650856630869979 -0.19442758817659181 0 0.20263206136511461 -0.18816860451024631 0 0.2164604920406015 -0.17668839658552679 0 0.21890993119169841 -0.19010013563109771 0 0.20650856630869979 -0.19442758817659181 0 0.2164604920406015 -0.17668839658552679 0 0.20650856630869979 -0.19442758817659181 0 0.2164604920406015 -0.17668839658552679 0 0.22066855190251031 -0.16918757894198461 0 0.2451071564849216 -0.1706163668390856 0 0.2164604920406015 -0.17668839658552679 0 0.2317454577117517 -0.18175085173841199 0 0.2451071564849216 -0.1706163668390856 0 0.2164604920406015 -0.17668839658552679 0 0.22380840548261491 -0.18487472929354051 0 0.2317454577117517 -0.18175085173841199 0 0.2164604920406015 -0.17668839658552679 0 0.2451071564849216 -0.1706163668390856 0 0.2164604920406015 -0.17668839658552679 0 0.22380840548261491 -0.18487472929354051 0 0.21890993119169841 -0.19010013563109771 0 0.22380840548261491 -0.18487472929354051 0 0.2317454577117517 -0.18175085173841199 0 0.22815624468058759 -0.19375981860523089 0 0.23482853749632079 -0.14394756970737729 0 0.22066855190251031 -0.16918757894198461 0 0.22066855190251031 -0.16918757894198461 0 0.2451071564849216 -0.1706163668390856 0 0.23452341509576541 -0.1592313273413701 0 0.23482853749632079 -0.14394756970737729 0 0.22066855190251031 -0.16918757894198461 0 0.23452341509576541 -0.1592313273413701 0 0.23482853749632079 -0.14394756970737729 0 0.21970184312110669 -0.15677076965426909 0 0.22066855190251031 -0.16918757894198461 0 0.240788158047434 -0.1529888472704749 0 0.2451071564849216 -0.1706163668390856 0 0.23452341509576541 -0.1592313273413701 0 0.24978243152623819 -0.15271884650741541 0 0.240788158047434 -0.1529888472704749 0 0.2451071564849216 -0.1706163668390856 0 0.2317454577117517 -0.18175085173841199 0 0.2451071564849216 -0.1706163668390856 0 0.2404914646760965 -0.18964003799856879 0 0.25311750328474492 -0.1886483921017249 0 0.2451071564849216 -0.1706163668390856 0 0.2404914646760965 -0.18964003799856879 0 0.25177735288023279 -0.20663475947875959 0 0.25311750328474492 -0.1886483921017249 0 0.24036496552761799 -0.2016376540979582 0 0.25311750328474492 -0.1886483921017249 0 0.2404914646760965 -0.18964003799856879 0 0.24036496552761799 -0.2016376540979582 0 0.2404914646760965 -0.18964003799856879 0 0.24036496552761799 -0.2016376540979582 0 0.22815624468058759 -0.19375981860523089 0 0.25177735288023279 -0.20663475947875959 0 0.24036496552761799 -0.2016376540979582 0 0.234838709497978 -0.21486348582881509 0 0.25177735288023279 -0.20663475947875959 0 0.234838709497978 -0.21486348582881509 0 0.24803030827818129 -0.22967341167366881 0 0.234838709497978 -0.21486348582881509 0 0.22777851762423171 -0.20497562241780781 0 0.21611122955872411 -0.214040272196975 0 0.24036496552761799 -0.2016376540979582 0 0.234838709497978 -0.21486348582881509 0 0.22777851762423171 -0.20497562241780781 0 0.22777851762423171 -0.20497562241780781 0 0.21906776483915699 -0.19991388585536521 0 0.21611122955872411 -0.214040272196975 0 0.22777851762423171 -0.20497562241780781 0 0.21906776483915699 -0.19991388585536521 0 0.22815624468058759 -0.19375981860523089 0 0.21906776483915699 -0.19991388585536521 0 0.21890993119169841 -0.19010013563109771 0 0.22815624468058759 -0.19375981860523089 0 0.22380840548261491 -0.18487472929354051 0 0.21890993119169841 -0.19010013563109771 0 0.22815624468058759 -0.19375981860523089 0 0.2317454577117517 -0.18175085173841199 0 0.2404914646760965 -0.18964003799856879 0 0.22815624468058759 -0.19375981860523089 0 0.24036496552761799 -0.2016376540979582 0 0.22777851762423171 -0.20497562241780781 0 0.22815624468058759 -0.19375981860523089 0 0.24803030827818129 -0.22967341167366881 0 0.22745823474672269 -0.23049706007265811 0 0.23364005360691339 -0.24700310711603751 0 0.25159635536329789 -0.25727591731673261 0 0.24803030827818129 -0.22967341167366881 0 0.23364005360691339 -0.24700310711603751 0 0.234838709497978 -0.21486348582881509 0 0.24803030827818129 -0.22967341167366881 0 0.22745823474672269 -0.23049706007265811 0 0.234838709497978 -0.21486348582881509 0 0.22745823474672269 -0.23049706007265811 0 0.21611122955872411 -0.214040272196975 0 0.22253906470796289 -0.25853601589582492 0 0.23364005360691339 -0.24700310711603751 0 0.21636696533907829 -0.24409877470365249 0 0.22745823474672269 -0.23049706007265811 0 0.23364005360691339 -0.24700310711603751 0 0.21636696533907829 -0.24409877470365249 0 0.20550489294392019 -0.25703356722612059 0 0.21636696533907829 -0.24409877470365249 0 0.197025850376437 -0.241391432765308 0 0.22745823474672269 -0.23049706007265811 0 0.21636696533907829 -0.24409877470365249 0 0.2095981627292825 -0.22994361525518381 0 0.21636696533907829 -0.24409877470365249 0 0.2095981627292825 -0.22994361525518381 0 0.197025850376437 -0.241391432765308 0 0.22745823474672269 -0.23049706007265811 0 0.2095981627292825 -0.22994361525518381 0 0.21611122955872411 -0.214040272196975 0 0.2095981627292825 -0.22994361525518381 0 0.19234858071488931 -0.21966759741119901 0 0.21611122955872411 -0.214040272196975 0 0.2095981627292825 -0.22994361525518381 0 0.19234858071488931 -0.21966759741119901 0 0.197025850376437 -0.241391432765308 0 0.21906776483915699 -0.19991388585536521 0 0.20650856630869979 -0.19442758817659181 0 0.21611122955872411 -0.214040272196975 0 0.21906776483915699 -0.19991388585536521 0 0.21890993119169841 -0.19010013563109771 0 0.20650856630869979 -0.19442758817659181 0 0.19234858071488931 -0.21966759741119901 0 0.20650856630869979 -0.19442758817659181 0 0.21611122955872411 -0.214040272196975 0 0.19234858071488931 -0.21966759741119901 0 0.20650856630869979 -0.19442758817659181 0 0.17956433135655481 -0.1984596829527252 0 0.19234858071488931 -0.21966759741119901 0 0.20650856630869979 -0.19442758817659181 0 0.20263206136511461 -0.18816860451024631 0 0.17956433135655481 -0.1984596829527252 0 0.1851774987692611 -0.18004274032433701 0 0.20650856630869979 -0.19442758817659181 0 0.20263206136511461 -0.18816860451024631 0 0.17956433135655481 -0.1984596829527252 0 0.20263206136511461 -0.18816860451024631 0 0.17956433135655481 -0.1984596829527252 0 0.17956433135655481 -0.1984596829527252 0 0.16653609631330829 -0.18961853465646891 0 0.1851774987692611 -0.18004274032433701 0 0.19234858071488931 -0.21966759741119901 0 0.17956433135655481 -0.1984596829527252 0 0.17202908108303139 -0.21915881717165939 0 0.17956433135655481 -0.1984596829527252 0 0.1564966013479949 -0.2087507613952041 0 0.17956433135655481 -0.1984596829527252 0 0.1564966013479949 -0.2087507613952041 0 0.17202908108303139 -0.21915881717165939 0 0.1564966013479949 -0.2087507613952041 0 0.17202908108303139 -0.21915881717165939 0 0.15330780694500751 -0.22592135580178491 0 0.17956433135655481 -0.1984596829527252 0 0.1564966013479949 -0.2087507613952041 0 0.16653609631330829 -0.18961853465646891 0 0.1564966013479949 -0.2087507613952041 0 0.16653609631330829 -0.18961853465646891 0 0.1510179434401546 -0.1850358609936594 0 0.18558891066252339 -0.25856023572730119 0 0.197025850376437 -0.241391432765308 0 0.17177551692569271 -0.23945944404520539 0 0.19234858071488931 -0.21966759741119901 0 0.17202908108303139 -0.21915881717165939 0 0.17177551692569271 -0.23945944404520539 0 0.19234858071488931 -0.21966759741119901 0 0.197025850376437 -0.241391432765308 0 0.17177551692569271 -0.23945944404520539 0 0.17202908108303139 -0.21915881717165939 0 0.17177551692569271 -0.23945944404520539 0 0.15330780694500751 -0.22592135580178491 0 0.17177551692569271 -0.23945944404520539 0 0.1466835354833794 -0.24353370691204809 0 0.15330780694500751 -0.22592135580178491 0 0.1466835354833794 -0.24353370691204809 0 0.15330780694500751 -0.22592135580178491 0 0.13342887133943501 -0.21904183983768299 0 0.12296627672248869 -0.22370945914287241 0 0.13342887133943501 -0.21904183983768299 0 0.12807900425912619 -0.23871586815867721 0 0.1466835354833794 -0.24353370691204809 0 0.13342887133943501 -0.21904183983768299 0 0.1466835354833794 -0.24353370691204809 0 0.13342887133943501 -0.21904183983768299 0 0.12807900425912619 -0.23871586815867721 0 0.12296627672248869 -0.22370945914287241 0 0.13342887133943501 -0.21904183983768299 0 0.13554402609957381 -0.26081854476635269 0 0.1466835354833794 -0.24353370691204809 0 0.12807900425912619 -0.23871586815867721 0 0.13554402609957381 -0.26081854476635269 0 0.11457284659363121 -0.25025118324294621 0 0.12807900425912619 -0.23871586815867721 0 0.13936534658494251 -0.20134960044019459 0 0.13538818807555861 -0.18800795594314701 0 0.1510179434401546 -0.1850358609936594 0 0.1564966013479949 -0.2087507613952041 0 0.13936534658494251 -0.20134960044019459 0 0.1510179434401546 -0.1850358609936594 0 0.1564966013479949 -0.2087507613952041 0 0.15330780694500751 -0.22592135580178491 0 0.13342887133943501 -0.21904183983768299 0 0.1564966013479949 -0.2087507613952041 0 0.13342887133943501 -0.21904183983768299 0 0.13936534658494251 -0.20134960044019459 0 0.1564966013479949 -0.2087507613952041 0 0.13342887133943501 -0.21904183983768299 0 0.1213069549757318 -0.19664305545188779 0 0.13342887133943501 -0.21904183983768299 0 0.13936534658494251 -0.20134960044019459 0 0.1213069549757318 -0.19664305545188779 0 0.13342887133943501 -0.21904183983768299 0 0.1213069549757318 -0.19664305545188779 0 0.1235584016110331 -0.2099041032935236 0 0.13342887133943501 -0.21904183983768299 0 0.1235584016110331 -0.2099041032935236 0 0.12296627672248869 -0.22370945914287241 0 0.13342887133943501 -0.21904183983768299 0 0.1213069549757318 -0.19664305545188779 0 0.13936534658494251 -0.20134960044019459 0 0.13538818807555861 -0.18800795594314701 0 0.1213069549757318 -0.19664305545188779 0 0.13538818807555861 -0.18800795594314701 0 0.12567860338465731 -0.17900645158366649 0 0.12567860338465731 -0.17900645158366649 0 0.13759947844269591 -0.17626583412384719 0 0.12738614834789361 -0.1646596171467474 0 0.13538818807555861 -0.18800795594314701 0 0.12567860338465731 -0.17900645158366649 0 0.13759947844269591 -0.17626583412384719 0 0.1510179434401546 -0.1850358609936594 0 0.1485265089652153 -0.16461928495201569 0 0.16788727858655569 -0.17393175302342101 0 0.13759947844269591 -0.17626583412384719 0 0.1510179434401546 -0.1850358609936594 0 0.1485265089652153 -0.16461928495201569 0 0.13538818807555861 -0.18800795594314701 0 0.13759947844269591 -0.17626583412384719 0 0.1510179434401546 -0.1850358609936594 0 0.13759947844269591 -0.17626583412384719 0 0.1485265089652153 -0.16461928495201569 0 0.12738614834789361 -0.1646596171467474 0 0.1485265089652153 -0.16461928495201569 0 0.12738614834789361 -0.1646596171467474 0 0.13440048396434831 -0.1520284468121515 0 0.1194654566465532 -0.13593475243890901 0 0.13440048396434831 -0.1520284468121515 0 0.1194654566465532 -0.13593475243890901 0 0.13440048396434831 -0.1520284468121515 0 0.13864505038348121 -0.13837583785393581 0 0.1142497899340363 -0.1496031055300277 0 0.12738614834789361 -0.1646596171467474 0 0.13440048396434831 -0.1520284468121515 0 0.1194654566465532 -0.13593475243890901 0 0.13864505038348121 -0.13837583785393581 0 0.1349654639868019 -0.12711344240839809 0 0.1194654566465532 -0.13593475243890901 0 0.12600232087334701 -0.12094039202749469 0 0.1349654639868019 -0.12711344240839809 0 0.13864505038348121 -0.13837583785393581 0 0.1349654639868019 -0.12711344240839809 0 0.15182151608782549 -0.12625169888313609 0 0.13864505038348121 -0.13837583785393581 0 0.15182151608782549 -0.12625169888313609 0 0.15311040609362819 -0.14129820574273549 0 0.15182151608782549 -0.12625169888313609 0 0.15311040609362819 -0.14129820574273549 0 0.1613454623050036 -0.13345375434057441 0 0.1485265089652153 -0.16461928495201569 0 0.13440048396434831 -0.1520284468121515 0 0.15311040609362819 -0.14129820574273549 0 0.1485265089652153 -0.16461928495201569 0 0.15311040609362819 -0.14129820574273549 0 0.16631121033161961 -0.1573762996990693 0 0.13440048396434831 -0.1520284468121515 0 0.13864505038348121 -0.13837583785393581 0 0.15311040609362819 -0.14129820574273549 0 0.15311040609362819 -0.14129820574273549 0 0.1704754282269246 -0.1410365082160028 0 0.16631121033161961 -0.1573762996990693 0 0.15182151608782549 -0.12625169888313609 0 0.1613454623050036 -0.13345375434057441 0 0.16997449881163601 -0.12522860452042289 0 0.1704754282269246 -0.1410365082160028 0 0.1613454623050036 -0.13345375434057441 0 0.16997449881163601 -0.12522860452042289 0 0.15311040609362819 -0.14129820574273549 0 0.1704754282269246 -0.1410365082160028 0 0.1613454623050036 -0.13345375434057441 0 0.19314245440619909 -0.13830611521187611 0 0.1704754282269246 -0.1410365082160028 0 0.16997449881163601 -0.12522860452042289 0 0.18440837496499871 -0.1209258924411699 0 0.19314245440619909 -0.13830611521187611 0 0.16997449881163601 -0.12522860452042289 0 0.19314245440619909 -0.13830611521187611 0 0.16997449881163601 -0.12522860452042289 0 0.19314245440619909 -0.13830611521187611 0 0.1704754282269246 -0.1410365082160028 0 0.1795808829061829 -0.1511646038560133 0 0.1704754282269246 -0.1410365082160028 0 0.1795808829061829 -0.1511646038560133 0 0.16631121033161961 -0.1573762996990693 0 0.19402678691903349 -0.15565031818968031 0 0.1795808829061829 -0.1511646038560133 0 0.180687658794566 -0.16413861826461859 0 0.1964027029548904 -0.16732546052419489 0 0.180687658794566 -0.16413861826461859 0 0.1851774987692611 -0.18004274032433701 0 0.1795808829061829 -0.1511646038560133 0 0.180687658794566 -0.16413861826461859 0 0.16631121033161961 -0.1573762996990693 0 0.180687658794566 -0.16413861826461859 0 0.1851774987692611 -0.18004274032433701 0 0.16788727858655569 -0.17393175302342101 0 0.16653609631330829 -0.18961853465646891 0 0.1851774987692611 -0.18004274032433701 0 0.16788727858655569 -0.17393175302342101 0 0.16653609631330829 -0.18961853465646891 0 0.1510179434401546 -0.1850358609936594 0 0.16788727858655569 -0.17393175302342101 0 0.1485265089652153 -0.16461928495201569 0 0.16788727858655569 -0.17393175302342101 0 0.16631121033161961 -0.1573762996990693 0 0.180687658794566 -0.16413861826461859 0 0.16788727858655569 -0.17393175302342101 0 0.16631121033161961 -0.1573762996990693 0 
</DataArray>
</Points>
<Cells>
<DataArray type="UInt32" Name="connectivity" format="ascii">
0 1 2 3 4 5 6 7 8 9 10 11 12 13 14 15 16 17 18 19 20 21 22 23 24 25 26 27 28 29 30 31 32 33 34 35 36 37 38 39 40 41 42 43 44 45 46 47 48 49 50 51 52 53 54 55 56 57 58 59 60 61 62 63 64 65 66 67 68 69 70 71 72 73 74 75 76 77 78 79 80 81 82 83 84 85 86 87 88 89 90 91 92 93 94 95 96 97 98 99 100 101 102 103 104 105 106 107 108 109 110 111 112 113 114 115 116 117 118 119 120 121 122 123 124 125 126 127 128 129 130 131 132 133 134 135 136 137 138 139 140 141 142 143 144 145 146 147 148 149 150 151 152 153 154 155 156 157 158 159 160 161 162 163 164 165 166 167 168 169 170 171 172 173 174 175 176 177 178 179 180 181 182 183 184 185 186 187 188 189 190 191 192 193 194 195 196 197 198 199 200 201 202 203 204 205 206 207 208 209 210 211 212 213 214 215 216 217 218 219 220 221 222 223 224 225 226 227 228 229 230 231 232 233 234 235 236 237 238 239 240 241 242 243 244 245 246 247 248 249 250 251 252 253 254 255 256 257 258 259 260 261 262 263 264 265 266 267 268 269 270 271 272 273 274 275 276 277 278 279 280 281 282 283 284 285 286 287 288 289 290 291 292 293 294 295 296 297 298 299 300 301 302 303 304 305 306 307 308 309 310 311 312 313 314 315 316 317 318 319 320 321 322 323 324 325 326 327 328 329 330 331 332 333 334 335 336 337 338 339 340 341 342 343 344 345 346 347 348 349 350 351 352 353 354 355 356 357 358 359 360 361 362 363 364 365 366 367 368 369 370 371 372 373 374 375 376 377 378 379 380 381 382 383 384 385 386 387 388 389 390 391 392 393 394 395 396 397 398 399 400 401 402 403 404 405 406 407 408 409 410 411 412 413 414 415 416 417 418 419 420 421 422 423 424 425 426 427 428 429 430 431 432 433 434 435 436 437 438 439 440 441 442 443 444 445 446 447 448 449 450 451 452 453 454 455 456 457 458 459 460 461 462 463 464 465 466 467 468 469 470 471 472 473 474 475 476 477 478 479 480 481 482 483 484 485 486 487 488 489 490 491 492 493 494 495 496 497 498 499 500 501 502 503 504 505 506 507 508 509 510 511 512 513 514 515 516 517 518 519 520 521 522 523 524 525 526 527 528 529 530 531 532 533 534 535 536 537 538 539 540 541 542 543 544 545 546 547 548 549 550 551 552 553 554 555 556 557 558 559 560 561 562 563 564 565 566 567 568 569 570 571 572 573 574 575 576 577 578 579 580 581 582 583 584 585 586 587 588 589 590 591 592 593 594 595 596 597 598 599 600 601 602 603 604 605 606 607 608 609 610 611 612 613 614 615 616 617 618 619 620 621 622 623 624 625 626 627 628 629 630 631 632 633 634 635 636 637 638 639 640 641 642 643 644 645 646 647 648 649 650 651 652 653 654 655 656 657 658 659 660 661 662 663 664 665 666 667 668 669 670 671 672 673 674 675 676 677 678 679 680 681 682 683 684 685 686 687 688 689 690 691 692 693 694 695 696 697 698 699 700 701 702 703 704 705 706 707 708 709 710 711 712 713 714 715 716 717 718 719 720 721 722 723 724 725 726 727 728 729 730 731 732 733 734 735 736 737 738 739 740 741 742 743 744 745 746 747 748 749 750 751 752 753 754 755 756 757 758 759 760 761 762 763 764 765 766 767 768 769 770 771 772 773 774 775 776 777 778 779 780 781 782 783 784 785 786 787 788 789 790 791 792 793 794 795 796 797 798 799 800 801 802 803 804 805 806 807 808 809 810 811 812 813 814 815 816 817 818 819 820 821 822 823 824 825 826 827 828 829 830 831 832 833 834 835 836 837 838 839 840 841 842 843 844 845 846 847 848 849 850 851 852 853 854 855 856 857 858 859 860 861 862 863 864 865 866 867 868 869 870 871 872 873 874 875 876 877 878 879 880 881 882 883 884 885 886 887 888 889 890 891 892 893 894 895 896 897 898 899 900 901 902 903 904 905 906 907 908 909 910 911 912 913 914 915 916 917 918 919 920 921 922 923 924 925 926 927 928 929 930 931 932 933 934 935 936 937 938 939 940 941 942 943 944 945 946 947 948 949 950 951 952 953 954 955 956 957 958 959 960 961 962 963 964 965 966 967 968 969 970 971 972 973 974 975 976 977 978 979 980 981 982 983 984 985 986 987 988 989 990 991 992 993 994 995 996 997 998 999 1000 1001 1002 1003 1004 1005 1006 1007 1008 1009 1010 1011 1012 1013 1014 1015 1016 1017 1018 1019 1020 1021 1022 1023 1024 1025 1026 1027 1028 1029 1030 1031 1032 1033 1034 1035 1036 1037 1038 1039 1040 1041 1042 1043 1044 1045 1046 1047 1048 1049 1050 1051 1052 1053 1054 1055 1056 1057 1058 1059 1060 1061 1062 1063 1064 1065 1066 1067 1068 1069 1070 1071 1072 1073 1074 1075 1076 1077 1078 1079 1080 1081 1082 1083 1084 1085 1086 1087 1088 1089 1090 1091 1092 1093 1094 1095 1096 1097 1098 1099 1100 1101 1102 1103 1104 1105 1106 1107 1108 1109 1110 1111 1112 1113 1114 1115 1116 1117 1118 1119 1120 1121 1122 1123 1124 1125 1126 1127 1128 1129 1130 1131 1132 1133 1134 1135 1136 1137 1138 1139 1140 1141 1142 1143 1144 1145 1146 1147 1148 1149 1150 1151 1152 1153 1154 1155 1156 1157 1158 1159 1160 1161 1162 1163 1164 1165 1166 1167 1168 1169 1170 1171 1172 1173 1174 1175 1176 1177 1178 1179 1180 1181 1182 1183 1184 1185 1186 1187 1188 1189 1190 1191 1192 1193 1194 1195 1196 1197 1198 1199 1200 1201 1202 1203 1204 1205 1206 1207 1208 1209 1210 1211 1212 1213 1214 1215 1216 1217 1218 1219 1220 1221 1222 1223 1224 1225 1226 1227 1228 1229 1230 1231 1232 1233 1234 1235 1236 1237 1238 1239 1240 1241 1242 1243 1244 1245 1246 1247 1248 1249 1250 1251 1252 1253 1254 1255 1256 1257 1258 1259 1260 1261 1262 1263 1264 1265 1266 1267 1268 1269 1270 1271 1272 1273 1274 1275 1276 1277 1278 1279 1280 1281 1282 1283 1284 1285 1286 1287 1288 1289 1290 1291 1292 1293 1294 1295 1296 1297 1298 1299 1300 1301 1302 1303 1304 1305 1306 1307 1308 1309 1310 1311 1312 1313 1314 1315 1316 1317 1318 1319 1320 1321 1322 1323 1324 1325 1326 1327 1328 1329 1330 1331 1332 1333 1334 1335 1336 1337 1338 1339 1340 1341 1342 1343 1344 1345 1346 1347 1348 1349 1350 1351 1352 1353 1354 1355 1356 1357 1358 1359 1360 1361 1362 1363 1364 1365 1366 1367 1368 1369 1370 1371 1372 1373 1374 1375 1376 1377 1378 1379 1380 1381 1382 1383 1384 1385 1386 1387 1388 1389 1390 1391 1392 1393 1394 1395 1396 1397 1398 1399 1400 1401 1402 1403 1404 1405 1406 1407 1408 1409 1410 1411 1412 1413 1414 1415 1416 1417 1418 1419 1420 1421 1422 1423 1424 1425 1426 1427 1428 1429 1430 1431 1432 1433 1434 1435 1436 1437 1438 1439 1440 1441 1442 1443 1444 1445 1446 1447 1448 1449 1450 1451 1452 1453 1454 1455 1456 1457 1458 1459 1460 1461 1462 1463 1464 1465 1466 1467 1468 1469 1470 1471 1472 1473 1474 1475 1476 1477 1478 1479 1480 1481 1482 1483 1484 1485 1486 1487 1488 1489 1490 1491 1492 1493 1494 1495 1496 1497 1498 1499 1500 1501 1502 1503 1504 1505 1506 1507 1508 1509 1510 1511 1512 1513 1514 1515 1516 1517 1518 1519 1520 1521 1522 1523 1524 1525 1526 1527 1528 1529 1530 1531 1532 1533 1534 1535 1536 1537 1538 1539 1540 1541 1542 1543 1544 1545 1546 1547 1548 1549 1550 1551 1552 1553 1554 1555 1556 1557 1558 1559 1560 1561 1562 1563 1564 1565 1566 1567 1568 1569 1570 1571 1572 1573 1574 1575 1576 1577 1578 1579 1580 1581 1582 1583 1584 1585 1586 1587 1588 1589 1590 1591 1592 1593 1594 1595 1596 1597 1598 1599 1600 1601 1602 1603 1604 1605 1606 1607 1608 1609 1610 1611 1612 1613 1614 1615 1616 1617 1618 1619 1620 1621 1622 1623 1624 1625 1626 1627 1628 1629 1630 1631 1632 1633 1634 1635 1636 1637 1638 1639 1640 1641 1642 1643 1644 1645 1646 1647 1648 1649 1650 1651 1652 1653 1654 1655 1656 1657 1658 1659 1660 1661 1662 1663 1664 1665 1666 1667 1668 1669 1670 1671 1672 1673 1674 1675 1676 1677 1678 1679 1680 1681 1682 1683 1684 1685 1686 1687 1688 1689 1690 1691 1692 1693 1694 1695 1696 1697 1698 1699 1700 1701 1702 1703 1704 1705 1706 1707 1708 1709 1710 1711 1712 1713 1714 1715 1716 1717 1718 1719 1720 1721 1722 1723 1724 1725 1726 1727 1728 1729 1730 1731 1732 1733 1734 1735 1736 1737 1738 1739 1740 1741 1742 1743 1744 1745 1746 1747 1748 1749 1750 1751 1752 1753 1754 1755 1756 1757 1758 1759 1760 1761 1762 1763 1764 1765 1766 1767 1768 1769 1770 1771 1772 1773 1774 1775 1776 1777 1778 1779 1780 1781 1782 1783 1784 1785 1786 1787 1788 1789 1790 1791 1792 1793 1794 1795 1796 1797 1798 1799 1800 1801 1802 1803 1804 1805 1806 1807 1808 1809 1810 1811 1812 1813 1814 1815 1816 1817 1818 1819 1820 1821 1822 1823 1824 1825 1826 1827 1828 1829 1830 1831 1832 1833 1834 1835 1836 1837 1838 1839 1840 1841 1842 1843 1844 1845 1846 1847 1848 1849 1850 1851 1852 1853 1854 1855 1856 1857 1858 1859 1860 1861 1862 1863 1864 1865 1866 1867 1868 1869 1870 1871 1872 1873 1874 1875 1876 1877 1878 1879 1880 1881 1882 1883 1884 1885 1886 1887 1888 1889 1890 1891 1892 1893 1894 1895 1896 1897 1898 1899 1900 1901 1902 1903 1904 1905 1906 1907 1908 1909 1910 1911 1912 1913 1914 1915 1916 1917 1918 1919 1920 1921 1922 1923 1924 1925 1926 1927 1928 1929 1930 1931 1932 1933 1934 1935 1936 1937 1938 1939 1940 1941 1942 1943 1944 1945 1946 1947 1948 1949 1950 1951 1952 1953 1954 1955 1956 1957 1958 1959 1960 1961 1962 1963 1964 1965 1966 1967 1968 1969 1970 1971 1972 1973 1974 1975 1976 1977 1978 1979 1980 1981 1982 1983 1984 1985 1986 1987 1988 1989 1990 1991 1992 1993 1994 1995 1996 1997 1998 1999 2000 2001 2002 2003 2004 2005 2006 2007 2008 2009 2010 2011 2012 2013 2014 2015 2016 2017 2018 2019 2020 2021 2022 2023 2024 2025 2026 2027 2028 2029 2030 2031 2032 2033 2034 2035 2036 2037 2038 2039 2040 2041 2042 2043 2044 2045 2046 2047 2048 2049 2050 2051 2052 2053 2054 2055 2056 2057 2058 2059 2060 2061 2062 2063 2064 2065 2066 2067 2068 2069 2070 2071 2072 2073 2074 2075 2076 2077 2078 2079 2080 2081 2082 2083 2084 2085 2086 2087 2088 2089 2090 2091 2092 2093 2094 2095 2096 2097 2098 2099 2100 2101 2102 2103 2104 2105 2106 2107 2108 2109 2110 2111 2112 2113 2114 2115 2116 2117 2118 2119 2120 2121 2122 2123 2124 2125 2126 2127 2128 2129 2130 2131 2132 2133 2134 2135 2136 2137 2138 2139 2140 2141 2142 2143 2144 2145 2146 2147 2148 2149 2150 2151 2152 2153 2154 2155 2156 2157 2158 2159 2160 2161 2162 2163 2164 2165 2166 2167 2168 2169 2170 2171 2172 2173 2174 2175 2176 2177 2178 2179 2180 2181 2182 2183 2184 2185 2186 2187 2188 2189 2190 2191 2192 2193 2194 2195 2196 2197 2198 2199 2200 2201 2202 2203 2204 2205 2206 2207 2208 2209 2210 2211 2212 2213 2214 2215 2216 2217 2218 2219 2220 2221 2222 2223 2224 2225 2226 2227 2228 2229 2230 2231 2232 2233 2234 2235 2236 2237 2238 2239 2240 2241 2242 2243 2244 2245 2246 2247 2248 2249 2250 2251 2252 2253 2254 2255 2256 2257 2258 2259 2260 2261 2262 2263 2264 2265 2266 2267 2268 2269 2270 2271 2272 2273 2274 2275 2276 2277 2278 2279 2280 2281 2282 2283 2284 2285 2286 2287 2288 2289 2290 2291 2292 2293 2294 2295 2296 2297 2298 2299 2300 2301 2302 2303 2304 2305 2306 2307 2308 2309 2310 2311 2312 2313 2314 2315 2316 2317 2318 2319 2320 2321 2322 2323 2324 2325 2326 2327 2328 2329 2330 2331 2332 2333 2334 2335 2336 2337 2338 2339 2340 2341 2342 2343 2344 2345 2346 2347 2348 2349 2350 2351 2352 2353 2354 2355 2356 2357 2358 2359 2360 2361 2362 2363 2364 2365 2366 2367 2368 2369 2370 2371 2372 2373 2374 2375 2376 2377 2378 2379 2380 2381 2382 2383 2384 2385 2386 2387 2388 2389 2390 2391 2392 2393 2394 2395 2396 2397 2398 2399 2400 2401 2402 2403 2404 2405 2406 2407 2408 2409 2410 2411 2412 2413 2414 2415 2416 2417 2418 2419 2420 2421 2422 2423 2424 2425 2426 2427 2428 2429 2430 2431 2432 2433 2434 2435 2436 2437 2438 2439 2440 2441 2442 2443 2444 2445 2446 2447 2448 2449 2450 2451 2452 2453 2454 2455 2456 2457 2458 2459 2460 2461 2462 2463 2464 2465 2466 2467 2468 2469 2470 2471 2472 2473 2474 2475 2476 2477 2478 2479 2480 2481 2482 2483 2484 2485 2486 2487 2488 2489 2490 2491 2492 2493 2494 2495 2496 2497 2498 2499 2500 2501 2502 2503 2504 2505 2506 2507 2508 2509 2510 2511 2512 2513 2514 2515 2516 2517 2518 2519 2520 2521 2522 2523 2524 2525 2526 2527 2528 2529 2530 2531 2532 2533 2534 2535 2536 2537 2538 2539 2540 2541 2542 2543 2544 2545 2546 2547 2548 2549 2550 2551 2552 2553 2554 2555 2556 2557 2558 2559 2560 2561 2562 2563 2564 2565 2566 2567 2568 2569 2570 2571 2572 2573 2574 2575 2576 2577 2578 2579 2580 2581 2582 2583 2584 2585 2586 2587 2588 2589 2590 2591 2592 2593 2594 2595 2596 2597 2598 2599 2600 2601 2602 2603 2604 2605 2606 2607 2608 2609 2610 2611 2612 2613 2614 2615 2616 2617 2618 2619 2620 2621 2622 2623 2624 2625 2626 2627 2628 2629 2630 2631 2632 2633 2634 2635 2636 2637 2638 2639 2640 2641 2642 2643 2644 2645 2646 2647 2648 2649 2650 2651 2652 2653 2654 2655 2656 2657 2658 2659 2660 2661 2662 2663 2664 2665 2666 2667 2668 2669 2670 2671 2672 2673 2674 2675 2676 2677 2678 2679 2680 2681 2682 2683 2684 2685 2686 2687 2688 2689 2690 2691 2692 2693 2694 2695 2696 2697 2698 2699 2700 2701 2702 2703 2704 2705 2706 2707 2708 2709 2710 2711 2712 2713 2714 2715 2716 2717 2718 2719 2720 2721 2722 2723 2724 2725 2726 2727 2728 2729 2730 2731 2732 2733 2734 2735 2736 2737 2738 2739 2740 2741 2742 2743 2744 2745 2746 2747 2748 2749 2750 2751 2752 2753 2754 2755 2756 2757 2758 2759 2760 2761 2762 2763 2764 2765 2766 2767 2768 2769 2770 2771 2772 2773 2774 2775 2776 2777 2778 2779 2780 2781 2782 2783 2784 2785 2786 2787 2788 2789 2790 2791 2792 2793 2794 2795 2796 2797 2798 2799 2800 2801 2802 2803 2804 2805 2806 2807 2808 2809 2810 2811 2812 2813 2814 2815 2816 2817 2818 2819 2820 2821 2822 2823 2824 2825 2826 2827 2828 2829 2830 2831 2832 2833 2834 2835 2836 2837 2838 2839 2840 2841 2842 2843 2844 2845 2846 2847 2848 2849 2850 2851 2852 2853 2854 2855 2856 2857 2858 2859 2860 2861 2862 2863 2864 2865 2866 2867 2868 2869 2870 2871 2872 2873 2874 2875 2876 2877 2878 2879 2880 2881 2882 2883 2884 2885 2886 2887 2888 2889 2890 2891 2892 2893 2894 2895 2896 2897 2898 2899 2900 2901 2902 2903 2904 2905 2906 2907 2908 2909 2910 2911 2912 2913 2914 2915 2916 2917 2918 2919 2920 2921 2922 2923 2924 2925 2926 2927 2928 2929 2930 2931 2932 2933 2934 2935 2936 2937 2938 2939 2940 2941 2942 2943 2944 2945 2946 2947 2948 2949 2950 2951 2952 2953 2954 2955 2956 2957 2958 2959 2960 2961 2962 2963 2964 2965 2966 2967 2968 2969 2970 2971 2972 2973 2974 2975 2976 2977 2978 2979 2980 2981 2982 2983 2984 2985 2986 2987 2988 2989 2990 2991 2992 2993 2994 2995 2996 2997 2998 2999 3000 3001 3002 3003 3004 3005 3006 3007 3008 3009 3010 3011 3012 3013 3014 3015 3016 3017 3018 3019 3020 3021 3022 3023 3024 3025 3026 3027 3028 3029 3030 3031 3032 3033 3034 3035 3036 3037 3038 3039 3040 3041 3042 3043 3044 3045 3046 3047 3048 3049 3050 3051 3052 3053 3054 3055 3056 3057 3058 3059 3060 3061 3062 3063 3064 3065 3066 3067 3068 3069 3070 3071 3072 3073 3074 3075 3076 3077 3078 3079 3080 3081 3082 3083 3084 3085 3086 3087 3088 3089 3090 3091 3092 3093 3094 3095 3096 3097 3098 3099 3100 3101 3102 3103 3104 3105 3106 3107 3108 3109 3110 3111 3112 3113 3114 3115 3116 3117 3118 3119 3120 3121 3122 3123 3124 3125 3126 3127 3128 3129 3130 3131 3132 3133 3134 3135 3136 3137 3138 3139 3140 3141 3142 3143 3144 3145 3146 3147 3148 3149 3150 3151 3152 3153 3154 3155 3156 3157 3158 3159 3160 3161 3162 3163 3164 3165 3166 3167 3168 3169 3170 3171 3172 3173 3174 3175 3176 3177 3178 3179 3180 3181 3182 3183 3184 3185 3186 3187 3188 3189 3190 3191 3192 3193 3194 3195 3196 3197 3198 3199 3200 3201 3202 3203 3204 3205 3206 3207 3208 3209 3210 3211 3212 3213 3214 3215 3216 3217 3218 3219 3220 3221 3222 3223 3224 3225 3226 3227 3228 3229 3230 3231 3232 3233 3234 3235 3236 3237 3238 3239 3240 3241 3242 3243 3244 3245 3246 3247 3248 3249 3250 3251 3252 3253 3254 3255 3256 3257 3258 3259 3260 3261 3262 3263 3264 3265 3266 3267 3268 3269 3270 3271 3272 3273 3274 3275 3276 3277 3278 3279 3280 3281 3282 3283 3284 3285 3286 3287 3288 3289 3290 3291 3292 3293 3294 3295 3296 3297 3298 3299 3300 3301 3302 3303 3304 3305 3306 3307 3308 3309 3310 3311 3312 3313 3314 3315 3316 3317 3318 3319 3320 3321 3322 3323 3324 3325 3326 3327 3328 3329 3330 3331 3332 3333 3334 3335 3336 3337 3338 3339 3340 3341 3342 3343 3344 3345 3346 3347 3348 3349 3350 3351 3352 3353 3354 3355 3356 3357 3358 3359 3360 3361 3362 3363 3364 3365 3366 3367 3368 3369 3370 3371 3372 3373 3374 3375 3376 3377 3378 3379 3380 3381 3382 3383 3384 3385 3386 3387 3388 3389 3390 3391 3392 3393 3394 3395 3396 3397 3398 3399 3400 3401 3402 3403 3404 3405 3406 3407 3408 3409 3410 3411 3412 3413 3414 3415 3416 3417 3418 3419 3420 3421 3422 3423 3424 3425 3426 3427 3428 3429 3430 3431 3432 3433 3434 3435 3436 3437 3438 3439 3440 3441 3442 3443 3444 3445 3446 3447 3448 3449 3450 3451 3452 3453 3454 3455 3456 3457 3458 3459 3460 3461 3462 3463 3464 3465 3466 3467 3468 3469 3470 3471 3472 3473 3474 3475 3476 3477 3478 3479 3480 3481 3482 3483 3484 3485 3486 3487 3488 3489 3490 3491 3492 3493 3494 3495 3496 3497 3498 3499 3500 3501 3502 3503 3504 3505 3506 3507 3508 3509 3510 3511 3512 3513 3514 3515 3516 3517 3518 3519 3520 3521 3522 3523 3524 3525 3526 3527 3528 3529 3530 3531 3532 3533 3534 3535 3536 3537 3538 3539 3540 3541 3542 3543 3544 3545 3546 3547 3548 3549 3550 3551 3552 3553 3554 3555 3556 3557 3558 3559 3560 3561 3562 3563 3564 3565 3566 3567 3568 3569 3570 3571 3572 3573 3574 3575 3576 3577 3578 3579 3580 3581 3582 3583 3584 3585 3586 3587 3588 3589 3590 3591 3592 3593 3594 3595 3596 3597 3598 3599 3600 3601 3602 3603 3604 3605 3606 3607 3608 3609 3610 3611 3612 3613 3614 3615 3616 3617 3618 3619 3620 3621 3622 3623 3624 3625 3626 3627 3628 3629 3630 3631 3632 3633 3634 3635 3636 3637 3638 3639 3640 3641 3642 3643 3644 3645 3646 3647 3648 3649 3650 3651 3652 3653 3654 3655 3656 3657 3658 3659 3660 3661 3662 3663 3664 3665 3666 3667 3668 3669 3670 3671 3672 3673 3674 3675 3676 3677 3678 3679 3680 3681 3682 3683 3684 3685 3686 3687 3688 3689 3690 3691 3692 3693 3694 3695 3696 3697 3698 3699 3700 3701 3702 3703 3704 3705 3706 3707 3708 3709 3710 3711 3712 3713 3714 3715 3716 3717 3718 3719 3720 3721 3722 3723 3724 3725 3726 3727 3728 3729 3730 3731 3732 3733 3734 3735 3736 3737 3738 3739 3740 3741 3742 3743 3744 3745 3746 3747 3748 3749 3750 3751 3752 3753 3754 3755 3756 3757 3758 3759 3760 3761 3762 3763 3764 3765 3766 3767 3768 3769 3770 3771 3772 3773 3774 3775 3776 3777 3778 3779 3780 3781 3782 3783 3784 3785 3786 3787 3788 3789 3790 3791 3792 3793 3794 3795 3796 3797 3798 3799 3800 3801 3802 3803 3804 3805 3806 3807 3808 3809 3810 3811 3812 3813 3814 3815 3816 3817 3818 3819 3820 3821 3822 3823 3824 3825 3826 3827 3828 3829 3830 3831 3832 3833 3834 3835 3836 3837 3838 3839 3840 3841 3842 3843 3844 3845 3846 3847 3848 3849 3850 3851 3852 3853 3854 3855 3856 3857 3858 3859 3860 3861 3862 3863 3864 3865 3866 3867 3868 3869 3870 3871 3872 3873 3874 3875 3876 3877 3878 3879 3880 3881 3882 3883 3884 3885 3886 3887 3888 3889 3890 3891 3892 3893 3894 3895 3896 3897 3898 3899 3900 3901 3902 3903 3904 3905 3906 3907 3908 3909 3910 3911 3912 3913 3914 3915 3916 3917 3918 3919 3920 3921 3922 3923 3924 3925 3926 3927 3928 3929 3930 3931 3932 3933 3934 3935 3936 3937 3938 3939 3940 3941 3942 3943 3944 3945 3946 3947 3948 3949 3950 3951 3952 3953 3954 3955 3956 3957 3958 3959 3960 3961 3962 3963 3964 3965 3966 3967 3968 3969 3970 3971 3972 3973 3974 3975 3976 3977 3978 3979 3980 3981 3982 3983 3984 3985 3986 3987 3988 3989 3990 3991 3992 3993 3994 3995 3996 3997 3998 3999 4000 4001 4002 4003 4004 4005 4006 4007 4008 4009 4010 4011 4012 4013 4014 4015 4016 4017 4018 4019 4020 4021 4022 4023 4024 4025 4026 4027 4028 4029 4030 4031 4032 4033 4034 4035 4036 4037 4038 4039 4040 4041 4042 4043 4044 4045 4046 4047 4048 4049 4050 4051 4052 4053 4054 4055 4056 4057 4058 4059 4060 4061 4062 4063 4064 4065 4066 4067 4068 4069 4070 4071 4072 4073 4074 4075 4076 4077 4078 4079 4080 4081 4082 4083 4084 4085 4086 4087 4088 4089 4090 4091 4092 4093 4094 4095 4096 4097 4098 4099 4100 4101 4102 4103 4104 4105 4106 4107 4108 4109 4110 4111 4112 4113 4114 4115 4116 4117 4118 4119 4120 4121 4122 4123 4124 4125 4126 4127 4128 4129 4130 4131 4132 4133 4134 4135 4136 4137 4138 4139 4140 4141 4142 4143 4144 4145 4146 4147 4148 4149 4150 4151 4152 4153 4154 4155 4156 4157 4158 4159 4160 4161 4162 4163 4164 4165 4166 4167 4168 4169 4170 4171 4172 4173 4174 4175 4176 4177 4178 4179 4180 4181 4182 4183 4184 4185 4186 4187 4188 4189 4190 4191 4192 4193 4194 4195 4196 4197 4198 4199 4200 4201 4202 4203 4204 4205 4206 4207 4208 4209 4210 4211 4212 4213 4214 4215 4216 4217 4218 4219 4220 4221 4222 4223 4224 4225 4226 4227 4228 4229 4230 4231 4232 4233 4234 4235 4236 4237 4238 4239 4240 4241 4242 4243 4244 4245 4246 4247 4248 4249 4250 4251 4252 4253 4254 4255 4256 4257 4258 4259 4260 4261 4262 4263 4264 4265 4266 4267 4268 4269 4270 4271 4272 4273 4274 4275 4276 4277 4278 4279 4280 4281 4282 4283 4284 4285 4286 4287 4288 4289 4290 4291 4292 4293 4294 4295 4296 4297 4298 4299 4300 4301 4302 4303 4304 4305 4306 4307 4308 4309 4310 4311 4312 4313 4314 4315 4316 4317 4318 4319 4320 4321 4322 4323 4324 4325 4326 4327 4328 4329 4330 4331 4332 4333 4334 4335 4336 4337 4338 4339 4340 4341 4342 4343 4344 4345 4346 4347 4348 4349 4350 4351 4352 4353 4354 4355 4356 4357 4358 4359 4360 4361 4362 4363 4364 4365 4366 4367 4368 4369 4370 4371 4372 4373 4374 4375 4376 4377 4378 4379 4380 4381 4382 4383 4384 4385 4386 4387 4388 4389 4390 4391 4392 4393 4394 4395 4396 4397 4398 4399 4400 4401 4402 4403 4404 4405 4406 4407 4408 4409 4410 4411 4412 4413 4414 4415 4416 4417 4418 4419 4420 4421 4422 4423 4424 4425 4426 4427 4428 4429 4430 4431 4432 4433 4434 4435 4436 4437 4438 4439 4440 4441 4442 4443 4444 4445 4446 4447 4448 4449 4450 4451 4452 4453 4454 4455 4456 4457 4458 4459 4460 4461 4462 4463 4464 4465 4466 4467 4468 4469 4470 4471 4472 4473 4474 4475 4476 4477 4478 4479 4480 4481 4482 4483 4484 4485 4486 4487 4488 4489 4490 4491 4492 4493 4494 4495 4496 4497 4498 4499 4500 4501 4502 4503 4504 4505 4506 4507 4508 4509 4510 4511 4512 4513 4514 4515 4516 4517 4518 4519 4520 4521 4522 4523 4524 4525 4526 4527 4528 4529 4530 4531 4532 4533 4534 4535 4536 4537 4538 4539 4540 4541 4542 4543 4544 4545 4546 4547 4548 4549 4550 4551 4552 4553 4554 4555 4556 4557 4558 4559 4560 4561 4562 4563 4564 4565 4566 4567 4568 4569 4570 4571 4572 4573 4574 4575 4576 4577 4578 4579 4580 4581 4582 4583 4584 4585 4586 4587 4588 4589 4590 4591 4592 4593 4594 4595 4596 4597 4598 4599 4600 4601 4602 4603 4604 4605 4606 4607 4608 4609 4610 4611 4612 4613 4614 4615 4616 4617 4618 4619 4620 4621 4622 4623 4624 4625 4626 4627 4628 4629 4630 4631 4632 4633 4634 4635 4636 4637 4638 4639 4640 4641 4642 4643 4644 4645 4646 4647 4648 4649 4650 4651 4652 4653 4654 4655 4656 4657 4658 4659 4660 4661 4662 4663 4664 4665 4666 4667 4668 4669 4670 4671 4672 4673 4674 4675 4676 4677 4678 4679 4680 4681 4682 4683 4684 4685 4686 4687 4688 4689 4690 4691 4692 4693 4694 4695 4696 4697 4698 4699 4700 4701 4702 4703 4704 4705 4706 4707 4708 4709 4710 4711 4712 4713 4714 4715 4716 4717 4718 4719 4720 4721 4722 4723 4724 4725 4726 4727 4728 4729 4730 4731 4732 4733 4734 4735 4736 4737 4738 4739 4740 4741 4742 4743 4744 4745 4746 4747 4748 4749 4750 4751 4752 4753 4754 4755 4756 4757 4758 4759 4760 4761 4762 4763 4764 4765 4766 4767 4768 4769 4770 4771 4772 4773 4774 4775 4776 4777 4778 4779 4780 4781 4782 4783 4784 4785 4786 4787 4788 4789 4790 4791 4792 4793 4794 4795 4796 4797 4798 4799 4800 4801 4802 4803 4804 4805 4806 4807 4808 4809 4810 4811 4812 4813 4814 4815 4816 4817 4818 4819 4820 4821 4822 4823 4824 4825 4826 4827 4828 4829 4830 4831 4832 4833 4834 4835 4836 4837 4838 4839 4840 4841 4842 4843 4844 4845 4846 4847 4848 4849 4850 4851 4852 4853 4854 4855 4856 4857 4858 4859 4860 4861 4862 4863 4864 4865 4866 4867 4868 4869 4870 4871 4872 4873 4874 4875 4876 4877 4878 4879 4880 4881 4882 4883 4884 4885 4886 4887 4888 4889 4890 4891 4892 4893 4894 4895 4896 4897 4898 4899 4900 4901 4902 4903 4904 4905 4906 4907 4908 4909 4910 4911 4912 4913 4914 4915 4916 4917 4918 4919 4920 4921 4922 4923 4924 4925 4926 4927 4928 4929 4930 4931 4932 4933 4934 4935 4936 4937 4938 4939 4940 4941 4942 4943 4944 4945 4946 4947 4948 4949 4950 4951 4952 4953 4954 4955 4956 4957 4958 4959 4960 4961 4962 4963 4964 4965 4966 4967 4968 4969 4970 4971 4972 4973 4974 4975 4976 4977 4978 4979 4980 4981 4982 4983 4984 4985 4986 4987 4988 4989 4990 4991 4992 4993 4994 4995 4996 4997 4998 4999 5000 5001 5002 5003 5004 5005 5006 5007 5008 5009 5010 5011 5012 5013 5014 5015 5016 5017 5018 5019 5020 5021 5022 5023 5024 5025 5026 5027 5028 5029 5030 5031 5032 5033 5034 5035 5036 5037 5038 5039 5040 5041 5042 5043 5044 5045 5046 5047 5048 5049 5050 5051 5052 5053 5054 5055 5056 5057 5058 5059 5060 5061 5062 5063 5064 5065 5066 5067 5068 5069 5070 5071 5072 5073 5074 5075 5076 5077 5078 5079 5080 5081 5082 5083 5084 5085 5086 5087 5088 5089 5090 5091 5092 5093 5094 5095 5096 5097 5098 5099 5100 5101 5102 5103 5104 5105 5106 5107 5108 5109 5110 5111 5112 5113 5114 5115 5116 5117 5118 5119 5120 5121 5122 5123 5124 5125 5126 5127 5128 5129 5130 5131 5132 5133 5134 5135 5136 5137 5138 5139 5140 5141 5142 5143 5144 5145 5146 5147 5148 5149 5150 5151 5152 5153 5154 5155 5156 5157 5158 5159 5160 5161 5162 5163 5164 5165 5166 5167 5168 5169 5170 5171 5172 5173 5174 5175 5176 5177 5178 5179 5180 5181 5182 5183 5184 5185 5186 5187 5188 5189 5190 5191 5192 5193 5194 5195 5196 5197 5198 5199 5200 5201 5202 5203 5204 5205 5206 5207 5208 5209 5210 5211 5212 5213 5214 5215 5216 5217 5218 5219 5220 5221 5222 5223 5224 5225 5226 5227 5228 5229 5230 5231 5232 5233 5234 5235 5236 5237 5238 5239 5240 5241 5242 5243 5244 5245 5246 5247 5248 5249 5250 5251 5252 5253 5254 5255 5256 5257 5258 5259 5260 5261 5262 5263 5264 5265 5266 5267 5268 5269 5270 5271 5272 5273 5274 5275 5276 5277 5278 5279 5280 5281 5282 5283 5284 5285 5286 5287 5288 5289 5290 5291 5292 5293 5294 5295 5296 5297 5298 5299 5300 5301 5302 5303 5304 5305 5306 5307 5308 5309 5310 5311 5312 5313 5314 5315 5316 5317 5318 5319 5320 5321 5322 5323 5324 5325 5326 5327 5328 5329 5330 5331 5332 5333 5334 5335 5336 5337 5338 5339 5340 5341 5342 5343 5344 5345 5346 5347 5348 5349 5350 5351 5352 5353 5354 5355 5356 5357 5358 5359 5360 5361 5362 5363 5364 5365 5366 5367 5368 5369 5370 5371 5372 5373 5374 5375 5376 5377 5378 5379 5380 5381 5382 5383 5384 5385 5386 5387 5388 5389 5390 5391 5392 5393 5394 5395 5396 5397 5398 5399 5400 5401 5402 5403 5404 5405 5406 5407 5408 5409 5410 5411 5412 5413 5414 5415 5416 5417 5418 5419 5420 5421 5422 5423 5424 5425 5426 5427 5428 5429 5430 5431 5432 5433 5434 5435 5436 5437 5438 5439 5440 5441 5442 5443 5444 5445 5446 5447 5448 5449 5450 5451 5452 5453 5454 5455 5456 5457 5458 5459 5460 5461 5462 5463 5464 5465 5466 5467 5468 5469 5470 5471 5472 5473 5474 5475 5476 5477 5478 5479 5480 5481 5482 5483 5484 5485 5486 5487 5488 5489 5490 5491 5492 5493 5494 5495 5496 5497 5498 5499 5500 5501 5502 5503 5504 5505 5506 5507 5508 5509 5510 5511 5512 5513 5514 5515 5516 5517 5518 5519 5520 5521 5522 5523 5524 5525 5526 5527 5528 5529 5530 5531 5532 5533 5534 5535 5536 5537 5538 5539 5540 5541 5542 5543 5544 5545 5546 5547 5548 5549 5550 5551 5552 5553 5554 5555 5556 5557 5558 5559 5560 5561 5562 5563 5564 5565 5566 5567 5568 5569 5570 5571 5572 5573 5574 5575 5576 5577 5578 5579 5580 5581 5582 5583 5584 5585 5586 5587 5588 5589 5590 5591 5592 5593 5594 5595 5596 5597 5598 5599 5600 5601 5602 5603 5604 5605 5606 5607 5608 5609 5610 5611 5612 5613 5614 5615 5616 5617 5618 5619 5620 5621 5622 5623 5624 5625 5626 5627 5628 5629 5630 5631 5632 5633 5634 5635 5636 5637 5638 5639 5640 5641 5642 5643 5644 5645 5646 5647 5648 5649 5650 5651 5652 5653 5654 5655 5656 5657 5658 5659 5660 5661 5662 5663 5664 5665 5666 5667 5668 5669 5670 5671 5672 5673 5674 5675 5676 5677 5678 5679 5680 5681 5682 5683 5684 5685 5686 5687 5688 5689 5690 5691 5692 5693 5694 5695 5696 5697 5698 5699 5700 5701 5702 5703 5704 5705 5706 5707 5708 5709 5710 5711 5712 5713 5714 5715 5716 5717 5718 5719 5720 5721 5722 5723 5724 5725 5726 5727 5728 5729 5730 5731 5732 5733 5734 5735 5736 5737 5738 5739 5740 5741 5742 5743 5744 5745 5746 5747 5748 5749 5750 5751 5752 5753 5754 5755 5756 5757 5758 5759 5760 5761 5762 5763 5764 5765 5766 5767 5768 5769 5770 5771 5772 5773 5774 5775 5776 5777 5778 5779 5780 5781 5782 5783 5784 5785 5786 5787 5788 5789 5790 5791 5792 5793 5794 5795 5796 5797 5798 5799 5800 5801 5802 5803 5804 5805 5806 5807 5808 5809 5810 5811 5812 5813 5814 5815 5816 5817 5818 5819 5820 5821 5822 5823 5824 5825 5826 5827 5828 5829 5830 5831 5832 5833 5834 5835 5836 5837 5838 5839 5840 5841 5842 5843 5844 5845 5846 5847 5848 5849 5850 5851 5852 5853 5854 5855 5856 5857 5858 5859 5860 5861 5862 5863 5864 5865 5866 5867 5868 5869 5870 5871 5872 5873 5874 5875 5876 5877 5878 5879 5880 5881 5882 5883 5884 5885 5886 5887 5888 5889 5890 5891 5892 5893 5894 5895 5896 5897 5898 5899 5900 5901 5902 5903 5904 5905 5906 5907 5908 5909 5910 5911 5912 5913 5914 5915 5916 5917 5918 5919 5920 5921 5922 5923 5924 5925 5926 5927 5928 5929 5930 5931 5932 5933 5934 5935 5936 5937 5938 5939 5940 5941 5942 5943 5944 5945 5946 5947 5948 5949 5950 5951 5952 5953 5954 5955 5956 5957 5958 5959 5960 5961 5962 5963 5964 5965 5966 5967 5968 5969 5970 5971 5972 5973 5974 5975 5976 5977 5978 5979 5980 5981 5982 5983 5984 5985 5986 5987 5988 5989 5990 5991 5992 5993 5994 5995 5996 5997 5998 5999 6000 6001 6002 6003 6004 6005 6006 6007 6008 6009 6010 6011 6012 6013 6014 6015 6016 6017 6018 6019 6020 6021 6022 6023 6024 6025 6026 6027 6028 6029 6030 6031 6032 6033 6034 6035 6036 6037 6038 6039 6040 6041 6042 6043 6044 6045 6046 6047 6048 6049 6050 6051 6052 6053 6054 6055 6056 6057 6058 6059 6060 6061 6062 6063 6064 6065 6066 6067 6068 6069 6070 6071 6072 6073 6074 6075 6076 6077 6078 6079 6080 6081 6082 6083 6084 6085 6086 6087 6088 6089 6090 6091 6092 6093 6094 6095 6096 6097 6098 6099 6100 6101 6102 6103 6104 6105 6106 6107 6108 6109 6110 6111 6112 6113 6114 6115 6116 6117 6118 6119 6120 6121 6122 6123 6124 6125 6126 6127 6128 6129 6130 6131 6132 6133 6134 6135 6136 6137 6138 6139 6140 6141 6142 6143 6144 6145 6146 6147 6148 6149 6150 6151 6152 6153 6154 6155 6156 6157 6158 6159 6160 6161 6162 6163 6164 6165 6166 6167 6168 6169 6170 6171 6172 6173 6174 6175 6176 6177 6178 6179 6180 6181 6182 6183 6184 6185 6186 6187 6188 6189 6190 6191 6192 6193 6194 6195 6196 6197 6198 6199 6200 6201 6202 6203 6204 6205 6206 6207 6208 6209 6210 6211 6212 6213 6214 6215 6216 6217 6218 6219 6220 6221 6222 6223 6224 6225 6226 6227 6228 6229 6230 6231 6232 6233 6234 6235 6236 6237 6238 6239 6240 6241 6242 6243 6244 6245 6246 6247 6248 6249 6250 6251 6252 6253 6254 6255 6256 6257 6258 6259 6260 6261 6262 6263 6264 6265 6266 6267 6268 6269 6270 6271 6272 6273 6274 6275 6276 6277 6278 6279 6280 6281 6282 6283 6284 6285 6286 6287 6288 6289 6290 6291 6292 6293 6294 6295 6296 6297 6298 6299 6300 6301 6302 6303 6304 6305 6306 6307 6308 6309 6310 6311 6312 6313 6314 6315 6316 6317 6318 6319 6320 6321 6322 6323 6324 6325 6326 6327 6328 6329 6330 6331 6332 6333 6334 6335 6336 6337 6338 6339 6340 6341 6342 6343 6344 6345 6346 6347 6348 6349 6350 6351 6352 6353 6354 6355 6356 6357 6358 6359 6360 6361 6362 6363 6364 6365 6366 6367 6368 6369 6370 6371 6372 6373 6374 6375 6376 6377 6378 6379 6380 6381 6382 6383 6384 6385 6386 6387 6388 6389 6390 6391 6392 6393 6394 6395 6396 6397 6398 6399 6400 6401 6402 6403 6404 6405 6406 6407 6408 6409 6410 6411 6412 6413 6414 6415 6416 6417 6418 6419 6420 6421 6422 6423 6424 6425 6426 6427 6428 6429 6430 6431 6432 6433 6434 6435 6436 6437 6438 6439 6440 6441 6442 6443 6444 6445 6446 6447 6448 6449 6450 6451 6452 6453 6454 6455 6456 6457 6458 6459 6460 6461 6462 6463 6464 6465 6466 6467 6468 6469 6470 6471 6472 6473 6474 6475 6476 6477 6478 6479 6480 6481 6482 6483 6484 6485 6486 6487 6488 6489 6490 6491 6492 6493 6494 6495 6496 6497 6498 6499 6500 6501 6502 6503 6504 6505 6506 6507 6508 6509 6510 6511 6512 6513 6514 6515 6516 6517 6518 6519 6520 6521 6522 6523 6524 6525 6526 6527 6528 6529 6530 6531 6532 6533 6534 6535 6536 6537 6538 6539 6540 6541 6542 6543 6544 6545 6546 6547 6548 6549 6550 6551 6552 6553 6554 6555 6556 6557 6558 6559 6560 6561 6562 6563 6564 6565 6566 6567 6568 6569 6570 6571 6572 6573 6574 6575 6576 6577 6578 6579 6580 6581 6582 6583 6584 6585 6586 6587 6588 6589 6590 6591 6592 6593 6594 6595 6596 6597 6598 6599 6600 6601 6602 6603 6604 6605 6606 6607 6608 6609 6610 6611 6612 6613 6614 6615 6616 6617 6618 6619 6620 6621 6622 6623 6624 6625 6626 6627 6628 6629 6630 6631 6632 6633 6634 6635 6636 6637 6638 6639 6640 6641 6642 6643 6644 6645 6646 6647 6648 6649 6650 6651 6652 6653 6654 6655 6656 6657 6658 6659 6660 6661 6662 6663 6664 6665 6666 6667 6668 6669 6670 6671 6672 6673 6674 6675 6676 6677 6678 6679 6680 6681 6682 6683 6684 6685 6686 6687 6688 6689 6690 6691 6692 6693 6694 6695 6696 6697 6698 6699 6700 6701 6702 6703 6704 6705 6706 6707 6708 6709 6710 6711 6712 6713 6714 6715 6716 6717 6718 6719 6720 6721 6722 6723 6724 6725 6726 6727 6728 6729 6730 6731 6732 6733 6734 6735 6736 6737 6738 6739 6740 6741 6742 6743 6744 6745 6746 6747 6748 6749 6750 6751 6752 6753 6754 6755 6756 6757 6758 6759 6760 6761 6762 6763 6764 6765 6766 6767 6768 6769 6770 6771 6772 6773 6774 6775 6776 6777 6778 6779 6780 6781 6782 6783 6784 6785 6786 6787 6788 6789 6790 6791 6792 6793 6794 6795 6796 6797 6798 6799 6800 6801 6802 6803 6804 6805 6806 6807 6808 6809 6810 6811 6812 6813 6814 6815 6816 6817 6818 6819 6820 6821 6822 6823 6824 6825 6826 6827 6828 6829 6830 6831 6832 6833 6834 6835 6836 6837 6838 6839 6840 6841 6842 6843 6844 6845 6846 6847 6848 6849 6850 6851 6852 6853 6854 6855 6856 6857 6858 6859 6860 6861 6862 6863 6864 6865 6866 6867 6868 6869 6870 6871 6872 6873 6874 6875 6876 6877 6878 6879 6880 6881 6882 6883 6884 6885 6886 6887 6888 6889 6890 6891 6892 6893 6894 6895 6896 6897 6898 6899 6900 6901 6902 6903 6904 6905 6906 6907 6908 6909 6910 6911 6912 6913 6914 6915 6916 6917 6918 6919 6920 6921 6922 6923 6924 6925 6926 6927 6928 6929 6930 6931 6932 6933 6934 6935 6936 6937 6938 6939 6940 6941 6942 6943 6944 6945 6946 6947 6948 6949 6950 6951 6952 6953 6954 6955 6956 6957 6958 6959 6960 6961 6962 6963 6964 6965 6966 6967 6968 6969 6970 6971 6972 6973 6974 6975 6976 6977 6978 6979 6980 6981 6982 6983 6984 6985 6986 6987 6988 6989 6990 6991 6992 6993 6994 6995 6996 6997 6998 6999 7000 7001 7002 7003 7004 7005 7006 7007 7008 7009 7010 7011 7012 7013 7014 7015 7016 7017 7018 7019 7020 7021 7022 7023 7024 7025 7026 7027 7028 7029 7030 7031 7032 7033 7034 7035 7036 7037 7038 7039 7040 7041 7042 7043 7044 7045 7046 7047 7048 7049 7050 7051 7052 7053 7054 7055 7056 7057 7058 7059 7060 7061 7062 7063 7064 7065 7066 7067 7068 7069 7070 7071 7072 7073 7074 7075 7076 7077 7078 7079 7080 7081 7082 7083 7084 7085 7086 7087 7088 7089 7090 7091 7092 7093 7094 7095 7096 7097 7098 7099 7100 7101 7102 7103 7104 7105 7106 7107 7108 7109 7110 7111 7112 7113 7114 7115 7116 7117 7118 7119 7120 7121 7122 7123 7124 7125 7126 7127 7128 7129 7130 7131 7132 7133 7134 7135 7136 7137 7138 7139 7140 7141 7142 7143 7144 7145 7146 7147 7148 7149 7150 7151 7152 7153 7154 7155 7156 7157 7158 7159 7160 7161 7162 7163 7164 7165 7166 7167 7168 7169 7170 7171 7172 7173 7174 7175 7176 7177 7178 7179 7180 7181 7182 7183 7184 7185 7186 7187 7188 7189 7190 7191 7192 7193 7194 7195 7196 7197 7198 7199 7200 7201 7202 7203 7204 7205 7206 7207 7208 7209 7210 7211 7212 7213 7214 7215 7216 7217 7218 7219 7220 7221 7222 7223 7224 7225 7226 7227 7228 7229 7230 7231 7232 7233 7234 7235 7236 7237 7238 7239 7240 7241 7242 7243 7244 7245 7246 7247 7248 7249 7250 7251 7252 7253 7254 7255 7256 7257 7258 7259 7260 7261 7262 7263 7264 7265 7266 7267 7268 7269 7270 7271 7272 7273 7274 7275 7276 7277 7278 7279 7280 7281 7282 7283 7284 7285 7286 7287 7288 7289 7290 7291 7292 7293 7294 7295 7296 7297 7298 7299 7300 7301 7302 7303 7304 7305 7306 7307 7308 7309 7310 7311 7312 7313 7314 7315 7316 7317 7318 7319 7320 7321 7322 7323 7324 7325 7326 7327 7328 7329 7330 7331 7332 7333 7334 7335 7336 7337 7338 7339 7340 7341 7342 7343 7344 7345 7346 7347 7348 7349 7350 7351 7352 7353 7354 7355 7356 7357 7358 7359 7360 7361 7362 7363 7364 7365 7366 7367 7368 7369 7370 7371 7372 7373 7374 7375 7376 7377 7378 7379 7380 7381 7382 7383 7384 7385 7386 7387 7388 7389 7390 7391 7392 7393 7394 7395 7396 7397 7398 7399 7400 7401 7402 7403 7404 7405 7406 7407 7408 7409 7410 7411 7412 7413 7414 7415 7416 7417 7418 7419 7420 7421 7422 7423 7424 7425 7426 7427 7428 7429 7430 7431 7432 7433 7434 7435 7436 7437 7438 7439 7440 7441 7442 7443 7444 7445 7446 7447 7448 7449 7450 7451 7452 7453 7454 7455 7456 7457 7458 7459 7460 7461 7462 7463 7464 7465 7466 7467 7468 7469 7470 7471 7472 7473 7474 7475 7476 7477 7478 7479 7480 7481 7482 7483 7484 7485 7486 7487 7488 7489 7490 7491 7492 7493 7494 7495 7496 7497 7498 7499 7500 7501 7502 7503 7504 7505 7506 7507 7508 7509 7510 7511 7512 7513 7514 7515 7516 7517 7518 7519 7520 7521 7522 7523 7524 7525 7526 7527 7528 7529 7530 7531 7532 7533 7534 7535 7536 7537 7538 7539 7540 7541 7542 7543 7544 7545 7546 7547 7548 7549 7550 7551 7552 7553 7554 7555 7556 7557 7558 7559 7560 7561 7562 7563 7564 7565 7566 7567 7568 7569 7570 7571 7572 7573 7574 7575 7576 7577 7578 7579 7580 7581 7582 7583 7584 7585 7586 7587 7588 7589 7590 7591 7592 7593 7594 7595 7596 7597 7598 7599 7600 7601 7602 7603 7604 7605 7606 7607 7608 7609 7610 7611 7612 7613 7614 7615 7616 7617 7618 7619 7620 7621 7622 7623 7624 7625 7626 7627 7628 7629 7630 7631 7632 7633 7634 7635 7636 7637 7638 7639 7640 7641 7642 7643 7644 7645 7646 7647 7648 7649 7650 7651 7652 7653 7654 7655 7656 7657 7658 7659 7660 7661 7662 7663 7664 7665 7666 7667 7668 7669 7670 7671 7672 7673 7674 7675 7676 7677 7678 7679 7680 7681 7682 7683 7684 7685 7686 7687 7688 7689 7690 7691 7692 7693 7694 7695 7696 7697 7698 7699 7700 7701 7702 7703 7704 7705 7706 7707 7708 7709 7710 7711 7712 7713 7714 7715 7716 7717 7718 7719 7720 7721 7722 7723 7724 7725 7726 7727 7728 7729 7730 7731 7732 7733 7734 7735 7736 7737 7738 7739 7740 7741 7742 7743 7744 7745 7746 7747 7748 7749 7750 7751 7752 7753 7754 7755 7756 7757 7758 7759 7760 7761 7762 7763 7764 7765 7766 7767 7768 7769 7770 7771 7772 7773 7774 7775 7776 7777 7778 7779 7780 7781 7782 7783 7784 7785 7786 7787 7788 7789 7790 7791 7792 7793 7794 7795 7796 7797 7798 7799 7800 7801 7802 7803 7804 7805 7806 7807 7808 7809 7810 7811 7812 7813 7814 7815 7816 7817 7818 7819 7820 7821 7822 7823 7824 7825 7826 7827 7828 7829 7830 7831 7832 7833 7834 7835 7836 7837 7838 7839 7840 7841 7842 7843 7844 7845 7846 7847 7848 7849 7850 7851 7852 7853 7854 7855 7856 7857 7858 7859 7860 7861 7862 7863 7864 7865 7866 7867 7868 7869 7870 7871 7872 7873 7874 7875 7876 7877 7878 7879 7880 7881 7882 7883 7884 7885 7886 7887 7888 7889 7890 7891 7892 7893 7894 7895 7896 7897 7898 7899 7900 7901 7902 7903 7904 7905 7906 7907 7908 7909 7910 7911 7912 7913 7914 7915 7916 7917 7918 7919 7920 7921 7922 7923 7924 7925 7926 7927 7928 7929 7930 7931 7932 7933 7934 7935 7936 7937 7938 7939 7940 7941 7942 7943 7944 7945 7946 7947 7948 7949 7950 7951 7952 7953 7954 7955 7956 7957 7958 7959 7960 7961 7962 7963 7964 7965 7966 7967 7968 7969 7970 7971 7972 7973 7974 7975 7976 7977 7978 7979 7980 7981 7982 7983 7984 7985 7986 7987 7988 7989 7990 7991 7992 7993 7994 7995 7996 7997 7998 7999 8000 8001 8002 8003 8004 8005 8006 8007 8008 8009 8010 8011 8012 8013 8014 8015 8016 8017 8018 8019 8020 8021 8022 8023 8024 8025 8026 8027 8028 8029 8030 8031 8032 8033 8034 8035 8036 8037 8038 8039 8040 8041 8042 8043 8044 8045 8046 8047 8048 8049 8050 8051 8052 8053 8054 8055 8056 8057 8058 8059 8060 8061 8062 8063 8064 8065 8066 8067 8068 8069 8070 8071 8072 8073 8074 8075 8076 8077 8078 8079 8080 8081 8082 8083 8084 8085 8086 8087 8088 8089 8090 8091 8092 8093 8094 8095 8096 8097 8098 8099 8100 8101 8102 8103 8104 8105 8106 8107 8108 8109 8110 8111 8112 8113 8114 8115 8116 8117 8118 8119 8120 8121 8122 8123 8124 8125 8126 8127 8128 8129 8130 8131 8132 8133 8134 8135 8136 8137 8138 8139 8140 8141 8142 8143 8144 8145 8146 8147 8148 8149 8150 8151 8152 8153 8154 8155 8156 8157 8158 8159 8160 8161 8162 8163 8164 8165 8166 8167 8168 8169 8170 8171 8172 8173 8174 8175 8176 8177 8178 8179 8180 8181 8182 8183 8184 8185 8186 8187 8188 8189 8190 8191 8192 8193 8194 8195 8196 8197 8198 8199 8200 8201 8202 8203 8204 8205 8206 8207 8208 8209 8210 8211 8212 8213 8214 8215 8216 8217 8218 8219 8220 8221 8222 8223 8224 8225 8226 8227 8228 8229 8230 8231 8232 8233 8234 8235 8236 8237 8238 8239 8240 8241 8242 8243 8244 8245 8246 8247 8248 8249 8250 8251 8252 8253 8254 8255 8256 8257 8258 8259 8260 8261 8262 8263 8264 8265 8266 8267 8268 8269 8270 8271 8272 8273 8274 8275 8276 8277 8278 8279 8280 8281 8282 8283 8284 8285 8286 8287 8288 8289 8290 8291 8292 8293 8294 8295 8296 8297 8298 8299 8300 8301 8302 8303 8304 8305 8306 8307 8308 8309 8310 8311 8312 8313 8314 8315 8316 8317 8318 8319 8320 8321 8322 8323 8324 8325 8326 8327 8328 8329 8330 8331 8332 8333 8334 8335 8336 8337 8338 8339 8340 8341 8342 8343 8344 8345 8346 8347 8348 8349 8350 8351 8352 8353 8354 8355 8356 8357 8358 8359 8360 8361 8362 8363 8364 8365 8366 8367 8368 8369 8370 8371 8372 8373 8374 8375 8376 8377 8378 8379 8380 8381 8382 8383 8384 8385 8386 8387 8388 8389 8390 8391 8392 8393 8394 8395 8396 8397 8398 8399 8400 8401 8402 8403 8404 8405 8406 8407 8408 8409 8410 8411 8412 8413 8414 8415 8416 8417 8418 8419 8420 8421 8422 8423 8424 8425 8426 8427 8428 8429 8430 8431 8432 8433 8434 8435 8436 8437 8438 8439 8440 8441 8442 8443 8444 8445 8446 8447 8448 8449 8450 8451 8452 8453 8454 8455 8456 8457 8458 8459 8460 8461 8462 8463 8464 8465 8466 8467 8468 8469 8470 8471 8472 8473 8474 8475 8476 8477 8478 8479 8480 8481 8482 8483 8484 8485 8486 8487 8488 8489 8490 8491 8492 8493 8494 8495 8496 8497 8498 8499 8500 8501 8502 8503 8504 8505 8506 8507 8508 8509 8510 8511 8512 8513 8514 8515 8516 8517 8518 8519 8520 8521 8522 8523 8524 8525 8526 8527 8528 8529 8530 8531 8532 8533 8534 8535 8536 8537 8538 8539 8540 8541 8542 8543 8544 8545 8546 8547 8548 8549 8550 8551 8552 8553 8554 8555 8556 8557 8558 8559 8560 8561 8562 8563 8564 8565 8566 8567 8568 8569 8570 8571 8572 8573 8574 8575 8576 8577 8578 8579 8580 8581 8582 8583 8584 8585 8586 8587 8588 8589 8590 8591 8592 8593 8594 8595 8596 8597 8598 8599 8600 8601 8602 8603 8604 8605 8606 8607 8608 8609 8610 8611 8612 8613 8614 8615 8616 8617 8618 8619 8620 8621 8622 8623 8624 8625 8626 8627 8628 8629 8630 8631 8632 8633 8634 8635 8636 8637 8638 8639 8640 8641 8642 8643 8644 8645 8646 8647 8648 8649 8650 8651 8652 8653 8654 8655 8656 8657 8658 8659 8660 8661 8662 8663 8664 8665 8666 8667 8668 8669 8670 8671 8672 8673 8674 8675 8676 8677 8678 8679 8680 8681 8682 8683 8684 8685 8686 8687 8688 8689 8690 8691 8692 8693 8694 8695 8696 8697 8698 8699 8700 8701 8702 8703 8704 8705 8706 8707 8708 8709 8710 8711 8712 8713 8714 8715 8716 8717 8718 8719 8720 8721 8722 8723 8724 8725 8726 8727 8728 8729 8730 8731 8732 8733 8734 8735 8736 8737 8738 8739 8740 8741 8742 8743 8744 8745 8746 8747 8748 8749 8750 8751 8752 8753 8754 8755 8756 8757 8758 8759 8760 8761 8762 8763 8764 8765 8766 8767 8768 8769 8770 8771 8772 8773 8774 8775 8776 8777 8778 8779 8780 8781 8782 8783 8784 8785 8786 8787 8788 8789 8790 8791 8792 8793 8794 8795 8796 8797 8798 8799 8800 8801 8802 8803 8804 8805 8806 8807 8808 8809 8810 8811 8812 8813 8814 8815 8816 8817 8818 8819 8820 8821 8822 8823 8824 8825 8826 8827 8828 8829 8830 8831 8832 8833 8834 8835 8836 8837 8838 8839 8840 8841 8842 8843 8844 8845 8846 8847 8848 8849 8850 8851 8852 8853 8854 8855 8856 8857 8858 8859 8860 8861 8862 8863 8864 8865 8866 8867 8868 8869 8870 8871 8872 8873 8874 8875 8876 8877 8878 8879 8880 8881 8882 8883 8884 8885 8886 8887 8888 8889 8890 8891 8892 8893 8894 8895 8896 8897 8898 8899 8900 8901 8902 8903 8904 8905 8906 8907 8908 8909 8910 8911 8912 8913 8914 8915 8916 8917 8918 8919 8920 8921 8922 8923 8924 8925 8926 8927 8928 8929 8930 8931 8932 8933 8934 8935 8936 8937 8938 8939 8940 8941 8942 8943 8944 8945 8946 8947 8948 8949 8950 8951 8952 8953 8954 8955 8956 8957 8958 8959 8960 8961 8962 8963 8964 8965 8966 8967 8968 8969 8970 8971 8972 8973 8974 8975 8976 8977 8978 8979 8980 8981 8982 8983 8984 8985 8986 8987 8988 8989 8990 8991 8992 8993 8994 8995 8996 8997 8998 8999 9000 9001 9002 9003 9004 9005 9006 9007 9008 9009 9010 9011 9012 9013 9014 9015 9016 9017 9018 9019 9020 9021 9022 9023 9024 9025 9026 9027 9028 9029 9030 9031 9032 9033 9034 9035 9036 9037 9038 9039 9040 9041 9042 9043 9044 9045 9046 9047 9048 9049 9050 9051 9052 9053 9054 9055 9056 9057 9058 9059 9060 9061 9062 9063 9064 9065 9066 9067 9068 9069 9070 9071 9072 9073 9074 9075 9076 9077 9078 9079 9080 9081 9082 9083 9084 9085 9086 9087 9088 9089 9090 9091 9092 9093 9094 9095 9096 9097 9098 9099 9100 9101 9102 9103 9104 9105 9106 9107 9108 9109 9110 9111 9112 9113 9114 9115 9116 9117 9118 9119 9120 9121 9122 9123 9124 9125 9126 9127 9128 9129 9130 9131 9132 9133 9134 9135 9136 9137 9138 9139 9140 9141 9142 9143 9144 9145 9146 9147 9148 9149 9150 9151 9152 9153 9154 9155 9156 9157 9158 9159 9160 9161 9162 9163 9164 9165 9166 9167 9168 9169 9170 9171 9172 9173 9174 9175 9176 9177 9178 9179 9180 9181 9182 9183 9184 9185 9186 9187 9188 9189 9190 9191 9192 9193 9194 9195 9196 9197 9198 9199 9200 9201 9202 9203 9204 9205 9206 9207 9208 9209 9210 9211 9212 9213 9214 9215 9216 9217 9218 9219 9220 9221 9222 9223 9224 9225 9226 9227 9228 9229 9230 9231 9232 9233 9234 9235 9236 9237 9238 9239 9240 9241 9242 9243 9244 9245 9246 9247 9248 9249 9250 9251 9252 9253 9254 9255 9256 9257 9258 9259 9260 9261 9262 9263 9264 9265 9266 9267 9268 9269 9270 9271 9272 9273 9274 9275 9276 9277 9278 9279 9280 9281 9282 9283 9284 9285 9286 9287 9288 9289 9290 9291 9292 9293 9294 9295 9296 9297 9298 9299 9300 9301 9302 9303 9304 9305 9306 9307 9308 9309 9310 9311 9312 9313 9314 9315 9316 9317 9318 9319 9320 9321 9322 9323 9324 9325 9326 9327 9328 9329 9330 9331 9332 9333 9334 9335 9336 9337 9338 9339 9340 9341 9342 9343 9344 9345 9346 9347 9348 9349 9350 9351 9352 9353 9354 9355 9356 9357 9358 9359 9360 9361 9362 9363 9364 9365 9366 9367 9368 9369 9370 9371 9372 9373 9374 9375 9376 9377 9378 9379 9380 9381 9382 9383 9384 9385 9386 9387 9388 9389 9390 9391 9392 9393 9394 9395 9396 9397 9398 9399 9400 9401 9402 9403 9404 9405 9406 9407 9408 9409 9410 9411 9412 9413 9414 9415 9416 9417 9418 9419 9420 9421 9422 9423 9424 9425 9426 9427 9428 9429 9430 9431 9432 9433 9434 9435 9436 9437 9438 9439 9440 9441 9442 9443 9444 9445 9446 9447 9448 9449 9450 9451 9452 9453 9454 9455 9456 9457 9458 9459 9460 9461 9462 9463 9464 9465 9466 9467 9468 9469 9470 9471 9472 9473 9474 9475 9476 9477 9478 9479 9480 9481 9482 9483 9484 9485 9486 9487 9488 9489 9490 9491 9492 9493 9494 9495 9496 9497 9498 9499 9500 9501 9502 9503 9504 9505 9506 9507 9508 9509 9510 9511 9512 9513 9514 9515 9516 9517 9518 9519 9520 9521 9522 9523 9524 9525 9526 9527 9528 9529 9530 9531 9532 9533 9534 9535 9536 9537 9538 9539 9540 9541 9542 9543 9544 9545 9546 9547 9548 9549 9550 9551 9552 9553 9554 9555 9556 9557 9558 9559 9560 9561 9562 9563 9564 9565 9566 9567 9568 9569 9570 9571 9572 9573 9574 9575 9576 9577 9578 9579 9580 9581 9582 9583 9584 9585 9586 9587 9588 9589 9590 9591 9592 9593 9594 9595 9596 9597 9598 9599 9600 9601 9602 9603 9604 9605 9606 9607 9608 9609 9610 9611 9612 9613 9614 9615 9616 9617 9618 9619 9620 9621 9622 9623 9624 9625 9626 9627 9628 9629 9630 9631 9632 9633 9634 9635 9636 9637 9638 9639 9640 9641 9642 9643 9644 9645 9646 9647 9648 9649 9650 9651 9652 9653 9654 9655 9656 9657 9658 9659 9660 9661 9662 9663 9664 9665 9666 9667 9668 9669 9670 9671 9672 9673 9674 9675 9676 9677 9678 9679 9680 9681 9682 9683 9684 9685 9686 9687 9688 9689 9690 9691 9692 9693 9694 9695 9696 9697 9698 9699 9700 9701 9702 9703 9704 9705 9706 9707 9708 9709 9710 9711 9712 9713 9714 9715 9716 9717 9718 9719 9720 9721 9722 9723 9724 9725 9726 9727 9728 9729 9730 9731 9732 9733 9734 9735 9736 9737 9738 9739 9740 9741 9742 9743 9744 9745 9746 9747 9748 9749 9750 9751 9752 9753 9754 9755 9756 9757 9758 9759 9760 9761 9762 9763 9764 9765 9766 9767 9768 9769 9770 9771 9772 9773 9774 9775 9776 9777 9778 9779 9780 9781 9782 9783 9784 9785 9786 9787 9788 9789 9790 9791 9792 9793 9794 9795 9796 9797 9798 9799 9800 9801 9802 9803 9804 9805 9806 9807 9808 9809 9810 9811 9812 9813 9814 9815 9816 9817 9818 9819 9820 9821 9822 9823 9824 9825 9826 9827 9828 9829 9830 9831 9832 9833 9834 9835 9836 9837 9838 9839 9840 9841 9842 9843 9844 9845 9846 9847 9848 9849 9850 9851 9852 9853 9854 9855 9856 9857 9858 9859 9860 9861 9862 9863 9864 9865 9866 9867 9868 9869 9870 9871 9872 9873 9874 9875 9876 9877 9878 9879 9880 9881 9882 9883 9884 9885 9886 9887 9888 9889 9890 9891 9892 9893 9894 9895 9896 9897 9898 9899 9900 9901 9902 9903 9904 9905 9906 9907 9908 9909 9910 9911 9912 9913 9914 9915 9916 9917 9918 9919 9920 9921 9922 9923 9924 9925 9926 9927 9928 9929 9930 9931 9932 9933 9934 9935 9936 9937 9938 9939 9940 9941 9942 9943 9944 9945 9946 9947 9948 9949 9950 9951 9952 9953 9954 9955 9956 9957 9958 9959 9960 9961 9962 9963 9964 9965 9966 9967 9968 9969 9970 9971 9972 9973 9974 9975 9976 9977 9978 9979 9980 9981 9982 9983 9984 9985 9986 9987 9988 9989 9990 9991 9992 9993 9994 9995 9996 9997 9998 9999 10000 10001 10002 10003 10004 10005 10006 10007 10008 10009 10010 10011 10012 10013 10014 10015 10016 10017 10018 10019 10020 10021 10022 10023 10024 10025 10026 10027 10028 10029 10030 10031 10032 10033 10034 10035 10036 10037 10038 10039 10040 10041 10042 10043 10044 10045 10046 10047 10048 10049 10050 10051 10052 10053 10054 10055 10056 10057 10058 10059 10060 10061 10062 10063 10064 10065 10066 10067 10068 10069 10070 10071 10072 10073 10074 10075 10076 10077 10078 10079 10080 10081 10082 10083 10084 10085 10086 10087 10088 10089 10090 10091 10092 10093 10094 10095 10096 10097 10098 10099 10100 10101 10102 10103 10104 10105 10106 10107 10108 10109 10110 10111 10112 10113 10114 10115 10116 10117 10118 10119 10120 10121 10122 10123 10124 10125 10126 10127 10128 10129 10130 10131 10132 10133 10134 10135 10136 10137 10138 10139 10140 10141 10142 10143 10144 10145 10146 10147 10148 10149 10150 10151 10152 10153 10154 10155 10156 10157 10158 10159 10160 10161 10162 10163 10164 10165 10166 10167 10168 10169 10170 10171 10172 10173 10174 10175 10176 10177 10178 10179 10180 10181 10182 10183 10184 10185 10186 10187 10188 10189 10190 10191 10192 10193 10194 10195 10196 10197 10198 10199 10200 10201 10202 10203 10204 10205 10206 10207 10208 10209 10210 10211 10212 10213 10214 10215 10216 10217 10218 10219 10220 10221 10222 10223 10224 10225 10226 10227 10228 10229 10230 10231 10232 10233 10234 10235 10236 10237 10238 10239 10240 10241 10242 10243 10244 10245 10246 10247 10248 10249 10250 10251 10252 10253 10254 10255 10256 10257 10258 10259 10260 10261 10262 10263 10264 10265 10266 10267 10268 10269 10270 10271 10272 10273 10274 10275 10276 10277 10278 10279 10280 10281 10282 10283 10284 10285 10286 10287 10288 10289 10290 10291 10292 10293 10294 10295 10296 10297 10298 10299 10300 10301 10302 10303 10304 10305 10306 10307 10308 10309 10310 10311 10312 10313 10314 10315 10316 10317 10318 10319 10320 10321 10322 10323 10324 10325 10326 10327 10328 10329 10330 10331 10332 10333 10334 10335 10336 10337 10338 10339 10340 10341 10342 10343 10344 10345 10346 10347 10348 10349 10350 10351 10352 10353 10354 10355 10356 10357 10358 10359 10360 10361 10362 10363 10364 10365 10366 10367 10368 10369 10370 10371 10372 10373 10374 10375 10376 10377 10378 10379 10380 10381 10382 10383 10384 10385 10386 10387 10388 10389 10390 10391 10392 10393 10394 10395 10396 10397 10398 10399 10400 10401 10402 10403 10404 10405 10406 10407 10408 10409 10410 10411 10412 10413 10414 10415 10416 10417 10418 10419 10420 10421 10422 10423 10424 10425 10426 10427 10428 10429 10430 10431 10432 10433 10434 10435 10436 10437 10438 10439 10440 10441 10442 10443 10444 10445 10446 10447 10448 10449 10450 10451 10452 10453 10454 10455 10456 10457 10458 10459 10460 10461 10462 10463 10464 10465 10466 10467 10468 10469 10470 10471 10472 10473 10474 10475 10476 10477 10478 10479 10480 10481 10482 10483 10484 10485 10486 10487 10488 10489 10490 10491 10492 10493 10494 10495 10496 10497 10498 10499 10500 10501 10502 10503 10504 10505 10506 10507 10508 10509 10510 10511 10512 10513 10514 10515 10516 10517 10518 10519 10520 10521 10522 10523 10524 10525 10526 10527 10528 10529 10530 10531 10532 10533 10534 10535 10536 10537 10538 10539 10540 10541 10542 10543 10544 10545 10546 10547 10548 10549 10550 10551 10552 10553 10554 10555 10556 10557 10558 10559 10560 10561 10562 10563 10564 10565 10566 10567 10568 10569 10570 10571 10572 10573 10574 10575 10576 10577 10578 10579 10580 10581 10582 10583 10584 10585 10586 10587 10588 10589 10590 10591 10592 10593 10594 10595 10596 10597 10598 10599 10600 10601 10602 10603 10604 10605 10606 10607 10608 10609 10610 10611 10612 10613 10614 10615 10616 10617 10618 10619 10620 10621 10622 10623 10624 10625 10626 10627 10628 10629 10630 10631 10632 10633 10634 10635 10636 10637 10638 10639 10640 10641 10642 10643 10644 10645 10646 10647 10648 10649 10650 10651 10652 10653 10654 10655 10656 10657 10658 10659 10660 10661 10662 10663 10664 10665 10666 10667 10668 10669 10670 10671 10672 10673 10674 10675 10676 10677 10678 10679 10680 10681 10682 10683 10684 10685 10686 10687 10688 10689 10690 10691 10692 10693 10694 10695 10696 10697 10698 10699 10700 10701 10702 10703 10704 10705 10706 10707 10708 10709 10710 10711 10712 10713 10714 10715 10716 10717 10718 10719 10720 10721 10722 10723 10724 10725 10726 10727 10728 10729 10730 10731 10732 10733 10734 10735 10736 10737 10738 10739 10740 10741 10742 10743 10744 10745 10746 10747 10748 10749 10750 10751 10752 10753 10754 10755 10756 10757 10758 10759 10760 10761 10762 10763 10764 10765 10766 10767 10768 10769 10770 10771 10772 10773 10774 10775 10776 10777 10778 10779 10780 10781 10782 10783 10784 10785 10786 10787 10788 10789 10790 10791 10792 10793 10794 10795 10796 10797 10798 10799 10800 10801 10802 10803 10804 10805 10806 10807 10808 10809 10810 10811 10812 10813 10814 10815 10816 10817 10818 10819 10820 10821 10822 10823 10824 10825 10826 10827 10828 10829 10830 10831 10832 10833 10834 10835 10836 10837 10838 10839 10840 10841 10842 10843 10844 10845 10846 10847 10848 10849 10850 10851 10852 10853 10854 10855 10856 10857 10858 10859 10860 10861 10862 10863 10864 10865 10866 10867 10868 10869 10870 10871 10872 10873 10874 10875 10876 10877 10878 10879 10880 10881 10882 10883 10884 10885 10886 10887 10888 10889 10890 10891 10892 10893 10894 10895 10896 10897 10898 10899 10900 10901 10902 10903 10904 10905 10906 10907 10908 10909 10910 10911 10912 10913 10914 10915 10916 10917 10918 10919 10920 10921 10922 10923 10924 10925 10926 10927 10928 10929 10930 10931 10932 10933 10934 10935 10936 10937 10938 10939 10940 10941 10942 10943 10944 10945 10946 10947 10948 10949 10950 10951 10952 10953 10954 10955 10956 10957 10958 10959 10960 10961 10962 10963 10964 10965 10966 10967 10968 10969 10970 10971 10972 10973 10974 10975 10976 10977 10978 10979 10980 10981 10982 10983 10984 10985 10986 10987 10988 10989 10990 10991 10992 10993 10994 10995 10996 10997 10998 10999 11000 11001 11002 11003 11004 11005 11006 11007 11008 11009 11010 11011 11012 11013 11014 11015 11016 11017 11018 11019 11020 11021 11022 11023 11024 11025 11026 11027 11028 11029 11030 11031 11032 11033 11034 11035 11036 11037 11038 11039 11040 11041 11042 11043 11044 11045 11046 11047 11048 11049 11050 11051 11052 11053 11054 11055 11056 11057 11058 11059 11060 11061 11062 11063 11064 11065 11066 11067 11068 11069 11070 11071 11072 11073 11074 11075 11076 11077 11078 11079 11080 11081 11082 11083 11084 11085 11086 11087 11088 11089 11090 11091 11092 11093 11094 11095 11096 11097 11098 11099 11100 11101 11102 11103 11104 11105 11106 11107 11108 11109 11110 11111 11112 11113 11114 11115 11116 11117 11118 11119 11120 11121 11122 11123 11124 11125 11126 11127 11128 11129 11130 11131 11132 11133 11134 11135 11136 11137 11138 11139 11140 11141 11142 11143 11144 11145 11146 11147 11148 11149 11150 11151 11152 11153 11154 11155 11156 11157 11158 11159 11160 11161 11162 11163 11164 11165 11166 11167 11168 11169 11170 11171 11172 11173 11174 11175 11176 11177 11178 11179 11180 11181 11182 11183 11184 11185 11186 11187 11188 11189 11190 11191 11192 11193 11194 11195 11196 11197 11198 11199 11200 11201 11202 11203 11204 11205 11206 11207 11208 11209 11210 11211 11212 11213 11214 11215 11216 11217 11218 11219 11220 11221 11222 11223 11224 11225 11226 11227 11228 11229 11230 11231 11232 11233 11234 11235 11236 11237 11238 11239 11240 11241 11242 11243 11244 11245 11246 11247 11248 11249 11250 11251 11252 11253 11254 11255 11256 11257 11258 11259 11260 11261 11262 11263 11264 11265 11266 11267 11268 11269 11270 11271 11272 11273 11274 11275 11276 11277 11278 11279 11280 11281 11282 11283 11284 11285 11286 11287 11288 11289 11290 11291 11292 11293 11294 11295 11296 11297 11298 11299 11300 11301 11302 11303 11304 11305 11306 11307 11308 11309 11310 11311 11312 11313 11314 11315 11316 11317 11318 11319 11320 11321 11322 11323 11324 11325 11326 11327 11328 11329 11330 11331 11332 11333 11334 11335 11336 11337 11338 11339 11340 11341 11342 11343 11344 11345 11346 11347 11348 11349 11350 11351 11352 11353 11354 11355 11356 11357 11358 11359 11360 11361 11362 11363 11364 11365 11366 11367 11368 11369 11370 11371 11372 11373 11374 11375 11376 11377 11378 11379 11380 11381 11382 11383 11384 11385 11386 11387 11388 11389 11390 11391 11392 11393 11394 11395 11396 11397 11398 11399 11400 11401 11402 11403 11404 11405 11406 11407 11408 11409 11410 11411 11412 11413 11414 11415 11416 11417 11418 11419 11420 11421 11422 11423 11424 11425 11426 11427 11428 11429 11430 11431 11432 11433 11434 11435 11436 11437 11438 11439 11440 11441 11442 11443 11444 11445 11446 11447 11448 11449 11450 11451 11452 11453 11454 11455 11456 11457 11458 11459 11460 11461 11462 11463 11464 11465 11466 11467 11468 11469 11470 11471 11472 11473 11474 11475 11476 11477 11478 11479 11480 11481 11482 11483 11484 11485 11486 11487 11488 11489 11490 11491 11492 11493 11494 11495 11496 11497 11498 11499 11500 11501 11502 11503 11504 11505 11506 11507 11508 11509 11510 11511 11512 11513 11514 11515 11516 11517 11518 11519 11520 11521 11522 11523 11524 11525 11526 11527 11528 11529 11530 11531 11532 11533 11534 11535 11536 11537 11538 11539 11540 11541 11542 11543 11544 11545 11546 11547 11548 11549 11550 11551 11552 11553 11554 11555 11556 11557 11558 11559 11560 11561 11562 11563 11564 11565 11566 11567 11568 11569 11570 11571 11572 11573 11574 11575 11576 11577 11578 11579 11580 11581 11582 11583 11584 11585 11586 11587 11588 11589 11590 11591 11592 11593 11594 11595 11596 11597 11598 11599 11600 11601 11602 11603 11604 11605 11606 11607 11608 11609 11610 11611 11612 11613 11614 11615 11616 11617 11618 11619 11620 11621 11622 11623 11624 11625 11626 11627 11628 11629 11630 11631 11632 11633 11634 11635 11636 11637 11638 11639 11640 11641 11642 11643 11644 11645 11646 11647 11648 11649 11650 11651 11652 11653 11654 11655 11656 11657 11658 11659 11660 11661 11662 11663 11664 11665 11666 11667 11668 11669 11670 11671 11672 11673 11674 11675 11676 11677 11678 11679 11680 11681 11682 11683 11684 11685 11686 11687 11688 11689 11690 11691 11692 11693 11694 11695 11696 11697 11698 11699 11700 11701 11702 11703 11704 11705 11706 11707 11708 11709 11710 11711 11712 11713 11714 11715 11716 11717 11718 11719 11720 11721 11722 11723 11724 11725 11726 11727 11728 11729 11730 11731 11732 11733 11734 11735 11736 11737 11738 11739 11740 11741 11742 11743 11744 11745 11746 11747 11748 11749 11750 11751 11752 11753 11754 11755 11756 11757 11758 11759 11760 11761 11762 11763 11764 11765 11766 11767 11768 11769 11770 11771 11772 11773 11774 11775 11776 11777 11778 11779 11780 11781 11782 11783 11784 11785 11786 11787 11788 11789 11790 11791 11792 11793 11794 11795 11796 11797 11798 11799 11800 11801 11802 11803 11804 11805 11806 11807 11808 11809 11810 11811 11812 11813 11814 11815 11816 11817 11818 11819 11820 11821 11822 11823 11824 11825 11826 11827 11828 11829 11830 11831 11832 11833 11834 11835 11836 11837 11838 11839 11840 11841 11842 11843 11844 11845 11846 11847 11848 11849 11850 11851 11852 11853 11854 11855 11856 11857 11858 11859 11860 11861 11862 11863 11864 11865 11866 11867 11868 11869 11870 11871 11872 11873 11874 11875 11876 11877 11878 11879 11880 11881 11882 11883 11884 11885 11886 11887 11888 11889 11890 11891 11892 11893 11894 11895 11896 11897 11898 11899 11900 11901 11902 11903 11904 11905 11906 11907 11908 11909 11910 11911 11912 11913 11914 11915 11916 11917 11918 11919 11920 11921 11922 11923 11924 11925 11926 11927 11928 11929 11930 11931 11932 11933 11934 11935 11936 11937 11938 11939 11940 11941 11942 11943 11944 11945 11946 11947 11948 11949 11950 11951 11952 11953 11954 11955 11956 11957 11958 11959 11960 11961 11962 11963 11964 11965 11966 11967 11968 11969 11970 11971 11972 11973 11974 11975 11976 11977 11978 11979 11980 11981 11982 11983 11984 11985 11986 11987 11988 11989 11990 11991 11992 11993 11994 11995 11996 11997 11998 11999 12000 12001 12002 12003 12004 12005 12006 12007 12008 12009 12010 12011 12012 12013 12014 12015 12016 12017 12018 12019 12020 12021 12022 12023 12024 12025 12026 12027 12028 12029 12030 12031 12032 12033 12034 12035 12036 12037 12038 12039 12040 12041 12042 12043 12044 12045 12046 12047 12048 12049 12050 12051 12052 12053 12054 12055 12056 12057 12058 12059 12060 12061 12062 12063 12064 12065 12066 12067 12068 12069 12070 12071 12072 12073 12074 12075 12076 12077 12078 12079 12080 12081 12082 12083 12084 12085 12086 12087 12088 12089 12090 12091 12092 12093 12094 12095 12096 12097 12098 12099 12100 12101 12102 12103 12104 12105 12106 12107 12108 12109 12110 12111 12112 12113 12114 12115 12116 12117 12118 12119 12120 12121 12122 12123 12124 12125 12126 12127 12128 12129 12130 12131 12132 12133 12134 12135 12136 12137 12138 12139 12140 12141 12142 12143 12144 12145 12146 12147 12148 12149 12150 12151 12152 12153 12154 12155 12156 12157 12158 12159 12160 12161 12162 12163 12164 12165 12166 12167 12168 12169 12170 12171 12172 12173 12174 12175 12176 12177 12178 12179 12180 12181 12182 12183 12184 12185 12186 12187 12188 12189 12190 12191 12192 12193 12194 12195 12196 12197 12198 12199 12200 12201 12202 12203 12204 12205 12206 12207 12208 12209 12210 12211 12212 12213 12214 12215 12216 12217 12218 12219 12220 12221 12222 12223 12224 12225 12226 12227 12228 12229 12230 12231 12232 12233 12234 12235 12236 12237 12238 12239 12240 12241 12242 12243 12244 12245 12246 12247 12248 12249 12250 12251 12252 12253 12254 12255 12256 12257 12258 12259 12260 12261 12262 12263 12264 12265 12266 12267 12268 12269 12270 12271 12272 12273 12274 12275 12276 12277 12278 12279 12280 12281 12282 12283 12284 12285 12286 12287 12288 12289 12290 12291 12292 12293 12294 12295 12296 12297 12298 12299 12300 12301 12302 12303 12304 12305 12306 12307 12308 12309 12310 12311 12312 12313 12314 12315 12316 12317 12318 12319 12320 12321 12322 12323 12324 12325 12326 12327 12328 12329 12330 12331 12332 12333 12334 12335 12336 12337 12338 12339 12340 12341 12342 12343 12344 12345 12346 12347 12348 12349 12350 12351 12352 12353 12354 12355 12356 12357 12358 12359 12360 12361 12362 12363 12364 12365 12366 12367 12368 12369 12370 12371 12372 12373 12374 12375 12376 12377 12378 12379 12380 12381 12382 12383 12384 12385 12386 12387 12388 12389 12390 12391 12392 12393 12394 12395 12396 12397 12398 12399 12400 12401 12402 12403 12404 12405 12406 12407 12408 12409 12410 12411 12412 12413 12414 12415 12416 12417 12418 12419 12420 12421 12422 12423 12424 12425 12426 12427 12428 12429 12430 12431 12432 12433 12434 12435 12436 12437 12438 12439 12440 12441 12442 12443 12444 12445 12446 12447 12448 12449 12450 12451 12452 12453 12454 12455 12456 12457 12458 12459 12460 12461 12462 12463 12464 12465 12466 12467 12468 12469 12470 12471 12472 12473 12474 12475 12476 12477 12478 12479 12480 12481 12482 12483 12484 12485 12486 12487 12488 12489 12490 12491 12492 12493 12494 12495 12496 12497 12498 12499 12500 12501 12502 12503 12504 12505 12506 12507 12508 12509 12510 12511 12512 12513 12514 12515 12516 12517 12518 12519 12520 12521 12522 12523 12524 12525 12526 12527 12528 12529 12530 12531 12532 12533 12534 12535 12536 12537 12538 12539 12540 12541 12542 12543 12544 12545 12546 12547 12548 12549 12550 12551 12552 12553 12554 12555 12556 12557 12558 12559 12560 12561 12562 12563 12564 12565 12566 12567 12568 12569 12570 12571 12572 12573 12574 12575 12576 12577 12578 12579 12580 12581 12582 12583 12584 12585 12586 12587 12588 12589 12590 12591 12592 12593 12594 12595 12596 12597 12598 12599 12600 12601 12602 12603 12604 12605 12606 12607 12608 12609 12610 12611 12612 12613 12614 12615 12616 12617 12618 12619 12620 12621 12622 12623 12624 12625 12626 12627 12628 12629 12630 12631 12632 12633 12634 12635 12636 12637 12638 12639 12640 12641 12642 12643 12644 12645 12646 12647 12648 12649 12650 12651 12652 12653 12654 12655 12656 12657 12658 12659 12660 12661 12662 12663 12664 12665 12666 12667 12668 12669 12670 12671 12672 12673 12674 12675 12676 12677 12678 12679 12680 12681 12682 12683 12684 12685 12686 12687 12688 12689 12690 12691 12692 12693 12694 12695 12696 12697 12698 12699 12700 12701 12702 12703 12704 12705 12706 12707 12708 12709 12710 12711 12712 12713 12714 12715 12716 12717 12718 12719 12720 12721 12722 12723 12724 12725 12726 12727 12728 12729 12730 12731 12732 12733 12734 12735 12736 12737 12738 12739 12740 12741 12742 12743 12744 12745 12746 12747 12748 12749 12750 12751 12752 12753 12754 12755 12756 12757 12758 12759 12760 12761 12762 12763 12764 12765 12766 12767 12768 12769 12770 12771 12772 12773 12774 12775 12776 12777 12778 12779 12780 12781 12782 12783 12784 12785 12786 12787 12788 12789 12790 12791 12792 12793 12794 12795 12796 12797 12798 12799 12800 12801 12802 12803 12804 12805 12806 12807 12808 12809 12810 12811 12812 12813 12814 12815 12816 12817 12818 12819 12820 12821 12822 12823 12824 12825 12826 12827 12828 12829 12830 12831 12832 12833 12834 12835 12836 12837 12838 12839 12840 12841 12842 12843 12844 12845 12846 12847 12848 12849 12850 12851 12852 12853 12854 12855 12856 12857 12858 12859 12860 12861 12862 12863 12864 12865 12866 12867 12868 12869 12870 12871 12872 12873 12874 12875 12876 12877 12878 12879 12880 12881 12882 12883 12884 12885 12886 12887 12888 12889 12890 12891 12892 12893 12894 12895 12896 12897 12898 12899 12900 12901 12902 12903 12904 12905 12906 12907 12908 12909 12910 12911 12912 12913 12914 12915 12916 12917 12918 12919 12920 12921 12922 12923 12924 12925 12926 12927 12928 12929 12930 12931 12932 12933 12934 12935 12936 12937 12938 12939 12940 12941 12942 12943 12944 12945 12946 12947 12948 12949 12950 12951 12952 12953 12954 12955 12956 12957 12958 12959 12960 12961 12962 12963 12964 12965 12966 12967 12968 12969 12970 12971 12972 12973 12974 12975 12976 12977 12978 12979 12980 12981 12982 12983 12984 12985 12986 12987 12988 12989 12990 12991 12992 12993 12994 12995 12996 12997 12998 12999 13000 13001 13002 13003 13004 13005 13006 13007 13008 13009 13010 13011 13012 13013 13014 13015 13016 13017 13018 13019 13020 13021 13022 13023 13024 13025 13026 13027 13028 13029 13030 13031 13032 13033 13034 13035 13036 13037 13038 13039 13040 13041 13042 13043 13044 13045 13046 13047 13048 13049 13050 13051 13052 13053 13054 13055 13056 13057 13058 13059 13060 13061 13062 13063 13064 13065 13066 13067 13068 13069 13070 13071 13072 13073 13074 13075 13076 13077 13078 13079 13080 13081 13082 13083 13084 13085 13086 13087 13088 13089 13090 13091 13092 13093 13094 13095 13096 13097 13098 13099 13100 13101 13102 13103 13104 13105 13106 13107 13108 13109 13110 13111 13112 13113 13114 13115 13116 13117 13118 13119 13120 13121 13122 13123 13124 13125 13126 13127 13128 13129 13130 13131 13132 13133 13134 13135 13136 13137 13138 13139 13140 13141 13142 13143 13144 13145 13146 13147 13148 13149 13150 13151 13152 13153 13154 13155 13156 13157 13158 13159 13160 13161 13162 13163 13164 13165 13166 13167 13168 13169 13170 13171 13172 13173 13174 13175 13176 13177 13178 13179 13180 13181 13182 13183 13184 13185 13186 13187 13188 13189 13190 13191 13192 13193 13194 13195 13196 13197 13198 13199 13200 13201 13202 13203 13204 13205 13206 13207 13208 13209 13210 13211 13212 13213 13214 13215 13216 13217 13218 13219 13220 13221 13222 13223 13224 13225 13226 13227 13228 13229 13230 13231 13232 13233 13234 13235 13236 13237 13238 13239 13240 13241 13242 13243 13244 13245 13246 13247 13248 13249 13250 13251 13252 13253 13254 13255 13256 13257 13258 13259 13260 13261 13262 13263 13264 13265 13266 13267 13268 13269 13270 13271 13272 13273 13274 13275 13276 13277 13278 13279 13280 13281 13282 13283 13284 13285 13286 13287 13288 13289 13290 13291 13292 13293 13294 13295 13296 13297 13298 13299 13300 13301 13302 13303 13304 13305 13306 13307 13308 13309 13310 13311 13312 13313 13314 13315 13316 13317 13318 13319 13320 13321 13322 13323 13324 13325 13326 13327 13328 13329 13330 13331 13332 13333 13334 13335 13336 13337 13338 13339 13340 13341 13342 13343 13344 13345 13346 13347 13348 13349 13350 13351 13352 13353 13354 13355 13356 13357 13358 13359 13360 13361 13362 13363 13364 13365 13366 13367 13368 13369 13370 13371 13372 13373 13374 13375 13376 13377 13378 13379 13380 13381 13382 13383 13384 13385 13386 13387 13388 13389 13390 13391 13392 13393 13394 13395 13396 13397 13398 13399 13400 13401 13402 13403 13404 13405 13406 13407 13408 13409 13410 13411 13412 13413 13414 13415 13416 13417 13418 13419 13420 13421 13422 13423 13424 13425 13426 13427 13428 13429 13430 13431 13432 13433 13434 13435 13436 13437 13438 13439 13440 13441 13442 13443 13444 13445 13446 13447 13448 13449 13450 13451 13452 13453 13454 13455 13456 13457 13458 13459 13460 13461 13462 13463 13464 13465 13466 13467 13468 13469 13470 13471 13472 13473 13474 13475 13476 13477 13478 13479 13480 13481 13482 13483 13484 13485 13486 13487 13488 13489 13490 13491 13492 13493 13494 13495 13496 13497 13498 13499 13500 13501 13502 13503 13504 13505 13506 13507 13508 13509 13510 13511 13512 13513 13514 13515 13516 13517 13518 13519 13520 13521 13522 13523 13524 13525 13526 13527 13528 13529 13530 13531 13532 13533 13534 13535 13536 13537 13538 13539 13540 13541 13542 13543 13544 13545 13546 13547 13548 13549 13550 13551 13552 13553 13554 13555 13556 13557 13558 13559 13560 13561 13562 13563 13564 13565 13566 13567 13568 13569 13570 13571 13572 13573 13574 13575 13576 13577 13578 13579 13580 13581 13582 13583 13584 13585 13586 13587 13588 13589 13590 13591 13592 13593 13594 13595 13596 13597 13598 13599 13600 13601 13602 13603 13604 13605 13606 13607 13608 13609 13610 13611 13612 13613 13614 13615 13616 13617 13618 13619 13620 13621 13622 13623 13624 13625 13626 13627 13628 13629 13630 13631 13632 13633 13634 13635 13636 13637 13638 13639 13640 13641 13642 13643 13644 13645 13646 13647 13648 13649 13650 13651 13652 13653 13654 13655 13656 13657 13658 13659 13660 13661 13662 13663 13664 13665 13666 13667 13668 13669 13670 13671 13672 13673 13674 13675 13676 13677 13678 13679 13680 13681 13682 13683 13684 13685 13686 13687 13688 13689 13690 13691 13692 13693 13694 13695 13696 13697 13698 13699 13700 13701 13702 13703 13704 13705 13706 13707 13708 13709 13710 13711 13712 13713 13714 13715 13716 13717 13718 13719 13720 13721 13722 13723 13724 13725 13726 13727 13728 13729 13730 13731 13732 13733 13734 13735 13736 13737 13738 13739 13740 13741 13742 13743 13744 13745 13746 13747 13748 13749 13750 13751 13752 13753 13754 13755 13756 13757 13758 13759 13760 13761 13762 13763 13764 13765 13766 13767 13768 13769 13770 13771 13772 13773 13774 13775 13776 13777 13778 13779 13780 13781 13782 13783 13784 13785 13786 13787 13788 13789 13790 13791 13792 13793 13794 13795 13796 13797 13798 13799 13800 13801 13802 13803 13804 13805 13806 13807 13808 13809 13810 13811 13812 13813 13814 13815 13816 13817 13818 13819 13820 13821 13822 13823 13824 13825 13826 13827 13828 13829 13830 13831 13832 13833 13834 13835 13836 13837 13838 13839 13840 13841 13842 13843 13844 13845 13846 13847 13848 13849 13850 13851 13852 13853 13854 13855 13856 13857 13858 13859 13860 13861 13862 13863 13864 13865 13866 13867 13868 13869 13870 13871 13872 13873 13874 13875 13876 13877 13878 13879 13880 13881 13882 13883 13884 13885 13886 13887 13888 13889 13890 13891 13892 13893 13894 13895 13896 13897 13898 13899 13900 13901 13902 13903 13904 13905 13906 13907 13908 13909 13910 13911 13912 13913 13914 13915 13916 13917 13918 13919 13920 13921 13922 13923 13924 13925 13926 13927 13928 13929 13930 13931 13932 13933 13934 13935 13936 13937 13938 13939 13940 13941 13942 13943 13944 13945 13946 13947 13948 13949 13950 13951 13952 13953 13954 13955 13956 13957 13958 13959 13960 13961 13962 13963 13964 13965 13966 13967 13968 13969 13970 13971 13972 13973 13974 13975 13976 13977 13978 13979 13980 13981 13982 13983 13984 13985 13986 13987 13988 13989 13990 13991 13992 13993 13994 13995 13996 13997 13998 13999 14000 14001 14002 14003 14004 14005 14006 14007 14008 14009 14010 14011 14012 14013 14014 14015 14016 14017 14018 14019 14020 14021 14022 14023 14024 14025 14026 14027 14028 14029 14030 14031 14032 14033 14034 14035 14036 14037 14038 14039 14040 14041 14042 14043 14044 14045 14046 14047 14048 14049 14050 14051 14052 14053 14054 14055 14056 14057 14058 14059 14060 14061 14062 14063 14064 14065 14066 14067 14068 14069 14070 14071 14072 14073 14074 14075 14076 14077 14078 14079 14080 14081 14082 14083 14084 14085 14086 14087 14088 14089 14090 14091 14092 14093 14094 14095 14096 14097 14098 14099 14100 14101 14102 14103 14104 14105 14106 14107 14108 14109 14110 14111 14112 14113 14114 14115 14116 14117 14118 14119 14120 14121 14122 14123 14124 14125 14126 14127 14128 14129 14130 14131 14132 14133 14134 14135 14136 14137 14138 14139 14140 14141 14142 14143 14144 14145 14146 14147 14148 14149 14150 14151 14152 14153 14154 14155 14156 14157 14158 14159 14160 14161 14162 14163 14164 14165 14166 14167 14168 14169 14170 14171 14172 14173 14174 14175 14176 14177 14178 14179 14180 14181 14182 14183 14184 14185 14186 14187 14188 14189 14190 14191 14192 14193 14194 14195 14196 14197 14198 14199 14200 14201 14202 14203 14204 14205 14206 14207 14208 14209 14210 14211 14212 14213 14214 14215 14216 14217 14218 14219 14220 14221 14222 14223 14224 14225 14226 14227 14228 14229 14230 14231 14232 14233 14234 14235 14236 14237 14238 14239 14240 14241 14242 14243 14244 14245 14246 14247 14248 14249 14250 14251 14252 14253 14254 14255 14256 14257 14258 14259 14260 14261 14262 14263 14264 14265 14266 14267 14268 14269 14270 14271 14272 14273 14274 14275 14276 14277 14278 14279 14280 14281 14282 14283 14284 14285 14286 14287 14288 14289 14290 14291 14292 14293 14294 14295 14296 14297 14298 14299 14300 14301 14302 14303 14304 14305 14306 14307 14308 14309 14310 14311 14312 14313 14314 14315 14316 14317 14318 14319 14320 14321 14322 14323 14324 14325 14326 14327 14328 14329 14330 14331 14332 14333 14334 14335 14336 14337 14338 14339 14340 14341 14342 14343 14344 14345 14346 14347 14348 14349 14350 14351 14352 14353 14354 14355 14356 14357 14358 14359 14360 14361 14362 14363 14364 14365 14366 14367 14368 14369 14370 14371 14372 14373 14374 14375 14376 14377 14378 14379 14380 14381 14382 14383 14384 14385 14386 14387 14388 14389 14390 14391 14392 14393 14394 14395 14396 14397 14398 14399 14400 14401 14402 14403 14404 14405 14406 14407 14408 14409 14410 14411 14412 14413 14414 14415 14416 14417 14418 14419 14420 14421 14422 14423 14424 14425 14426 14427 14428 14429 14430 14431 14432 14433 14434 14435 14436 14437 14438 14439 14440 14441 14442 14443 14444 14445 14446 14447 14448 14449 14450 14451 14452 14453 14454 14455 14456 14457 14458 14459 14460 14461 14462 14463 14464 14465 14466 14467 14468 14469 14470 14471 14472 14473 14474 14475 14476 14477 14478 14479 14480 14481 14482 14483 14484 14485 14486 14487 14488 14489 14490 14491 14492 14493 14494 14495 14496 14497 14498 14499 14500 14501 14502 14503 14504 14505 14506 14507 14508 14509 14510 14511 14512 14513 14514 14515 14516 14517 14518 14519 14520 14521 14522 14523 14524 14525 14526 14527 14528 14529 14530 14531 14532 14533 14534 14535 14536 14537 14538 14539 14540 14541 14542 14543 14544 14545 14546 14547 14548 14549 14550 14551 14552 14553 14554 14555 14556 14557 14558 14559 14560 14561 14562 14563 14564 14565 14566 14567 14568 14569 14570 14571 14572 14573 14574 14575 14576 14577 14578 14579 14580 14581 14582 14583 14584 14585 14586 14587 14588 14589 14590 14591 14592 14593 14594 14595 14596 14597 14598 14599 14600 14601 14602 14603 14604 14605 14606 14607 14608 14609 14610 14611 14612 14613 14614 14615 14616 14617 14618 14619 14620 14621 14622 14623 14624 14625 14626 14627 14628 14629 14630 14631 14632 14633 14634 14635 14636 14637 14638 14639 14640 14641 14642 14643 14644 14645 14646 14647 14648 14649 14650 14651 14652 14653 14654 14655 14656 14657 14658 14659 14660 14661 14662 14663 14664 14665 14666 14667 14668 14669 14670 14671 14672 14673 14674 14675 14676 14677 14678 14679 14680 14681 14682 14683 14684 14685 14686 14687 14688 14689 14690 14691 14692 14693 14694 14695 14696 14697 14698 14699 14700 14701 14702 14703 14704 14705 14706 14707 14708 14709 14710 14711 14712 14713 14714 14715 14716 14717 14718 14719 14720 14721 14722 14723 14724 14725 14726 14727 14728 14729 14730 14731 14732 14733 14734 14735 14736 14737 14738 14739 14740 14741 14742 14743 14744 14745 14746 14747 14748 14749 14750 14751 14752 14753 14754 14755 14756 14757 14758 14759 14760 14761 14762 14763 14764 14765 14766 14767 14768 14769 14770 14771 14772 14773 14774 14775 14776 14777 14778 14779 14780 14781 14782 14783 14784 14785 14786 14787 14788 14789 14790 14791 14792 14793 14794 14795 14796 14797 14798 14799 14800 14801 14802 14803 14804 14805 14806 14807 14808 14809 14810 14811 14812 14813 14814 14815 14816 14817 14818 14819 14820 14821 14822 14823 14824 14825 14826 14827 14828 14829 14830 14831 14832 14833 14834 14835 14836 14837 14838 14839 14840 14841 14842 14843 14844 14845 14846 14847 14848 14849 14850 14851 14852 14853 14854 14855 14856 14857 14858 14859 14860 14861 14862 14863 14864 14865 14866 14867 14868 14869 14870 14871 14872 14873 14874 14875 14876 14877 14878 14879 14880 14881 14882 14883 14884 14885 14886 14887 14888 14889 14890 14891 14892 14893 14894 14895 14896 14897 14898 14899 14900 14901 14902 14903 14904 14905 14906 14907 14908 14909 14910 14911 14912 14913 14914 14915 14916 14917 14918 14919 14920 14921 14922 14923 14924 14925 14926 14927 14928 14929 14930 14931 14932 14933 14934 14935 14936 14937 14938 14939 14940 14941 14942 14943 14944 14945 14946 14947 14948 14949 14950 14951 14952 14953 14954 14955 14956 14957 14958 14959 14960 14961 14962 14963 14964 14965 14966 14967 14968 14969 14970 14971 14972 14973 14974 14975 14976 14977 14978 14979 14980 14981 14982 14983 14984 14985 14986 14987 14988 14989 14990 14991 14992 14993 14994 14995 14996 14997 14998 14999 15000 15001 15002 15003 15004 15005 15006 15007 15008 15009 15010 15011 15012 15013 15014 15015 15016 15017 15018 15019 15020 15021 15022 15023 15024 15025 15026 15027 15028 15029 15030 15031 15032 15033 15034 15035 15036 15037 15038 15039 15040 15041 15042 15043 15044 15045 15046 15047 15048 15049 15050 15051 15052 15053 15054 15055 15056 15057 15058 15059 15060 15061 15062 15063 15064 15065 15066 15067 15068 15069 15070 15071 15072 15073 15074 15075 15076 15077 15078 15079 15080 15081 15082 15083 15084 15085 15086 15087 15088 15089 15090 15091 15092 15093 15094 15095 15096 15097 15098 15099 15100 15101 15102 15103 15104 15105 15106 15107 15108 15109 15110 15111 15112 15113 15114 15115 15116 15117 15118 15119 15120 15121 15122 15123 15124 15125 15126 15127 15128 15129 15130 15131 15132 15133 15134 15135 15136 15137 15138 15139 15140 15141 15142 15143 15144 15145 15146 15147 15148 15149 15150 15151 15152 15153 15154 15155 15156 15157 15158 15159 15160 15161 15162 15163 15164 15165 15166 15167 15168 15169 15170 15171 15172 15173 15174 15175 15176 15177 15178 15179 15180 15181 15182 15183 15184 15185 15186 15187 15188 15189 15190 15191 15192 15193 15194 15195 15196 15197 15198 15199 15200 15201 15202 15203 15204 15205 15206 15207 15208 15209 15210 15211 15212 15213 15214 15215 15216 15217 15218 15219 15220 15221 15222 15223 15224 15225 15226 15227 15228 15229 15230 15231 15232 15233 15234 15235 15236 15237 15238 15239 15240 15241 15242 15243 15244 15245 15246 15247 15248 15249 15250 15251 15252 15253 15254 15255 15256 15257 15258 15259 15260 15261 15262 15263 15264 15265 15266 15267 15268 15269 15270 15271 15272 15273 15274 15275 15276 15277 15278 15279 15280 15281 15282 15283 15284 15285 15286 15287 15288 15289 15290 15291 15292 15293 15294 15295 15296 15297 15298 15299 15300 15301 15302 15303 15304 15305 15306 15307 15308 15309 15310 15311 15312 15313 15314 15315 15316 15317 15318 15319 15320 15321 15322 15323 15324 15325 15326 15327 15328 15329 15330 15331 15332 15333 15334 15335 15336 15337 15338 15339 15340 15341 15342 15343 15344 15345 15346 15347 15348 15349 15350 15351 15352 15353 15354 15355 15356 15357 15358 15359 15360 15361 15362 15363 15364 15365 15366 15367 15368 15369 15370 15371 15372 15373 15374 15375 15376 15377 15378 15379 15380 15381 15382 15383 15384 15385 15386 15387 15388 15389 15390 15391 15392 15393 15394 15395 15396 15397 15398 15399 15400 15401 15402 15403 15404 15405 15406 15407 15408 15409 15410 15411 15412 15413 15414 15415 15416 15417 15418 15419 15420 15421 15422 15423 15424 15425 15426 15427 15428 15429 15430 15431 15432 15433 15434 15435 15436 15437 15438 15439 15440 15441 15442 15443 15444 15445 15446 15447 15448 15449 15450 15451 15452 15453 15454 15455 15456 15457 15458 15459 15460 15461 15462 15463 15464 15465 15466 15467 15468 15469 15470 15471 15472 15473 15474 15475 15476 15477 15478 15479 15480 15481 15482 15483 15484 15485 15486 15487 15488 15489 15490 15491 15492 15493 15494 15495 15496 15497 15498 15499 15500 15501 15502 15503 15504 15505 15506 15507 15508 15509 15510 15511 15512 15513 15514 15515 15516 15517 15518 15519 15520 15521 15522 15523 15524 15525 15526 15527 15528 15529 15530 15531 15532 15533 15534 15535 15536 15537 15538 15539 15540 15541 15542 15543 15544 15545 15546 15547 15548 15549 15550 15551 15552 15553 15554 15555 15556 15557 15558 15559 15560 15561 15562 15563 15564 15565 15566 15567 15568 15569 15570 15571 15572 15573 15574 15575 15576 15577 15578 15579 15580 15581 15582 15583 15584 15585 15586 15587 15588 15589 15590 15591 15592 15593 15594 15595 15596 15597 15598 15599 15600 15601 15602 15603 15604 15605 15606 15607 15608 15609 15610 15611 15612 15613 15614 15615 15616 15617 15618 15619 15620 15621 15622 15623 15624 15625 15626 15627 15628 15629 15630 15631 15632 15633 15634 15635 15636 15637 15638 15639 15640 15641 15642 15643 15644 15645 15646 15647 15648 15649 15650 15651 15652 15653 15654 15655 15656 15657 15658 15659 15660 15661 15662 15663 15664 15665 15666 15667 15668 15669 15670 15671 15672 15673 15674 15675 15676 15677 15678 15679 15680 15681 15682 15683 15684 15685 15686 15687 15688 15689 15690 15691 15692 15693 15694 15695 15696 15697 15698 15699 15700 15701 15702 15703 15704 15705 15706 15707 15708 15709 15710 15711 15712 15713 15714 15715 15716 15717 15718 15719 15720 15721 15722 15723 15724 15725 15726 15727 15728 15729 15730 15731 15732 15733 15734 15735 15736 15737 15738 15739 15740 15741 15742 15743 15744 15745 15746 15747 15748 15749 15750 15751 15752 15753 15754 15755 15756 15757 15758 15759 15760 15761 15762 15763 15764 15765 15766 15767 15768 15769 15770 15771 15772 15773 15774 15775 15776 15777 15778 15779 15780 15781 15782 15783 15784 15785 15786 15787 15788 15789 15790 15791 15792 15793 15794 15795 15796 15797 15798 15799 15800 15801 15802 15803 15804 15805 15806 15807 15808 15809 15810 15811 15812 15813 15814 15815 15816 15817 15818 15819 15820 15821 15822 15823 15824 15825 15826 15827 15828 15829 15830 15831 15832 15833 15834 15835 15836 15837 15838 15839 15840 15841 15842 15843 15844 15845 15846 15847 15848 15849 15850 15851 15852 15853 15854 15855 15856 15857 15858 15859 15860 15861 15862 15863 15864 15865 15866 15867 15868 15869 15870 15871 15872 15873 15874 15875 15876 15877 15878 15879 15880 15881 15882 15883 15884 15885 15886 15887 15888 15889 15890 15891 15892 15893 15894 15895 15896 15897 15898 15899 15900 15901 15902 15903 15904 15905 15906 15907 15908 15909 15910 15911 15912 15913 15914 15915 15916 15917 15918 15919 15920 15921 15922 15923 15924 15925 15926 15927 15928 15929 15930 15931 15932 15933 15934 15935 15936 15937 15938 15939 15940 15941 15942 15943 15944 15945 15946 15947 15948 15949 15950 15951 15952 15953 15954 15955 15956 15957 15958 15959 15960 15961 15962 15963 15964 15965 15966 15967 15968 15969 15970 15971 15972 15973 15974 15975 15976 15977 15978 15979 15980 15981 15982 15983 15984 15985 15986 15987 15988 15989 15990 15991 15992 15993 15994 15995 15996 15997 15998 15999 16000 16001 16002 16003 16004 16005 16006 16007 16008 16009 16010 16011 16012 16013 16014 16015 16016 16017 16018 16019 16020 16021 16022 16023 16024 16025 16026 16027 16028 16029 16030 16031 16032 16033 16034 16035 16036 16037 16038 16039 16040 16041 16042 16043 16044 16045 16046 16047 16048 16049 16050 16051 16052 16053 16054 16055 16056 16057 16058 16059 16060 16061 16062 16063 16064 16065 16066 16067 16068 16069 16070 16071 16072 16073 16074 16075 16076 16077 16078 16079 16080 16081 16082 16083 16084 16085 16086 16087 16088 16089 16090 16091 16092 16093 16094 16095 16096 16097 16098 16099 16100 16101 16102 16103 16104 16105 16106 16107 16108 16109 16110 16111 16112 16113 16114 16115 16116 16117 16118 16119 16120 16121 16122 16123 16124 16125 16126 16127 16128 16129 16130 16131 16132 16133 16134 16135 16136 16137 16138 16139 16140 16141 16142 16143 16144 16145 16146 16147 16148 16149 16150 16151 16152 16153 16154 16155 16156 16157 16158 16159 16160 16161 16162 16163 16164 16165 16166 16167 16168 16169 16170 16171 16172 16173 16174 16175 16176 16177 16178 16179 16180 16181 16182 16183 16184 16185 16186 16187 16188 16189 16190 16191 16192 16193 16194 16195 16196 16197 16198 16199 16200 16201 16202 16203 16204 16205 16206 16207 16208 16209 16210 16211 16212 16213 16214 16215 16216 16217 16218 16219 16220 16221 16222 16223 16224 16225 16226 16227 16228 16229 16230 16231 16232 16233 16234 16235 16236 16237 16238 16239 16240 16241 16242 16243 16244 16245 16246 16247 16248 16249 16250 16251 16252 16253 16254 16255 16256 16257 16258 16259 16260 16261 16262 16263 16264 16265 16266 16267 16268 16269 16270 16271 16272 16273 16274 16275 16276 16277 16278 16279 16280 16281 16282 16283 16284 16285 16286 16287 16288 16289 16290 16291 16292 16293 16294 16295 16296 16297 16298 16299 16300 16301 16302 16303 16304 16305 16306 16307 16308 16309 16310 16311 16312 16313 16314 16315 16316 16317 16318 16319 16320 16321 16322 16323 16324 16325 16326 16327 16328 16329 16330 16331 16332 16333 16334 16335 16336 16337 16338 16339 16340 16341 16342 16343 16344 16345 16346 16347 16348 16349 16350 16351 16352 16353 16354 16355 16356 16357 16358 16359 16360 16361 16362 16363 16364 16365 16366 16367 16368 16369 16370 16371 16372 16373 16374 16375 16376 16377 16378 16379 16380 16381 16382 16383 16384 16385 16386 16387 16388 16389 16390 16391 16392 16393 16394 16395 16396 16397 16398 16399 16400 16401 16402 16403 16404 16405 16406 16407 16408 16409 16410 16411 16412 16413 16414 16415 16416 16417 16418 16419 16420 16421 16422 16423 16424 16425 16426 16427 16428 16429 16430 16431 16432 16433 16434 16435 16436 16437 16438 16439 16440 16441 16442 16443 16444 16445 16446 16447 16448 16449 16450 16451 16452 16453 16454 16455 16456 16457 16458 16459 16460 16461 16462 16463 16464 16465 16466 16467 16468 16469 16470 16471 16472 16473 16474 16475 16476 16477 16478 16479 16480 16481 16482 16483 16484 16485 16486 16487 16488 16489 16490 16491 16492 16493 16494 16495 16496 16497 16498 16499 16500 16501 16502 16503 16504 16505 16506 16507 16508 16509 16510 16511 16512 16513 16514 16515 16516 16517 16518 16519 16520 16521 16522 16523 16524 16525 16526 16527 16528 16529 16530 16531 16532 16533 16534 16535 16536 16537 16538 16539 16540 16541 16542 16543 16544 16545 16546 16547 16548 16549 16550 16551 16552 16553 16554 16555 16556 16557 16558 16559 16560 16561 16562 16563 16564 16565 16566 16567 16568 16569 16570 16571 16572 16573 16574 16575 16576 16577 16578 16579 16580 16581 16582 16583 16584 16585 16586 16587 16588 16589 16590 16591 16592 16593 16594 16595 16596 16597 16598 16599 16600 16601 16602 16603 16604 16605 16606 16607 16608 16609 16610 16611 16612 16613 16614 16615 16616 16617 16618 16619 16620 16621 16622 16623 16624 16625 16626 16627 16628 16629 16630 16631 16632 16633 16634 16635 16636 16637 16638 16639 16640 16641 16642 16643 16644 16645 16646 16647 16648 16649 16650 16651 16652 16653 16654 16655 16656 16657 16658 16659 16660 16661 16662 16663 16664 16665 16666 16667 16668 16669 16670 16671 16672 16673 16674 16675 16676 16677 16678 16679 16680 16681 16682 16683 16684 16685 16686 16687 16688 16689 16690 16691 16692 16693 16694 16695 16696 16697 16698 16699 16700 16701 16702 16703 16704 16705 16706 16707 16708 16709 16710 16711 16712 16713 16714 16715 16716 16717 16718 16719 16720 16721 16722 16723 16724 16725 16726 16727 16728 16729 16730 16731 16732 16733 16734 16735 16736 16737 16738 16739 16740 16741 16742 16743 16744 16745 16746 16747 16748 16749 16750 16751 16752 16753 16754 16755 16756 16757 16758 16759 16760 16761 16762 16763 16764 16765 16766 16767 16768 16769 16770 16771 16772 16773 16774 16775 16776 16777 16778 16779 16780 16781 16782 16783 16784 16785 16786 16787 16788 16789 16790 16791 16792 16793 16794 16795 16796 16797 16798 16799 16800 16801 16802 16803 16804 16805 16806 16807 16808 16809 16810 16811 16812 16813 16814 16815 16816 16817 16818 16819 16820 16821 16822 16823 16824 16825 16826 16827 16828 16829 16830 16831 16832 16833 16834 16835 16836 16837 16838 16839 16840 16841 16842 16843 16844 16845 16846 16847 16848 16849 16850 16851 16852 16853 16854 16855 16856 16857 16858 16859 16860 16861 16862 16863 16864 16865 16866 16867 16868 16869 16870 16871 16872 16873 16874 16875 16876 16877 16878 16879 16880 16881 16882 16883 16884 16885 16886 16887 16888 16889 16890 16891 16892 16893 16894 16895 16896 16897 16898 16899 16900 16901 16902 16903 16904 16905 16906 16907 16908 16909 16910 16911 16912 16913 16914 16915 16916 16917 16918 16919 16920 16921 16922 16923 16924 16925 16926 16927 16928 16929 16930 16931 16932 16933 16934 16935 16936 16937 16938 16939 16940 16941 16942 16943 16944 16945 16946 16947 16948 16949 16950 16951 16952 16953 16954 16955 16956 16957 16958 16959 16960 16961 16962 16963 16964 16965 16966 16967 16968 16969 16970 16971 16972 16973 16974 16975 16976 16977 16978 16979 16980 16981 16982 16983 16984 16985 16986 16987 16988 16989 16990 16991 16992 16993 16994 16995 16996 16997 16998 16999 17000 17001 17002 17003 17004 17005 17006 17007 17008 17009 17010 17011 17012 17013 17014 17015 17016 17017 17018 17019 17020 17021 17022 17023 17024 17025 17026 17027 17028 17029 17030 17031 17032 17033 17034 17035 17036 17037 17038 17039 17040 17041 17042 17043 17044 17045 17046 17047 17048 17049 17050 17051 17052 17053 17054 17055 17056 17057 17058 17059 17060 17061 17062 17063 17064 17065 17066 17067 17068 17069 17070 17071 17072 17073 17074 17075 17076 17077 17078 17079 17080 17081 17082 17083 17084 17085 17086 17087 17088 17089 17090 17091 17092 17093 17094 17095 17096 17097 17098 17099 17100 17101 17102 17103 17104 17105 17106 17107 17108 17109 17110 17111 17112 17113 17114 17115 17116 17117 17118 17119 17120 17121 17122 17123 17124 17125 17126 17127 17128 17129 17130 17131 17132 17133 17134 17135 17136 17137 17138 17139 17140 17141 17142 17143 17144 17145 17146 17147 17148 17149 17150 17151 17152 17153 17154 17155 17156 17157 17158 17159 17160 17161 17162 17163 17164 17165 17166 17167 17168 17169 17170 17171 17172 17173 17174 17175 17176 17177 17178 17179 17180 17181 17182 17183 17184 17185 17186 17187 17188 17189 17190 17191 17192 17193 17194 17195 17196 17197 17198 17199 17200 17201 17202 17203 17204 17205 17206 17207 17208 17209 17210 17211 17212 17213 17214 17215 17216 17217 17218 17219 17220 17221 17222 17223 17224 17225 17226 17227 17228 17229 17230 17231 17232 17233 17234 17235 17236 17237 17238 17239 17240 17241 17242 17243 17244 17245 17246 17247 17248 17249 17250 17251 17252 17253 17254 17255 17256 17257 17258 17259 17260 17261 17262 17263 17264 17265 17266 17267 17268 17269 17270 17271 17272 17273 17274 17275 17276 17277 17278 17279 17280 17281 17282 17283 17284 17285 17286 17287 17288 17289 17290 17291 17292 17293 17294 17295 17296 17297 17298 17299 17300 17301 17302 17303 17304 17305 17306 17307 17308 17309 17310 17311 17312 17313 17314 17315 17316 17317 17318 17319 17320 17321 17322 17323 17324 17325 17326 17327 17328 17329 17330 17331 17332 17333 17334 17335 17336 17337 17338 17339 17340 17341 17342 17343 17344 17345 17346 17347 17348 17349 17350 17351 17352 17353 17354 17355 17356 17357 17358 17359 17360 17361 17362 17363 17364 17365 17366 17367 17368 17369 17370 17371 17372 17373 17374 17375 17376 17377 17378 17379 17380 17381 17382 17383 17384 17385 17386 17387 17388 17389 17390 17391 17392 17393 17394 17395 17396 17397 17398 17399 17400 17401 17402 17403 17404 17405 17406 17407 17408 17409 17410 17411 17412 17413 17414 17415 17416 17417 17418 17419 17420 17421 17422 17423 17424 17425 17426 17427 17428 17429 17430 17431 17432 17433 17434 17435 17436 17437 17438 17439 17440 17441 17442 17443 17444 17445 17446 17447 17448 17449 17450 17451 17452 17453 17454 17455 17456 17457 17458 17459 17460 17461 17462 17463 17464 17465 17466 17467 17468 17469 17470 17471 17472 17473 17474 17475 17476 17477 17478 17479 17480 17481 17482 17483 17484 17485 17486 17487 17488 17489 17490 17491 17492 17493 17494 17495 17496 17497 17498 17499 17500 17501 17502 17503 17504 17505 17506 17507 17508 17509 17510 17511 17512 17513 17514 17515 17516 17517 17518 17519 17520 17521 17522 17523 17524 17525 17526 17527 17528 17529 17530 17531 17532 17533 17534 17535 17536 17537 17538 17539 17540 17541 17542 17543 17544 17545 17546 17547 17548 17549 17550 17551 17552 17553 17554 17555 17556 17557 17558 17559 17560 17561 17562 17563 17564 17565 17566 17567 17568 17569 17570 17571 17572 17573 17574 17575 17576 17577 17578 17579 17580 17581 17582 17583 17584 17585 17586 17587 17588 17589 17590 17591 17592 17593 17594 17595 17596 17597 17598 17599 17600 17601 17602 17603 17604 17605 17606 17607 17608 17609 17610 17611 17612 17613 17614 17615 17616 17617 17618 17619 17620 17621 17622 17623 17624 17625 17626 17627 17628 17629 17630 17631 17632 17633 17634 17635 17636 17637 17638 17639 17640 17641 17642 17643 17644 17645 17646 17647 17648 17649 17650 17651 17652 17653 17654 17655 17656 17657 17658 17659 17660 17661 17662 17663 17664 17665 17666 17667 17668 17669 17670 17671 17672 17673 17674 17675 17676 17677 17678 17679 17680 17681 17682 17683 17684 17685 17686 17687 17688 17689 17690 17691 17692 17693 17694 17695 17696 17697 17698 17699 17700 17701 17702 17703 17704 17705 17706 17707 17708 17709 17710 17711 17712 17713 17714 17715 17716 17717 17718 17719 17720 17721 17722 17723 17724 17725 17726 17727 17728 17729 17730 17731 17732 17733 17734 17735 17736 17737 17738 17739 17740 17741 17742 17743 17744 17745 17746 17747 17748 17749 17750 17751 17752 17753 17754 17755 17756 17757 17758 17759 17760 17761 17762 17763 17764 17765 17766 17767 17768 17769 17770 17771 17772 17773 17774 17775 17776 17777 17778 17779 17780 17781 17782 17783 17784 17785 17786 17787 17788 17789 17790 17791 17792 17793 17794 17795 17796 17797 17798 17799 17800 17801 17802 17803 17804 17805 17806 17807 17808 17809 17810 17811 17812 17813 17814 17815 17816 17817 17818 17819 17820 17821 17822 17823 17824 17825 17826 17827 17828 17829 17830 17831 17832 17833 17834 17835 17836 17837 17838 17839 17840 17841 17842 17843 17844 17845 17846 17847 17848 17849 17850 17851 17852 17853 17854 17855 17856 17857 17858 17859 17860 17861 17862 17863 17864 17865 17866 17867 17868 17869 17870 17871 17872 17873 17874 17875 17876 17877 17878 17879 17880 17881 17882 17883 17884 17885 17886 17887 17888 17889 17890 17891 17892 17893 17894 17895 17896 17897 17898 17899 17900 17901 17902 17903 17904 17905 17906 17907 17908 17909 17910 17911 17912 17913 17914 17915 17916 17917 17918 17919 17920 17921 17922 17923 17924 17925 17926 17927 17928 17929 17930 17931 17932 17933 17934 17935 17936 17937 17938 17939 17940 17941 17942 17943 17944 17945 17946 17947 17948 17949 17950 17951 17952 17953 17954 17955 17956 17957 17958 17959 17960 17961 17962 17963 17964 17965 17966 17967 17968 17969 17970 17971 17972 17973 17974 17975 17976 17977 17978 17979 17980 17981 17982 17983 17984 17985 17986 17987 17988 17989 17990 17991 17992 17993 17994 17995 17996 17997 17998 17999 18000 18001 18002 18003 18004 18005 18006 18007 18008 18009 18010 18011 18012 18013 18014 18015 18016 18017 18018 18019 18020 18021 18022 18023 18024 18025 18026 18027 18028 18029 18030 18031 18032 18033 18034 18035 18036 18037 18038 18039 18040 18041 18042 18043 18044 18045 18046 18047 18048 18049 18050 18051 18052 18053 18054 18055 18056 18057 18058 18059 18060 18061 18062 18063 18064 18065 18066 18067 18068 18069 18070 18071 18072 18073 18074 18075 18076 18077 18078 18079 18080 18081 18082 18083 18084 18085 18086 18087 18088 18089 18090 18091 18092 18093 18094 18095 18096 18097 18098 18099 18100 18101 18102 18103 18104 18105 18106 18107 18108 18109 18110 18111 18112 18113 18114 18115 18116 18117 18118 18119 18120 18121 18122 18123 18124 18125 18126 18127 18128 18129 18130 18131 18132 18133 18134 18135 18136 18137 18138 18139 18140 18141 18142 18143 18144 18145 18146 18147 18148 18149 18150 18151 18152 18153 18154 18155 18156 18157 18158 18159 18160 18161 18162 18163 18164 18165 18166 18167 18168 18169 18170 18171 18172 18173 18174 18175 18176 18177 18178 18179 18180 18181 18182 18183 18184 18185 18186 18187 18188 18189 18190 18191 18192 18193 18194 18195 18196 18197 18198 18199 18200 18201 18202 18203 18204 18205 18206 18207 18208 18209 18210 18211 18212 18213 18214 18215 18216 18217 18218 18219 18220 18221 18222 18223 18224 18225 18226 18227 18228 18229 18230 18231 18232 18233 18234 18235 18236 18237 18238 18239 18240 18241 18242 18243 18244 18245 18246 18247 18248 18249 18250 18251 18252 18253 18254 18255 18256 18257 18258 18259 18260 18261 18262 18263 18264 18265 18266 18267 18268 18269 18270 18271 18272 18273 18274 18275 18276 18277 18278 18279 18280 18281 18282 18283 18284 18285 18286 18287 18288 18289 18290 18291 18292 18293 18294 18295 18296 18297 18298 18299 18300 18301 18302 18303 18304 18305 18306 18307 18308 18309 18310 18311 18312 18313 18314 18315 18316 18317 18318 18319 18320 18321 18322 18323 18324 18325 18326 18327 18328 18329 18330 18331 18332 18333 18334 18335 18336 18337 18338 18339 18340 18341 18342 18343 18344 18345 18346 18347 18348 18349 18350 18351 18352 18353 18354 18355 18356 18357 18358 18359 18360 18361 18362 18363 18364 18365 18366 18367 18368 18369 18370 18371 18372 18373 18374 18375 18376 18377 18378 18379 18380 18381 18382 18383 18384 18385 18386 18387 18388 18389 18390 18391 18392 18393 18394 18395 18396 18397 18398 18399 18400 18401 18402 18403 18404 18405 18406 18407 18408 18409 18410 18411 18412 18413 18414 18415 18416 18417 18418 18419 18420 18421 18422 18423 18424 18425 18426 18427 18428 18429 18430 18431 18432 18433 18434 18435 18436 18437 18438 18439 18440 18441 18442 18443 18444 18445 18446 18447 18448 18449 18450 18451 18452 18453 18454 18455 18456 18457 18458 18459 18460 18461 18462 18463 18464 18465 18466 18467 18468 18469 18470 18471 18472 18473 18474 18475 18476 18477 18478 18479 18480 18481 18482 18483 18484 18485 18486 18487 18488 18489 18490 18491 18492 18493 18494 18495 18496 18497 18498 18499 18500 18501 18502 18503 18504 18505 18506 18507 18508 18509 18510 18511 18512 18513 18514 18515 18516 18517 18518 18519 18520 18521 18522 18523 18524 18525 18526 18527 18528 18529 18530 18531 18532 18533 18534 18535 18536 18537 18538 18539 18540 18541 18542 18543 18544 18545 18546 18547 18548 18549 18550 18551 18552 18553 18554 18555 18556 18557 18558 18559 18560 18561 18562 18563 18564 18565 18566 18567 18568 18569 18570 18571 18572 18573 18574 18575 18576 18577 18578 18579 18580 18581 18582 18583 18584 18585 18586 18587 18588 18589 18590 18591 18592 18593 18594 18595 18596 18597 18598 18599 18600 18601 18602 18603 18604 18605 18606 18607 18608 18609 18610 18611 18612 18613 18614 18615 18616 18617 18618 18619 18620 18621 18622 18623 18624 18625 18626 18627 18628 18629 18630 18631 18632 18633 18634 18635 18636 18637 18638 18639 18640 18641 18642 18643 18644 18645 18646 18647 18648 18649 18650 18651 18652 18653 18654 18655 18656 18657 18658 18659 18660 18661 18662 18663 18664 18665 18666 18667 18668 18669 18670 18671 18672 18673 18674 18675 18676 18677 18678 18679 18680 18681 18682 18683 18684 18685 18686 18687 18688 18689 18690 18691 18692 18693 18694 18695 18696 18697 18698 18699 18700 18701 18702 18703 18704 18705 18706 18707 18708 18709 18710 18711 18712 18713 18714 18715 18716 18717 18718 18719 18720 18721 18722 18723 18724 18725 18726 18727 18728 18729 18730 18731 18732 18733 18734 18735 18736 18737 18738 18739 18740 18741 18742 18743 18744 18745 18746 18747 18748 18749 18750 18751 18752 18753 18754 18755 18756 18757 18758 18759 18760 18761 18762 18763 18764 18765 18766 18767 18768 18769 18770 18771 18772 18773 18774 18775 18776 18777 18778 18779 18780 18781 18782 18783 18784 18785 18786 18787 18788 18789 18790 18791 18792 18793 18794 18795 18796 18797 18798 18799 18800 18801 18802 18803 18804 18805 18806 18807 18808 18809 18810 18811 18812 18813 18814 18815 18816 18817 18818 18819 18820 18821 18822 18823 18824 18825 18826 18827 18828 18829 18830 18831 18832 18833 18834 18835 18836 18837 18838 18839 18840 18841 18842 18843 18844 18845 18846 18847 18848 18849 18850 18851 18852 18853 18854 18855 18856 18857 18858 18859 18860 18861 18862 18863 18864 18865 18866 18867 18868 18869 18870 18871 18872 18873 18874 18875 18876 18877 18878 18879 18880 18881 18882 18883 18884 18885 18886 18887 18888 18889 18890 18891 18892 18893 18894 18895 18896 18897 18898 18899 18900 18901 18902 18903 18904 18905 18906 18907 18908 18909 18910 18911 18912 18913 18914 18915 18916 18917 18918 18919 18920 18921 18922 18923 18924 18925 18926 18927 18928 18929 18930 18931 18932 18933 18934 18935 18936 18937 18938 18939 18940 18941 18942 18943 18944 18945 18946 18947 18948 18949 18950 18951 18952 18953 18954 18955 18956 18957 18958 18959 18960 18961 18962 18963 18964 18965 18966 18967 18968 18969 18970 18971 18972 18973 18974 18975 18976 18977 18978 18979 18980 18981 18982 18983 18984 18985 18986 18987 18988 18989 18990 18991 18992 18993 18994 18995 18996 18997 18998 18999 19000 19001 19002 19003 19004 19005 19006 19007 19008 19009 19010 19011 19012 19013 19014 19015 19016 19017 19018 19019 19020 19021 19022 19023 19024 19025 19026 19027 19028 19029 19030 19031 19032 19033 19034 19035 19036 19037 19038 19039 19040 19041 19042 19043 19044 19045 19046 19047 19048 19049 19050 19051 19052 19053 19054 19055 19056 19057 19058 19059 19060 19061 19062 19063 19064 19065 19066 19067 19068 19069 19070 19071 19072 19073 19074 19075 19076 19077 19078 19079 19080 19081 19082 19083 19084 19085 19086 19087 19088 19089 19090 19091 19092 19093 19094 19095 19096 19097 19098 19099 19100 19101 19102 19103 19104 19105 19106 19107 19108 19109 19110 19111 19112 19113 19114 19115 19116 19117 19118 19119 19120 19121 19122 19123 19124 19125 19126 19127 19128 19129 19130 19131 19132 19133 19134 19135 19136 19137 19138 19139 19140 19141 19142 19143 19144 19145 19146 19147 19148 19149 19150 19151 19152 19153 19154 19155 19156 19157 19158 19159 19160 19161 19162 19163 19164 19165 19166 19167 19168 19169 19170 19171 19172 19173 19174 19175 19176 19177 19178 19179 19180 19181 19182 19183 19184 19185 19186 19187 19188 19189 19190 19191 19192 19193 19194 19195 19196 19197 19198 19199 19200 19201 19202 19203 19204 19205 19206 19207 19208 19209 19210 19211 19212 19213 19214 19215 19216 19217 19218 19219 19220 19221 19222 19223 19224 19225 19226 19227 19228 19229 19230 19231 19232 19233 19234 19235 19236 19237 19238 19239 19240 19241 19242 19243 19244 19245 19246 19247 19248 19249 19250 19251 19252 19253 19254 19255 19256 19257 19258 19259 19260 19261 19262 19263 19264 19265 19266 19267 19268 19269 19270 19271 19272 19273 19274 19275 19276 19277 19278 19279 19280 19281 19282 19283 19284 19285 19286 19287 19288 19289 19290 19291 19292 19293 19294 19295 19296 19297 19298 19299 19300 19301 19302 19303 19304 19305 19306 19307 19308 19309 19310 19311 19312 19313 19314 19315 19316 19317 19318 19319 19320 19321 19322 19323 19324 19325 19326 19327 19328 19329 19330 19331 19332 19333 19334 19335 19336 19337 19338 19339 19340 19341 19342 19343 19344 19345 19346 19347 19348 19349 19350 19351 19352 19353 19354 19355 19356 19357 19358 19359 19360 19361 19362 19363 19364 19365 19366 19367 19368 19369 19370 19371 19372 19373 19374 19375 19376 19377 19378 19379 19380 19381 19382 19383 19384 19385 19386 19387 19388 19389 19390 19391 19392 19393 19394 19395 19396 19397 19398 19399 19400 19401 19402 19403 19404 19405 19406 19407 19408 19409 19410 19411 19412 19413 19414 19415 19416 19417 19418 19419 19420 19421 19422 19423 19424 19425 19426 19427 19428 19429 19430 19431 19432 19433 19434 19435 19436 19437 19438 19439 19440 19441 19442 19443 19444 19445 19446 19447 19448 19449 19450 19451 19452 19453 19454 19455 19456 19457 19458 19459 19460 19461 19462 19463 19464 19465 19466 19467 19468 19469 19470 19471 19472 19473 19474 19475 19476 19477 19478 19479 19480 19481 19482 19483 19484 19485 19486 19487 19488 19489 19490 19491 19492 19493 19494 19495 19496 19497 19498 19499 19500 19501 19502 19503 19504 19505 19506 19507 19508 19509 19510 19511 19512 19513 19514 19515 19516 19517 19518 19519 19520 19521 19522 19523 19524 19525 19526 19527 19528 19529 19530 19531 19532 19533 19534 19535 19536 19537 19538 19539 19540 19541 19542 19543 19544 19545 19546 19547 19548 19549 19550 19551 19552 19553 19554 19555 19556 19557 19558 19559 19560 19561 19562 19563 19564 19565 19566 19567 19568 19569 19570 19571 19572 19573 19574 19575 19576 19577 19578 19579 19580 19581 19582 19583 19584 19585 19586 19587 19588 19589 19590 19591 19592 19593 19594 19595 19596 19597 19598 19599 19600 19601 19602 19603 19604 19605 19606 19607 19608 19609 19610 19611 19612 19613 19614 19615 19616 19617 19618 19619 19620 19621 19622 19623 19624 19625 19626 19627 19628 19629 19630 19631 19632 19633 19634 19635 19636 19637 19638 19639 19640 19641 19642 19643 19644 19645 19646 19647 19648 19649 19650 19651 19652 19653 19654 19655 19656 19657 19658 19659 19660 19661 19662 19663 19664 19665 19666 19667 19668 19669 19670 19671 19672 19673 19674 19675 19676 19677 19678 19679 19680 19681 19682 19683 19684 19685 19686 19687 19688 19689 19690 19691 19692 19693 19694 19695 19696 19697 19698 19699 19700 19701 19702 19703 19704 19705 19706 19707 19708 19709 19710 19711 19712 19713 19714 19715 19716 19717 19718 19719 19720 19721 19722 19723 19724 19725 19726 19727 19728 19729 19730 19731 19732 19733 19734 19735 19736 19737 19738 19739 19740 19741 19742 19743 19744 19745 19746 19747 19748 19749 19750 19751 19752 19753 19754 19755 19756 19757 19758 19759 19760 19761 19762 19763 19764 19765 19766 19767 19768 19769 19770 19771 19772 19773 19774 19775 19776 19777 19778 19779 19780 19781 19782 19783 19784 19785 19786 19787 19788 19789 19790 19791 19792 19793 19794 19795 19796 19797 19798 19799 19800 19801 19802 19803 19804 19805 19806 19807 19808 19809 19810 19811 19812 19813 19814 19815 19816 19817 19818 19819 19820 19821 19822 19823 19824 19825 19826 19827 19828 19829 19830 19831 19832 19833 19834 19835 19836 19837 19838 19839 19840 19841 19842 19843 19844 19845 19846 19847 19848 19849 19850 19851 19852 19853 19854 19855 19856 19857 19858 19859 19860 19861 19862 19863 19864 19865 19866 19867 19868 19869 19870 19871 19872 19873 19874 19875 19876 19877 19878 19879 19880 19881 19882 19883 19884 19885 19886 19887 19888 19889 19890 19891 19892 19893 19894 19895 19896 19897 19898 19899 19900 19901 19902 19903 19904 19905 19906 19907 19908 19909 19910 19911 19912 19913 19914 19915 19916 19917 19918 19919 19920 19921 19922 19923 19924 19925 19926 19927 19928 19929 19930 19931 19932 19933 19934 19935 19936 19937 19938 19939 19940 19941 19942 19943 19944 19945 19946 19947 19948 19949 19950 19951 19952 19953 19954 19955 19956 19957 19958 19959 19960 19961 19962 19963 19964 19965 19966 19967 19968 19969 19970 19971 19972 19973 19974 19975 19976 19977 19978 19979 19980 19981 19982 19983 19984 19985 19986 19987 19988 19989 19990 19991 19992 19993 19994 19995 19996 19997 19998 19999 20000 20001 20002 20003 20004 20005 20006 20007 20008 20009 20010 20011 20012 20013 20014 20015 20016 20017 20018 20019 20020 20021 20022 20023 20024 20025 20026 20027 20028 20029 20030 20031 20032 20033 20034 20035 20036 20037 20038 20039 20040 20041 20042 20043 20044 20045 20046 20047 20048 20049 20050 20051 20052 20053 20054 20055 20056 20057 20058 20059 20060 20061 20062 20063 20064 20065 20066 20067 20068 20069 20070 20071 20072 20073 20074 20075 20076 20077 20078 20079 20080 20081 20082 20083 20084 20085 20086 20087 20088 20089 20090 20091 20092 20093 20094 20095 20096 20097 20098 20099 20100 20101 20102 20103 20104 20105 20106 20107 20108 20109 20110 20111 20112 20113 20114 20115 20116 20117 20118 20119 20120 20121 20122 20123 20124 20125 20126 20127 20128 20129 20130 20131 20132 20133 20134 20135 20136 20137 20138 20139 20140 20141 20142 20143 20144 20145 20146 20147 20148 20149 20150 20151 20152 20153 20154 20155 20156 20157 20158 20159 20160 20161 20162 20163 20164 20165 20166 20167 20168 20169 20170 20171 20172 20173 20174 20175 20176 20177 20178 20179 20180 20181 20182 20183 20184 20185 20186 20187 20188 20189 20190 20191 20192 20193 20194 20195 20196 20197 20198 20199 20200 20201 20202 20203 20204 20205 20206 20207 20208 20209 20210 20211 20212 20213 20214 20215 20216 20217 20218 20219 20220 20221 20222 20223 20224 20225 20226 20227 20228 20229 20230 20231 20232 20233 20234 20235 20236 20237 20238 20239 20240 20241 20242 20243 20244 20245 20246 20247 20248 20249 20250 20251 20252 20253 20254 20255 20256 20257 20258 20259 20260 20261 20262 20263 20264 20265 20266 20267 20268 20269 20270 20271 20272 20273 20274 20275 20276 20277 20278 20279 20280 20281 20282 20283 20284 20285 20286 20287 20288 20289 20290 20291 20292 20293 20294 20295 20296 20297 20298 20299 20300 20301 20302 20303 20304 20305 20306 20307 20308 20309 20310 20311 20312 20313 20314 20315 20316 20317 20318 20319 20320 20321 20322 20323 20324 20325 20326 20327 20328 20329 20330 20331 20332 20333 20334 20335 20336 20337 20338 20339 20340 20341 20342 20343 20344 20345 20346 20347 20348 20349 20350 20351 20352 20353 20354 20355 20356 20357 20358 20359 20360 20361 20362 20363 20364 20365 20366 20367 20368 20369 20370 20371 20372 20373 20374 20375 20376 20377 20378 20379 20380 20381 20382 20383 20384 20385 20386 20387 20388 20389 20390 20391 20392 20393 20394 20395 20396 20397 20398 20399 20400 20401 20402 20403 20404 20405 20406 20407 20408 20409 20410 20411 20412 20413 20414 20415 20416 20417 20418 20419 20420 20421 20422 20423 20424 20425 20426 20427 20428 20429 20430 20431 20432 20433 20434 20435 20436 20437 20438 20439 20440 20441 20442 20443 20444 20445 20446 20447 20448 20449 20450 20451 20452 20453 20454 20455 20456 20457 20458 20459 20460 20461 20462 20463 20464 20465 20466 20467 20468 20469 20470 20471 20472 20473 20474 20475 20476 20477 20478 20479 20480 20481 20482 20483 20484 20485 20486 20487 20488 20489 20490 20491 20492 20493 20494 20495 20496 20497 20498 20499 20500 20501 20502 20503 20504 20505 20506 20507 20508 20509 20510 20511 20512 20513 20514 20515 20516 20517 20518 20519 20520 20521 20522 20523 20524 20525 20526 20527 20528 20529 20530 20531 20532 20533 20534 20535 20536 20537 20538 20539 20540 20541 20542 20543 20544 20545 20546 20547 20548 20549 20550 20551 20552 20553 20554 20555 20556 20557 20558 20559 20560 20561 20562 20563 20564 20565 20566 20567 20568 20569 20570 20571 20572 20573 20574 20575 20576 20577 20578 20579 20580 20581 20582 20583 20584 20585 20586 20587 20588 20589 20590 20591 20592 20593 20594 20595 20596 20597 20598 20599 20600 20601 20602 20603 20604 20605 20606 20607 20608 20609 20610 20611 20612 20613 20614 20615 20616 20617 20618 20619 20620 20621 20622 20623 20624 20625 20626 20627 20628 20629 20630 20631 20632 20633 20634 20635 20636 20637 20638 20639 20640 20641 20642 20643 20644 20645 20646 20647 20648 20649 20650 20651 20652 20653 20654 20655 20656 20657 20658 20659 20660 20661 20662 20663 20664 20665 20666 20667 20668 20669 20670 20671 20672 20673 20674 20675 20676 20677 20678 20679 20680 20681 20682 20683 20684 20685 20686 20687 20688 20689 20690 20691 20692 20693 20694 20695 20696 20697 20698 20699 20700 20701 20702 20703 20704 20705 20706 20707 20708 20709 20710 20711 20712 20713 20714 20715 20716 20717 20718 20719 20720 20721 20722 20723 20724 20725 20726 20727 20728 20729 20730 20731 20732 20733 20734 20735 20736 20737 20738 20739 20740 20741 20742 20743 20744 20745 20746 20747 20748 20749 20750 20751 20752 20753 20754 20755 20756 20757 20758 20759 20760 20761 20762 20763 20764 20765 20766 20767 20768 20769 20770 20771 20772 20773 20774 20775 20776 20777 20778 20779 20780 20781 20782 20783 20784 20785 20786 20787 20788 20789 20790 20791 20792 20793 20794 20795 20796 20797 20798 20799 20800 20801 20802 20803 20804 20805 20806 20807 20808 20809 20810 20811 20812 20813 20814 20815 20816 20817 20818 20819 20820 20821 20822 20823 20824 20825 20826 20827 20828 20829 20830 20831 20832 20833 20834 20835 20836 20837 20838 20839 20840 20841 20842 20843 20844 20845 20846 20847 20848 20849 20850 20851 20852 20853 20854 20855 20856 20857 20858 20859 20860 20861 20862 20863 20864 20865 20866 20867 20868 20869 20870 20871 20872 20873 20874 20875 20876 20877 20878 20879 20880 20881 20882 20883 20884 20885 20886 20887 20888 20889 20890 20891 20892 20893 20894 20895 20896 20897 20898 20899 20900 20901 20902 20903 20904 20905 20906 20907 20908 20909 20910 20911 20912 20913 20914 20915 20916 20917 20918 20919 20920 20921 20922 20923 20924 20925 20926 20927 20928 20929 20930 20931 20932 20933 20934 20935 20936 20937 20938 20939 20940 20941 20942 20943 20944 20945 20946 20947 20948 20949 20950 20951 20952 20953 20954 20955 20956 20957 20958 20959 20960 20961 20962 20963 20964 20965 20966 20967 20968 20969 20970 20971 20972 20973 20974 20975 20976 20977 20978 20979 20980 20981 20982 20983 20984 20985 20986 20987 20988 20989 20990 20991 20992 20993 20994 20995 20996 20997 20998 20999 21000 21001 21002 21003 21004 21005 21006 21007 21008 21009 21010 21011 21012 21013 21014 21015 21016 21017 21018 21019 21020 21021 21022 21023 21024 21025 21026 21027 21028 21029 21030 21031 21032 21033 21034 21035 21036 21037 21038 21039 21040 21041 21042 21043 21044 21045 21046 21047 21048 21049 21050 21051 21052 21053 21054 21055 21056 21057 21058 21059 21060 21061 21062 21063 21064 21065 21066 21067 21068 21069 21070 21071 21072 21073 21074 21075 21076 21077 21078 21079 21080 21081 21082 21083 21084 21085 21086 21087 21088 21089 21090 21091 21092 21093 21094 21095 21096 21097 21098 21099 21100 21101 21102 21103 21104 21105 21106 21107 21108 21109 21110 21111 21112 21113 21114 21115 21116 21117 21118 21119 21120 21121 21122 21123 21124 21125 21126 21127 21128 21129 21130 21131 21132 21133 21134 21135 21136 21137 21138 21139 21140 21141 21142 21143 21144 21145 21146 21147 21148 21149 21150 21151 21152 21153 21154 21155 21156 21157 21158 21159 21160 21161 21162 21163 21164 21165 21166 21167 21168 21169 21170 21171 21172 21173 21174 21175 21176 21177 21178 21179 21180 21181 21182 21183 21184 21185 21186 21187 21188 21189 21190 21191 21192 21193 21194 21195 21196 21197 21198 21199 21200 21201 21202 21203 21204 21205 21206 21207 21208 21209 21210 21211 21212 21213 21214 21215 21216 21217 21218 21219 21220 21221 21222 21223 21224 21225 21226 21227 21228 21229 21230 21231 21232 21233 21234 21235 21236 21237 21238 21239 21240 21241 21242 21243 21244 21245 21246 21247 21248 21249 21250 21251 21252 21253 21254 21255 21256 21257 21258 21259 21260 21261 21262 21263 21264 21265 21266 21267 21268 21269 21270 21271 21272 21273 21274 21275 21276 21277 21278 21279 21280 21281 21282 21283 21284 21285 21286 21287 21288 21289 21290 21291 21292 21293 21294 21295 21296 21297 21298 21299 21300 21301 21302 21303 21304 21305 21306 21307 21308 21309 21310 21311 21312 21313 21314 21315 21316 21317 21318 21319 21320 21321 21322 21323 21324 21325 21326 21327 21328 21329 21330 21331 21332 21333 21334 21335 21336 21337 21338 21339 21340 21341 21342 21343 21344 21345 21346 21347 21348 21349 21350 21351 21352 21353 21354 21355 21356 21357 21358 21359 21360 21361 21362 21363 21364 21365 21366 21367 21368 21369 21370 21371 21372 21373 21374 21375 21376 21377 21378 21379 21380 21381 21382 21383 21384 21385 21386 21387 21388 21389 21390 21391 21392 21393 21394 21395 21396 21397 21398 21399 21400 21401 21402 21403 21404 21405 21406 21407 21408 21409 21410 21411 21412 21413 21414 21415 21416 21417 21418 21419 21420 21421 21422 21423 21424 21425 21426 21427 21428 21429 21430 21431 21432 21433 21434 21435 21436 21437 21438 21439 21440 21441 21442 21443 21444 21445 21446 21447 21448 21449 21450 21451 21452 21453 21454 21455 21456 21457 21458 21459 21460 21461 21462 21463 21464 21465 21466 21467 21468 21469 21470 21471 21472 21473 21474 21475 21476 21477 21478 21479 21480 21481 21482 21483 21484 21485 21486 21487 21488 21489 21490 21491 21492 21493 21494 21495 21496 21497 21498 21499 21500 21501 21502 21503 21504 21505 21506 21507 21508 21509 21510 21511 21512 21513 21514 21515 21516 21517 21518 21519 21520 21521 21522 21523 21524 21525 21526 21527 21528 21529 21530 21531 21532 21533 21534 21535 21536 21537 21538 21539 21540 21541 21542 21543 21544 21545 21546 21547 21548 21549 21550 21551 21552 21553 21554 21555 21556 21557 21558 21559 21560 21561 21562 21563 21564 21565 21566 21567 21568 21569 21570 21571 21572 21573 21574 21575 21576 21577 21578 21579 21580 21581 21582 21583 21584 21585 21586 21587 21588 21589 21590 21591 21592 21593 21594 21595 21596 21597 21598 21599 21600 21601 21602 21603 21604 21605 21606 21607 21608 21609 21610 21611 21612 21613 21614 21615 21616 21617 21618 21619 21620 21621 21622 21623 21624 21625 21626 21627 21628 21629 21630 21631 21632 21633 21634 21635 21636 21637 21638 21639 21640 21641 21642 21643 21644 21645 21646 21647 21648 21649 21650 21651 21652 21653 21654 21655 21656 21657 21658 21659 21660 21661 21662 21663 21664 21665 21666 21667 21668 21669 21670 21671 21672 21673 21674 21675 21676 21677 21678 21679 21680 21681 21682 21683 21684 21685 21686 21687 21688 21689 21690 21691 21692 21693 21694 21695 21696 21697 21698 21699 21700 21701 21702 21703 21704 21705 21706 21707 21708 21709 21710 21711 21712 21713 21714 21715 21716 21717 21718 21719 21720 21721 21722 21723 21724 21725 21726 21727 21728 21729 21730 21731 21732 21733 21734 21735 21736 21737 21738 21739 21740 21741 21742 21743 21744 21745 21746 21747 21748 21749 21750 21751 21752 21753 21754 21755 21756 21757 21758 21759 21760 21761 21762 21763 21764 21765 21766 21767 21768 21769 21770 21771 21772 21773 21774 21775 21776 21777 21778 21779 21780 21781 21782 21783 21784 21785 21786 21787 21788 21789 21790 21791 21792 21793 21794 21795 21796 21797 21798 21799 21800 21801 21802 21803 21804 21805 21806 21807 21808 21809 21810 21811 21812 21813 21814 21815 21816 21817 21818 21819 21820 21821 21822 21823 21824 21825 21826 21827 21828 21829 21830 21831 21832 21833 21834 21835 21836 21837 21838 21839 21840 21841 21842 21843 21844 21845 21846 21847 21848 21849 21850 21851 21852 21853 21854 21855 21856 21857 21858 21859 21860 21861 21862 21863 21864 21865 21866 21867 21868 21869 21870 21871 21872 21873 21874 21875 21876 21877 21878 21879 21880 21881 21882 21883 21884 21885 21886 21887 21888 21889 21890 21891 21892 21893 21894 21895 21896 21897 21898 21899 21900 21901 21902 21903 21904 21905 21906 21907 21908 21909 21910 21911 21912 21913 21914 21915 21916 21917 21918 21919 21920 21921 21922 21923 21924 21925 21926 21927 21928 21929 21930 21931 21932 21933 21934 21935 21936 21937 21938 21939 21940 21941 21942 21943 21944 21945 21946 21947 21948 21949 21950 21951 21952 21953 21954 21955 21956 21957 21958 21959 21960 21961 21962 21963 21964 21965 21966 21967 21968 21969 21970 21971 21972 21973 21974 21975 21976 21977 21978 21979 21980 21981 21982 21983 21984 21985 21986 21987 21988 21989 21990 21991 21992 21993 21994 21995 21996 21997 21998 21999 22000 22001 22002 22003 22004 22005 22006 22007 22008 22009 22010 22011 22012 22013 22014 22015 22016 22017 22018 22019 22020 22021 22022 22023 22024 22025 22026 22027 22028 22029 22030 22031 22032 22033 22034 22035 22036 22037 22038 22039 22040 22041 22042 22043 22044 22045 22046 22047 22048 22049 22050 22051 22052 22053 22054 22055 22056 22057 22058 22059 22060 22061 22062 22063 22064 22065 22066 22067 22068 22069 22070 22071 22072 22073 22074 22075 22076 22077 22078 22079 22080 22081 22082 22083 22084 22085 22086 22087 22088 22089 22090 22091 22092 22093 22094 22095 22096 22097 22098 22099 22100 22101 22102 22103 22104 22105 22106 22107 22108 22109 22110 22111 22112 22113 22114 22115 22116 22117 22118 22119 22120 22121 22122 22123 22124 22125 22126 22127 22128 22129 22130 22131 22132 22133 22134 22135 22136 22137 22138 22139 22140 22141 22142 22143 22144 22145 22146 22147 22148 22149 22150 22151 22152 22153 22154 22155 22156 22157 22158 22159 22160 22161 22162 22163 22164 22165 22166 22167 22168 22169 22170 22171 22172 22173 22174 22175 22176 22177 22178 22179 22180 22181 22182 22183 22184 22185 22186 22187 22188 22189 22190 22191 22192 22193 22194 22195 22196 22197 22198 22199 22200 22201 22202 22203 22204 22205 22206 22207 22208 22209 22210 22211 22212 22213 22214 22215 22216 22217 22218 22219 22220 22221 22222 22223 22224 22225 22226 22227 22228 22229 22230 22231 22232 22233 22234 22235 22236 22237 22238 22239 22240 22241 22242 22243 22244 22245 22246 22247 22248 22249 22250 22251 22252 22253 22254 22255 22256 22257 22258 22259 22260 22261 22262 22263 22264 22265 22266 22267 22268 22269 22270 22271 22272 22273 22274 22275 22276 22277 22278 22279 22280 22281 22282 22283 22284 22285 22286 22287 22288 22289 22290 22291 22292 22293 22294 22295 22296 22297 22298 22299 22300 22301 22302 22303 22304 22305 22306 22307 22308 22309 22310 22311 22312 22313 22314 22315 22316 22317 22318 22319 22320 22321 22322 22323 22324 22325 22326 22327 22328 22329 22330 22331 22332 22333 22334 22335 22336 22337 22338 22339 22340 22341 22342 22343 22344 22345 22346 22347 22348 22349 22350 22351 22352 22353 22354 22355 22356 22357 22358 22359 22360 22361 22362 22363 22364 22365 22366 22367 22368 22369 22370 22371 22372 22373 22374 22375 22376 22377 22378 22379 22380 22381 22382 22383 22384 22385 22386 22387 22388 22389 22390 22391 22392 22393 22394 22395 22396 22397 22398 22399 22400 22401 22402 22403 22404 22405 22406 22407 22408 22409 22410 22411 22412 22413 22414 22415 22416 22417 22418 22419 22420 22421 22422 22423 22424 22425 22426 22427 22428 22429 22430 22431 22432 22433 22434 22435 22436 22437 22438 22439 22440 22441 22442 22443 22444 22445 22446 22447 22448 22449 22450 22451 22452 22453 22454 22455 22456 22457 22458 22459 22460 22461 22462 22463 22464 22465 22466 22467 22468 22469 22470 22471 22472 22473 22474 22475 22476 22477 22478 22479 22480 22481 22482 22483 22484 22485 22486 22487 22488 22489 22490 22491 22492 22493 22494 22495 22496 22497 22498 22499 22500 22501 22502 22503 22504 22505 22506 22507 22508 22509 22510 22511 22512 22513 22514 22515 22516 22517 22518 22519 22520 22521 22522 22523 22524 22525 22526 22527 22528 22529 22530 22531 22532 22533 22534 22535 22536 22537 22538 22539 22540 22541 22542 22543 22544 22545 22546 22547 22548 22549 22550 22551 22552 22553 22554 22555 22556 22557 22558 22559 22560 22561 22562 22563 22564 22565 22566 22567 22568 22569 22570 22571 22572 22573 22574 22575 22576 22577 22578 22579 22580 22581 22582 22583 22584 22585 22586 22587 22588 22589 22590 22591 22592 22593 22594 22595 22596 22597 22598 22599 22600 22601 22602 22603 22604 22605 22606 22607 22608 22609 22610 22611 22612 22613 22614 22615 22616 22617 22618 22619 22620 22621 22622 22623 22624 22625 22626 22627 22628 22629 22630 22631 22632 22633 22634 22635 22636 22637 22638 22639 22640 22641 22642 22643 22644 22645 22646 22647 22648 22649 22650 22651 22652 22653 22654 22655 22656 22657 22658 22659 22660 22661 22662 22663 22664 22665 22666 22667 22668 22669 22670 22671 22672 22673 22674 22675 22676 22677 22678 22679 22680 22681 22682 22683 22684 22685 22686 22687 22688 22689 22690 22691 22692 22693 22694 22695 22696 22697 22698 22699 22700 22701 22702 22703 22704 22705 22706 22707 22708 22709 22710 22711 22712 22713 22714 22715 22716 22717 22718 22719 22720 22721 22722 22723 22724 22725 22726 22727 22728 22729 22730 22731 22732 22733 22734 22735 22736 22737 22738 22739 22740 22741 22742 22743 22744 22745 22746 22747 22748 22749 22750 22751 22752 22753 22754 22755 22756 22757 22758 22759 22760 22761 22762 22763 22764 22765 22766 22767 22768 22769 22770 22771 22772 22773 22774 22775 22776 22777 22778 22779 22780 22781 22782 22783 22784 22785 22786 22787 22788 22789 22790 22791 22792 22793 22794 22795 22796 22797 22798 22799 22800 22801 22802 22803 22804 22805 22806 22807 22808 22809 22810 22811 22812 22813 22814 22815 22816 22817 22818 22819 22820 22821 22822 22823 22824 22825 22826 22827 22828 22829 22830 22831 22832 22833 22834 22835 22836 22837 22838 22839 22840 22841 22842 22843 22844 22845 22846 22847 22848 22849 22850 22851 22852 22853 22854 22855 22856 22857 22858 22859 22860 22861 22862 22863 22864 22865 22866 22867 22868 22869 22870 22871 22872 22873 22874 22875 22876 22877 22878 22879 22880 22881 22882 22883 22884 22885 22886 22887 22888 22889 22890 22891 22892 22893 22894 22895 22896 22897 22898 22899 22900 22901 22902 22903 22904 22905 22906 22907 22908 22909 22910 22911 22912 22913 22914 22915 22916 22917 22918 22919 22920 22921 22922 22923 22924 22925 22926 22927 22928 22929 22930 22931 22932 22933 22934 22935 22936 22937 22938 22939 22940 22941 22942 22943 22944 22945 22946 22947 22948 22949 22950 22951 22952 22953 22954 22955 22956 22957 22958 22959 22960 22961 22962 22963 22964 22965 22966 22967 22968 22969 22970 22971 22972 22973 22974 22975 22976 22977 22978 22979 22980 22981 22982 22983 22984 22985 22986 22987 22988 22989 22990 22991 22992 22993 22994 22995 22996 22997 22998 22999 23000 23001 23002 23003 23004 23005 23006 23007 23008 23009 23010 23011 23012 23013 23014 23015 23016 23017 23018 23019 23020 23021 23022 23023 23024 23025 23026 23027 23028 23029 23030 23031 23032 23033 23034 23035 23036 23037 23038 23039 23040 23041 23042 23043 23044 23045 23046 23047 23048 23049 23050 23051 23052 23053 23054 23055 23056 23057 23058 23059 23060 23061 23062 23063 23064 23065 23066 23067 23068 23069 23070 23071 23072 23073 23074 23075 23076 23077 23078 23079 23080 23081 23082 23083 23084 23085 23086 23087 23088 23089 23090 23091 23092 23093 23094 23095 23096 23097 23098 23099 23100 23101 23102 23103 23104 23105 23106 23107 23108 23109 23110 23111 23112 23113 23114 23115 23116 23117 23118 23119 23120 23121 23122 23123 23124 23125 23126 23127 23128 23129 23130 23131 23132 23133 23134 23135 23136 23137 23138 23139 23140 23141 23142 23143 23144 23145 23146 23147 23148 23149 23150 23151 23152 23153 23154 23155 23156 23157 23158 23159 23160 23161 23162 23163 23164 23165 23166 23167 23168 23169 23170 23171 23172 23173 23174 23175 23176 23177 23178 23179 23180 23181 23182 23183 23184 23185 23186 23187 23188 23189 23190 23191 23192 23193 23194 23195 23196 23197 23198 23199 23200 23201 23202 23203 23204 23205 23206 23207 23208 23209 23210 23211 23212 23213 23214 23215 23216 23217 23218 23219 23220 23221 23222 23223 23224 23225 23226 23227 23228 23229 23230 23231 23232 23233 23234 23235 23236 23237 23238 23239 23240 23241 23242 23243 23244 23245 23246 23247 23248 23249 23250 23251 23252 23253 23254 23255 23256 23257 23258 23259 23260 23261 23262 23263 23264 23265 23266 23267 23268 23269 23270 23271 23272 23273 23274 23275 23276 23277 23278 23279 23280 23281 23282 23283 23284 23285 23286 23287 23288 23289 23290 23291 23292 23293 23294 23295 23296 23297 23298 23299 23300 23301 23302 23303 23304 23305 23306 23307 23308 23309 23310 23311 23312 23313 23314 23315 23316 23317 23318 23319 23320 23321 23322 23323 23324 23325 23326 23327 23328 23329 23330 23331 23332 23333 23334 23335 23336 23337 23338 23339 23340 23341 23342 23343 23344 23345 23346 23347 23348 23349 23350 23351 23352 23353 23354 23355 23356 23357 23358 23359 23360 23361 23362 23363 23364 23365 23366 23367 23368 23369 23370 23371 23372 23373 23374 23375 23376 23377 23378 23379 23380 23381 23382 23383 23384 23385 23386 23387 23388 23389 23390 23391 23392 23393 23394 23395 23396 23397 23398 23399 23400 23401 23402 23403 23404 23405 23406 23407 23408 23409 23410 23411 23412 23413 23414 23415 23416 23417 23418 23419 23420 23421 23422 23423 23424 23425 23426 23427 23428 23429 23430 23431 23432 23433 23434 23435 23436 23437 23438 23439 23440 23441 23442 23443 23444 23445 23446 23447 23448 23449 23450 23451 23452 23453 23454 23455 23456 23457 23458 23459 23460 23461 23462 23463 23464 23465 23466 23467 23468 23469 23470 23471 23472 23473 23474 23475 23476 23477 23478 23479 23480 23481 23482 23483 23484 23485 23486 23487 23488 23489 23490 23491 23492 23493 23494 23495 23496 23497 23498 23499 23500 23501 23502 23503 23504 23505 23506 23507 23508 23509 23510 23511 23512 23513 23514 23515 23516 23517 23518 23519 23520 23521 23522 23523 23524 23525 23526 23527 23528 23529 23530 23531 23532 23533 23534 23535 23536 23537 23538 23539 23540 23541 23542 23543 23544 23545 23546 23547 23548 23549 23550 23551 23552 23553 23554 23555 23556 23557 23558 23559 23560 23561 23562 23563 23564 23565 23566 23567 23568 23569 23570 23571 23572 23573 23574 23575 23576 23577 23578 23579 23580 23581 23582 23583 23584 23585 23586 23587 23588 23589 23590 23591 23592 23593 23594 23595 23596 23597 23598 23599 23600 23601 23602 23603 23604 23605 23606 23607 23608 23609 23610 23611 23612 23613 23614 23615 23616 23617 23618 23619 23620 23621 23622 23623 23624 23625 23626 23627 23628 23629 23630 23631 23632 23633 23634 23635 23636 23637 23638 23639 23640 23641 23642 23643 23644 23645 23646 23647 23648 23649 23650 23651 23652 23653 23654 23655 23656 23657 23658 23659 23660 23661 23662 23663 23664 23665 23666 23667 23668 23669 23670 23671 23672 23673 23674 23675 23676 23677 23678 23679 23680 23681 23682 23683 23684 23685 23686 23687 23688 23689 23690 23691 23692 23693 23694 23695 23696 23697 23698 23699 23700 23701 23702 23703 23704 23705 23706 23707 23708 23709 23710 23711 23712 23713 23714 23715 23716 23717 23718 23719 23720 23721 23722 23723 23724 23725 23726 23727 23728 23729 23730 23731 23732 23733 23734 23735 23736 23737 23738 23739 23740 23741 23742 23743 23744 23745 23746 23747 23748 23749 23750 23751 23752 23753 23754 23755 23756 23757 23758 23759 23760 23761 23762 23763 23764 23765 23766 23767 23768 23769 23770 23771 23772 23773 23774 23775 23776 23777 23778 23779 23780 23781 23782 23783 23784 23785 23786 23787 23788 23789 23790 23791 23792 23793 23794 23795 23796 23797 23798 23799 23800 23801 23802 23803 23804 23805 23806 23807 23808 23809 23810 23811 23812 23813 23814 23815 23816 23817 23818 23819 23820 23821 23822 23823 23824 23825 23826 23827 23828 23829 23830 23831 23832 23833 23834 23835 23836 23837 23838 23839 23840 23841 23842 23843 23844 23845 23846 23847 23848 23849 23850 23851 23852 23853 23854 23855 23856 23857 23858 23859 23860 23861 23862 23863 23864 23865 23866 23867 23868 23869 23870 23871 23872 23873 23874 23875 23876 23877 23878 23879 23880 23881 23882 23883 23884 23885 23886 23887 23888 23889 23890 23891 23892 23893 23894 23895 23896 23897 23898 23899 23900 23901 23902 23903 23904 23905 23906 23907 23908 23909 23910 23911 23912 23913 23914 23915 23916 23917 23918 23919 23920 23921 23922 23923 23924 23925 23926 23927 23928 23929 23930 23931 23932 23933 23934 23935 23936 23937 23938 23939 23940 23941 23942 23943 23944 23945 23946 23947 23948 23949 23950 23951 23952 23953 23954 23955 23956 23957 23958 23959 23960 23961 23962 23963 23964 23965 23966 23967 23968 23969 23970 23971 23972 23973 23974 23975 23976 23977 23978 23979 23980 23981 23982 23983 23984 23985 23986 23987 23988 23989 23990 23991 23992 23993 23994 23995 23996 23997 23998 23999 24000 24001 24002 24003 24004 24005 24006 24007 24008 24009 24010 24011 24012 24013 24014 24015 24016 24017 24018 24019 24020 24021 24022 24023 24024 24025 24026 24027 24028 24029 24030 24031 24032 24033 24034 24035 24036 24037 24038 24039 24040 24041 24042 24043 24044 24045 24046 24047 24048 24049 24050 24051 24052 24053 24054 24055 24056 24057 24058 24059 24060 24061 24062 24063 24064 24065 24066 24067 24068 24069 24070 24071 24072 24073 24074 24075 24076 24077 24078 24079 24080 24081 24082 24083 24084 24085 24086 24087 24088 24089 24090 24091 24092 24093 24094 24095 24096 24097 24098 24099 24100 24101 24102 24103 24104 24105 24106 24107 24108 24109 24110 24111 24112 24113 24114 24115 24116 24117 24118 24119 24120 24121 24122 24123 24124 24125 24126 24127 24128 24129 24130 24131 24132 24133 24134 24135 24136 24137 24138 24139 24140 24141 24142 24143 24144 24145 24146 24147 24148 24149 24150 24151 24152 24153 24154 24155 24156 24157 24158 24159 24160 24161 24162 24163 24164 24165 24166 24167 24168 24169 24170 24171 24172 24173 24174 24175 24176 24177 24178 24179 24180 24181 24182 24183 24184 24185 24186 24187 24188 24189 24190 24191 24192 24193 24194 24195 24196 24197 24198 24199 24200 24201 24202 24203 24204 24205 24206 24207 24208 24209 24210 24211 24212 24213 24214 24215 24216 24217 24218 24219 24220 24221 24222 24223 24224 24225 24226 24227 24228 24229 24230 24231 24232 24233 24234 24235 24236 24237 24238 24239 24240 24241 24242 24243 24244 24245 24246 24247 24248 24249 24250 24251 24252 24253 24254 24255 24256 24257 24258 24259 24260 24261 24262 24263 24264 24265 24266 24267 24268 24269 24270 24271 24272 24273 24274 24275 24276 24277 24278 24279 24280 24281 24282 24283 24284 24285 24286 24287 24288 24289 24290 24291 24292 24293 24294 24295 24296 24297 24298 24299 24300 24301 24302 24303 24304 24305 24306 24307 24308 24309 24310 24311 24312 24313 24314 24315 24316 24317 24318 24319 24320 24321 24322 24323 24324 24325 24326 24327 24328 24329 24330 24331 24332 24333 24334 24335 24336 24337 24338 24339 24340 24341 24342 24343 24344 24345 24346 24347 24348 24349 24350 24351 24352 24353 24354 24355 24356 24357 24358 24359 24360 24361 24362 24363 24364 24365 24366 24367 24368 24369 24370 24371 24372 24373 24374 24375 24376 24377 24378 24379 24380 24381 24382 24383 24384 24385 24386 24387 24388 24389 24390 24391 24392 24393 24394 24395 24396 24397 24398 24399 24400 24401 24402 24403 24404 24405 24406 24407 24408 24409 24410 24411 24412 24413 24414 24415 24416 24417 24418 24419 24420 24421 24422 24423 24424 24425 24426 24427 24428 24429 24430 24431 24432 24433 24434 24435 24436 24437 24438 24439 24440 24441 24442 24443 24444 24445 24446 24447 24448 24449 24450 24451 24452 24453 24454 24455 24456 24457 24458 24459 24460 24461 24462 24463 24464 24465 24466 24467 24468 24469 24470 24471 24472 24473 24474 24475 24476 24477 24478 24479 24480 24481 24482 24483 24484 24485 24486 24487 24488 24489 24490 24491 24492 24493 24494 24495 24496 24497 24498 24499 24500 24501 24502 24503 24504 24505 24506 24507 24508 24509 24510 24511 24512 24513 24514 24515 24516 24517 24518 24519 24520 24521 24522 24523 24524 24525 24526 24527 24528 24529 24530 24531 24532 24533 24534 24535 24536 24537 24538 24539 24540 24541 24542 24543 24544 24545 24546 24547 24548 24549 24550 24551 24552 24553 24554 24555 24556 24557 24558 24559 24560 24561 24562 24563 24564 24565 24566 24567 24568 24569 24570 24571 24572 24573 24574 24575 24576 24577 24578 24579 24580 24581 24582 24583 24584 24585 24586 24587 24588 24589 24590 24591 24592 24593 24594 24595 24596 24597 24598 24599 24600 24601 24602 24603 24604 24605 24606 24607 24608 24609 24610 24611 24612 24613 24614 24615 24616 24617 24618 24619 24620 24621 24622 24623 24624 24625 24626 24627 24628 24629 24630 24631 24632 24633 24634 24635 24636 24637 24638 24639 24640 24641 24642 24643 24644 24645 24646 24647 24648 24649 24650 24651 24652 24653 24654 24655 24656 24657 24658 24659 24660 24661 24662 24663 24664 24665 24666 24667 24668 24669 24670 24671 24672 24673 24674 24675 24676 24677 24678 24679 24680 24681 24682 24683 24684 24685 24686 24687 24688 24689 24690 24691 24692 24693 24694 24695 24696 24697 24698 24699 24700 24701 24702 24703 24704 24705 24706 24707 24708 24709 24710 24711 24712 24713 24714 24715 24716 24717 24718 24719 24720 24721 24722 24723 24724 24725 24726 24727 24728 24729 24730 24731 24732 24733 24734 24735 24736 24737 24738 24739 24740 24741 24742 24743 24744 24745 24746 24747 24748 24749 24750 24751 24752 24753 24754 24755 24756 24757 24758 24759 24760 24761 24762 24763 24764 24765 24766 24767 24768 24769 24770 24771 24772 24773 24774 24775 24776 24777 24778 24779 24780 24781 24782 24783 24784 24785 24786 24787 24788 24789 24790 24791 24792 24793 24794 24795 24796 24797 24798 24799 24800 24801 24802 24803 24804 24805 24806 24807 24808 24809 24810 24811 24812 24813 24814 24815 24816 24817 24818 24819 24820 24821 24822 24823 24824 24825 24826 24827 24828 24829 24830 24831 24832 24833 24834 24835 24836 24837 24838 24839 24840 24841 24842 24843 24844 24845 24846 24847 24848 24849 24850 24851 24852 24853 24854 24855 24856 24857 24858 24859 24860 24861 24862 24863 24864 24865 24866 24867 24868 24869 24870 24871 24872 24873 24874 24875 24876 24877 24878 24879 24880 24881 24882 24883 24884 24885 24886 24887 24888 24889 24890 24891 24892 24893 24894 24895 24896 24897 24898 24899 24900 24901 24902 24903 24904 24905 24906 24907 24908 24909 24910 24911 24912 24913 24914 24915 24916 24917 24918 24919 24920 24921 24922 24923 24924 24925 24926 24927 24928 24929 24930 24931 24932 24933 24934 24935 24936 24937 24938 24939 24940 24941 24942 24943 24944 24945 24946 24947 24948 24949 24950 24951 24952 24953 24954 24955 24956 24957 24958 24959 24960 24961 24962 24963 24964 24965 24966 24967 24968 24969 24970 24971 24972 24973 24974 24975 24976 24977 24978 24979 24980 24981 24982 24983 24984 24985 24986 24987 24988 24989 24990 24991 24992 24993 24994 24995 24996 24997 24998 24999 25000 25001 25002 25003 25004 25005 25006 25007 25008 25009 25010 25011 25012 25013 25014 25015 25016 25017 25018 25019 25020 25021 25022 25023 25024 25025 25026 25027 25028 25029 25030 25031 25032 25033 25034 25035 25036 25037 25038 25039 25040 25041 25042 25043 25044 25045 25046 25047 25048 25049 25050 25051 25052 25053 25054 25055 25056 25057 25058 25059 25060 25061 25062 25063 25064 25065 25066 25067 25068 25069 25070 25071 25072 25073 25074 25075 25076 25077 25078 25079 25080 25081 25082 25083 25084 25085 25086 25087 25088 25089 25090 25091 25092 25093 25094 25095 25096 25097 25098 25099 25100 25101 25102 25103 25104 25105 25106 25107 25108 25109 25110 25111 25112 25113 25114 25115 25116 25117 25118 25119 25120 25121 25122 25123 25124 25125 25126 25127 25128 25129 25130 25131 25132 25133 25134 25135 25136 25137 25138 25139 25140 25141 25142 25143 25144 25145 25146 25147 25148 25149 25150 25151 25152 25153 25154 25155 25156 25157 25158 25159 25160 25161 25162 25163 25164 25165 25166 25167 25168 25169 25170 25171 25172 25173 25174 25175 25176 25177 25178 25179 25180 25181 25182 25183 25184 25185 25186 25187 25188 25189 25190 25191 25192 25193 25194 25195 25196 25197 25198 25199 25200 25201 25202 25203 25204 25205 25206 25207 25208 25209 25210 25211 25212 25213 25214 25215 25216 25217 25218 25219 25220 25221 25222 25223 25224 25225 25226 25227 25228 25229 25230 25231 25232 25233 25234 25235 25236 25237 25238 25239 25240 25241 25242 25243 25244 25245 25246 25247 25248 25249 25250 25251 25252 25253 25254 25255 25256 25257 25258 25259 25260 25261 25262 25263 25264 25265 25266 25267 25268 25269 25270 25271 25272 25273 25274 25275 25276 25277 25278 25279 25280 25281 25282 25283 25284 25285 25286 25287 25288 25289 25290 25291 25292 25293 25294 25295 25296 25297 25298 25299 25300 25301 25302 25303 25304 25305 25306 25307 25308 25309 25310 25311 25312 25313 25314 25315 25316 25317 25318 25319 25320 25321 25322 25323 25324 25325 25326 25327 25328 25329 25330 25331 25332 25333 25334 25335 25336 25337 25338 25339 25340 25341 25342 25343 25344 25345 25346 25347 25348 25349 25350 25351 25352 25353 25354 25355 25356 25357 25358 25359 25360 25361 25362 25363 25364 25365 25366 25367 25368 25369 25370 25371 25372 25373 25374 25375 25376 25377 25378 25379 25380 25381 25382 25383 25384 25385 25386 25387 25388 25389 25390 25391 25392 25393 25394 25395 25396 25397 25398 25399 25400 25401 25402 25403 25404 25405 25406 25407 25408 25409 25410 25411 25412 25413 25414 25415 25416 25417 25418 25419 25420 25421 25422 25423 25424 25425 25426 25427 25428 25429 25430 25431 25432 25433 25434 25435 25436 25437 25438 25439 25440 25441 25442 25443 25444 25445 25446 25447 25448 25449 25450 25451 25452 25453 25454 25455 25456 25457 25458 25459 25460 25461 25462 25463 25464 25465 25466 25467 25468 25469 25470 25471 25472 25473 25474 25475 25476 25477 25478 25479 25480 25481 25482 25483 25484 25485 25486 25487 25488 25489 25490 25491 25492 25493 25494 25495 25496 25497 25498 25499 25500 25501 25502 25503 25504 25505 25506 25507 25508 25509 25510 25511 25512 25513 25514 25515 25516 25517 25518 25519 25520 25521 25522 25523 25524 25525 25526 25527 25528 25529 25530 25531 25532 25533 25534 25535 25536 25537 25538 25539 25540 25541 25542 25543 25544 25545 25546 25547 25548 25549 25550 25551 25552 25553 25554 25555 25556 25557 25558 25559 25560 25561 25562 25563 25564 25565 25566 25567 25568 25569 25570 25571 25572 25573 25574 25575 25576 25577 25578 25579 25580 25581 25582 25583 25584 25585 25586 25587 25588 25589 25590 25591 25592 25593 25594 25595 25596 25597 25598 25599 25600 25601 25602 25603 25604 25605 25606 25607 25608 25609 25610 25611 25612 25613 25614 25615 25616 25617 25618 25619 25620 25621 25622 25623 25624 25625 25626 25627 25628 25629 25630 25631 25632 25633 25634 25635 25636 25637 25638 25639 25640 25641 25642 25643 25644 25645 25646 25647 25648 25649 25650 25651 25652 25653 25654 25655 25656 25657 25658 25659 25660 25661 25662 25663 25664 25665 25666 25667 25668 25669 25670 25671 25672 25673 25674 25675 25676 25677 25678 25679 25680 25681 25682 25683 25684 25685 25686 25687 25688 25689 25690 25691 25692 25693 25694 25695 25696 25697 25698 25699 25700 25701 25702 25703 25704 25705 25706 25707 25708 25709 25710 25711 25712 25713 25714 25715 25716 25717 25718 25719 25720 25721 25722 25723 25724 25725 25726 25727 25728 25729 25730 25731 25732 25733 25734 25735 25736 25737 25738 25739 25740 25741 25742 25743 25744 25745 25746 25747 25748 25749 25750 25751 25752 25753 25754 25755 25756 25757 25758 25759 25760 25761 25762 25763 25764 25765 25766 25767 25768 25769 25770 25771 25772 25773 25774 25775 25776 25777 25778 25779 25780 25781 25782 25783 25784 25785 25786 25787 25788 25789 25790 25791 25792 25793 25794 25795 25796 25797 25798 25799 25800 25801 25802 25803 25804 25805 25806 25807 25808 25809 25810 25811 25812 25813 25814 25815 25816 25817 25818 25819 25820 25821 25822 25823 25824 25825 25826 25827 25828 25829 25830 25831 25832 25833 25834 25835 25836 25837 25838 25839 25840 25841 25842 25843 25844 25845 25846 25847 25848 25849 25850 25851 25852 25853 25854 25855 25856 25857 25858 25859 25860 25861 25862 25863 25864 25865 25866 25867 25868 25869 25870 25871 25872 25873 25874 25875 25876 25877 25878 25879 25880 25881 25882 25883 25884 25885 25886 25887 25888 25889 25890 25891 25892 25893 25894 25895 25896 25897 25898 25899 25900 25901 25902 25903 25904 25905 25906 25907 25908 25909 25910 25911 25912 25913 25914 25915 25916 25917 25918 25919 25920 25921 25922 25923 25924 25925 25926 25927 25928 25929 25930 25931 25932 25933 25934 25935 25936 25937 25938 25939 25940 25941 25942 25943 25944 25945 25946 25947 25948 25949 25950 25951 25952 25953 25954 25955 25956 25957 25958 25959 25960 25961 25962 25963 25964 25965 25966 25967 25968 25969 25970 25971 25972 25973 25974 25975 25976 25977 25978 25979 25980 25981 25982 25983 25984 25985 25986 25987 25988 25989 25990 25991 25992 25993 25994 25995 25996 25997 25998 25999 26000 26001 26002 26003 26004 26005 26006 26007 26008 26009 26010 26011 26012 26013 26014 26015 26016 26017 26018 26019 26020 26021 26022 26023 26024 26025 26026 26027 26028 26029 26030 26031 26032 26033 26034 26035 26036 26037 26038 26039 26040 26041 26042 26043 26044 26045 26046 26047 26048 26049 26050 26051 26052 26053 26054 26055 26056 26057 26058 26059 26060 26061 26062 26063 26064 26065 26066 26067 26068 26069 26070 26071 26072 26073 26074 26075 26076 26077 26078 26079 26080 26081 26082 26083 26084 26085 26086 26087 26088 26089 26090 26091 26092 26093 26094 26095 26096 26097 26098 26099 26100 26101 26102 26103 26104 26105 26106 26107 26108 26109 26110 26111 26112 26113 26114 26115 26116 26117 26118 26119 26120 26121 26122 26123 26124 26125 26126 26127 26128 26129 26130 26131 26132 26133 26134 26135 26136 26137 26138 26139 26140 26141 26142 26143 26144 26145 26146 26147 26148 26149 26150 26151 26152 26153 26154 26155 26156 26157 26158 26159 26160 26161 26162 26163 26164 26165 26166 26167 26168 26169 26170 26171 26172 26173 26174 26175 26176 26177 26178 26179 26180 26181 26182 26183 26184 26185 26186 26187 26188 26189 26190 26191 26192 26193 26194 26195 26196 26197 26198 26199 26200 26201 26202 26203 26204 26205 26206 26207 26208 26209 26210 26211 26212 26213 26214 26215 26216 26217 26218 26219 26220 26221 26222 26223 26224 26225 26226 26227 26228 26229 26230 26231 26232 26233 26234 26235 26236 26237 26238 26239 26240 26241 26242 26243 26244 26245 26246 26247 26248 26249 26250 26251 26252 26253 26254 26255 26256 26257 26258 26259 26260 26261 26262 26263 26264 26265 26266 26267 26268 26269 26270 26271 26272 26273 26274 26275 26276 26277 26278 26279 26280 26281 26282 26283 26284 26285 26286 26287 26288 26289 26290 26291 26292 26293 26294 26295 26296 26297 26298 26299 26300 26301 26302 26303 26304 26305 26306 26307 26308 26309 26310 26311 26312 26313 26314 26315 26316 26317 26318 26319 26320 26321 26322 26323 26324 26325 26326 26327 26328 26329 26330 26331 26332 26333 26334 26335 26336 26337 26338 26339 26340 26341 26342 26343 26344 26345 26346 26347 26348 26349 26350 26351 26352 26353 26354 26355 26356 26357 26358 26359 26360 26361 26362 26363 26364 26365 26366 26367 26368 26369 26370 26371 26372 26373 26374 26375 26376 26377 26378 26379 26380 26381 26382 26383 26384 26385 26386 26387 26388 26389 26390 26391 26392 26393 26394 26395 26396 26397 26398 26399 26400 26401 26402 26403 26404 26405 26406 26407 26408 26409 26410 26411 26412 26413 26414 26415 26416 26417 26418 26419 26420 26421 26422 26423 26424 26425 26426 26427 26428 26429 26430 26431 26432 26433 26434 26435 26436 26437 26438 26439 26440 26441 26442 26443 26444 26445 26446 26447 26448 26449 26450 26451 26452 26453 26454 26455 26456 26457 26458 26459 26460 26461 26462 26463 26464 26465 26466 26467 26468 26469 26470 26471 26472 26473 26474 26475 26476 26477 26478 26479 26480 26481 26482 26483 26484 26485 26486 26487 26488 26489 26490 26491 26492 26493 26494 26495 26496 26497 26498 26499 26500 26501 26502 26503 26504 26505 26506 26507 26508 26509 26510 26511 26512 26513 26514 26515 26516 26517 26518 26519 26520 26521 26522 26523 26524 26525 26526 26527 26528 26529 26530 26531 26532 26533 26534 26535 26536 26537 26538 26539 26540 26541 26542 26543 26544 26545 26546 26547 26548 26549 26550 26551 26552 26553 26554 26555 26556 26557 26558 26559 26560 26561 26562 26563 26564 26565 26566 26567 26568 26569 26570 26571 26572 26573 26574 26575 26576 26577 26578 26579 26580 26581 26582 26583 26584 26585 26586 26587 26588 26589 26590 26591 26592 26593 26594 26595 26596 26597 26598 26599 26600 26601 26602 26603 26604 26605 26606 26607 26608 26609 26610 26611 26612 26613 26614 26615 26616 26617 26618 26619 26620 26621 26622 26623 26624 26625 26626 26627 26628 26629 26630 26631 26632 26633 26634 26635 26636 26637 26638 26639 26640 26641 26642 26643 26644 26645 26646 26647 26648 26649 26650 26651 26652 26653 26654 26655 26656 26657 26658 26659 26660 26661 26662 26663 26664 26665 26666 26667 26668 26669 26670 26671 26672 26673 26674 26675 26676 26677 26678 26679 26680 26681 26682 26683 26684 26685 26686 26687 26688 26689 26690 26691 26692 26693 26694 26695 26696 26697 26698 26699 26700 26701 26702 26703 26704 26705 26706 26707 26708 26709 26710 26711 26712 26713 26714 26715 26716 26717 26718 26719 26720 26721 26722 26723 26724 26725 26726 26727 26728 26729 26730 26731 26732 26733 26734 26735 26736 26737 26738 26739 26740 26741 26742 26743 26744 26745 26746 26747 26748 26749 26750 26751 26752 26753 26754 26755 26756 26757 26758 26759 26760 26761 26762 26763 26764 26765 26766 26767 26768 26769 26770 26771 26772 26773 26774 26775 26776 26777 26778 26779 26780 26781 26782 26783 26784 26785 26786 26787 26788 26789 26790 26791 26792 26793 26794 26795 26796 26797 26798 26799 26800 26801 26802 26803 26804 26805 26806 26807 26808 26809 26810 26811 26812 26813 26814 26815 26816 26817 26818 26819 26820 26821 26822 26823 26824 26825 26826 26827 26828 26829 26830 26831 26832 26833 26834 26835 26836 26837 26838 26839 26840 26841 26842 26843 26844 26845 26846 26847 26848 26849 26850 26851 26852 26853 26854 26855 26856 26857 26858 26859 26860 26861 26862 26863 26864 26865 26866 26867 26868 26869 26870 26871 26872 26873 26874 26875 26876 26877 26878 26879 26880 26881 26882 26883 26884 26885 26886 26887 26888 26889 26890 26891 26892 26893 26894 26895 26896 26897 26898 26899 26900 26901 26902 26903 26904 26905 26906 26907 26908 26909 26910 26911 26912 26913 26914 26915 26916 26917 26918 26919 26920 26921 26922 26923 26924 26925 26926 26927 26928 26929 26930 26931 26932 26933 26934 26935 26936 26937 26938 26939 26940 26941 26942 26943 26944 26945 26946 26947 26948 26949 26950 26951 26952 26953 26954 26955 26956 26957 26958 26959 26960 26961 26962 26963 26964 26965 26966 26967 26968 26969 26970 26971 26972 26973 26974 26975 26976 26977 26978 26979 26980 26981 26982 26983 26984 26985 26986 26987 26988 26989 26990 26991 26992 26993 26994 26995 26996 26997 26998 26999 27000 27001 27002 27003 27004 27005 27006 27007 27008 27009 27010 27011 27012 27013 27014 27015 27016 27017 27018 27019 27020 27021 27022 27023 27024 27025 27026 27027 27028 27029 27030 27031 27032 27033 27034 27035 27036 27037 27038 27039 27040 27041 27042 27043 27044 27045 27046 27047 27048 27049 27050 27051 27052 27053 27054 27055 27056 27057 27058 27059 27060 27061 27062 27063 27064 27065 27066 27067 27068 27069 27070 27071 27072 27073 27074 27075 27076 27077 27078 27079 27080 27081 27082 27083 27084 27085 27086 27087 27088 27089 27090 27091 27092 27093 27094 27095 27096 27097 27098 27099 27100 27101 27102 27103 27104 27105 27106 27107 27108 27109 27110 27111 27112 27113 27114 27115 27116 27117 27118 27119 27120 27121 27122 27123 27124 27125 27126 27127 27128 27129 27130 27131 27132 27133 27134 27135 27136 27137 27138 27139 27140 27141 27142 27143 27144 27145 27146 27147 27148 27149 27150 27151 27152 27153 27154 27155 27156 27157 27158 27159 27160 27161 27162 27163 27164 27165 27166 27167 27168 27169 27170 27171 27172 27173 27174 27175 27176 27177 27178 27179 27180 27181 27182 27183 27184 27185 27186 27187 27188 27189 27190 27191 27192 27193 27194 27195 27196 27197 27198 27199 27200 27201 27202 27203 27204 27205 27206 27207 27208 27209 27210 27211 27212 27213 27214 27215 27216 27217 27218 27219 27220 27221 27222 27223 27224 27225 27226 27227 27228 27229 27230 27231 27232 27233 27234 27235 27236 27237 27238 27239 27240 27241 27242 27243 27244 27245 27246 27247 27248 27249 27250 27251 27252 27253 27254 27255 27256 27257 27258 27259 27260 27261 27262 27263 27264 27265 27266 27267 27268 27269 27270 27271 27272 27273 27274 27275 27276 27277 27278 27279 27280 27281 27282 27283 27284 27285 27286 27287 27288 27289 27290 27291 27292 27293 27294 27295 27296 27297 27298 27299 27300 27301 27302 27303 27304 27305 27306 27307 27308 27309 27310 27311 27312 27313 27314 27315 27316 27317 27318 27319 27320 27321 27322 27323 27324 27325 27326 27327 27328 27329 27330 27331 27332 27333 27334 27335 27336 27337 27338 27339 27340 27341 27342 27343 27344 27345 27346 27347 27348 27349 27350 27351 27352 27353 27354 27355 27356 27357 27358 27359 27360 27361 27362 27363 27364 27365 27366 27367 27368 27369 27370 27371 27372 27373 27374 27375 27376 27377 27378 27379 27380 27381 27382 27383 27384 27385 27386 27387 27388 27389 27390 27391 27392 27393 27394 27395 27396 27397 27398 27399 27400 27401 27402 27403 27404 27405 27406 27407 27408 27409 27410 27411 27412 27413 27414 27415 27416 27417 27418 27419 27420 27421 27422 27423 27424 27425 27426 27427 27428 27429 27430 27431 27432 27433 27434 27435 27436 27437 27438 27439 27440 27441 27442 27443 27444 27445 27446 27447 27448 27449 27450 27451 27452 27453 27454 27455 27456 27457 27458 27459 27460 27461 27462 27463 27464 27465 27466 27467 27468 27469 27470 27471 27472 27473 27474 27475 27476 27477 27478 27479 27480 27481 27482 27483 27484 27485 27486 27487 27488 27489 27490 27491 27492 27493 27494 27495 27496 27497 27498 27499 27500 27501 27502 27503 27504 27505 27506 27507 27508 27509 27510 27511 27512 27513 27514 27515 27516 27517 27518 27519 27520 27521 27522 27523 27524 27525 27526 27527 27528 27529 27530 27531 27532 27533 27534 27535 27536 27537 27538 27539 27540 27541 27542 27543 27544 27545 27546 27547 27548 27549 27550 27551 27552 27553 27554 27555 27556 27557 27558 27559 27560 27561 27562 27563 27564 27565 27566 27567 27568 27569 27570 27571 27572 27573 27574 27575 27576 27577 27578 27579 27580 27581 27582 27583 27584 27585 27586 27587 27588 27589 27590 27591 27592 27593 27594 27595 27596 27597 27598 27599 27600 27601 27602 27603 27604 27605 27606 27607 27608 27609 27610 27611 27612 27613 27614 27615 27616 27617 27618 27619 27620 27621 27622 27623 27624 27625 27626 27627 27628 27629 27630 27631 27632 27633 27634 27635 27636 27637 27638 27639 27640 27641 27642 27643 27644 27645 27646 27647 27648 27649 27650 27651 27652 27653 27654 27655 27656 27657 27658 27659 27660 27661 27662 27663 27664 27665 27666 27667 27668 27669 27670 27671 27672 27673 27674 27675 27676 27677 27678 27679 27680 27681 27682 27683 27684 27685 27686 27687 27688 27689 27690 27691 27692 27693 27694 27695 27696 27697 27698 27699 27700 27701 27702 27703 27704 27705 27706 27707 27708 27709 27710 27711 27712 27713 27714 27715 27716 27717 27718 27719 27720 27721 27722 27723 27724 27725 27726 27727 27728 27729 27730 27731 27732 27733 27734 27735 27736 27737 27738 27739 27740 27741 27742 27743 27744 27745 27746 27747 27748 27749 27750 27751 27752 27753 27754 27755 27756 27757 27758 27759 27760 27761 27762 27763 27764 27765 27766 27767 27768 27769 27770 27771 27772 27773 27774 27775 27776 27777 27778 27779 27780 27781 27782 27783 27784 27785 27786 27787 27788 27789 27790 27791 27792 27793 27794 27795 27796 27797 27798 27799 27800 27801 27802 27803 27804 27805 27806 27807 27808 27809 27810 27811 27812 27813 27814 27815 27816 27817 27818 27819 27820 27821 27822 27823 27824 27825 27826 27827 27828 27829 27830 27831 27832 27833 27834 27835 27836 27837 27838 27839 27840 27841 27842 27843 27844 27845 27846 27847 27848 27849 27850 27851 27852 27853 27854 27855 27856 27857 27858 27859 27860 27861 27862 27863 27864 27865 27866 27867 27868 27869 27870 27871 27872 27873 27874 27875 27876 27877 27878 27879 27880 27881 27882 27883 27884 27885 27886 27887 27888 27889 27890 27891 27892 27893 27894 27895 27896 27897 27898 27899 27900 27901 27902 27903 27904 27905 27906 27907 27908 27909 27910 27911 27912 27913 27914 27915 27916 27917 27918 27919 27920 27921 27922 27923 27924 27925 27926 27927 27928 27929 27930 27931 27932 27933 27934 27935 27936 27937 27938 27939 27940 27941 27942 27943 27944 27945 27946 27947 27948 27949 27950 27951 27952 27953 27954 27955 27956 27957 27958 27959 27960 27961 27962 27963 27964 27965 27966 27967 27968 27969 27970 27971 27972 27973 27974 27975 27976 27977 27978 27979 27980 27981 27982 27983 27984 27985 27986 27987 27988 27989 27990 27991 27992 27993 27994 27995 27996 27997 27998 27999 28000 28001 28002 28003 28004 28005 28006 28007 28008 28009 28010 28011 28012 28013 28014 28015 28016 28017 28018 28019 28020 28021 28022 28023 28024 28025 28026 28027 28028 28029 28030 28031 28032 28033 28034 28035 28036 28037 28038 28039 28040 28041 28042 28043 28044 28045 28046 28047 28048 28049 28050 28051 28052 28053 28054 28055 28056 28057 28058 28059 28060 28061 28062 28063 28064 28065 28066 28067 28068 28069 28070 28071 28072 28073 28074 28075 28076 28077 28078 28079 28080 28081 28082 28083 28084 28085 28086 28087 28088 28089 28090 28091 28092 28093 28094 28095 28096 28097 28098 28099 28100 28101 28102 28103 28104 28105 28106 28107 28108 28109 28110 28111 28112 28113 28114 28115 28116 28117 28118 28119 28120 28121 28122 28123 28124 28125 28126 28127 28128 28129 28130 28131 28132 28133 28134 28135 28136 28137 28138 28139 28140 28141 28142 28143 28144 28145 28146 28147 28148 28149 28150 28151 28152 28153 28154 28155 28156 28157 28158 28159 28160 28161 28162 28163 28164 28165 28166 28167 28168 28169 28170 28171 28172 28173 28174 28175 28176 28177 28178 28179 28180 28181 28182 28183 28184 28185 28186 28187 28188 28189 28190 28191 28192 28193 28194 28195 28196 28197 28198 28199 28200 28201 28202 28203 28204 28205 28206 28207 28208 28209 28210 28211 28212 28213 28214 28215 28216 28217 28218 28219 28220 28221 28222 28223 28224 28225 28226 28227 28228 28229 28230 28231 28232 28233 28234 28235 28236 28237 28238 28239 28240 28241 28242 28243 28244 28245 28246 28247 28248 28249 28250 28251 28252 28253 28254 28255 28256 28257 28258 28259 28260 28261 28262 28263 28264 28265 28266 28267 28268 28269 28270 28271 28272 28273 28274 28275 28276 28277 28278 28279 28280 28281 28282 28283 28284 28285 28286 28287 28288 28289 28290 28291 28292 28293 28294 28295 28296 28297 28298 28299 28300 28301 28302 28303 28304 28305 28306 28307 28308 28309 28310 28311 28312 28313 28314 28315 28316 28317 28318 28319 28320 28321 28322 28323 28324 28325 28326 28327 28328 28329 28330 28331 28332 28333 28334 28335 28336 28337 28338 28339 28340 28341 28342 28343 28344 28345 28346 28347 28348 28349 28350 28351 28352 28353 28354 28355 28356 28357 28358 28359 28360 28361 28362 28363 28364 28365 28366 28367 28368 28369 28370 28371 28372 28373 28374 28375 28376 28377 28378 28379 28380 28381 28382 28383 28384 28385 28386 28387 28388 28389 28390 28391 28392 28393 28394 28395 28396 28397 28398 28399 28400 28401 28402 28403 28404 28405 28406 28407 28408 28409 28410 28411 28412 28413 28414 28415 28416 28417 28418 28419 28420 28421 28422 28423 28424 28425 28426 28427 28428 28429 28430 28431 28432 28433 28434 28435 28436 28437 28438 28439 28440 28441 28442 28443 28444 28445 28446 28447 28448 28449 28450 28451 28452 28453 28454 28455 28456 28457 28458 28459 28460 28461 28462 28463 28464 28465 28466 28467 28468 28469 28470 28471 28472 28473 28474 28475 28476 28477 28478 28479 28480 28481 28482 28483 28484 28485 28486 28487 28488 28489 28490 28491 28492 28493 28494 28495 28496 28497 28498 28499 28500 28501 28502 28503 28504 28505 28506 28507 28508 28509 28510 28511 28512 28513 28514 28515 28516 28517 28518 28519 28520 28521 28522 28523 28524 28525 28526 28527 28528 28529 28530 28531 28532 28533 28534 28535 28536 28537 28538 28539 28540 28541 28542 28543 28544 28545 28546 28547 28548 28549 28550 28551 28552 28553 28554 28555 28556 28557 28558 28559 28560 28561 28562 28563 28564 28565 28566 28567 28568 28569 28570 28571 28572 28573 28574 28575 28576 28577 28578 28579 28580 28581 28582 28583 28584 28585 28586 28587 28588 28589 28590 28591 28592 28593 28594 28595 28596 28597 28598 28599 28600 28601 28602 28603 28604 28605 28606 28607 28608 28609 28610 28611 28612 28613 28614 28615 28616 28617 28618 28619 28620 28621 28622 28623 28624 28625 28626 28627 28628 28629 28630 28631 28632 28633 28634 28635 28636 28637 28638 28639 28640 28641 28642 28643 28644 28645 28646 28647 28648 28649 28650 28651 28652 28653 28654 28655 28656 28657 28658 28659 28660 28661 28662 28663 28664 28665 28666 28667 28668 28669 28670 28671 28672 28673 28674 28675 28676 28677 28678 28679 28680 28681 28682 28683 28684 28685 28686 28687 28688 28689 28690 28691 28692 28693 28694 28695 28696 28697 28698 28699 28700 28701 28702 28703 28704 28705 28706 28707 28708 28709 28710 28711 28712 28713 28714 28715 28716 28717 28718 28719 28720 28721 28722 28723 28724 28725 28726 28727 28728 28729 28730 28731 28732 28733 28734 28735 28736 28737 28738 28739 28740 28741 28742 28743 28744 28745 28746 28747 28748 28749 28750 28751 28752 28753 28754 28755 28756 28757 28758 28759 28760 28761 28762 28763 28764 28765 28766 28767 28768 28769 28770 28771 28772 28773 28774 28775 28776 28777 28778 28779 28780 28781 28782 28783 28784 28785 28786 28787 28788 28789 28790 28791 28792 28793 28794 28795 28796 28797 28798 28799 28800 28801 28802 28803 28804 28805 28806 28807 28808 28809 28810 28811 28812 28813 28814 28815 28816 28817 28818 28819 28820 28821 28822 28823 28824 28825 28826 28827 28828 28829 28830 28831 28832 28833 28834 28835 28836 28837 28838 28839 28840 28841 28842 28843 28844 28845 28846 28847 28848 28849 28850 28851 28852 28853 28854 28855 28856 28857 28858 28859 28860 28861 28862 28863 28864 28865 28866 28867 28868 28869 28870 28871 28872 28873 28874 28875 28876 28877 28878 28879 28880 28881 28882 28883 28884 28885 28886 28887 28888 28889 28890 28891 28892 28893 28894 28895 28896 28897 28898 28899 28900 28901 28902 28903 28904 28905 28906 28907 28908 28909 28910 28911 28912 28913 28914 28915 28916 28917 28918 28919 28920 28921 28922 28923 28924 28925 28926 28927 28928 28929 28930 28931 28932 28933 28934 28935 28936 28937 28938 28939 28940 28941 28942 28943 28944 28945 28946 28947 28948 28949 28950 28951 28952 28953 28954 28955 28956 28957 28958 28959 28960 28961 28962 28963 28964 28965 28966 28967 28968 28969 28970 28971 28972 28973 28974 28975 28976 28977 28978 28979 28980 28981 28982 28983 28984 28985 28986 28987 28988 28989 28990 28991 28992 28993 28994 28995 28996 28997 28998 28999 29000 29001 29002 29003 29004 29005 29006 29007 29008 29009 29010 29011 29012 29013 29014 29015 29016 29017 29018 29019 29020 29021 29022 29023 29024 29025 29026 29027 29028 29029 29030 29031 29032 29033 29034 29035 29036 29037 29038 29039 29040 29041 29042 29043 29044 29045 29046 29047 29048 29049 29050 29051 29052 29053 29054 29055 29056 29057 29058 29059 29060 29061 29062 29063 29064 29065 29066 29067 29068 29069 29070 29071 29072 29073 29074 29075 29076 29077 29078 29079 29080 29081 29082 29083 29084 29085 29086 29087 29088 29089 29090 29091 29092 29093 29094 29095 29096 29097 29098 29099 29100 29101 29102 29103 29104 29105 29106 29107 29108 29109 29110 29111 29112 29113 29114 29115 29116 29117 29118 29119 29120 29121 29122 29123 29124 29125 29126 29127 29128 29129 29130 29131 29132 29133 29134 29135 29136 29137 29138 29139 29140 29141 29142 29143 29144 29145 29146 29147 29148 29149 29150 29151 29152 29153 29154 29155 29156 29157 29158 29159 29160 29161 29162 29163 29164 29165 29166 29167 29168 29169 29170 29171 29172 29173 29174 29175 29176 29177 29178 29179 29180 29181 29182 29183 29184 29185 29186 29187 29188 29189 29190 29191 29192 29193 29194 29195 29196 29197 29198 29199 29200 29201 29202 29203 29204 29205 29206 29207 29208 29209 29210 29211 29212 29213 29214 29215 29216 29217 29218 29219 29220 29221 29222 29223 29224 29225 29226 29227 29228 29229 29230 29231 29232 29233 29234 29235 29236 29237 29238 29239 29240 29241 29242 29243 29244 29245 29246 29247 29248 29249 29250 29251 29252 29253 29254 29255 29256 29257 29258 29259 29260 29261 29262 29263 29264 29265 29266 29267 29268 29269 29270 29271 29272 29273 29274 29275 29276 29277 29278 29279 29280 29281 29282 29283 29284 29285 29286 29287 29288 29289 29290 29291 29292 29293 29294 29295 29296 29297 29298 29299 29300 29301 29302 29303 29304 29305 29306 29307 29308 29309 29310 29311 29312 29313 29314 29315 29316 29317 29318 29319 29320 29321 29322 29323 29324 29325 29326 29327 29328 29329 29330 29331 29332 29333 29334 29335 29336 29337 29338 29339 29340 29341 29342 29343 29344 29345 29346 29347 29348 29349 29350 29351 29352 29353 29354 29355 29356 29357 29358 29359 29360 29361 29362 29363 29364 29365 29366 29367 29368 29369 29370 29371 29372 29373 29374 29375 29376 29377 29378 29379 29380 29381 29382 29383 29384 29385 29386 29387 29388 29389 29390 29391 29392 29393 29394 29395 29396 29397 29398 29399 29400 29401 29402 29403 29404 29405 29406 29407 29408 29409 29410 29411 29412 29413 29414 29415 29416 29417 29418 29419 29420 29421 29422 29423 29424 29425 29426 29427 29428 29429 29430 29431 29432 29433 29434 29435 29436 29437 29438 29439 29440 29441 29442 29443 29444 29445 29446 29447 29448 29449 29450 29451 29452 29453 29454 29455 29456 29457 29458 29459 29460 29461 29462 29463 29464 29465 29466 29467 29468 29469 29470 29471 29472 29473 29474 29475 29476 29477 29478 29479 29480 29481 29482 29483 29484 29485 29486 29487 29488 29489 29490 29491 29492 29493 29494 29495 29496 29497 29498 29499 29500 29501 29502 29503 29504 29505 29506 29507 29508 29509 29510 29511 29512 29513 29514 29515 29516 29517 29518 29519 29520 29521 29522 29523 29524 29525 29526 29527 29528 29529 29530 29531 29532 29533 29534 29535 29536 29537 29538 29539 29540 29541 29542 29543 29544 29545 29546 29547 29548 29549 29550 29551 29552 29553 29554 29555 29556 29557 29558 29559 29560 29561 29562 29563 29564 29565 29566 29567 29568 29569 29570 29571 29572 29573 29574 29575 29576 29577 29578 29579 29580 29581 29582 29583 29584 29585 29586 29587 29588 29589 29590 29591 29592 29593 29594 29595 29596 29597 29598 29599 29600 29601 29602 29603 29604 29605 29606 29607 29608 29609 29610 29611 29612 29613 29614 29615 29616 29617 29618 29619 29620 29621 29622 29623 29624 29625 29626 29627 29628 29629 29630 29631 29632 29633 29634 29635 29636 29637 29638 29639 29640 29641 29642 29643 29644 29645 29646 29647 29648 29649 29650 29651 29652 29653 29654 29655 29656 29657 29658 29659 29660 29661 29662 29663 29664 29665 29666 29667 29668 29669 29670 29671 29672 29673 29674 29675 29676 29677 29678 29679 29680 29681 29682 29683 29684 29685 29686 29687 29688 29689 29690 29691 29692 29693 29694 29695 29696 29697 29698 29699 29700 29701 29702 29703 29704 29705 29706 29707 29708 29709 29710 29711 29712 29713 29714 29715 29716 29717 29718 29719 29720 29721 29722 29723 29724 29725 29726 29727 29728 29729 29730 29731 29732 29733 29734 29735 29736 29737 29738 29739 29740 29741 29742 29743 29744 29745 29746 29747 29748 29749 29750 29751 29752 29753 29754 29755 29756 29757 29758 29759 29760 29761 29762 29763 29764 29765 29766 29767 29768 29769 29770 29771 29772 29773 29774 29775 29776 29777 29778 29779 29780 29781 29782 29783 29784 29785 29786 29787 29788 29789 29790 29791 29792 29793 29794 29795 29796 29797 29798 29799 29800 29801 29802 29803 29804 29805 29806 29807 29808 29809 29810 29811 29812 29813 29814 29815 29816 29817 29818 29819 29820 29821 29822 29823 29824 29825 29826 29827 29828 29829 29830 29831 29832 29833 29834 29835 29836 29837 29838 29839 29840 29841 29842 29843 29844 29845 29846 29847 29848 29849 29850 29851 29852 29853 29854 29855 29856 29857 29858 29859 29860 29861 29862 29863 29864 29865 29866 29867 29868 29869 29870 29871 29872 29873 29874 29875 29876 29877 29878 29879 29880 29881 29882 29883 29884 29885 29886 29887 29888 29889 29890 29891 29892 29893 29894 29895 29896 29897 29898 29899 29900 29901 29902 29903 29904 29905 29906 29907 29908 29909 29910 29911 29912 29913 29914 29915 29916 29917 29918 29919 29920 29921 29922 29923 29924 29925 29926 29927 29928 29929 29930 29931 29932 29933 29934 29935 29936 29937 29938 29939 29940 29941 29942 29943 29944 29945 29946 29947 29948 29949 29950 29951 29952 29953 29954 29955 29956 29957 29958 29959 29960 29961 29962 29963 29964 29965 29966 29967 29968 29969 29970 29971 29972 29973 29974 29975 29976 29977 29978 29979 29980 29981 29982 29983 29984 29985 29986 29987 29988 29989 29990 29991 29992 29993 29994 29995 29996 29997 29998 29999 30000 30001 30002 30003 30004 30005 30006 30007 30008 30009 30010 30011 30012 30013 30014 30015 30016 30017 30018 30019 30020 30021 30022 30023 30024 30025 30026 30027 30028 30029 30030 30031 30032 30033 30034 30035 30036 30037 30038 30039 30040 30041 30042 30043 30044 30045 30046 30047 30048 30049 30050 30051 30052 30053 30054 30055 30056 30057 30058 30059 30060 30061 30062 30063 30064 30065 30066 30067 30068 30069 30070 30071 30072 30073 30074 30075 30076 30077 30078 30079 30080 30081 30082 30083 30084 30085 30086 30087 30088 30089 30090 30091 30092 30093 30094 30095 30096 30097 30098 30099 30100 30101 30102 30103 30104 30105 30106 30107 30108 30109 30110 30111 30112 30113 30114 30115 30116 30117 30118 30119 30120 30121 30122 30123 30124 30125 30126 30127 30128 30129 30130 30131 30132 30133 30134 30135 30136 30137 30138 30139 30140 30141 30142 30143 30144 30145 30146 30147 30148 30149 30150 30151 30152 30153 30154 30155 30156 30157 30158 30159 30160 30161 30162 30163 30164 30165 30166 30167 30168 30169 30170 30171 30172 30173 30174 30175 30176 30177 30178 30179 30180 30181 30182 30183 30184 30185 30186 30187 30188 30189 30190 30191 30192 30193 30194 30195 30196 30197 30198 30199 30200 30201 30202 30203 30204 30205 30206 30207 30208 30209 30210 30211 30212 30213 30214 30215 30216 30217 30218 30219 30220 30221 30222 30223 30224 30225 30226 30227 30228 30229 30230 30231 30232 30233 30234 30235 30236 30237 30238 30239 30240 30241 30242 30243 30244 30245 30246 30247 30248 30249 30250 30251 30252 30253 30254 30255 30256 30257 30258 30259 30260 30261 30262 30263 30264 30265 30266 30267 30268 30269 30270 30271 30272 30273 30274 30275 30276 30277 30278 30279 30280 30281 30282 30283 30284 30285 30286 30287 30288 30289 30290 30291 30292 30293 30294 30295 30296 30297 30298 30299 30300 30301 30302 30303 30304 30305 30306 30307 30308 30309 30310 30311 30312 30313 30314 30315 30316 30317 30318 30319 30320 30321 30322 30323 30324 30325 30326 30327 30328 30329 30330 30331 30332 30333 30334 30335 30336 30337 30338 30339 30340 30341 30342 30343 30344 30345 30346 30347 30348 30349 30350 30351 30352 30353 30354 30355 30356 30357 30358 30359 30360 30361 30362 30363 30364 30365 30366 30367 30368 30369 30370 30371 30372 30373 30374 30375 30376 30377 30378 30379 30380 30381 30382 30383 30384 30385 30386 30387 30388 30389 30390 30391 30392 30393 30394 30395 30396 30397 30398 30399 30400 30401 30402 30403 30404 30405 30406 30407 30408 30409 30410 30411 30412 30413 30414 30415 30416 30417 30418 30419 30420 30421 30422 30423 30424 30425 30426 30427 30428 30429 30430 30431 30432 30433 30434 30435 30436 30437 30438 30439 30440 30441 30442 30443 30444 30445 30446 30447 30448 30449 30450 30451 30452 30453 30454 30455 30456 30457 30458 30459 30460 30461 30462 30463 30464 30465 30466 30467 30468 30469 30470 30471 30472 30473 30474 30475 30476 30477 30478 30479 30480 30481 30482 30483 30484 30485 30486 30487 30488 30489 30490 30491 30492 30493 30494 30495 30496 30497 30498 30499 30500 30501 30502 30503 30504 30505 30506 30507 30508 30509 30510 30511 30512 30513 30514 30515 30516 30517 30518 30519 30520 30521 30522 30523 30524 30525 30526 30527 30528 30529 30530 30531 30532 30533 30534 30535 30536 30537 30538 30539 30540 30541 30542 30543 30544 30545 30546 30547 30548 30549 30550 30551 30552 30553 30554 30555 30556 30557 30558 30559 30560 30561 30562 30563 30564 30565 30566 30567 30568 30569 30570 30571 30572 30573 30574 30575 30576 30577 30578 30579 30580 30581 30582 30583 30584 30585 30586 30587 30588 30589 30590 30591 30592 30593 30594 30595 30596 30597 30598 30599 30600 30601 30602 30603 30604 30605 30606 30607 30608 30609 30610 30611 30612 30613 30614 30615 30616 30617 30618 30619 30620 30621 30622 30623 30624 30625 30626 30627 30628 30629 30630 30631 30632 30633 30634 30635 30636 30637 30638 30639 30640 30641 30642 30643 30644 30645 30646 30647 30648 30649 30650 30651 30652 30653 30654 30655 30656 30657 30658 30659 30660 30661 30662 30663 30664 30665 30666 30667 30668 30669 30670 30671 30672 30673 30674 30675 30676 30677 30678 30679 30680 30681 30682 30683 30684 30685 30686 30687 30688 30689 30690 30691 30692 30693 30694 30695 30696 30697 30698 30699 30700 30701 30702 30703 30704 30705 30706 30707 30708 30709 30710 30711 30712 30713 30714 30715 30716 30717 30718 30719 30720 30721 30722 30723 30724 30725 30726 30727 30728 30729 30730 30731 30732 30733 30734 30735 30736 30737 30738 30739 30740 30741 30742 30743 30744 30745 30746 30747 30748 30749 30750 30751 30752 30753 30754 30755 30756 30757 30758 30759 30760 30761 30762 30763 30764 30765 30766 30767 30768 30769 30770 30771 30772 30773 30774 30775 30776 30777 30778 30779 30780 30781 30782 30783 30784 30785 30786 30787 30788 30789 30790 30791 30792 30793 30794 30795 30796 30797 30798 30799 30800 30801 30802 30803 30804 30805 30806 30807 30808 30809 30810 30811 30812 30813 30814 30815 
</DataArray>
<DataArray type="UInt32" Name="offsets" format="ascii">
3 6 9 11 14 17 20 23 26 29 32 35 37 40 43 45 48 51 53 55 58 61 63 66 69 72 74 77 80 83 86 89 92 95 98 100 103 106 109 112 115 118 121 123 126 129 132 135 137 140 143 146 149 152 155 158 161 164 167 170 173 175 178 181 184 187 189 191 194 197 199 201 204 207 210 213 215 218 221 224 226 229 232 235 238 240 242 245 248 251 254 257 259 261 264 267 270 273 275 278 281 284 287 290 293 296 299 301 304 307 310 312 315 318 321 324 327 330 333 336 339 342 344 347 349 352 354 357 360 363 366 369 372 374 377 380 382 385 388 391 393 396 398 401 404 407 410 413 416 419 421 424 427 430 433 436 439 442 445 447 450 453 456 459 462 465 468 470 473 476 478 481 484 487 490 493 496 499 502 505 508 511 514 517 520 523 526 529 532 535 538 541 544 547 550 553 556 559 562 564 566 568 570 573 575 578 581 583 586 589 591 594 597 599 602 605 608 610 613 616 619 622 625 628 631 634 637 640 643 646 649 652 654 657 660 663 666 669 672 675 678 681 684 687 690 693 696 699 702 705 708 711 714 716 719 722 725 728 731 733 736 739 742 745 748 751 753 755 758 760 762 765 767 770 773 775 777 780 783 785 788 791 793 795 798 801 804 807 810 813 815 817 820 822 824 827 829 832 835 838 841 843 846 848 851 854 857 860 863 866 869 872 875 878 881 884 887 890 893 896 899 902 905 908 911 913 916 919 922 925 928 930 933 936 939 941 944 947 950 953 956 958 961 964 967 970 973 976 979 982 985 988 990 993 996 999 1002 1005 1008 1011 1014 1017 1020 1023 1025 1028 1031 1034 1037 1040 1043 1046 1049 1052 1055 1058 1061 1064 1067 1070 1073 1076 1079 1082 1085 1088 1091 1094 1097 1100 1103 1106 1109 1112 1115 1118 1121 1124 1127 1130 1133 1136 1139 1142 1145 1148 1151 1154 1157 1160 1163 1165 1168 1170 1173 1175 1178 1181 1184 1187 1190 1193 1196 1199 1202 1205 1208 1211 1214 1217 1220 1223 1226 1229 1232 1235 1238 1241 1244 1247 1250 1253 1256 1258 1261 1264 1267 1269 1272 1275 1278 1280 1283 1286 1288 1291 1294 1297 1300 1303 1306 1309 1311 1314 1317 1320 1323 1326 1329 1332 1335 1338 1341 1344 1347 1350 1353 1356 1359 1362 1364 1367 1370 1373 1376 1379 1381 1384 1387 1390 1393 1396 1399 1402 1404 1407 1410 1412 1415 1418 1420 1423 1426 1429 1432 1435 1438 1441 1444 1447 1450 1453 1456 1458 1461 1464 1466 1468 1471 1474 1477 1480 1483 1485 1488 1491 1494 1497 1500 1502 1505 1508 1511 1513 1516 1519 1521 1524 1527 1529 1532 1535 1538 1541 1544 1547 1549 1552 1555 1557 1560 1563 1566 1569 1572 1575 1578 1581 1583 1586 1589 1591 1593 1596 1599 1602 1605 1608 1611 1614 1617 1620 1623 1626 1629 1632 1635 1638 1641 1644 1647 1650 1653 1655 1658 1661 1664 1667 1670 1673 1676 1679 1681 1684 1687 1690 1693 1696 1699 1702 1705 1708 1711 1713 1716 1719 1722 1725 1728 1731 1734 1737 1740 1743 1746 1749 1752 1755 1758 1761 1764 1767 1770 1773 1776 1779 1782 1784 1787 1790 1793 1796 1799 1802 1805 1808 1810 1813 1816 1818 1821 1824 1827 1830 1833 1836 1839 1842 1845 1848 1851 1854 1857 1860 1863 1866 1869 1872 1875 1877 1880 1883 1886 1889 1891 1894 1897 1900 1903 1906 1908 1910 1913 1916 1919 1922 1925 1928 1931 1933 1936 1939 1942 1945 1947 1950 1953 1956 1959 1962 1965 1968 1970 1972 1974 1976 1979 1981 1984 1986 1988 1991 1994 1997 2000 2003 2005 2008 2010 2012 2014 2017 2019 2022 2025 2028 2031 2034 2037 2040 2043 2046 2049 2052 2055 2058 2061 2063 2066 2069 2072 2074 2077 2080 2083 2085 2088 2091 2094 2097 2100 2103 2106 2109 2112 2115 2118 2121 2124 2126 2129 2132 2135 2138 2141 2144 2147 2150 2153 2156 2159 2162 2165 2168 2171 2174 2177 2180 2183 2186 2189 2192 2195 2198 2201 2204 2207 2210 2213 2216 2219 2221 2224 2227 2230 2232 2235 2238 2241 2244 2247 2250 2253 2256 2259 2262 2265 2268 2271 2274 2277 2280 2283 2286 2289 2292 2295 2298 2301 2304 2307 2310 2312 2315 2318 2321 2324 2327 2330 2333 2336 2339 2342 2345 2348 2350 2353 2356 2358 2361 2364 2367 2370 2372 2375 2378 2380 2383 2386 2389 2391 2394 2397 2400 2402 2405 2408 2411 2414 2416 2419 2422 2425 2427 2429 2432 2435 2437 2440 2443 2446 2449 2452 2455 2458 2460 2462 2465 2468 2471 2474 2477 2480 2483 2486 2488 2491 2493 2495 2498 2501 2504 2507 2510 2513 2516 2519 2522 2524 2527 2530 2533 2536 2539 2542 2545 2548 2551 2554 2557 2559 2562 2565 2568 2571 2574 2577 2579 2582 2585 2588 2591 2593 2596 2599 2602 2604 2607 2610 2613 2616 2619 2622 2625 2628 2631 2634 2636 2639 2642 2645 2648 2651 2654 2656 2659 2662 2664 2667 2670 2673 2676 2678 2681 2683 2686 2689 2692 2695 2698 2701 2704 2707 2710 2713 2715 2718 2721 2723 2726 2729 2732 2735 2738 2741 2744 2747 2750 2752 2755 2758 2761 2764 2766 2769 2772 2775 2778 2781 2784 2786 2789 2792 2795 2798 2801 2804 2807 2810 2813 2816 2819 2822 2825 2828 2830 2833 2836 2839 2842 2845 2848 2851 2854 2857 2860 2863 2865 2868 2871 2874 2877 2880 2883 2886 2889 2892 2895 2898 2901 2904 2907 2910 2913 2916 2919 2922 2925 2928 2931 2934 2937 2940 2943 2946 2948 2951 2954 2957 2960 2963 2966 2969 2971 2974 2977 2980 2983 2986 2989 2992 2995 2998 3000 3003 3006 3008 3011 3014 3017 3020 3023 3025 3028 3031 3033 3036 3039 3041 3044 3047 3049 3052 3055 3058 3061 3064 3067 3070 3073 3076 3079 3082 3084 3086 3088 3091 3094 3097 3100 3103 3105 3108 3111 3114 3117 3120 3123 3126 3129 3132 3135 3138 3141 3144 3147 3149 3151 3154 3156 3159 3161 3164 3166 3169 3171 3174 3177 3180 3183 3186 3189 3192 3195 3198 3201 3204 3207 3210 3213 3216 3219 3222 3225 3227 3230 3233 3236 3239 3242 3245 3248 3251 3254 3257 3260 3263 3266 3269 3272 3275 3278 3281 3284 3287 3290 3293 3296 3299 3302 3305 3308 3311 3314 3317 3320 3323 3326 3329 3332 3335 3338 3341 3344 3346 3349 3351 3354 3356 3359 3362 3365 3368 3371 3374 3377 3380 3383 3386 3389 3391 3394 3397 3400 3403 3406 3409 3412 3415 3418 3420 3423 3426 3429 3432 3434 3437 3440 3442 3445 3448 3451 3454 3457 3460 3463 3466 3469 3472 3475 3477 3479 3482 3484 3487 3490 3493 3496 3498 3501 3503 3505 3508 3511 3514 3516 3519 3521 3524 3527 3530 3532 3534 3537 3540 3542 3545 3548 3551 3554 3557 3560 3563 3566 3569 3572 3574 3577 3579 3582 3585 3588 3591 3594 3597 3599 3602 3605 3607 3610 3613 3616 3619 3622 3624 3627 3629 3632 3635 3638 3641 3644 3647 3650 3653 3656 3659 3662 3664 3667 3669 3672 3675 3678 3681 3684 3687 3690 3693 3696 3699 3702 3705 3708 3711 3714 3717 3720 3723 3726 3729 3731 3734 3737 3740 3743 3746 3749 3752 3755 3758 3760 3763 3766 3768 3771 3774 3776 3779 3782 3785 3788 3791 3794 3797 3799 3802 3805 3808 3811 3814 3816 3819 3822 3825 3827 3830 3833 3836 3838 3841 3844 3846 3849 3852 3854 3857 3860 3863 3866 3869 3872 3875 3878 3881 3884 3887 3890 3893 3896 3899 3902 3904 3907 3910 3913 3916 3919 3922 3925 3928 3931 3934 3937 3940 3943 3945 3948 3951 3954 3957 3960 3963 3966 3969 3971 3974 3977 3980 3982 3985 3988 3991 3994 3997 4000 4003 4005 4008 4011 4014 4016 4018 4020 4023 4026 4029 4032 4035 4037 4040 4043 4046 4049 4052 4055 4058 4061 4064 4067 4070 4073 4076 4079 4082 4085 4088 4091 4094 4097 4100 4103 4106 4109 4112 4115 4118 4121 4124 4127 4130 4133 4136 4139 4142 4145 4148 4151 4154 4157 4160 4162 4165 4168 4171 4174 4177 4180 4183 4186 4189 4192 4195 4198 4201 4204 4207 4210 4213 4215 4218 4221 4224 4227 4230 4233 4236 4239 4242 4244 4247 4250 4253 4256 4258 4261 4264 4267 4270 4273 4275 4278 4281 4284 4287 4289 4292 4294 4296 4299 4301 4304 4307 4310 4313 4315 4318 4321 4324 4327 4330 4333 4336 4338 4341 4344 4347 4350 4353 4356 4359 4362 4364 4367 4370 4373 4376 4378 4381 4384 4387 4390 4393 4396 4399 4402 4405 4408 4411 4414 4417 4420 4423 4426 4429 4432 4435 4438 4441 4444 4447 4450 4453 4456 4459 4462 4465 4468 4471 4474 4477 4480 4482 4485 4488 4491 4494 4497 4500 4503 4506 4509 4512 4515 4518 4521 4524 4527 4530 4533 4536 4539 4542 4545 4548 4551 4554 4557 4559 4562 4565 4567 4570 4573 4576 4579 4581 4584 4587 4590 4593 4596 4599 4602 4605 4607 4610 4613 4615 4617 4620 4623 4625 4628 4631 4633 4635 4638 4641 4644 4647 4649 4651 4654 4657 4660 4662 4665 4667 4670 4673 4676 4679 4682 4685 4688 4691 4694 4697 4700 4703 4706 4709 4712 4715 4718 4721 4724 4727 4729 4732 4735 4737 4740 4743 4746 4749 4752 4755 4758 4761 4764 4766 4769 4772 4775 4778 4781 4784 4786 4789 4792 4795 4798 4801 4804 4807 4810 4812 4815 4817 4820 4823 4826 4829 4832 4835 4838 4841 4844 4847 4850 4853 4856 4859 4862 4865 4868 4871 4874 4877 4880 4883 4886 4889 4892 4895 4898 4901 4904 4907 4910 4913 4915 4918 4921 4924 4927 4930 4932 4935 4938 4941 4944 4947 4950 4953 4955 4958 4961 4964 4967 4970 4972 4975 4978 4981 4984 4987 4990 4993 4996 4998 5001 5004 5007 5010 5013 5016 5019 5022 5025 5028 5031 5034 5037 5039 5042 5045 5047 5050 5053 5055 5058 5060 5063 5066 5069 5072 5075 5078 5081 5084 5087 5090 5093 5096 5099 5101 5103 5106 5109 5112 5115 5118 5120 5123 5126 5129 5132 5135 5138 5141 5144 5147 5150 5153 5156 5159 5162 5165 5168 5171 5174 5177 5180 5183 5186 5189 5192 5195 5198 5201 5204 5207 5210 5213 5216 5219 5222 5225 5228 5231 5234 5237 5240 5243 5246 5249 5252 5255 5258 5261 5264 5267 5270 5273 5276 5279 5282 5285 5288 5291 5294 5297 5299 5302 5305 5308 5311 5314 5317 5320 5323 5326 5329 5332 5335 5338 5341 5344 5347 5350 5353 5356 5359 5362 5365 5368 5371 5374 5377 5379 5382 5385 5388 5391 5394 5397 5400 5403 5406 5409 5411 5414 5416 5419 5422 5425 5428 5431 5434 5437 5440 5443 5446 5448 5451 5454 5457 5460 5463 5466 5469 5472 5475 5478 5481 5484 5487 5490 5493 5496 5499 5502 5505 5508 5511 5514 5517 5520 5523 5526 5529 5532 5535 5538 5541 5544 5547 5550 5553 5556 5559 5562 5565 5568 5571 5574 5577 5580 5583 5586 5589 5592 5595 5598 5601 5604 5607 5610 5613 5616 5619 5622 5625 5627 5630 5633 5635 5638 5641 5644 5647 5649 5652 5654 5657 5660 5663 5666 5669 5672 5675 5678 5681 5684 5687 5690 5693 5696 5699 5701 5704 5707 5709 5712 5715 5718 5721 5724 5727 5730 5733 5736 5739 5742 5745 5748 5751 5754 5757 5760 5762 5764 5767 5770 5773 5776 5779 5782 5785 5788 5791 5794 5797 5800 5803 5806 5809 5812 5815 5818 5821 5824 5827 5830 5833 5836 5839 5842 5845 5848 5851 5854 5857 5860 5863 5866 5868 5871 5874 5877 5880 5883 5886 5889 5892 5895 5898 5901 5904 5907 5910 5913 5915 5918 5921 5924 5927 5930 5933 5936 5939 5942 5945 5948 5951 5954 5956 5959 5962 5965 5968 5971 5974 5977 5980 5983 5986 5989 5992 5995 5998 6001 6004 6007 6010 6013 6016 6019 6022 6025 6028 6031 6034 6037 6040 6042 6045 6048 6051 6053 6056 6059 6062 6065 6068 6071 6073 6076 6079 6082 6084 6087 6090 6093 6095 6098 6101 6104 6107 6110 6113 6116 6118 6121 6124 6127 6130 6132 6135 6137 6140 6143 6146 6149 6152 6155 6158 6161 6164 6167 6169 6172 6175 6178 6180 6183 6185 6188 6191 6194 6197 6200 6203 6206 6209 6211 6214 6217 6220 6222 6224 6227 6230 6233 6236 6239 6242 6245 6248 6251 6254 6257 6260 6263 6266 6269 6272 6275 6278 6281 6284 6286 6289 6292 6295 6298 6301 6304 6307 6310 6313 6316 6318 6321 6324 6327 6330 6333 6335 6338 6341 6344 6347 6350 6352 6355 6358 6360 6363 6366 6368 6371 6374 6376 6379 6382 6385 6387 6390 6393 6396 6399 6402 6404 6407 6409 6411 6414 6417 6420 6423 6426 6429 6432 6435 6437 6440 6443 6446 6448 6451 6454 6456 6459 6462 6465 6468 6470 6473 6476 6479 6481 6484 6487 6490 6493 6496 6499 6502 6504 6507 6510 6513 6516 6519 6522 6525 6527 6529 6531 6533 6536 6539 6542 6545 6548 6551 6554 6557 6560 6563 6566 6569 6571 6574 6577 6579 6582 6585 6588 6591 6594 6596 6599 6602 6605 6608 6610 6613 6616 6619 6621 6624 6627 6630 6633 6635 6638 6640 6643 6646 6649 6652 6655 6658 6661 6663 6666 6669 6672 6674 6677 6680 6683 6686 6688 6690 6693 6696 6699 6702 6705 6708 6710 6713 6716 6719 6722 6724 6727 6730 6733 6736 6739 6741 6744 6747 6750 6753 6756 6758 6761 6764 6767 6770 6773 6775 6778 6781 6784 6787 6790 6793 6796 6799 6801 6804 6807 6810 6813 6816 6819 6822 6824 6827 6830 6833 6836 6839 6842 6845 6848 6851 6854 6857 6859 6862 6865 6868 6871 6874 6877 6879 6881 6883 6886 6889 6891 6894 6896 6899 6901 6904 6907 6910 6913 6916 6919 6921 6924 6927 6930 6933 6936 6939 6941 6944 6946 6948 6951 6954 6957 6960 6963 6966 6969 6972 6975 6978 6981 6984 6987 6990 6993 6996 6999 7002 7005 7008 7011 7014 7016 7019 7021 7024 7027 7030 7033 7036 7039 7042 7044 7046 7049 7052 7055 7058 7060 7063 7066 7069 7072 7075 7078 7081 7084 7087 7090 7093 7096 7099 7101 7104 7107 7109 7112 7115 7118 7121 7124 7127 7130 7133 7136 7139 7142 7145 7148 7150 7153 7156 7159 7162 7165 7167 7170 7172 7175 7178 7181 7184 7187 7189 7192 7195 7198 7201 7203 7206 7209 7212 7215 7218 7221 7224 7227 7230 7233 7236 7239 7242 7245 7248 7250 7253 7256 7259 7262 7264 7267 7270 7273 7276 7279 7282 7285 7288 7291 7294 7297 7300 7303 7306 7309 7312 7314 7317 7320 7322 7325 7328 7331 7334 7337 7340 7343 7345 7348 7351 7354 7357 7360 7363 7365 7368 7371 7373 7376 7379 7382 7385 7387 7390 7393 7396 7399 7402 7405 7408 7410 7413 7416 7418 7421 7424 7426 7429 7432 7435 7437 7440 7443 7446 7449 7452 7455 7458 7461 7464 7466 7469 7472 7474 7477 7480 7483 7486 7488 7491 7494 7496 7499 7502 7505 7507 7510 7513 7516 7519 7522 7525 7528 7531 7533 7536 7539 7542 7545 7548 7551 7554 7557 7560 7563 7566 7569 7572 7575 7578 7581 7584 7587 7590 7593 7596 7599 7602 7605 7608 7610 7613 7616 7618 7621 7624 7627 7630 7633 7636 7639 7642 7645 7648 7651 7654 7657 7660 7663 7666 7669 7672 7675 7678 7681 7683 7686 7689 7692 7695 7698 7700 7703 7706 7708 7710 7713 7715 7718 7721 7723 7726 7729 7732 7735 7738 7741 7744 7747 7750 7753 7755 7758 7761 7764 7767 7770 7773 7776 7779 7782 7785 7788 7791 7794 7797 7800 7803 7806 7809 7812 7815 7818 7821 7824 7827 7830 7833 7836 7839 7842 7845 7848 7851 7854 7857 7860 7863 7866 7869 7872 7875 7878 7881 7884 7887 7890 7893 7896 7899 7902 7905 7908 7911 7914 7917 7920 7923 7926 7929 7932 7934 7937 7940 7942 7945 7948 7951 7954 7957 7960 7963 7966 7969 7972 7975 7978 7981 7984 7987 7990 7992 7995 7998 8001 8004 8007 8010 8013 8016 8019 8022 8025 8028 8031 8033 8036 8039 8041 8043 8046 8049 8052 8055 8058 8060 8063 8066 8069 8072 8075 8078 8081 8084 8086 8089 8092 8095 8098 8100 8103 8105 8108 8111 8113 8116 8119 8122 8125 8128 8131 8134 8137 8139 8141 8144 8147 8150 8153 8156 8159 8161 8164 8167 8170 8172 8175 8178 8181 8184 8187 8190 8193 8196 8199 8201 8204 8207 8209 8212 8215 8218 8221 8224 8227 8230 8233 8235 8238 8241 8243 8246 8249 8252 8255 8258 8261 8263 8266 8269 8272 8274 8277 8280 8283 8286 8289 8292 8295 8298 8301 8304 8307 8310 8313 8316 8319 8322 8324 8327 8330 8332 8335 8338 8341 8344 8346 8349 8352 8354 8357 8360 8363 8365 8368 8371 8374 8377 8379 8382 8385 8388 8390 8393 8396 8399 8402 8405 8408 8411 8413 8416 8419 8422 8425 8428 8430 8433 8436 8439 8442 8445 8448 8451 8454 8457 8460 8463 8466 8469 8472 8475 8478 8481 8484 8487 8489 8492 8495 8498 8501 8503 8505 8508 8511 8514 8517 8519 8522 8525 8528 8531 8534 8537 8539 8542 8545 8547 8550 8553 8555 8558 8561 8564 8566 8569 8572 8575 8578 8581 8584 8587 8590 8593 8595 8598 8601 8603 8606 8609 8612 8615 8618 8620 8622 8625 8628 8630 8633 8635 8637 8640 8643 8646 8648 8651 8654 8657 8660 8662 8665 8668 8671 8674 8677 8680 8683 8686 8688 8691 8693 8696 8699 8702 8704 8707 8709 8712 8715 8717 8720 8723 8726 8728 8731 8734 8737 8740 8743 8746 8749 8752 8755 8757 8759 8762 8765 8768 8770 8773 8776 8779 8782 8785 8788 8791 8794 8797 8800 8803 8806 8808 8811 8814 8817 8820 8822 8825 8828 8831 8834 8836 8839 8842 8844 8847 8850 8852 8855 8858 8861 8864 8867 8870 8872 8875 8878 8880 8883 8886 8889 8892 8895 8897 8900 8902 8905 8908 8911 8914 8917 8920 8923 8926 8929 8932 8935 8938 8941 8944 8947 8950 8953 8956 8959 8962 8965 8968 8971 8974 8977 8980 8983 8986 8989 8992 8995 8998 9001 9004 9007 9010 9012 9015 9018 9021 9024 9027 9029 9032 9035 9038 9041 9044 9046 9049 9052 9055 9058 9061 9064 9066 9069 9072 9075 9078 9080 9083 9086 9088 9091 9094 9097 9100 9102 9104 9107 9110 9113 9116 9119 9122 9124 9127 9130 9133 9136 9139 9142 9144 9146 9149 9152 9155 9158 9161 9164 9167 9169 9171 9174 9177 9180 9182 9185 9187 9190 9193 9195 9197 9200 9203 9206 9209 9212 9214 9217 9220 9223 9226 9229 9232 9235 9238 9241 9244 9247 9250 9253 9255 9258 9261 9263 9265 9268 9270 9273 9276 9279 9281 9284 9287 9290 9293 9296 9298 9301 9304 9307 9310 9313 9316 9319 9322 9324 9327 9330 9333 9336 9339 9341 9344 9347 9350 9353 9356 9359 9362 9365 9368 9371 9374 9377 9380 9383 9386 9389 9391 9394 9397 9400 9403 9406 9409 9412 9415 9418 9421 9424 9427 9430 9433 9436 9439 9442 9445 9448 9450 9453 9455 9458 9460 9463 9466 9469 9472 9475 9478 9481 9484 9487 9490 9493 9496 9499 9501 9504 9507 9510 9513 9516 9519 9522 9525 9528 9531 9534 9536 9539 9542 9545 9548 9551 9554 9557 9560 9563 9566 9569 9572 9574 9576 9579 9582 9585 9588 9591 9594 9597 9600 9603 9605 9608 9611 9614 9617 9620 9622 9625 9628 9630 9633 9635 9637 9640 9643 9646 9648 9651 9653 9656 9659 9662 9665 9668 9670 9673 9676 9679 9682 9684 9687 9690 9693 9695 9698 9701 9703 9706 9709 9712 9715 9718 9721 9723 9726 9729 9732 9735 9738 9741 9743 9746 9749 9752 9754 9757 9760 9763 9766 9769 9772 9775 9778 9781 9784 9787 9790 9793 9796 9799 9802 9805 9808 9811 9814 9817 9820 9823 9826 9829 9832 9835 9838 9841 9844 9847 9850 9853 9856 9859 9862 9865 9868 9871 9874 9877 9880 9883 9886 9889 9892 9895 9898 9901 9904 9907 9910 9913 9915 9918 9921 9924 9927 9930 9933 9936 9939 9942 9945 9948 9951 9954 9957 9960 9963 9965 9968 9971 9974 9976 9979 9982 9985 9987 9990 9993 9996 9999 10002 10004 10007 10010 10012 10015 10017 10019 10022 10025 10028 10031 10034 10037 10040 10043 10046 10048 10051 10054 10056 10059 10062 10065 10068 10071 10074 10077 10080 10083 10086 10089 10092 10095 10098 10101 10104 10107 10110 10113 10116 10119 10121 10124 10127 10130 10133 10136 10139 10142 10145 10148 10151 10154 10157 10160 10163 10166 10169 10172 10175 10177 10180 10183 10185 10188 10191 10194 10197 10200 10203 10206 10208 10211 10214 10217 10220 10223 10226 10229 10231 10234 10237 10239 10241 10244 10247 10249 10251 10254 10257 10260 10263 10265 10268 10270 10273 10276 10279 10282 10285 10288 10291 10294 10297 10299 10302 10305 10308 10311 10313 10316 10319 10322 10325 10328 10331 10333 10336 10339 10342 10345 10347 10350 10353 10356 10359 10362 10364 10367 10370 10373 10376 10379 10382 10385 10388 10390 10393 10395 10398 10401 10404 10407 10409 10412 10414 10417 10420 10423 10426 10429 10432 10435 10438 10441 10444 10447 10449 10452 10455 10458 10461 10464 10467 10470 10473 10476 10479 10482 10485 10487 10490 10493 10495 10498 10501 10504 10507 10510 10513 10516 10519 10522 10524 10526 10529 10532 10535 10538 10541 10544 10547 10549 10552 10555 10557 10560 10563 10566 10569 10572 10574 10577 10580 10583 10586 10589 10592 10594 10597 10600 10603 10606 10609 10612 10615 10618 10621 10624 10627 10630 10633 10636 10639 10642 10644 10647 10650 10652 10655 10657 10660 10663 10666 10669 10671 10674 10677 10680 10683 10685 10688 10691 10694 10697 10700 10703 10706 10709 10711 10714 10716 10719 10721 10724 10727 10730 10733 10736 10739 10742 10745 10748 10750 10753 10756 10759 10762 10765 10767 10769 10772 10775 10778 10781 10783 10786 10789 10791 10794 10797 10800 10803 10805 10808 10811 10813 10816 10819 10822 10825 10828 10831 10834 10837 10840 10843 10845 10847 10850 10853 10856 10859 10862 10865 10868 10871 10874 10877 10880 10883 10885 10888 10891 10894 10897 10900 10903 10906 10909 10912 10915 10917 10920 10923 10926 10929 10931 10934 10937 10939 10942 10945 10947 10949 10952 10954 10957 10959 10961 10964 10967 10969 10972 10975 10978 10981 10984 10987 10990 10993 10996 10999 11002 11005 11008 11011 11014 11017 11019 11022 11025 11028 11031 11033 11035 11038 11041 11044 11046 11049 11052 11055 11057 11060 11063 11066 11068 11071 11074 11077 11080 11083 11086 11089 11092 11095 11098 11101 11104 11107 11110 11113 11116 11119 11121 11124 11127 11129 11132 11135 11138 11141 11143 11146 11149 11152 11155 11157 11160 11163 11166 11169 11172 11175 11178 11181 11184 11187 11190 11193 11196 11199 11202 11205 11208 11211 11214 11217 11220 11223 11226 11229 11232 11235 11238 11241 11243 11246 11249 11252 11255 11258 11261 11264 11267 11270 11272 11275 11278 11281 11284 11287 11290 11293 11296 11299 11302 11305 11307 11309 11312 11315 11317 11319 11322 11325 11328 11331 11333 11336 11339 11342 11345 11348 11351 11354 11357 11360 11362 11365 11368 11371 11374 11377 11380 11383 11386 11389 11392 11395 11398 11401 11404 11407 11410 11413 11416 11419 11422 11425 11428 11431 11434 11437 11439 11442 11445 11448 11451 11454 11457 11460 11463 11466 11469 11472 11475 11478 11481 11484 11487 11490 11493 11495 11498 11501 11504 11507 11510 11513 11516 11519 11522 11525 11528 11531 11534 11537 11540 11543 11546 11549 11552 11555 11558 11561 11564 11567 11570 11573 11576 11579 11582 11585 11588 11591 11594 11597 11600 11603 11605 11608 11611 11614 11617 11620 11623 11625 11628 11631 11634 11637 11640 11643 11646 11649 11652 11655 11657 11660 11663 11666 11668 11671 11674 11677 11680 11683 11686 11689 11692 11695 11698 11701 11704 11706 11709 11712 11715 11718 11721 11724 11727 11730 11733 11735 11738 11741 11744 11747 11750 11753 11756 11759 11762 11765 11768 11771 11774 11776 11779 11782 11785 11788 11791 11794 11797 11800 11803 11806 11809 11811 11814 11817 11820 11822 11825 11828 11831 11834 11837 11840 11843 11846 11849 11852 11855 11858 11860 11863 11866 11869 11872 11875 11878 11881 11884 11887 11890 11893 11896 11898 11901 11904 11907 11910 11913 11916 11919 11922 11925 11927 11930 11933 11936 11939 11942 11945 11948 11951 11954 11957 11960 11963 11966 11969 11971 11974 11977 11980 11983 11986 11988 11991 11993 11996 11999 12002 12004 12007 12010 12013 12016 12019 12022 12024 12026 12029 12032 12035 12038 12041 12044 12047 12050 12052 12055 12058 12061 12064 12067 12070 12073 12076 12079 12082 12085 12088 12091 12094 12096 12099 12102 12105 12108 12110 12113 12116 12119 12122 12125 12128 12130 12132 12135 12138 12140 12143 12146 12149 12152 12155 12158 12161 12164 12167 12170 12173 12175 12178 12181 12184 12187 12190 12193 12195 12198 12201 12204 12207 12209 12212 12215 12218 12221 12224 12227 12230 12233 12236 12238 12241 12244 12247 12250 12253 12256 12259 12262 12265 12268 12271 12274 12277 12280 12283 12286 12289 12292 12295 12298 12301 12304 12307 12310 12313 12316 12319 12322 12325 12328 12331 12334 12337 12340 12343 12346 12348 12351 12354 12357 12360 12363 12365 12368 12371 12374 12377 12379 12382 12385 12388 12391 12394 12397 12400 12403 12406 12409 12412 12415 12418 12421 12424 12427 12430 12433 12436 12438 12441 12443 12446 12449 12452 12455 12457 12460 12463 12466 12469 12472 12475 12478 12481 12484 12486 12489 12492 12495 12498 12500 12502 12505 12508 12511 12514 12517 12520 12523 12526 12529 12532 12535 12538 12541 12544 12547 12550 12553 12555 12558 12561 12564 12567 12570 12572 12575 12578 12581 12583 12586 12589 12592 12595 12598 12601 12603 12606 12609 12612 12614 12617 12620 12623 12626 12629 12632 12635 12638 12641 12644 12647 12650 12653 12656 12658 12661 12664 12667 12670 12673 12676 12679 12682 12685 12688 12691 12694 12697 12700 12703 12705 12708 12711 12714 12717 12720 12722 12725 12728 12731 12734 12737 12740 12743 12746 12749 12751 12754 12757 12759 12762 12765 12768 12771 12774 12777 12780 12783 12786 12789 12792 12795 12798 12801 12803 12806 12809 12812 12815 12817 12819 12822 12825 12828 12831 12834 12837 12840 12843 12846 12849 12852 12855 12858 12861 12864 12866 12869 12872 12874 12877 12880 12883 12886 12889 12892 12895 12898 12901 12904 12907 12910 12913 12916 12919 12922 12924 12927 12930 12933 12936 12938 12941 12944 12946 12949 12952 12955 12958 12961 12964 12967 12970 12973 12976 12979 12981 12984 12987 12990 12993 12996 12999 13002 13005 13008 13011 13014 13017 13020 13023 13026 13029 13032 13035 13038 13041 13044 13047 13050 13053 13056 13059 13062 13065 13068 13071 13074 13077 13080 13083 13086 13089 13092 13095 13098 13101 13104 13107 13110 13113 13116 13119 13122 13125 13128 13131 13133 13136 13139 13142 13145 13148 13151 13154 13157 13160 13163 13166 13168 13171 13174 13177 13180 13183 13186 13189 13192 13194 13197 13200 13203 13206 13208 13211 13213 13216 13219 13222 13225 13228 13231 13234 13237 13240 13243 13246 13248 13251 13254 13257 13260 13263 13266 13269 13272 13275 13278 13281 13284 13287 13290 13293 13296 13299 13302 13305 13308 13310 13313 13316 13319 13322 13325 13328 13331 13334 13337 13340 13343 13346 13349 13352 13355 13358 13361 13364 13367 13370 13373 13376 13379 13382 13385 13388 13391 13394 13397 13400 13403 13405 13408 13411 13413 13416 13419 13422 13425 13427 13430 13433 13436 13439 13442 13444 13447 13450 13453 13456 13459 13462 13465 13467 13470 13473 13476 13479 13482 13485 13487 13490 13493 13496 13498 13501 13504 13506 13508 13511 13514 13517 13520 13523 13526 13529 13531 13534 13537 13540 13543 13546 13549 13552 13555 13558 13561 13564 13566 13568 13571 13574 13577 13579 13582 13585 13587 13590 13593 13595 13598 13601 13603 13606 13608 13611 13614 13617 13620 13623 13626 13629 13632 13634 13637 13640 13643 13646 13648 13651 13654 13657 13659 13662 13664 13667 13669 13672 13675 13678 13681 13684 13687 13690 13692 13695 13698 13701 13704 13706 13709 13712 13715 13717 13720 13723 13726 13729 13731 13734 13737 13740 13743 13746 13749 13752 13755 13758 13761 13764 13767 13770 13773 13776 13779 13782 13785 13788 13791 13794 13797 13800 13803 13805 13808 13811 13814 13816 13818 13821 13824 13827 13830 13833 13836 13839 13842 13844 13847 13850 13852 13855 13858 13861 13864 13867 13870 13873 13876 13879 13882 13885 13888 13891 13894 13897 13900 13903 13906 13909 13912 13915 13918 13921 13924 13927 13930 13933 13936 13939 13942 13945 13948 13951 13954 13957 13960 13963 13966 13969 13972 13975 13978 13981 13984 13987 13990 13993 13996 13999 14002 14005 14008 14011 14013 14016 14019 14021 14024 14026 14029 14032 14035 14038 14041 14044 14047 14050 14053 14056 14059 14062 14065 14068 14071 14074 14077 14080 14083 14086 14089 14092 14095 14098 14100 14103 14106 14109 14112 14114 14117 14120 14123 14126 14129 14132 14135 14138 14140 14143 14146 14149 14151 14154 14157 14159 14162 14165 14168 14171 14174 14177 14180 14183 14186 14189 14192 14194 14197 14200 14203 14206 14209 14212 14215 14218 14221 14224 14226 14229 14232 14235 14237 14240 14243 14246 14249 14251 14254 14257 14260 14263 14266 14269 14272 14275 14278 14280 14283 14286 14289 14292 14295 14298 14300 14303 14306 14309 14312 14315 14318 14321 14324 14327 14330 14333 14336 14339 14342 14345 14348 14351 14354 14357 14360 14363 14366 14369 14372 14375 14378 14381 14384 14387 14389 14392 14394 14397 14400 14403 14406 14409 14412 14415 14417 14420 14423 14425 14428 14431 14434 14437 14439 14442 14445 14448 14451 14454 14456 14459 14462 14465 14467 14469 14472 14475 14477 14480 14482 14485 14487 14489 14492 14495 14497 14500 14503 14506 14509 14511 14514 14516 14519 14521 14524 14527 14529 14532 14535 14538 14541 14543 14546 14549 14552 14555 14558 14560 14563 14565 14568 14570 14573 14576 14579 14581 14583 14586 14589 14591 14594 14596 14599 14601 14604 14607 14610 14612 14615 14618 14620 14622 14625 14628 14631 14634 14637 14639 14642 14644 14647 14650 14653 14656 14659 14662 14665 14668 14671 14674 14677 14679 14682 14685 14688 14690 14693 14696 14699 14702 14704 14707 14709 14712 14714 14717 14720 14722 14725 14728 14731 14734 14737 14740 14742 14745 14748 14751 14753 14756 14759 14762 14765 14767 14770 14772 14775 14778 14781 14784 14786 14788 14791 14794 14796 14798 14801 14804 14806 14809 14812 14815 14817 14820 14822 14825 14828 14830 14833 14835 14838 14841 14843 14846 14849 14851 14854 14857 14860 14863 14866 14869 14872 14874 14877 14880 14883 14886 14889 14891 14894 14897 14900 14902 14904 14907 14909 14912 14915 14918 14921 14924 14927 14930 14932 14935 14937 14940 14943 14946 14949 14952 14955 14958 14961 14964 14967 14970 14973 14975 14978 14981 14984 14987 14990 14993 14996 14999 15002 15005 15008 15011 15014 15017 15019 15021 15024 15026 15029 15032 15035 15037 15040 15042 15045 15048 15051 15054 15057 15060 15063 15065 15068 15071 15073 15076 15079 15082 15084 15087 15090 15093 15096 15098 15101 15104 15107 15110 15113 15116 15119 15122 15125 15128 15130 15133 15136 15139 15141 15144 15147 15150 15153 15156 15159 15162 15165 15168 15171 15174 15177 15180 15182 15185 15188 15190 15193 15196 15199 15202 15205 15207 15210 15212 15215 15218 15221 15224 15227 15229 15232 15235 15237 15239 15241 15244 15247 15250 15253 15256 15259 15262 15265 15268 15271 15274 15276 15279 15282 15285 15288 15291 15294 15297 15300 15302 15304 15307 15310 15313 15316 15318 15321 15324 15327 15330 15333 15335 15337 15340 15343 15346 15349 15352 15355 15358 15361 15363 15366 15369 15371 15374 15377 15380 15383 15385 15388 15391 15394 15396 15399 15402 15405 15408 15411 15414 15417 15420 15423 15426 15429 15432 15435 15438 15441 15444 15447 15450 15452 15455 15458 15461 15464 15467 15470 15473 15476 15479 15482 15485 15488 15491 15494 15497 15500 15503 15506 15509 15512 15515 15518 15520 15523 15526 15528 15531 15534 15537 15540 15543 15545 15548 15551 15554 15557 15560 15563 15565 15568 15570 15573 15576 15579 15581 15584 15587 15590 15593 15596 15599 15601 15603 15606 15609 15612 15615 15618 15620 15623 15626 15629 15631 15633 15636 15639 15642 15645 15648 15651 15653 15655 15658 15661 15664 15667 15670 15673 15676 15679 15682 15685 15687 15689 15692 15695 15698 15700 15703 15706 15709 15712 15715 15718 15721 15724 15727 15730 15733 15736 15739 15742 15745 15748 15751 15754 15757 15760 15763 15766 15769 15772 15775 15778 15781 15784 15787 15789 15792 15795 15798 15800 15803 15805 15808 15811 15814 15817 15820 15823 15826 15829 15831 15834 15837 15840 15843 15846 15848 15851 15853 15855 15858 15861 15864 15867 15870 15872 15875 15877 15880 15883 15885 15888 15891 15894 15897 15900 15902 15905 15908 15911 15914 15917 15920 15923 15926 15929 15932 15935 15937 15940 15943 15946 15949 15952 15955 15958 15961 15964 15967 15970 15972 15975 15977 15980 15982 15985 15988 15991 15994 15996 15999 16002 16005 16007 16010 16013 16016 16019 16022 16025 16028 16031 16034 16037 16040 16043 16046 16048 16051 16054 16057 16060 16063 16066 16069 16072 16075 16078 16081 16083 16086 16088 16091 16094 16097 16100 16102 16105 16108 16111 16114 16117 16120 16123 16126 16129 16132 16135 16138 16141 16143 16146 16149 16152 16155 16158 16161 16164 16167 16170 16173 16176 16179 16182 16185 16188 16191 16194 16197 16200 16203 16206 16209 16212 16215 16218 16221 16224 16227 16230 16233 16236 16239 16242 16245 16248 16251 16254 16257 16260 16263 16266 16269 16272 16275 16278 16281 16284 16287 16290 16292 16295 16298 16301 16304 16307 16310 16313 16316 16319 16322 16325 16328 16331 16334 16337 16340 16343 16346 16349 16351 16354 16357 16360 16363 16366 16369 16372 16375 16378 16381 16384 16387 16390 16393 16396 16399 16402 16405 16408 16411 16414 16417 16420 16423 16426 16429 16432 16435 16438 16441 16444 16447 16450 16453 16456 16459 16462 16465 16468 16471 16473 16476 16479 16482 16484 16487 16490 16493 16496 16499 16502 16505 16508 16510 16513 16515 16518 16521 16524 16527 16529 16532 16535 16538 16541 16544 16547 16550 16552 16555 16558 16561 16564 16567 16570 16572 16575 16578 16581 16584 16587 16590 16593 16596 16598 16601 16604 16607 16610 16613 16616 16618 16621 16623 16626 16629 16632 16635 16638 16641 16644 16647 16650 16653 16656 16659 16662 16665 16667 16670 16673 16676 16679 16682 16685 16688 16691 16694 16697 16700 16703 16706 16709 16712 16715 16718 16721 16724 16726 16729 16732 16734 16736 16739 16742 16745 16748 16751 16753 16756 16759 16761 16764 16767 16770 16773 16776 16779 16782 16785 16788 16791 16794 16797 16800 16803 16806 16809 16812 16815 16817 16820 16823 16826 16829 16832 16835 16838 16841 16844 16847 16850 16852 16855 16858 16861 16864 16866 16869 16872 16875 16878 16881 16884 16886 16889 16892 16895 16898 16901 16904 16907 16909 16912 16915 16917 16920 16923 16926 16929 16931 16934 16937 16940 16943 16946 16949 16952 16955 16958 16961 16964 16967 16969 16972 16975 16978 16981 16983 16986 16989 16992 16995 16998 17001 17004 17007 17009 17012 17015 17018 17020 17023 17026 17029 17032 17034 17036 17039 17042 17045 17048 17051 17054 17056 17059 17062 17065 17067 17070 17073 17076 17079 17082 17085 17088 17091 17094 17097 17100 17102 17105 17108 17110 17113 17116 17119 17122 17125 17128 17131 17134 17137 17140 17143 17146 17148 17151 17153 17156 17159 17162 17165 17168 17171 17174 17177 17180 17182 17185 17188 17191 17193 17196 17199 17201 17204 17207 17210 17213 17216 17219 17222 17224 17226 17229 17232 17235 17237 17239 17241 17244 17247 17250 17253 17256 17259 17262 17265 17268 17271 17273 17276 17279 17282 17285 17288 17291 17294 17297 17300 17303 17306 17309 17312 17315 17318 17321 17324 17327 17330 17333 17336 17339 17342 17345 17348 17351 17354 17356 17359 17362 17364 17367 17370 17372 17374 17377 17380 17383 17386 17389 17392 17395 17398 17401 17404 17407 17410 17413 17416 17419 17422 17425 17428 17431 17434 17437 17440 17443 17446 17448 17451 17454 17457 17460 17463 17466 17469 17472 17475 17477 17480 17482 17485 17488 17491 17494 17497 17499 17502 17505 17508 17511 17514 17517 17520 17522 17525 17528 17531 17534 17536 17539 17541 17544 17547 17549 17552 17555 17558 17560 17562 17565 17568 17571 17573 17576 17579 17582 17584 17587 17590 17592 17595 17598 17601 17604 17606 17609 17611 17614 17617 17619 17622 17625 17628 17631 17634 17637 17640 17643 17646 17649 17652 17655 17658 17660 17662 17665 17668 17671 17674 17676 17679 17682 17684 17686 17689 17692 17695 17698 17701 17704 17706 17709 17712 17715 17718 17721 17724 17727 17730 17733 17736 17739 17742 17744 17747 17750 17753 17756 17759 17762 17765 17768 17770 17773 17776 17778 17781 17784 17787 17789 17792 17794 17797 17800 17803 17806 17809 17812 17815 17817 17820 17823 17826 17829 17832 17835 17838 17841 17844 17847 17850 17853 17856 17859 17862 17865 17868 17871 17874 17877 17880 17883 17886 17889 17891 17894 17897 17900 17903 17906 17909 17912 17915 17918 17921 17924 17927 17930 17933 17936 17938 17941 17944 17947 17950 17953 17956 17959 17962 17965 17968 17971 17974 17977 17980 17983 17986 17989 17992 17995 17998 18001 18004 18007 18009 18012 18015 18018 18021 18023 18025 18028 18031 18034 18037 18039 18042 18045 18048 18051 18054 18057 18060 18063 18066 18069 18072 18075 18078 18081 18084 18087 18090 18093 18096 18099 18101 18104 18107 18110 18113 18115 18118 18120 18122 18125 18128 18131 18134 18137 18140 18143 18146 18149 18152 18155 18158 18161 18164 18167 18169 18172 18175 18177 18180 18183 18186 18189 18192 18195 18198 18200 18203 18206 18209 18212 18215 18218 18220 18223 18225 18228 18231 18234 18236 18239 18242 18245 18248 18251 18254 18256 18259 18262 18264 18267 18270 18272 18274 18277 18280 18282 18285 18288 18291 18294 18297 18300 18303 18306 18309 18312 18315 18318 18321 18324 18327 18330 18333 18336 18339 18342 18345 18348 18351 18354 18357 18360 18363 18365 18367 18370 18373 18376 18378 18381 18384 18386 18389 18392 18395 18398 18401 18404 18407 18409 18412 18414 18417 18420 18423 18425 18428 18431 18434 18437 18440 18443 18446 18449 18452 18455 18458 18461 18464 18467 18470 18473 18476 18479 18482 18484 18487 18490 18493 18496 18499 18502 18505 18508 18511 18513 18516 18519 18522 18525 18528 18530 18533 18536 18539 18542 18545 18547 18550 18553 18556 18559 18562 18565 18568 18570 18573 18576 18578 18581 18584 18587 18590 18592 18595 18598 18600 18603 18606 18609 18611 18614 18617 18619 18622 18624 18627 18630 18633 18636 18639 18641 18644 18647 18649 18652 18655 18658 18661 18664 18667 18669 18672 18675 18678 18681 18684 18686 18689 18692 18694 18697 18699 18702 18705 18708 18711 18713 18716 18719 18722 18725 18728 18731 18733 18736 18739 18742 18745 18747 18750 18753 18755 18758 18761 18764 18767 18770 18773 18776 18778 18781 18784 18787 18790 18793 18796 18799 18802 18804 18807 18810 18813 18816 18819 18822 18825 18828 18830 18833 18835 18838 18841 18844 18847 18850 18852 18854 18857 18859 18861 18864 18866 18868 18870 18873 18876 18878 18881 18884 18887 18889 18892 18895 18897 18900 18903 18905 18908 18911 18914 18917 18920 18923 18926 18929 18931 18934 18936 18938 18941 18944 18946 18948 18951 18954 18957 18960 18963 18966 18969 18972 18975 18978 18981 18983 18986 18989 18992 18995 18997 19000 19002 19005 19007 19010 19013 19016 19019 19022 19024 19027 19030 19033 19036 19039 19042 19045 19047 19050 19053 19056 19059 19062 19065 19067 19070 19073 19076 19079 19081 19084 19087 19089 19091 19094 19096 19099 19101 19104 19107 19110 19112 19115 19118 19120 19122 19125 19128 19130 19133 19136 19139 19142 19144 19147 19150 19153 19155 19158 19161 19164 19166 19169 19172 19175 19178 19181 19184 19186 19189 19192 19195 19198 19201 19203 19205 19208 19211 19214 19217 19219 19222 19225 19228 19231 19234 19236 19239 19242 19245 19248 19251 19254 19257 19260 19263 19266 19269 19272 19275 19278 19281 19283 19286 19289 19291 19294 19297 19300 19303 19305 19308 19311 19314 19317 19320 19323 19325 19328 19331 19334 19337 19340 19343 19345 19348 19351 19354 19357 19360 19363 19366 19369 19372 19375 19377 19380 19383 19386 19389 19391 19394 19397 19399 19402 19405 19407 19410 19413 19415 19418 19421 19424 19427 19430 19433 19435 19438 19441 19444 19447 19450 19453 19456 19459 19462 19465 19468 19471 19473 19476 19479 19482 19485 19488 19491 19494 19497 19500 19503 19506 19509 19512 19515 19518 19521 19524 19527 19530 19533 19536 19539 19542 19545 19548 19551 19553 19556 19559 19562 19565 19567 19570 19573 19576 19579 19582 19585 19588 19591 19594 19597 19599 19602 19605 19608 19611 19613 19616 19619 19621 19624 19627 19630 19633 19635 19638 19641 19644 19647 19650 19653 19655 19658 19661 19664 19667 19670 19673 19675 19678 19681 19684 19687 19690 19693 19696 19699 19702 19705 19708 19711 19714 19717 19720 19723 19726 19729 19732 19735 19737 19740 19743 19746 19749 19752 19755 19758 19760 19763 19766 19769 19772 19775 19778 19780 19783 19786 19788 19791 19794 19797 19799 19802 19805 19808 19811 19814 19817 19819 19821 19824 19827 19830 19832 19834 19837 19839 19841 19844 19847 19849 19852 19855 19858 19861 19864 19866 19869 19872 19874 19877 19880 19882 19884 19887 19890 19893 19896 19898 19901 19903 19906 19909 19911 19914 19916 19919 19922 19924 19926 19929 19932 19935 19938 19940 19943 19946 19948 19951 19954 19956 19959 19962 19964 19967 19969 19972 19974 19977 19979 19982 19985 19988 19990 19993 19996 19999 20001 20004 20007 20009 20011 20013 20016 20019 20021 20024 20027 20030 20033 20036 20039 20042 20045 20048 20051 20053 20056 20059 20062 20065 20068 20071 20073 20076 20079 20082 20084 20086 20089 20092 20095 20098 20101 20104 20107 20109 20112 20115 20118 20121 20124 20127 20130 20133 20136 20139 20142 20144 20147 20150 20152 20155 20158 20161 20164 20167 20170 20173 20176 20179 20182 20185 20188 20191 20194 20197 20200 20202 20205 20208 20211 20214 20217 20219 20222 20225 20228 20231 20234 20236 20239 20241 20243 20245 20248 20251 20254 20257 20259 20262 20265 20268 20271 20273 20275 20278 20281 20284 20287 20290 20293 20296 20299 20302 20305 20308 20311 20314 20317 20320 20323 20326 20329 20332 20335 20338 20341 20344 20347 20350 20352 20355 20358 20361 20364 20367 20370 20373 20376 20379 20382 20385 20388 20391 20393 20396 20399 20402 20405 20408 20411 20413 20416 20419 20421 20424 20427 20430 20433 20436 20438 20441 20444 20447 20450 20453 20456 20459 20462 20465 20468 20470 20473 20476 20478 20481 20484 20487 20490 20493 20496 20499 20502 20505 20508 20511 20513 20516 20519 20521 20524 20527 20529 20532 20535 20537 20540 20543 20546 20548 20551 20554 20557 20559 20562 20565 20568 20571 20574 20576 20579 20582 20585 20588 20590 20593 20596 20599 20602 20604 20607 20609 20612 20615 20618 20621 20624 20627 20630 20633 20636 20639 20642 20645 20648 20650 20653 20656 20659 20662 20665 20668 20671 20674 20677 20680 20683 20686 20689 20692 20695 20697 20699 20702 20704 20707 20710 20713 20716 20719 20722 20725 20727 20730 20732 20735 20737 20740 20742 20744 20747 20750 20753 20756 20758 20760 20763 20766 20769 20772 20775 20778 20780 20783 20786 20789 20792 20795 20798 20801 20803 20806 20809 20812 20814 20817 20820 20823 20826 20829 20832 20835 20838 20841 20843 20846 20849 20852 20855 20857 20860 20863 20866 20868 20870 20873 20876 20879 20882 20885 20888 20891 20894 20897 20900 20902 20905 20908 20911 20913 20916 20919 20922 20924 20927 20930 20933 20936 20938 20941 20944 20947 20950 20953 20956 20959 20962 20965 20968 20971 20973 20976 20979 20982 20985 20988 20991 20994 20997 21000 21003 21006 21009 21012 21015 21018 21021 21024 21027 21030 21033 21036 21039 21041 21044 21047 21050 21052 21055 21058 21061 21064 21067 21069 21072 21075 21077 21080 21083 21085 21088 21090 21093 21096 21099 21101 21104 21106 21109 21111 21114 21117 21120 21123 21125 21127 21129 21132 21135 21138 21141 21144 21147 21150 21153 21156 21159 21162 21165 21168 21171 21174 21176 21179 21182 21185 21188 21190 21193 21196 21199 21201 21204 21207 21210 21213 21215 21217 21220 21223 21225 21228 21231 21233 21236 21238 21241 21244 21247 21250 21252 21254 21256 21259 21262 21265 21268 21271 21274 21277 21280 21283 21285 21288 21291 21294 21296 21298 21301 21304 21307 21310 21312 21315 21318 21321 21324 21327 21330 21333 21336 21339 21341 21343 21346 21349 21352 21355 21358 21360 21363 21366 21368 21371 21374 21377 21380 21383 21386 21389 21392 21395 21398 21401 21404 21407 21410 21412 21414 21417 21420 21423 21425 21428 21430 21433 21436 21439 21442 21445 21448 21451 21454 21457 21460 21462 21465 21467 21470 21473 21476 21479 21481 21483 21485 21487 21490 21493 21496 21499 21502 21505 21508 21510 21512 21515 21518 21521 21523 21526 21529 21532 21535 21538 21541 21544 21547 21550 21553 21555 21558 21561 21564 21567 21570 21573 21576 21579 21581 21584 21587 21590 21593 21596 21599 21602 21605 21608 21611 21613 21616 21619 21622 21625 21628 21631 21634 21637 21640 21642 21645 21648 21651 21654 21657 21660 21663 21666 21669 21672 21675 21677 21679 21681 21683 21686 21689 21692 21695 21698 21701 21703 21706 21709 21711 21714 21717 21719 21722 21725 21728 21731 21734 21737 21740 21743 21746 21749 21752 21755 21758 21760 21763 21765 21768 21771 21774 21777 21779 21782 21785 21788 21791 21794 21797 21800 21803 21805 21808 21810 21813 21816 21818 21820 21823 21826 21829 21832 21835 21837 21840 21843 21845 21848 21851 21854 21857 21860 21862 21865 21868 21871 21873 21876 21879 21881 21883 21886 21889 21892 21895 21898 21901 21904 21907 21910 21913 21916 21918 21921 21924 21927 21930 21933 21936 21939 21942 21945 21948 21950 21953 21956 21959 21962 21965 21968 21970 21973 21976 21979 21982 21985 21988 21991 21994 21997 22000 22003 22006 22009 22011 22014 22017 22020 22023 22026 22029 22032 22034 22037 22040 22043 22046 22049 22052 22055 22058 22060 22063 22066 22069 22072 22075 22078 22080 22083 22085 22088 22091 22094 22097 22100 22103 22106 22109 22112 22115 22118 22120 22122 22125 22128 22131 22134 22136 22139 22142 22144 22147 22150 22153 22155 22157 22160 22163 22165 22168 22171 22174 22177 22180 22183 22186 22189 22192 22195 22198 22201 22204 22207 22210 22213 22216 22219 22221 22223 22226 22229 22232 22234 22237 22240 22243 22246 22249 22252 22255 22258 22261 22263 22266 22268 22271 22274 22277 22279 22282 22285 22288 22291 22294 22297 22300 22302 22305 22308 22311 22313 22316 22318 22321 22324 22327 22329 22332 22335 22338 22341 22344 22347 22350 22352 22355 22358 22361 22363 22366 22369 22372 22375 22378 22381 22384 22387 22390 22393 22396 22399 22402 22405 22408 22411 22414 22417 22419 22422 22425 22428 22431 22434 22437 22440 22443 22445 22448 22451 22454 22457 22460 22463 22466 22469 22472 22475 22478 22481 22484 22487 22490 22492 22494 22497 22499 22502 22505 22507 22510 22513 22516 22519 22521 22524 22527 22530 22533 22536 22539 22541 22544 22547 22550 22553 22556 22559 22561 22564 22567 22570 22573 22575 22578 22581 22584 22587 22590 22593 22595 22598 22600 22603 22606 22609 22612 22615 22618 22621 22624 22627 22630 22633 22636 22639 22642 22645 22648 22650 22653 22656 22659 22662 22665 22668 22671 22673 22676 22679 22682 22685 22688 22690 22693 22696 22698 22701 22704 22707 22710 22713 22716 22719 22722 22725 22728 22730 22733 22736 22739 22742 22745 22748 22751 22754 22757 22759 22762 22765 22768 22771 22774 22776 22779 22782 22785 22787 22790 22793 22796 22799 22802 22805 22808 22811 22814 22817 22820 22823 22826 22829 22832 22835 22838 22841 22844 22847 22850 22853 22856 22859 22862 22865 22868 22871 22874 22877 22880 22883 22886 22889 22892 22895 22898 22901 22904 22907 22910 22913 22916 22918 22921 22924 22926 22929 22932 22935 22938 22941 22944 22947 22950 22953 22955 22958 22960 22962 22965 22968 22971 22974 22977 22980 22983 22986 22989 22992 22995 22997 23000 23003 23006 23009 23012 23014 23017 23020 23022 23024 23027 23029 23032 23035 23037 23039 23042 23045 23048 23050 23053 23056 23059 23062 23065 23067 23070 23073 23076 23078 23081 23084 23087 23090 23093 23096 23099 23102 23105 23108 23111 23113 23116 23119 23122 23125 23128 23131 23134 23137 23140 23143 23146 23149 23151 23154 23157 23160 23163 23166 23168 23171 23174 23177 23180 23183 23186 23189 23192 23195 23198 23201 23204 23207 23210 23213 23215 23218 23221 23224 23227 23230 23233 23236 23239 23242 23245 23248 23251 23254 23256 23259 23262 23265 23268 23270 23273 23276 23279 23281 23284 23286 23289 23292 23295 23298 23301 23304 23307 23310 23313 23316 23319 23322 23325 23327 23329 23332 23335 23338 23341 23343 23346 23349 23351 23354 23357 23360 23363 23366 23368 23371 23374 23377 23380 23383 23386 23389 23392 23395 23398 23401 23404 23406 23409 23412 23415 23418 23421 23423 23426 23429 23432 23435 23438 23441 23444 23447 23450 23453 23455 23458 23461 23464 23467 23470 23473 23476 23479 23482 23485 23488 23491 23494 23497 23500 23503 23506 23509 23512 23515 23518 23521 23524 23527 23530 23533 23536 23539 23542 23545 23547 23550 23553 23556 23559 23562 23565 23568 23570 23573 23576 23579 23582 23584 23587 23590 23592 23595 23598 23601 23603 23606 23609 23611 23614 23617 23620 23622 23625 23628 23631 23634 23637 23640 23642 23644 23646 23649 23652 23655 23658 23660 23662 23665 23668 23670 23673 23676 23679 23682 23684 23687 23689 23692 23695 23698 23701 23704 23707 23710 23713 23716 23719 23722 23725 23728 23731 23733 23736 23739 23742 23745 23747 23750 23753 23755 23758 23760 23763 23766 23768 23771 23774 23777 23780 23783 23786 23789 23792 23795 23798 23801 23804 23807 23810 23812 23815 23817 23820 23823 23826 23829 23832 23835 23838 23840 23843 23846 23849 23852 23854 23857 23860 23863 23866 23869 23872 23875 23878 23881 23884 23887 23890 23893 23896 23899 23902 23905 23908 23911 23914 23917 23920 23923 23926 23929 23932 23935 23938 23941 23944 23947 23950 23953 23956 23959 23962 23965 23968 23971 23974 23977 23980 23983 23986 23989 23992 23995 23998 24001 24004 24007 24010 24013 24016 24019 24022 24025 24028 24031 24034 24037 24040 24043 24046 24049 24052 24055 24057 24060 24063 24066 24069 24072 24075 24078 24080 24083 24086 24089 24092 24095 24098 24101 24104 24107 24110 24113 24115 24118 24121 24124 24127 24130 24133 24136 24139 24142 24145 24148 24150 24153 24156 24158 24161 24164 24167 24170 24173 24176 24179 24182 24185 24188 24191 24194 24196 24199 24202 24205 24207 24210 24213 24216 24219 24222 24225 24227 24230 24232 24235 24238 24241 24244 24246 24249 24252 24255 24258 24261 24264 24267 24270 24273 24276 24279 24282 24285 24288 24291 24294 24297 24300 24303 24306 24309 24312 24315 24318 24321 24324 24327 24330 24332 24335 24338 24340 24343 24346 24349 24352 24354 24356 24359 24362 24365 24368 24371 24374 24376 24378 24381 24384 24387 24390 24393 24396 24399 24402 24405 24408 24410 24413 24416 24419 24422 24424 24427 24430 24433 24436 24439 24442 24445 24448 24451 24454 24457 24459 24462 24465 24468 24471 24474 24476 24479 24482 24485 24488 24491 24494 24497 24500 24503 24506 24509 24511 24514 24517 24520 24523 24526 24529 24532 24535 24538 24540 24543 24546 24549 24552 24555 24558 24561 24564 24567 24570 24573 24576 24579 24582 24585 24588 24591 24593 24596 24599 24602 24605 24608 24611 24614 24617 24620 24623 24626 24629 24632 24634 24636 24639 24641 24644 24647 24650 24653 24655 24658 24661 24664 24666 24668 24671 24674 24676 24679 24681 24684 24687 24690 24693 24696 24699 24702 24705 24708 24711 24714 24717 24719 24722 24725 24728 24730 24733 24736 24739 24742 24745 24748 24750 24753 24755 24758 24761 24764 24767 24770 24773 24775 24778 24781 24784 24787 24790 24793 24796 24799 24802 24805 24807 24810 24813 24816 24819 24822 24824 24827 24830 24833 24836 24839 24842 24845 24848 24850 24853 24856 24859 24861 24864 24867 24870 24873 24876 24879 24881 24884 24886 24889 24891 24894 24897 24900 24903 24906 24909 24912 24915 24918 24921 24924 24927 24930 24933 24936 24939 24942 24945 24948 24951 24954 24956 24959 24962 24965 24968 24971 24974 24977 24980 24983 24986 24989 24992 24995 24998 25001 25004 25007 25010 25013 25016 25018 25021 25024 25027 25030 25032 25035 25038 25041 25043 25046 25048 25051 25054 25057 25059 25062 25065 25068 25071 25074 25077 25079 25082 25085 25087 25089 25092 25095 25098 25101 25104 25106 25109 25112 25115 25117 25119 25122 25125 25128 25130 25133 25136 25138 25140 25143 25145 25148 25150 25153 25156 25158 25161 25163 25166 25168 25171 25174 25177 25180 25183 25186 25189 25191 25194 25197 25200 25203 25206 25209 25211 25214 25217 25220 25223 25226 25229 25231 25234 25237 25240 25242 25244 25247 25250 25253 25256 25259 25262 25265 25267 25270 25273 25276 25278 25280 25282 25285 25288 25290 25293 25296 25299 25301 25303 25306 25309 25312 25315 25318 25321 25324 25327 25330 25332 25335 25338 25341 25344 25346 25348 25351 25354 25357 25359 25362 25365 25368 25371 25374 25377 25380 25383 25386 25389 25392 25395 25398 25401 25403 25406 25409 25412 25415 25418 25421 25424 25427 25430 25433 25436 25439 25442 25444 25447 25450 25453 25456 25459 25462 25465 25468 25471 25474 25477 25480 25483 25486 25489 25492 25495 25498 25501 25503 25505 25508 25510 25513 25516 25519 25522 25525 25527 25530 25533 25536 25538 25541 25544 25547 25550 25553 25556 25559 25562 25565 25568 25571 25574 25576 25579 25582 25585 25588 25591 25594 25597 25600 25603 25605 25608 25610 25613 25615 25618 25621 25623 25626 25629 25632 25634 25637 25640 25642 25645 25648 25651 25654 25657 25660 25663 25666 25669 25672 25675 25678 25681 25684 25686 25689 25692 25694 25697 25700 25703 25706 25709 25711 25714 25717 25719 25721 25724 25726 25729 25732 25735 25738 25741 25744 25747 25750 25753 25755 25757 25760 25763 25766 25769 25772 25775 25778 25781 25784 25787 25790 25793 25796 25799 25802 25805 25808 25811 25814 25816 25819 25822 25825 25828 25831 25834 25837 25840 25842 25844 25847 25850 25853 25856 25859 25862 25865 25868 25871 25874 25877 25880 25882 25884 25887 25890 25893 25896 25899 25902 25905 25908 25911 25914 25917 25920 25923 25926 25929 25932 25935 25938 25941 25944 25947 25949 25952 25955 25958 25961 25964 25967 25970 25973 25976 25978 25981 25984 25987 25990 25992 25995 25998 26000 26003 26006 26009 26012 26015 26017 26020 26023 26026 26029 26032 26035 26038 26041 26044 26047 26050 26053 26056 26059 26062 26065 26068 26071 26074 26077 26080 26083 26086 26089 26092 26095 26098 26101 26104 26107 26110 26113 26116 26119 26122 26125 26128 26131 26134 26137 26139 26142 26145 26148 26151 26154 26157 26160 26163 26166 26169 26172 26175 26178 26181 26183 26186 26188 26191 26193 26195 26198 26200 26203 26206 26208 26211 26214 26217 26220 26222 26225 26228 26231 26234 26237 26240 26243 26246 26249 26252 26255 26258 26261 26264 26267 26270 26273 26276 26279 26282 26285 26288 26291 26294 26297 26300 26303 26306 26309 26311 26314 26317 26320 26323 26326 26329 26332 26335 26338 26341 26344 26347 26349 26352 26355 26358 26361 26364 26367 26370 26372 26375 26378 26381 26384 26387 26390 26393 26396 26399 26402 26405 26407 26410 26412 26415 26418 26421 26424 26427 26430 26432 26435 26438 26441 26444 26446 26449 26452 26455 26458 26461 26464 26467 26470 26473 26475 26478 26481 26484 26487 26490 26492 26495 26498 26501 26503 26506 26509 26512 26515 26517 26520 26523 26525 26528 26531 26534 26537 26540 26543 26546 26549 26552 26555 26558 26561 26564 26567 26570 26573 26576 26579 26582 26585 26588 26591 26594 26597 26600 26603 26606 26609 26612 26615 26617 26620 26623 26626 26629 26632 26635 26638 26641 26644 26647 26650 26653 26656 26659 26662 26665 26668 26670 26673 26675 26677 26680 26683 26686 26689 26691 26694 26697 26700 26703 26706 26709 26712 26714 26717 26719 26722 26725 26728 26731 26733 26736 26739 26741 26744 26747 26750 26753 26756 26759 26762 26765 26768 26771 26774 26776 26778 26781 26784 26787 26789 26791 26794 26797 26800 26803 26806 26809 26812 26815 26818 26821 26824 26826 26829 26832 26834 26837 26840 26842 26845 26848 26851 26854 26857 26860 26863 26866 26869 26872 26875 26878 26880 26883 26886 26889 26892 26895 26898 26901 26903 26905 26908 26911 26913 26916 26919 26922 26925 26928 26931 26934 26937 26939 26942 26945 26948 26951 26954 26957 26960 26963 26966 26968 26971 26974 26977 26980 26982 26985 26988 26991 26994 26997 27000 27002 27005 27008 27011 27014 27017 27020 27023 27026 27029 27032 27035 27038 27041 27044 27047 27050 27052 27055 27058 27061 27064 27067 27069 27072 27075 27078 27081 27084 27086 27089 27092 27095 27098 27101 27103 27106 27109 27112 27114 27117 27120 27123 27126 27129 27131 27134 27137 27140 27143 27146 27149 27152 27155 27158 27161 27164 27167 27170 27173 27176 27179 27182 27185 27188 27191 27194 27197 27200 27203 27206 27209 27212 27215 27218 27221 27224 27227 27230 27233 27236 27238 27241 27244 27247 27250 27253 27256 27259 27262 27265 27268 27271 27274 27277 27280 27283 27286 27289 27292 27295 27298 27301 27304 27307 27310 27313 27316 27319 27322 27324 27327 27330 27333 27336 27339 27342 27345 27348 27351 27354 27357 27360 27363 27366 27369 27372 27375 27378 27381 27384 27387 27390 27393 27396 27398 27401 27404 27407 27410 27412 27415 27418 27420 27423 27426 27429 27432 27435 27438 27441 27444 27447 27450 27453 27456 27459 27462 27465 27468 27471 27474 27477 27480 27483 27486 27489 27492 27495 27498 27501 27503 27506 27509 27512 27515 27518 27521 27524 27526 27529 27532 27535 27537 27540 27543 27546 27548 27551 27553 27556 27559 27562 27565 27568 27571 27574 27577 27580 27583 27586 27589 27592 27594 27597 27600 27603 27605 27608 27611 27614 27617 27620 27623 27626 27628 27631 27634 27637 27640 27643 27646 27648 27651 27654 27657 27660 27663 27666 27668 27671 27673 27676 27679 27682 27685 27688 27691 27694 27697 27700 27703 27706 27709 27712 27715 27718 27721 27724 27727 27730 27733 27736 27739 27742 27745 27748 27751 27754 27757 27760 27763 27766 27769 27772 27775 27777 27780 27782 27785 27788 27791 27794 27796 27799 27801 27804 27806 27809 27812 27814 27817 27820 27823 27826 27829 27832 27835 27838 27841 27844 27847 27850 27853 27856 27859 27862 27865 27868 27871 27874 27877 27880 27883 27886 27889 27891 27894 27897 27900 27903 27906 27909 27912 27915 27918 27921 27924 27927 27930 27933 27936 27938 27941 27944 27947 27950 27952 27955 27958 27960 27963 27965 27967 27970 27973 27976 27979 27982 27985 27987 27990 27992 27995 27998 28001 28003 28006 28008 28011 28014 28016 28019 28022 28025 28028 28030 28033 28036 28038 28041 28044 28047 28050 28053 28055 28057 28060 28063 28066 28068 28071 28073 28076 28078 28081 28084 28087 28090 28093 28096 28099 28102 28104 28107 28109 28112 28115 28117 28120 28122 28124 28127 28130 28132 28135 28138 28140 28143 28146 28149 28152 28154 28157 28159 28162 28164 28166 28169 28171 28174 28176 28179 28181 28184 28187 28190 28193 28196 28198 28201 28204 28207 28210 28213 28216 28218 28220 28223 28226 28229 28231 28234 28237 28240 28243 28246 28249 28252 28255 28258 28261 28264 28267 28270 28272 28275 28278 28281 28283 28286 28289 28292 28295 28298 28301 28304 28307 28310 28313 28316 28319 28322 28325 28328 28331 28334 28337 28340 28343 28346 28349 28351 28354 28357 28360 28363 28366 28369 28372 28374 28377 28380 28382 28385 28388 28391 28394 28397 28400 28403 28406 28409 28412 28415 28418 28420 28422 28425 28428 28431 28434 28436 28439 28442 28445 28448 28450 28453 28455 28458 28461 28464 28466 28468 28471 28474 28477 28480 28483 28486 28488 28491 28494 28497 28499 28502 28504 28507 28510 28512 28515 28517 28519 28522 28524 28527 28530 28533 28535 28538 28540 28543 28546 28549 28552 28555 28558 28561 28564 28566 28569 28572 28575 28578 28581 28584 28587 28590 28593 28596 28599 28602 28605 28608 28611 28614 28617 28620 28623 28625 28628 28631 28634 28636 28639 28642 28645 28648 28651 28654 28656 28659 28662 28665 28667 28670 28673 28676 28679 28681 28684 28687 28690 28693 28696 28699 28702 28705 28707 28710 28713 28716 28719 28722 28725 28728 28731 28734 28737 28740 28743 28745 28748 28751 28754 28757 28760 28763 28766 28769 28772 28775 28778 28781 28784 28787 28790 28793 28796 28799 28802 28805 28808 28811 28814 28817 28820 28823 28826 28829 28832 28835 28838 28841 28844 28847 28850 28853 28856 28859 28862 28865 28868 28871 28874 28877 28880 28883 28885 28888 28891 28894 28897 28899 28902 28905 28907 28910 28913 28916 28919 28922 28925 28928 28931 28934 28937 28940 28943 28946 28949 28952 28955 28958 28961 28964 28967 28970 28973 28976 28979 28982 28985 28988 28991 28994 28997 29000 29003 29006 29009 29012 29015 29018 29021 29024 29027 29030 29033 29036 29039 29042 29045 29048 29051 29054 29057 29060 29063 29066 29069 29072 29075 29077 29080 29083 29086 29088 29091 29094 29097 29100 29103 29106 29109 29112 29115 29118 29121 29124 29127 29129 29132 29135 29138 29141 29144 29147 29150 29153 29156 29159 29161 29164 29167 29170 29173 29176 29179 29182 29185 29188 29191 29194 29197 29200 29203 29206 29209 29212 29215 29218 29221 29224 29227 29230 29233 29236 29239 29242 29245 29248 29251 29254 29257 29260 29263 29266 29269 29272 29275 29278 29281 29284 29287 29290 29293 29296 29299 29302 29305 29308 29310 29313 29315 29318 29321 29324 29327 29330 29333 29336 29339 29342 29345 29348 29351 29353 29356 29359 29362 29365 29367 29370 29373 29376 29379 29382 29385 29388 29391 29394 29397 29400 29403 29406 29409 29412 29415 29418 29421 29424 29427 29430 29433 29436 29439 29442 29445 29448 29451 29454 29456 29459 29462 29465 29468 29471 29474 29477 29480 29483 29486 29489 29492 29495 29498 29501 29504 29507 29510 29513 29516 29519 29522 29525 29528 29531 29534 29537 29539 29542 29544 29547 29550 29553 29556 29559 29562 29565 29568 29571 29573 29576 29579 29582 29584 29587 29590 29593 29596 29599 29602 29605 29607 29610 29613 29616 29619 29622 29625 29628 29631 29633 29636 29639 29642 29644 29646 29649 29652 29655 29658 29660 29663 29666 29669 29672 29675 29678 29681 29684 29687 29690 29693 29696 29699 29702 29705 29708 29710 29713 29716 29719 29721 29724 29727 29730 29732 29735 29738 29740 29743 29746 29749 29752 29755 29758 29761 29764 29767 29770 29773 29775 29777 29780 29783 29786 29789 29792 29795 29798 29801 29803 29806 29809 29812 29815 29817 29820 29823 29826 29828 29831 29834 29836 29838 29841 29844 29847 29849 29852 29855 29858 29861 29864 29866 29869 29872 29875 29878 29880 29883 29886 29889 29892 29895 29898 29900 29903 29905 29908 29911 29914 29917 29920 29923 29926 29929 29931 29933 29936 29938 29941 29943 29946 29948 29951 29954 29957 29960 29963 29966 29969 29972 29974 29977 29980 29983 29986 29989 29992 29995 29998 30001 30004 30006 30009 30012 30015 30018 30021 30024 30027 30030 30033 30036 30039 30042 30045 30048 30051 30054 30057 30060 30063 30066 30069 30072 30075 30078 30081 30084 30087 30090 30093 30096 30099 30102 30105 30107 30110 30113 30116 30119 30121 30124 30126 30129 30132 30135 30138 30141 30144 30147 30150 30153 30156 30159 30162 30165 30168 30170 30173 30176 30179 30182 30185 30188 30191 30194 30196 30199 30202 30205 30207 30210 30213 30216 30219 30222 30225 30227 30230 30233 30236 30239 30242 30245 30248 30251 30254 30257 30260 30263 30265 30268 30271 30274 30276 30279 30282 30285 30288 30290 30293 30296 30299 30302 30305 30308 30311 30314 30316 30319 30321 30324 30327 30330 30333 30336 30339 30342 30344 30347 30350 30353 30355 30358 30361 30364 30367 30370 30373 30376 30378 30381 30384 30387 30390 30393 30396 30399 30402 30405 30408 30410 30413 30416 30419 30421 30424 30427 30430 30433 30436 30439 30442 30445 30448 30451 30454 30457 30460 30463 30466 30469 30472 30475 30478 30481 30483 30486 30489 30491 30494 30497 30500 30502 30505 30508 30510 30513 30516 30519 30522 30525 30528 30531 30534 30537 30540 30543 30546 30549 30552 30555 30558 30561 30564 30567 30570 30573 30576 30579 30582 30585 30588 30591 30594 30597 30600 30603 30606 30609 30612 30615 30618 30620 30623 30626 30628 30631 30634 30636 30639 30642 30645 30648 30651 30654 30657 30660 30663 30666 30669 30671 30674 30676 30679 30682 30685 30688 30691 30694 30696 30699 30701 30704 30707 30710 30713 30716 30719 30722 30725 30728 30731 30734 30736 30739 30742 30745 30748 30751 30754 30757 30760 30763 30766 30769 30772 30775 30778 30781 30784 30786 30789 30792 30795 30798 30801 30804 30807 30810 30813 30816 
</DataArray>
<DataArray type="UInt32" Name="types" format="ascii">
5 5 5 3 5 5 5 5 5 5 5 5 3 5 5 3 5 5 3 3 5 5 3 5 5 5 3 5 5 5 5 5 5 5 5 3 5 5 5 5 5 5 5 3 5 5 5 5 3 5 5 5 5 5 5 5 5 5 5 5 5 3 5 5 5 5 3 3 5 5 3 3 5 5 5 5 3 5 5 5 3 5 5 5 5 3 3 5 5 5 5 5 3 3 5 5 5 5 3 5 5 5 5 5 5 5 5 3 5 5 5 3 5 5 5 5 5 5 5 5 5 5 3 5 3 5 3 5 5 5 5 5 5 3 5 5 3 5 5 5 3 5 3 5 5 5 5 5 5 5 3 5 5 5 5 5 5 5 5 3 5 5 5 5 5 5 5 3 5 5 3 5 5 5 5 5 5 5 5 5 5 5 5 5 5 5 5 5 5 5 5 5 5 5 5 5 5 5 5 3 3 3 3 5 3 5 5 3 5 5 3 5 5 3 5 5 5 3 5 5 5 5 5 5 5 5 5 5 5 5 5 5 3 5 5 5 5 5 5 5 5 5 5 5 5 5 5 5 5 5 5 5 5 3 5 5 5 5 5 3 5 5 5 5 5 5 3 3 5 3 3 5 3 5 5 3 3 5 5 3 5 5 3 3 5 5 5 5 5 5 3 3 5 3 3 5 3 5 5 5 5 3 5 3 5 5 5 5 5 5 5 5 5 5 5 5 5 5 5 5 5 5 5 5 5 3 5 5 5 5 5 3 5 5 5 3 5 5 5 5 5 3 5 5 5 5 5 5 5 5 5 5 3 5 5 5 5 5 5 5 5 5 5 5 3 5 5 5 5 5 5 5 5 5 5 5 5 5 5 5 5 5 5 5 5 5 5 5 5 5 5 5 5 5 5 5 5 5 5 5 5 5 5 5 5 5 5 5 5 5 5 3 5 3 5 3 5 5 5 5 5 5 5 5 5 5 5 5 5 5 5 5 5 5 5 5 5 5 5 5 5 5 5 3 5 5 5 3 5 5 5 3 5 5 3 5 5 5 5 5 5 5 3 5 5 5 5 5 5 5 5 5 5 5 5 5 5 5 5 5 3 5 5 5 5 5 3 5 5 5 5 5 5 5 3 5 5 3 5 5 3 5 5 5 5 5 5 5 5 5 5 5 5 3 5 5 3 3 5 5 5 5 5 3 5 5 5 5 5 3 5 5 5 3 5 5 3 5 5 3 5 5 5 5 5 5 3 5 5 3 5 5 5 5 5 5 5 5 3 5 5 3 3 5 5 5 5 5 5 5 5 5 5 5 5 5 5 5 5 5 5 5 5 3 5 5 5 5 5 5 5 5 3 5 5 5 5 5 5 5 5 5 5 3 5 5 5 5 5 5 5 5 5 5 5 5 5 5 5 5 5 5 5 5 5 5 5 3 5 5 5 5 5 5 5 5 3 5 5 3 5 5 5 5 5 5 5 5 5 5 5 5 5 5 5 5 5 5 5 3 5 5 5 5 3 5 5 5 5 5 3 3 5 5 5 5 5 5 5 3 5 5 5 5 3 5 5 5 5 5 5 5 3 3 3 3 5 3 5 3 3 5 5 5 5 5 3 5 3 3 3 5 3 5 5 5 5 5 5 5 5 5 5 5 5 5 5 3 5 5 5 3 5 5 5 3 5 5 5 5 5 5 5 5 5 5 5 5 5 3 5 5 5 5 5 5 5 5 5 5 5 5 5 5 5 5 5 5 5 5 5 5 5 5 5 5 5 5 5 5 5 3 5 5 5 3 5 5 5 5 5 5 5 5 5 5 5 5 5 5 5 5 5 5 5 5 5 5 5 5 5 5 3 5 5 5 5 5 5 5 5 5 5 5 5 3 5 5 3 5 5 5 5 3 5 5 3 5 5 5 3 5 5 5 3 5 5 5 5 3 5 5 5 3 3 5 5 3 5 5 5 5 5 5 5 3 3 5 5 5 5 5 5 5 5 3 5 3 3 5 5 5 5 5 5 5 5 5 3 5 5 5 5 5 5 5 5 5 5 5 3 5 5 5 5 5 5 3 5 5 5 5 3 5 5 5 3 5 5 5 5 5 5 5 5 5 5 3 5 5 5 5 5 5 3 5 5 3 5 5 5 5 3 5 3 5 5 5 5 5 5 5 5 5 5 3 5 5 3 5 5 5 5 5 5 5 5 5 3 5 5 5 5 3 5 5 5 5 5 5 3 5 5 5 5 5 5 5 5 5 5 5 5 5 5 3 5 5 5 5 5 5 5 5 5 5 5 3 5 5 5 5 5 5 5 5 5 5 5 5 5 5 5 5 5 5 5 5 5 5 5 5 5 5 5 3 5 5 5 5 5 5 5 3 5 5 5 5 5 5 5 5 5 3 5 5 3 5 5 5 5 5 3 5 5 3 5 5 3 5 5 3 5 5 5 5 5 5 5 5 5 5 5 3 3 3 5 5 5 5 5 3 5 5 5 5 5 5 5 5 5 5 5 5 5 5 3 3 5 3 5 3 5 3 5 3 5 5 5 5 5 5 5 5 5 5 5 5 5 5 5 5 5 5 3 5 5 5 5 5 5 5 5 5 5 5 5 5 5 5 5 5 5 5 5 5 5 5 5 5 5 5 5 5 5 5 5 5 5 5 5 5 5 5 3 5 3 5 3 5 5 5 5 5 5 5 5 5 5 5 3 5 5 5 5 5 5 5 5 5 3 5 5 5 5 3 5 5 3 5 5 5 5 5 5 5 5 5 5 5 3 3 5 3 5 5 5 5 3 5 3 3 5 5 5 3 5 3 5 5 5 3 3 5 5 3 5 5 5 5 5 5 5 5 5 5 3 5 3 5 5 5 5 5 5 3 5 5 3 5 5 5 5 5 3 5 3 5 5 5 5 5 5 5 5 5 5 5 3 5 3 5 5 5 5 5 5 5 5 5 5 5 5 5 5 5 5 5 5 5 5 3 5 5 5 5 5 5 5 5 5 3 5 5 3 5 5 3 5 5 5 5 5 5 5 3 5 5 5 5 5 3 5 5 5 3 5 5 5 3 5 5 3 5 5 3 5 5 5 5 5 5 5 5 5 5 5 5 5 5 5 5 3 5 5 5 5 5 5 5 5 5 5 5 5 5 3 5 5 5 5 5 5 5 5 3 5 5 5 3 5 5 5 5 5 5 5 3 5 5 5 3 3 3 5 5 5 5 5 3 5 5 5 5 5 5 5 5 5 5 5 5 5 5 5 5 5 5 5 5 5 5 5 5 5 5 5 5 5 5 5 5 5 5 5 5 5 5 5 5 5 3 5 5 5 5 5 5 5 5 5 5 5 5 5 5 5 5 5 3 5 5 5 5 5 5 5 5 5 3 5 5 5 5 3 5 5 5 5 5 3 5 5 5 5 3 5 3 3 5 3 5 5 5 5 3 5 5 5 5 5 5 5 3 5 5 5 5 5 5 5 5 3 5 5 5 5 3 5 5 5 5 5 5 5 5 5 5 5 5 5 5 5 5 5 5 5 5 5 5 5 5 5 5 5 5 5 5 5 5 5 5 3 5 5 5 5 5 5 5 5 5 5 5 5 5 5 5 5 5 5 5 5 5 5 5 5 5 3 5 5 3 5 5 5 5 3 5 5 5 5 5 5 5 5 3 5 5 3 3 5 5 3 5 5 3 3 5 5 5 5 3 3 5 5 5 3 5 3 5 5 5 5 5 5 5 5 5 5 5 5 5 5 5 5 5 5 5 5 3 5 5 3 5 5 5 5 5 5 5 5 5 3 5 5 5 5 5 5 3 5 5 5 5 5 5 5 5 3 5 3 5 5 5 5 5 5 5 5 5 5 5 5 5 5 5 5 5 5 5 5 5 5 5 5 5 5 5 5 5 5 5 5 3 5 5 5 5 5 3 5 5 5 5 5 5 5 3 5 5 5 5 5 3 5 5 5 5 5 5 5 5 3 5 5 5 5 5 5 5 5 5 5 5 5 5 3 5 5 3 5 5 3 5 3 5 5 5 5 5 5 5 5 5 5 5 5 5 3 3 5 5 5 5 5 3 5 5 5 5 5 5 5 5 5 5 5 5 5 5 5 5 5 5 5 5 5 5 5 5 5 5 5 5 5 5 5 5 5 5 5 5 5 5 5 5 5 5 5 5 5 5 5 5 5 5 5 5 5 5 5 5 5 5 5 3 5 5 5 5 5 5 5 5 5 5 5 5 5 5 5 5 5 5 5 5 5 5 5 5 5 5 3 5 5 5 5 5 5 5 5 5 5 3 5 3 5 5 5 5 5 5 5 5 5 5 3 5 5 5 5 5 5 5 5 5 5 5 5 5 5 5 5 5 5 5 5 5 5 5 5 5 5 5 5 5 5 5 5 5 5 5 5 5 5 5 5 5 5 5 5 5 5 5 5 5 5 5 5 5 5 5 5 5 5 5 3 5 5 3 5 5 5 5 3 5 3 5 5 5 5 5 5 5 5 5 5 5 5 5 5 5 3 5 5 3 5 5 5 5 5 5 5 5 5 5 5 5 5 5 5 5 5 3 3 5 5 5 5 5 5 5 5 5 5 5 5 5 5 5 5 5 5 5 5 5 5 5 5 5 5 5 5 5 5 5 5 5 5 3 5 5 5 5 5 5 5 5 5 5 5 5 5 5 5 3 5 5 5 5 5 5 5 5 5 5 5 5 5 3 5 5 5 5 5 5 5 5 5 5 5 5 5 5 5 5 5 5 5 5 5 5 5 5 5 5 5 5 3 5 5 5 3 5 5 5 5 5 5 3 5 5 5 3 5 5 5 3 5 5 5 5 5 5 5 3 5 5 5 5 3 5 3 5 5 5 5 5 5 5 5 5 5 3 5 5 5 3 5 3 5 5 5 5 5 5 5 5 3 5 5 5 3 3 5 5 5 5 5 5 5 5 5 5 5 5 5 5 5 5 5 5 5 5 3 5 5 5 5 5 5 5 5 5 5 3 5 5 5 5 5 3 5 5 5 5 5 3 5 5 3 5 5 3 5 5 3 5 5 5 3 5 5 5 5 5 3 5 3 3 5 5 5 5 5 5 5 5 3 5 5 5 3 5 5 3 5 5 5 5 3 5 5 5 3 5 5 5 5 5 5 5 3 5 5 5 5 5 5 5 3 3 3 3 5 5 5 5 5 5 5 5 5 5 5 5 3 5 5 3 5 5 5 5 5 3 5 5 5 5 3 5 5 5 3 5 5 5 5 3 5 3 5 5 5 5 5 5 5 3 5 5 5 3 5 5 5 5 3 3 5 5 5 5 5 5 3 5 5 5 5 3 5 5 5 5 5 3 5 5 5 5 5 3 5 5 5 5 5 3 5 5 5 5 5 5 5 5 3 5 5 5 5 5 5 5 3 5 5 5 5 5 5 5 5 5 5 5 3 5 5 5 5 5 5 3 3 3 5 5 3 5 3 5 3 5 5 5 5 5 5 3 5 5 5 5 5 5 3 5 3 3 5 5 5 5 5 5 5 5 5 5 5 5 5 5 5 5 5 5 5 5 5 5 3 5 3 5 5 5 5 5 5 5 3 3 5 5 5 5 3 5 5 5 5 5 5 5 5 5 5 5 5 5 3 5 5 3 5 5 5 5 5 5 5 5 5 5 5 5 5 3 5 5 5 5 5 3 5 3 5 5 5 5 5 3 5 5 5 5 3 5 5 5 5 5 5 5 5 5 5 5 5 5 5 5 3 5 5 5 5 3 5 5 5 5 5 5 5 5 5 5 5 5 5 5 5 5 3 5 5 3 5 5 5 5 5 5 5 3 5 5 5 5 5 5 3 5 5 3 5 5 5 5 3 5 5 5 5 5 5 5 3 5 5 3 5 5 3 5 5 5 3 5 5 5 5 5 5 5 5 5 3 5 5 3 5 5 5 5 3 5 5 3 5 5 5 3 5 5 5 5 5 5 5 5 3 5 5 5 5 5 5 5 5 5 5 5 5 5 5 5 5 5 5 5 5 5 5 5 5 5 3 5 5 3 5 5 5 5 5 5 5 5 5 5 5 5 5 5 5 5 5 5 5 5 5 3 5 5 5 5 5 3 5 5 3 3 5 3 5 5 3 5 5 5 5 5 5 5 5 5 5 3 5 5 5 5 5 5 5 5 5 5 5 5 5 5 5 5 5 5 5 5 5 5 5 5 5 5 5 5 5 5 5 5 5 5 5 5 5 5 5 5 5 5 5 5 5 5 5 5 5 5 5 5 5 5 5 5 5 5 5 3 5 5 3 5 5 5 5 5 5 5 5 5 5 5 5 5 5 5 5 3 5 5 5 5 5 5 5 5 5 5 5 5 5 3 5 5 3 3 5 5 5 5 5 3 5 5 5 5 5 5 5 5 3 5 5 5 5 3 5 3 5 5 3 5 5 5 5 5 5 5 5 3 3 5 5 5 5 5 5 3 5 5 5 3 5 5 5 5 5 5 5 5 5 3 5 5 3 5 5 5 5 5 5 5 5 3 5 5 3 5 5 5 5 5 5 3 5 5 5 3 5 5 5 5 5 5 5 5 5 5 5 5 5 5 5 5 3 5 5 3 5 5 5 5 3 5 5 3 5 5 5 3 5 5 5 5 3 5 5 5 3 5 5 5 5 5 5 5 3 5 5 5 5 5 3 5 5 5 5 5 5 5 5 5 5 5 5 5 5 5 5 5 5 5 3 5 5 5 5 3 3 5 5 5 5 3 5 5 5 5 5 5 3 5 5 3 5 5 3 5 5 5 3 5 5 5 5 5 5 5 5 5 3 5 5 3 5 5 5 5 5 3 3 5 5 3 5 3 3 5 5 5 3 5 5 5 5 3 5 5 5 5 5 5 5 5 3 5 3 5 5 5 3 5 3 5 5 3 5 5 5 3 5 5 5 5 5 5 5 5 5 3 3 5 5 5 3 5 5 5 5 5 5 5 5 5 5 5 5 3 5 5 5 5 3 5 5 5 5 3 5 5 3 5 5 3 5 5 5 5 5 5 3 5 5 3 5 5 5 5 5 3 5 3 5 5 5 5 5 5 5 5 5 5 5 5 5 5 5 5 5 5 5 5 5 5 5 5 5 5 5 5 5 5 5 5 5 5 5 5 3 5 5 5 5 5 3 5 5 5 5 5 3 5 5 5 5 5 5 3 5 5 5 5 3 5 5 3 5 5 5 5 3 3 5 5 5 5 5 5 3 5 5 5 5 5 5 3 3 5 5 5 5 5 5 5 3 3 5 5 5 3 5 3 5 5 3 3 5 5 5 5 5 3 5 5 5 5 5 5 5 5 5 5 5 5 5 3 5 5 3 3 5 3 5 5 5 3 5 5 5 5 5 3 5 5 5 5 5 5 5 5 3 5 5 5 5 5 3 5 5 5 5 5 5 5 5 5 5 5 5 5 5 5 5 3 5 5 5 5 5 5 5 5 5 5 5 5 5 5 5 5 5 5 5 3 5 3 5 3 5 5 5 5 5 5 5 5 5 5 5 5 5 3 5 5 5 5 5 5 5 5 5 5 5 3 5 5 5 5 5 5 5 5 5 5 5 5 3 3 5 5 5 5 5 5 5 5 5 3 5 5 5 5 5 3 5 5 3 5 3 3 5 5 5 3 5 3 5 5 5 5 5 3 5 5 5 5 3 5 5 5 3 5 5 3 5 5 5 5 5 5 3 5 5 5 5 5 5 3 5 5 5 3 5 5 5 5 5 5 5 5 5 5 5 5 5 5 5 5 5 5 5 5 5 5 5 5 5 5 5 5 5 5 5 5 5 5 5 5 5 5 5 5 5 5 5 5 5 5 5 5 5 5 5 5 5 3 5 5 5 5 5 5 5 5 5 5 5 5 5 5 5 5 3 5 5 5 3 5 5 5 3 5 5 5 5 5 3 5 5 3 5 3 3 5 5 5 5 5 5 5 5 5 3 5 5 3 5 5 5 5 5 5 5 5 5 5 5 5 5 5 5 5 5 5 5 5 5 3 5 5 5 5 5 5 5 5 5 5 5 5 5 5 5 5 5 5 3 5 5 3 5 5 5 5 5 5 5 3 5 5 5 5 5 5 5 3 5 5 3 3 5 5 3 3 5 5 5 5 3 5 3 5 5 5 5 5 5 5 5 5 3 5 5 5 5 3 5 5 5 5 5 5 3 5 5 5 5 3 5 5 5 5 5 3 5 5 5 5 5 5 5 5 3 5 3 5 5 5 5 3 5 3 5 5 5 5 5 5 5 5 5 5 5 3 5 5 5 5 5 5 5 5 5 5 5 5 3 5 5 3 5 5 5 5 5 5 5 5 5 3 3 5 5 5 5 5 5 5 3 5 5 3 5 5 5 5 5 3 5 5 5 5 5 5 3 5 5 5 5 5 5 5 5 5 5 5 5 5 5 5 5 3 5 5 3 5 3 5 5 5 5 3 5 5 5 5 3 5 5 5 5 5 5 5 5 3 5 3 5 3 5 5 5 5 5 5 5 5 5 3 5 5 5 5 5 3 3 5 5 5 5 3 5 5 3 5 5 5 5 3 5 5 3 5 5 5 5 5 5 5 5 5 5 3 3 5 5 5 5 5 5 5 5 5 5 5 5 3 5 5 5 5 5 5 5 5 5 5 3 5 5 5 5 3 5 5 3 5 5 3 3 5 3 5 3 3 5 5 3 5 5 5 5 5 5 5 5 5 5 5 5 5 5 5 5 3 5 5 5 5 3 3 5 5 5 3 5 5 5 3 5 5 5 3 5 5 5 5 5 5 5 5 5 5 5 5 5 5 5 5 5 3 5 5 3 5 5 5 5 3 5 5 5 5 3 5 5 5 5 5 5 5 5 5 5 5 5 5 5 5 5 5 5 5 5 5 5 5 5 5 5 5 5 3 5 5 5 5 5 5 5 5 5 3 5 5 5 5 5 5 5 5 5 5 5 3 3 5 5 3 3 5 5 5 5 3 5 5 5 5 5 5 5 5 5 3 5 5 5 5 5 5 5 5 5 5 5 5 5 5 5 5 5 5 5 5 5 5 5 5 5 3 5 5 5 5 5 5 5 5 5 5 5 5 5 5 5 5 5 5 3 5 5 5 5 5 5 5 5 5 5 5 5 5 5 5 5 5 5 5 5 5 5 5 5 5 5 5 5 5 5 5 5 5 5 5 5 3 5 5 5 5 5 5 3 5 5 5 5 5 5 5 5 5 5 3 5 5 5 3 5 5 5 5 5 5 5 5 5 5 5 5 3 5 5 5 5 5 5 5 5 5 3 5 5 5 5 5 5 5 5 5 5 5 5 5 3 5 5 5 5 5 5 5 5 5 5 5 3 5 5 5 3 5 5 5 5 5 5 5 5 5 5 5 5 3 5 5 5 5 5 5 5 5 5 5 5 5 3 5 5 5 5 5 5 5 5 5 3 5 5 5 5 5 5 5 5 5 5 5 5 5 5 3 5 5 5 5 5 3 5 3 5 5 5 3 5 5 5 5 5 5 3 3 5 5 5 5 5 5 5 5 3 5 5 5 5 5 5 5 5 5 5 5 5 5 5 3 5 5 5 5 3 5 5 5 5 5 5 3 3 5 5 3 5 5 5 5 5 5 5 5 5 5 5 3 5 5 5 5 5 5 3 5 5 5 5 3 5 5 5 5 5 5 5 5 5 3 5 5 5 5 5 5 5 5 5 5 5 5 5 5 5 5 5 5 5 5 5 5 5 5 5 5 5 5 5 5 5 5 5 5 5 5 3 5 5 5 5 5 3 5 5 5 5 3 5 5 5 5 5 5 5 5 5 5 5 5 5 5 5 5 5 5 5 3 5 3 5 5 5 5 3 5 5 5 5 5 5 5 5 5 3 5 5 5 5 3 3 5 5 5 5 5 5 5 5 5 5 5 5 5 5 5 5 5 3 5 5 5 5 5 3 5 5 5 3 5 5 5 5 5 5 3 5 5 5 3 5 5 5 5 5 5 5 5 5 5 5 5 5 5 3 5 5 5 5 5 5 5 5 5 5 5 5 5 5 5 3 5 5 5 5 5 3 5 5 5 5 5 5 5 5 5 3 5 5 3 5 5 5 5 5 5 5 5 5 5 5 5 5 5 3 5 5 5 5 3 3 5 5 5 5 5 5 5 5 5 5 5 5 5 5 5 3 5 5 3 5 5 5 5 5 5 5 5 5 5 5 5 5 5 5 5 3 5 5 5 5 3 5 5 3 5 5 5 5 5 5 5 5 5 5 5 3 5 5 5 5 5 5 5 5 5 5 5 5 5 5 5 5 5 5 5 5 5 5 5 5 5 5 5 5 5 5 5 5 5 5 5 5 5 5 5 5 5 5 5 5 5 5 5 5 5 5 3 5 5 5 5 5 5 5 5 5 5 5 3 5 5 5 5 5 5 5 5 3 5 5 5 5 3 5 3 5 5 5 5 5 5 5 5 5 5 5 3 5 5 5 5 5 5 5 5 5 5 5 5 5 5 5 5 5 5 5 5 3 5 5 5 5 5 5 5 5 5 5 5 5 5 5 5 5 5 5 5 5 5 5 5 5 5 5 5 5 5 5 5 3 5 5 3 5 5 5 5 3 5 5 5 5 5 3 5 5 5 5 5 5 5 3 5 5 5 5 5 5 3 5 5 5 3 5 5 3 3 5 5 5 5 5 5 5 3 5 5 5 5 5 5 5 5 5 5 5 3 3 5 5 5 3 5 5 3 5 5 3 5 5 3 5 3 5 5 5 5 5 5 5 5 3 5 5 5 5 3 5 5 5 3 5 3 5 3 5 5 5 5 5 5 5 3 5 5 5 5 3 5 5 5 3 5 5 5 5 3 5 5 5 5 5 5 5 5 5 5 5 5 5 5 5 5 5 5 5 5 5 5 5 5 3 5 5 5 3 3 5 5 5 5 5 5 5 5 3 5 5 3 5 5 5 5 5 5 5 5 5 5 5 5 5 5 5 5 5 5 5 5 5 5 5 5 5 5 5 5 5 5 5 5 5 5 5 5 5 5 5 5 5 5 5 5 5 5 5 5 5 5 5 5 5 3 5 5 3 5 3 5 5 5 5 5 5 5 5 5 5 5 5 5 5 5 5 5 5 5 5 5 5 5 5 3 5 5 5 5 3 5 5 5 5 5 5 5 5 3 5 5 5 3 5 5 3 5 5 5 5 5 5 5 5 5 5 5 3 5 5 5 5 5 5 5 5 5 5 3 5 5 5 3 5 5 5 5 3 5 5 5 5 5 5 5 5 5 3 5 5 5 5 5 5 3 5 5 5 5 5 5 5 5 5 5 5 5 5 5 5 5 5 5 5 5 5 5 5 5 5 5 5 5 5 3 5 3 5 5 5 5 5 5 5 3 5 5 3 5 5 5 5 3 5 5 5 5 5 3 5 5 5 3 3 5 5 3 5 3 5 3 3 5 5 3 5 5 5 5 3 5 3 5 3 5 5 3 5 5 5 5 3 5 5 5 5 5 3 5 3 5 3 5 5 5 3 3 5 5 3 5 3 5 3 5 5 5 3 5 5 3 3 5 5 5 5 5 3 5 3 5 5 5 5 5 5 5 5 5 5 5 3 5 5 5 3 5 5 5 5 3 5 3 5 3 5 5 3 5 5 5 5 5 5 3 5 5 5 3 5 5 5 5 3 5 3 5 5 5 5 3 3 5 5 3 3 5 5 3 5 5 5 3 5 3 5 5 3 5 3 5 5 3 5 5 3 5 5 5 5 5 5 5 3 5 5 5 5 5 3 5 5 5 3 3 5 3 5 5 5 5 5 5 5 3 5 3 5 5 5 5 5 5 5 5 5 5 5 5 3 5 5 5 5 5 5 5 5 5 5 5 5 5 5 3 3 5 3 5 5 5 3 5 3 5 5 5 5 5 5 5 3 5 5 3 5 5 5 3 5 5 5 5 3 5 5 5 5 5 5 5 5 5 5 3 5 5 5 3 5 5 5 5 5 5 5 5 5 5 5 5 5 3 5 5 3 5 5 5 5 5 3 5 3 5 5 5 5 5 3 5 5 3 3 3 5 5 5 5 5 5 5 5 5 5 5 3 5 5 5 5 5 5 5 5 3 3 5 5 5 5 3 5 5 5 5 5 3 3 5 5 5 5 5 5 5 5 3 5 5 3 5 5 5 5 3 5 5 5 3 5 5 5 5 5 5 5 5 5 5 5 5 5 5 5 5 5 5 3 5 5 5 5 5 5 5 5 5 5 5 5 5 5 5 5 5 5 5 5 5 5 3 5 5 3 5 5 5 5 5 3 5 5 5 5 5 5 3 5 3 5 5 5 3 5 5 5 5 5 5 3 3 5 5 5 5 5 3 5 5 5 3 3 5 5 5 5 5 5 3 3 5 5 5 5 5 5 5 5 5 5 3 3 5 5 5 3 5 5 5 5 5 5 5 5 5 5 5 5 5 5 5 5 5 5 5 5 5 5 5 5 5 5 5 5 5 3 5 5 5 3 5 3 5 5 5 5 5 5 5 5 3 5 5 5 5 5 3 5 3 3 5 5 5 5 5 3 5 3 5 5 3 5 5 5 5 5 3 5 5 5 5 5 5 5 5 5 5 5 3 5 5 5 5 5 5 5 5 5 5 5 3 5 3 5 3 5 5 5 5 3 5 5 5 3 5 5 5 5 5 5 5 5 5 5 5 5 5 3 5 5 5 5 5 5 5 5 5 5 5 3 5 3 5 5 5 5 3 5 5 5 5 5 5 5 5 5 5 5 5 5 3 5 5 5 5 5 5 5 5 5 5 5 5 5 5 5 5 5 5 5 5 5 5 5 5 5 5 5 5 5 5 5 5 5 5 5 5 5 5 5 5 5 5 5 5 5 5 5 5 5 3 5 5 5 5 5 5 5 5 5 5 5 5 5 5 5 5 5 5 5 3 5 5 5 5 5 5 5 5 5 5 5 5 5 5 5 5 5 5 5 5 5 5 5 5 5 5 5 5 5 5 5 5 5 5 5 5 5 5 5 5 3 5 5 5 3 5 5 5 5 5 5 5 5 3 5 3 5 5 5 5 3 5 5 5 5 5 5 5 3 5 5 5 5 5 5 3 5 5 5 5 5 5 5 5 3 5 5 5 5 5 5 3 5 3 5 5 5 5 5 5 5 5 5 5 5 5 5 5 3 5 5 5 5 5 5 5 5 5 5 5 5 5 5 5 5 5 5 5 3 5 5 3 3 5 5 5 5 5 3 5 5 3 5 5 5 5 5 5 5 5 5 5 5 5 5 5 5 5 5 5 3 5 5 5 5 5 5 5 5 5 5 5 3 5 5 5 5 3 5 5 5 5 5 5 3 5 5 5 5 5 5 5 3 5 5 3 5 5 5 5 3 5 5 5 5 5 5 5 5 5 5 5 5 3 5 5 5 5 3 5 5 5 5 5 5 5 5 3 5 5 5 3 5 5 5 5 3 3 5 5 5 5 5 5 3 5 5 5 3 5 5 5 5 5 5 5 5 5 5 5 3 5 5 3 5 5 5 5 5 5 5 5 5 5 5 5 3 5 3 5 5 5 5 5 5 5 5 5 3 5 5 5 3 5 5 3 5 5 5 5 5 5 5 3 3 5 5 5 3 3 3 5 5 5 5 5 5 5 5 5 5 3 5 5 5 5 5 5 5 5 5 5 5 5 5 5 5 5 5 5 5 5 5 5 5 5 5 5 5 3 5 5 3 5 5 3 3 5 5 5 5 5 5 5 5 5 5 5 5 5 5 5 5 5 5 5 5 5 5 5 5 3 5 5 5 5 5 5 5 5 5 3 5 3 5 5 5 5 5 3 5 5 5 5 5 5 5 3 5 5 5 5 3 5 3 5 5 3 5 5 5 3 3 5 5 5 3 5 5 5 3 5 5 3 5 5 5 5 3 5 3 5 5 3 5 5 5 5 5 5 5 5 5 5 5 5 5 3 3 5 5 5 5 3 5 5 3 3 5 5 5 5 5 5 3 5 5 5 5 5 5 5 5 5 5 5 5 3 5 5 5 5 5 5 5 5 3 5 5 3 5 5 5 3 5 3 5 5 5 5 5 5 5 3 5 5 5 5 5 5 5 5 5 5 5 5 5 5 5 5 5 5 5 5 5 5 5 5 3 5 5 5 5 5 5 5 5 5 5 5 5 5 5 5 3 5 5 5 5 5 5 5 5 5 5 5 5 5 5 5 5 5 5 5 5 5 5 5 3 5 5 5 5 3 3 5 5 5 5 3 5 5 5 5 5 5 5 5 5 5 5 5 5 5 5 5 5 5 5 5 3 5 5 5 5 3 5 3 3 5 5 5 5 5 5 5 5 5 5 5 5 5 5 5 3 5 5 3 5 5 5 5 5 5 5 3 5 5 5 5 5 5 3 5 3 5 5 5 3 5 5 5 5 5 5 3 5 5 3 5 5 3 3 5 5 3 5 5 5 5 5 5 5 5 5 5 5 5 5 5 5 5 5 5 5 5 5 5 5 5 5 5 5 3 3 5 5 5 3 5 5 3 5 5 5 5 5 5 5 3 5 3 5 5 5 3 5 5 5 5 5 5 5 5 5 5 5 5 5 5 5 5 5 5 5 3 5 5 5 5 5 5 5 5 5 3 5 5 5 5 5 3 5 5 5 5 5 3 5 5 5 5 5 5 5 3 5 5 3 5 5 5 5 3 5 5 3 5 5 5 3 5 5 3 5 3 5 5 5 5 5 3 5 5 3 5 5 5 5 5 5 3 5 5 5 5 5 3 5 5 3 5 3 5 5 5 5 3 5 5 5 5 5 5 3 5 5 5 5 3 5 5 3 5 5 5 5 5 5 5 3 5 5 5 5 5 5 5 5 3 5 5 5 5 5 5 5 5 3 5 3 5 5 5 5 5 3 3 5 3 3 5 3 3 3 5 5 3 5 5 5 3 5 5 3 5 5 3 5 5 5 5 5 5 5 5 3 5 3 3 5 5 3 3 5 5 5 5 5 5 5 5 5 5 5 3 5 5 5 5 3 5 3 5 3 5 5 5 5 5 3 5 5 5 5 5 5 5 3 5 5 5 5 5 5 3 5 5 5 5 3 5 5 3 3 5 3 5 3 5 5 5 3 5 5 3 3 5 5 3 5 5 5 5 3 5 5 5 3 5 5 5 3 5 5 5 5 5 5 3 5 5 5 5 5 3 3 5 5 5 5 3 5 5 5 5 5 3 5 5 5 5 5 5 5 5 5 5 5 5 5 5 5 3 5 5 3 5 5 5 5 3 5 5 5 5 5 5 3 5 5 5 5 5 5 3 5 5 5 5 5 5 5 5 5 5 3 5 5 5 5 3 5 5 3 5 5 3 5 5 3 5 5 5 5 5 5 3 5 5 5 5 5 5 5 5 5 5 5 5 3 5 5 5 5 5 5 5 5 5 5 5 5 5 5 5 5 5 5 5 5 5 5 5 5 5 5 3 5 5 5 5 3 5 5 5 5 5 5 5 5 5 5 3 5 5 5 5 3 5 5 3 5 5 5 5 3 5 5 5 5 5 5 3 5 5 5 5 5 5 3 5 5 5 5 5 5 5 5 5 5 5 5 5 5 5 5 5 5 5 5 3 5 5 5 5 5 5 5 3 5 5 5 5 5 5 3 5 5 3 5 5 5 3 5 5 5 5 5 5 3 3 5 5 5 3 3 5 3 3 5 5 3 5 5 5 5 5 3 5 5 3 5 5 3 3 5 5 5 5 3 5 3 5 5 3 5 3 5 5 3 3 5 5 5 5 3 5 5 3 5 5 3 5 5 3 5 3 5 3 5 3 5 5 5 3 5 5 5 3 5 5 3 3 3 5 5 3 5 5 5 5 5 5 5 5 5 5 3 5 5 5 5 5 5 3 5 5 5 3 3 5 5 5 5 5 5 5 3 5 5 5 5 5 5 5 5 5 5 5 3 5 5 3 5 5 5 5 5 5 5 5 5 5 5 5 5 5 5 5 3 5 5 5 5 5 3 5 5 5 5 5 3 5 3 3 3 5 5 5 5 3 5 5 5 5 3 3 5 5 5 5 5 5 5 5 5 5 5 5 5 5 5 5 5 5 5 5 5 5 5 5 5 3 5 5 5 5 5 5 5 5 5 5 5 5 5 3 5 5 5 5 5 5 3 5 5 3 5 5 5 5 5 3 5 5 5 5 5 5 5 5 5 5 3 5 5 3 5 5 5 5 5 5 5 5 5 5 5 3 5 5 3 5 5 3 5 5 3 5 5 5 3 5 5 5 3 5 5 5 5 5 3 5 5 5 5 3 5 5 5 5 3 5 3 5 5 5 5 5 5 5 5 5 5 5 5 5 3 5 5 5 5 5 5 5 5 5 5 5 5 5 5 5 3 3 5 3 5 5 5 5 5 5 5 3 5 3 5 3 5 3 3 5 5 5 5 3 3 5 5 5 5 5 5 3 5 5 5 5 5 5 5 3 5 5 5 3 5 5 5 5 5 5 5 5 5 3 5 5 5 5 3 5 5 5 3 3 5 5 5 5 5 5 5 5 5 5 3 5 5 5 3 5 5 5 3 5 5 5 5 3 5 5 5 5 5 5 5 5 5 5 5 3 5 5 5 5 5 5 5 5 5 5 5 5 5 5 5 5 5 5 5 5 5 5 3 5 5 5 3 5 5 5 5 5 3 5 5 3 5 5 3 5 3 5 5 5 3 5 3 5 3 5 5 5 5 3 3 3 5 5 5 5 5 5 5 5 5 5 5 5 5 5 5 3 5 5 5 5 3 5 5 5 3 5 5 5 5 3 3 5 5 3 5 5 3 5 3 5 5 5 5 3 3 3 5 5 5 5 5 5 5 5 5 3 5 5 5 3 3 5 5 5 5 3 5 5 5 5 5 5 5 5 5 3 3 5 5 5 5 5 3 5 5 3 5 5 5 5 5 5 5 5 5 5 5 5 5 5 3 3 5 5 5 3 5 3 5 5 5 5 5 5 5 5 5 5 3 5 3 5 5 5 5 3 3 3 3 5 5 5 5 5 5 5 3 3 5 5 5 3 5 5 5 5 5 5 5 5 5 5 3 5 5 5 5 5 5 5 5 3 5 5 5 5 5 5 5 5 5 5 3 5 5 5 5 5 5 5 5 5 3 5 5 5 5 5 5 5 5 5 5 5 3 3 3 3 5 5 5 5 5 5 3 5 5 3 5 5 3 5 5 5 5 5 5 5 5 5 5 5 5 5 3 5 3 5 5 5 5 3 5 5 5 5 5 5 5 5 3 5 3 5 5 3 3 5 5 5 5 5 3 5 5 3 5 5 5 5 5 3 5 5 5 3 5 5 3 3 5 5 5 5 5 5 5 5 5 5 5 3 5 5 5 5 5 5 5 5 5 5 3 5 5 5 5 5 5 3 5 5 5 5 5 5 5 5 5 5 5 5 5 3 5 5 5 5 5 5 5 3 5 5 5 5 5 5 5 5 3 5 5 5 5 5 5 3 5 3 5 5 5 5 5 5 5 5 5 5 5 3 3 5 5 5 5 3 5 5 3 5 5 5 3 3 5 5 3 5 5 5 5 5 5 5 5 5 5 5 5 5 5 5 5 5 5 3 3 5 5 5 3 5 5 5 5 5 5 5 5 5 3 5 3 5 5 5 3 5 5 5 5 5 5 5 3 5 5 5 3 5 3 5 5 5 3 5 5 5 5 5 5 5 3 5 5 5 3 5 5 5 5 5 5 5 5 5 5 5 5 5 5 5 5 5 5 3 5 5 5 5 5 5 5 5 3 5 5 5 5 5 5 5 5 5 5 5 5 5 5 5 3 3 5 3 5 5 3 5 5 5 5 3 5 5 5 5 5 5 3 5 5 5 5 5 5 3 5 5 5 5 3 5 5 5 5 5 5 3 5 3 5 5 5 5 5 5 5 5 5 5 5 5 5 5 5 5 3 5 5 5 5 5 5 5 3 5 5 5 5 5 3 5 5 3 5 5 5 5 5 5 5 5 5 5 3 5 5 5 5 5 5 5 5 5 3 5 5 5 5 5 3 5 5 5 3 5 5 5 5 5 5 5 5 5 5 5 5 5 5 5 5 5 5 5 5 5 5 5 5 5 5 5 5 5 5 5 5 5 5 5 5 5 5 5 5 5 5 5 3 5 5 3 5 5 5 5 5 5 5 5 5 3 5 3 3 5 5 5 5 5 5 5 5 5 5 5 3 5 5 5 5 5 3 5 5 3 3 5 3 5 5 3 3 5 5 5 3 5 5 5 5 5 3 5 5 5 3 5 5 5 5 5 5 5 5 5 5 5 3 5 5 5 5 5 5 5 5 5 5 5 5 3 5 5 5 5 5 3 5 5 5 5 5 5 5 5 5 5 5 5 5 5 5 3 5 5 5 5 5 5 5 5 5 5 5 5 5 3 5 5 5 5 3 5 5 5 3 5 3 5 5 5 5 5 5 5 5 5 5 5 5 5 3 3 5 5 5 5 3 5 5 3 5 5 5 5 5 3 5 5 5 5 5 5 5 5 5 5 5 5 3 5 5 5 5 5 3 5 5 5 5 5 5 5 5 5 5 3 5 5 5 5 5 5 5 5 5 5 5 5 5 5 5 5 5 5 5 5 5 5 5 5 5 5 5 5 5 5 3 5 5 5 5 5 5 5 3 5 5 5 5 3 5 5 3 5 5 5 3 5 5 3 5 5 5 3 5 5 5 5 5 5 3 3 3 5 5 5 5 3 3 5 5 3 5 5 5 5 3 5 3 5 5 5 5 5 5 5 5 5 5 5 5 5 5 3 5 5 5 5 3 5 5 3 5 3 5 5 3 5 5 5 5 5 5 5 5 5 5 5 5 5 5 3 5 3 5 5 5 5 5 5 5 3 5 5 5 5 3 5 5 5 5 5 5 5 5 5 5 5 5 5 5 5 5 5 5 5 5 5 5 5 5 5 5 5 5 5 5 5 5 5 5 5 5 5 5 5 5 5 5 5 5 5 5 5 5 5 5 5 5 5 5 5 5 5 5 5 5 5 5 5 5 5 5 5 3 5 5 5 5 5 5 5 3 5 5 5 5 5 5 5 5 5 5 5 3 5 5 5 5 5 5 5 5 5 5 5 3 5 5 3 5 5 5 5 5 5 5 5 5 5 5 5 3 5 5 5 3 5 5 5 5 5 5 3 5 3 5 5 5 5 3 5 5 5 5 5 5 5 5 5 5 5 5 5 5 5 5 5 5 5 5 5 5 5 5 5 5 5 5 3 5 5 3 5 5 5 5 3 3 5 5 5 5 5 5 3 3 5 5 5 5 5 5 5 5 5 5 3 5 5 5 5 3 5 5 5 5 5 5 5 5 5 5 5 3 5 5 5 5 5 3 5 5 5 5 5 5 5 5 5 5 5 3 5 5 5 5 5 5 5 5 5 3 5 5 5 5 5 5 5 5 5 5 5 5 5 5 5 5 5 3 5 5 5 5 5 5 5 5 5 5 5 5 5 3 3 5 3 5 5 5 5 3 5 5 5 3 3 5 5 3 5 3 5 5 5 5 5 5 5 5 5 5 5 5 3 5 5 5 3 5 5 5 5 5 5 3 5 3 5 5 5 5 5 5 3 5 5 5 5 5 5 5 5 5 5 3 5 5 5 5 5 3 5 5 5 5 5 5 5 5 3 5 5 5 3 5 5 5 5 5 5 3 5 3 5 3 5 5 5 5 5 5 5 5 5 5 5 5 5 5 5 5 5 5 5 5 5 3 5 5 5 5 5 5 5 5 5 5 5 5 5 5 5 5 5 5 5 5 3 5 5 5 5 3 5 5 5 3 5 3 5 5 5 3 5 5 5 5 5 5 3 5 5 3 3 5 5 5 5 5 3 5 5 5 3 3 5 5 5 3 5 5 3 3 5 3 5 3 5 5 3 5 3 5 3 5 5 5 5 5 5 5 3 5 5 5 5 5 5 3 5 5 5 5 5 5 3 5 5 5 3 3 5 5 5 5 5 5 5 3 5 5 5 3 3 3 5 5 3 5 5 5 3 3 5 5 5 5 5 5 5 5 5 3 5 5 5 5 3 3 5 5 5 3 5 5 5 5 5 5 5 5 5 5 5 5 5 5 3 5 5 5 5 5 5 5 5 5 5 5 5 5 3 5 5 5 5 5 5 5 5 5 5 5 5 5 5 5 5 5 5 5 3 3 5 3 5 5 5 5 5 3 5 5 5 3 5 5 5 5 5 5 5 5 5 5 5 5 3 5 5 5 5 5 5 5 5 5 3 5 3 5 3 5 5 3 5 5 5 3 5 5 3 5 5 5 5 5 5 5 5 5 5 5 5 5 5 3 5 5 3 5 5 5 5 5 3 5 5 3 3 5 3 5 5 5 5 5 5 5 5 5 3 3 5 5 5 5 5 5 5 5 5 5 5 5 5 5 5 5 5 5 5 3 5 5 5 5 5 5 5 5 3 3 5 5 5 5 5 5 5 5 5 5 5 5 3 3 5 5 5 5 5 5 5 5 5 5 5 5 5 5 5 5 5 5 5 5 5 3 5 5 5 5 5 5 5 5 5 3 5 5 5 5 3 5 5 3 5 5 5 5 5 3 5 5 5 5 5 5 5 5 5 5 5 5 5 5 5 5 5 5 5 5 5 5 5 5 5 5 5 5 5 5 5 5 5 5 5 5 5 5 5 5 3 5 5 5 5 5 5 5 5 5 5 5 5 5 5 3 5 3 5 3 3 5 3 5 5 3 5 5 5 5 3 5 5 5 5 5 5 5 5 5 5 5 5 5 5 5 5 5 5 5 5 5 5 5 5 5 5 5 5 5 3 5 5 5 5 5 5 5 5 5 5 5 5 3 5 5 5 5 5 5 5 3 5 5 5 5 5 5 5 5 5 5 5 3 5 3 5 5 5 5 5 5 3 5 5 5 5 3 5 5 5 5 5 5 5 5 5 3 5 5 5 5 5 3 5 5 5 3 5 5 5 5 3 5 5 3 5 5 5 5 5 5 5 5 5 5 5 5 5 5 5 5 5 5 5 5 5 5 5 5 5 5 5 5 5 5 3 5 5 5 5 5 5 5 5 5 5 5 5 5 5 5 5 5 3 5 3 3 5 5 5 5 3 5 5 5 5 5 5 5 3 5 3 5 5 5 5 3 5 5 3 5 5 5 5 5 5 5 5 5 5 5 3 3 5 5 5 3 3 5 5 5 5 5 5 5 5 5 5 5 3 5 5 3 5 5 3 5 5 5 5 5 5 5 5 5 5 5 5 3 5 5 5 5 5 5 5 3 3 5 5 3 5 5 5 5 5 5 5 5 3 5 5 5 5 5 5 5 5 5 3 5 5 5 5 3 5 5 5 5 5 5 3 5 5 5 5 5 5 5 5 5 5 5 5 5 5 5 5 3 5 5 5 5 5 3 5 5 5 5 5 3 5 5 5 5 5 3 5 5 5 3 5 5 5 5 5 3 5 5 5 5 5 5 5 5 5 5 5 5 5 5 5 5 5 5 5 5 5 5 5 5 5 5 5 5 5 5 5 5 5 5 5 3 5 5 5 5 5 5 5 5 5 5 5 5 5 5 5 5 5 5 5 5 5 5 5 5 5 5 5 5 3 5 5 5 5 5 5 5 5 5 5 5 5 5 5 5 5 5 5 5 5 5 5 5 5 3 5 5 5 5 3 5 5 3 5 5 5 5 5 5 5 5 5 5 5 5 5 5 5 5 5 5 5 5 5 5 5 5 5 5 5 3 5 5 5 5 5 5 5 3 5 5 5 3 5 5 5 3 5 3 5 5 5 5 5 5 5 5 5 5 5 5 5 3 5 5 5 3 5 5 5 5 5 5 5 3 5 5 5 5 5 5 3 5 5 5 5 5 5 3 5 3 5 5 5 5 5 5 5 5 5 5 5 5 5 5 5 5 5 5 5 5 5 5 5 5 5 5 5 5 5 5 5 5 5 5 3 5 3 5 5 5 5 3 5 3 5 3 5 5 3 5 5 5 5 5 5 5 5 5 5 5 5 5 5 5 5 5 5 5 5 5 5 5 5 5 3 5 5 5 5 5 5 5 5 5 5 5 5 5 5 5 3 5 5 5 5 3 5 5 3 5 3 3 5 5 5 5 5 5 3 5 3 5 5 5 3 5 3 5 5 3 5 5 5 5 3 5 5 3 5 5 5 5 5 3 3 5 5 5 3 5 3 5 3 5 5 5 5 5 5 5 5 3 5 3 5 5 3 5 3 3 5 5 3 5 5 3 5 5 5 5 3 5 3 5 3 3 5 3 5 3 5 3 5 5 5 5 5 3 5 5 5 5 5 5 3 3 5 5 5 3 5 5 5 5 5 5 5 5 5 5 5 5 5 3 5 5 5 3 5 5 5 5 5 5 5 5 5 5 5 5 5 5 5 5 5 5 5 5 5 5 3 5 5 5 5 5 5 5 3 5 5 3 5 5 5 5 5 5 5 5 5 5 5 5 3 3 5 5 5 5 3 5 5 5 5 3 5 3 5 5 5 3 3 5 5 5 5 5 5 3 5 5 5 3 5 3 5 5 3 5 3 3 5 3 5 5 5 3 5 3 5 5 5 5 5 5 5 5 3 5 5 5 5 5 5 5 5 5 5 5 5 5 5 5 5 5 5 5 3 5 5 5 3 5 5 5 5 5 5 3 5 5 5 3 5 5 5 5 3 5 5 5 5 5 5 5 5 3 5 5 5 5 5 5 5 5 5 5 5 5 3 5 5 5 5 5 5 5 5 5 5 5 5 5 5 5 5 5 5 5 5 5 5 5 5 5 5 5 5 5 5 5 5 5 5 5 5 5 5 5 5 5 5 5 5 5 5 3 5 5 5 5 3 5 5 3 5 5 5 5 5 5 5 5 5 5 5 5 5 5 5 5 5 5 5 5 5 5 5 5 5 5 5 5 5 5 5 5 5 5 5 5 5 5 5 5 5 5 5 5 5 5 5 5 5 5 5 5 5 5 5 5 3 5 5 5 3 5 5 5 5 5 5 5 5 5 5 5 5 5 3 5 5 5 5 5 5 5 5 5 5 3 5 5 5 5 5 5 5 5 5 5 5 5 5 5 5 5 5 5 5 5 5 5 5 5 5 5 5 5 5 5 5 5 5 5 5 5 5 5 5 5 5 5 5 5 5 5 5 5 5 3 5 3 5 5 5 5 5 5 5 5 5 5 5 5 3 5 5 5 5 3 5 5 5 5 5 5 5 5 5 5 5 5 5 5 5 5 5 5 5 5 5 5 5 5 5 5 5 5 5 3 5 5 5 5 5 5 5 5 5 5 5 5 5 5 5 5 5 5 5 5 5 5 5 5 5 5 5 3 5 3 5 5 5 5 5 5 5 5 5 3 5 5 5 3 5 5 5 5 5 5 5 3 5 5 5 5 5 5 5 5 3 5 5 5 3 3 5 5 5 5 3 5 5 5 5 5 5 5 5 5 5 5 5 5 5 5 5 3 5 5 5 3 5 5 5 3 5 5 3 5 5 5 5 5 5 5 5 5 5 5 3 3 5 5 5 5 5 5 5 5 3 5 5 5 5 3 5 5 5 3 5 5 3 3 5 5 5 3 5 5 5 5 5 3 5 5 5 5 3 5 5 5 5 5 5 3 5 3 5 5 5 5 5 5 5 5 3 3 5 3 5 3 5 3 5 5 5 5 5 5 5 5 3 5 5 5 5 5 5 5 5 5 5 3 5 5 5 5 5 5 5 5 5 5 5 5 5 5 5 5 5 5 5 5 5 5 5 5 5 5 5 5 5 5 5 5 5 3 5 5 5 5 3 5 3 5 5 5 5 5 5 5 5 5 5 5 5 5 5 3 5 5 5 5 5 5 5 5 3 5 5 5 3 5 5 5 5 5 5 3 5 5 5 5 5 5 5 5 5 5 5 5 3 5 5 5 3 5 5 5 5 3 5 5 5 5 5 5 5 5 3 5 3 5 5 5 5 5 5 5 3 5 5 5 3 5 5 5 5 5 5 5 3 5 5 5 5 5 5 5 5 5 5 3 5 5 5 3 5 5 5 5 5 5 5 5 5 5 5 5 5 5 5 5 5 5 5 5 3 5 5 3 5 5 5 3 5 5 3 5 5 5 5 5 5 5 5 5 5 5 5 5 5 5 5 5 5 5 5 5 5 5 5 5 5 5 5 5 5 5 5 5 5 5 5 3 5 5 3 5 5 3 5 5 5 5 5 5 5 5 5 5 5 3 5 3 5 5 5 5 5 5 3 5 3 5 5 5 5 5 5 5 5 5 5 5 3 5 5 5 5 5 5 5 5 5 5 5 5 5 5 5 5 3 5 5 5 5 5 5 5 5 5 5 
</DataArray>
</Cells>
<PointData Scalars="" Vectors="displacement," Tensors="">
<DataArray type="Float64" Name="displacement" NumberOfComponents="3" format="ascii">
0.034997422252242318 9.3482851058394124e-07 0 0.034272521214903963 9.6161363657865949e-05 0 0.032204051063403724 -1.7660656935732489e-06 0 0.034997422252242318 9.3482851058394124e-07 0 0.034272521214903963 9.6161363657865949e-05 0 0.03495569975287887 1.9028778021882954e-05 0 0.034997422252242318 9.3482851058394124e-07 0 0.03495569975287887 1.9028778021882954e-05 0 0.034999957703840262 -5.0405730066298084e-08 0 0.032198972560213188 -3.4394740585896152e-07 0 0.031738276625661782 -0.00057430849469836598 0 0.034272521214903963 9.6161363657865949e-05 0 0.032204051063403724 -1.7660656935732489e-06 0 0.033980439424545747 -0.00074188994386897226 0 0.034272521214903963 9.6161363657865949e-05 0 0.033980439424545747 -0.00074188994386897226 0 0.034464944607310422 -0.000362243621368334 0 0.029974535812676655 -0.00057555266050531918 0 0.029906539095085949 -2.6059604558495841e-05 0 0.029443424448426223 -0.0003905510650627082 0 0.029906539095085949 -2.6059604558495841e-05 0 0.029284863578716586 -0.00010558136072861128 0 0.029443424448426223 -0.0003905510650627082 0 0.029906539095085949 -2.6059604558495841e-05 0 0.029284863578716586 -0.00010558136072861128 0 0.029262941544839893 8.844889025475272e-05 0 0.032195620108483654 -2.0081405991580943e-06 0 0.029906539095085949 -2.6059604558495841e-05 0 0.030245425317937134 8.6286900867390433e-07 0 0.032195620108483654 -2.0081405991580943e-06 0 0.029974535812676655 -0.00057555266050531918 0 0.029906539095085949 -2.6059604558495841e-05 0 0.034909618951267908 -1.2334640084480716e-05 0 0.034805955876597974 -2.4388609289038823e-05 0 0.034913476345803572 -4.0869107291194671e-05 0 0.031351822073409912 -0.00054407533720708125 0 0.033111907099090412 -0.00048411661467193367 0 0.034909618951267908 -1.2334640084480716e-05 0 0.034934716635785283 -7.3379102515153794e-06 0 0.034939288739342239 -1.1495552930501514e-05 0 0.034909618951267908 -1.2334640084480716e-05 0 0.034805955876597974 -2.4388609289038823e-05 0 0.034801533501350776 7.3901615615450189e-06 0 0.035398363281918928 -0.00015242782219986717 0 0.033134524225637285 -4.1209644319311478e-05 0 0.029974535812676655 -0.00057555266050531918 0 0.029443424448426223 -0.0003905510650627082 0 0.028891758933275044 -0.00038107633731801602 0 0.029284863578716586 -0.00010558136072861128 0 0.029049926848937761 -0.00019548063819949327 0 0.029028547756006835 0.00020919358188251332 0 0.031738276625661782 -0.00057430849469836598 0 0.033134524225637285 -4.1209644319311478e-05 0 0.028991313717618081 7.3455481320025029e-06 0 0.031351822073409912 -0.00054407533720708125 0 0.029284863578716586 -0.00010558136072861128 0 0.029443424448426223 -0.0003905510650627082 0 0.029049926848937761 -0.00019548063819949327 0 0.029443424448426223 -0.0003905510650627082 0 0.02888223325467125 -0.0001415325150259031 0 0.028891758933275044 -0.00038107633731801602 0 0.031351822073409912 -0.00054407533720708125 0 0.033134524225637285 -4.1209644319311478e-05 0 0.034934716635785283 -7.3379102515153794e-06 0 0.034939288739342239 -1.1495552930501514e-05 0 0.034956477556093886 -1.456542680091166e-05 0 0.034845690705438213 -0.00084459847563093124 0 0.034464944607310422 -0.000362243621368334 0 0.03472579182740336 -3.2722425355491168e-05 0 0.033980439424545747 -0.00074188994386897226 0 0.034845690705438213 -0.00084459847563093124 0 0.034464944607310422 -0.000362243621368334 0 0.033134524225637285 -4.1209644319311478e-05 0 0.035028993259663313 -0.00013097414323092241 0 0.034939288739342239 -1.1495552930501514e-05 0 0.034959477640621794 -7.6798197401130956e-06 0 0.034956477556093886 -1.456542680091166e-05 0 0.034909618951267908 -1.2334640084480716e-05 0 0.034939288739342239 -1.1495552930501514e-05 0 0.034940351150345265 -9.6747940080336225e-06 0 0.034939288739342239 -1.1495552930501514e-05 0 0.034959477640621794 -7.6798197401130956e-06 0 0.034940351150345265 -9.6747940080336225e-06 0 0.034959477640621794 -7.6798197401130956e-06 0 0.034956477556093886 -1.456542680091166e-05 0 0.0349775683622673 -2.0660189249456016e-06 0 0.034959477640621794 -7.6798197401130956e-06 0 0.0349775683622673 -2.0660189249456016e-06 0 0.034982504257915055 -7.824231369730331e-07 0 0.034272521214903963 9.6161363657865949e-05 0 0.03472579182740336 -3.2722425355491168e-05 0 0.03495569975287887 1.9028778021882954e-05 0 0.034272521214903963 9.6161363657865949e-05 0 0.034464944607310422 -0.000362243621368334 0 0.03472579182740336 -3.2722425355491168e-05 0 0.034956477556093886 -1.456542680091166e-05 0 0.03495569975287887 1.9028778021882954e-05 0 0.0349775683622673 -2.0660189249456016e-06 0 0.035028993259663313 -0.00013097414323092241 0 0.03489395041373787 7.8443185976662477e-05 0 0.03495569975287887 1.9028778021882954e-05 0 0.034999957703840262 -5.0405730066298084e-08 0 0.0349775683622673 -2.0660189249456016e-06 0 0.034999957703840262 -5.0405730066298084e-08 0 0.0349775683622673 -2.0660189249456016e-06 0 0.034982504257915055 -7.824231369730331e-07 0 0.034999957703840262 -5.0405730066298084e-08 0 0.034982504257915055 -7.824231369730331e-07 0 0.034999940178739017 2.5469354494349609e-08 0 0.034982504257915055 -7.824231369730331e-07 0 0.034999940178739017 2.5469354494349609e-08 0 0.034980543175147212 -4.0891971688574206e-06 0 0.034982504257915055 -7.824231369730331e-07 0 0.034980543175147212 -4.0891971688574206e-06 0 0.034966389714252914 -5.2727529188389974e-06 0 0.034959477640621794 -7.6798197401130956e-06 0 0.034982504257915055 -7.824231369730331e-07 0 0.034966389714252914 -5.2727529188389974e-06 0 0.034999976403853113 1.9832011943936919e-09 0 0.034979009771284209 2.4313252486371856e-06 0 0.034999971994497496 -1.6047356553108242e-10 0 0.03499999163864527 -3.8140036175146566e-10 0 0.034978499517376777 -5.879429701542459e-07 0 0.034976831569714387 3.4226751533485907e-06 0 0.034979009771284209 2.4313252486371856e-06 0 0.034957370547852203 7.8337491081871866e-06 0 0.034999976403853113 1.9832011943936919e-09 0 0.034976831569714387 3.4226751533485907e-06 0 0.034979009771284209 2.4313252486371856e-06 0 0.034976831569714387 3.4226751533485907e-06 0 0.034957370547852203 7.8337491081871866e-06 0 0.034953675512911016 8.4918069793072948e-06 0 0.034980543175147212 -4.0891971688574206e-06 0 0.034956812697124147 -1.019341145054387e-05 0 0.034963226404125913 -8.9978105573525696e-06 0 0.034978499517376777 -5.879429701542459e-07 0 0.034954946987378457 -3.2434121475198353e-07 0 0.034956812697124147 -1.019341145054387e-05 0 0.034953421559245468 -8.7763844688849296e-06 0 0.034933600607900801 7.4743166366883984e-06 0 0.034957370547852203 7.8337491081871866e-06 0 0.034939780590087059 1.1819481599312582e-05 0 0.034947827211540369 1.1375051124463323e-05 0 0.034953675512911016 8.4918069793072948e-06 0 0.034939780590087059 1.1819481599312582e-05 0 0.034934843250378704 1.0759967603061361e-05 0 0.034957370547852203 7.8337491081871866e-06 0 0.034953675512911016 8.4918069793072948e-06 0 0.034939780590087059 1.1819481599312582e-05 0 0.034959477640621794 -7.6798197401130956e-06 0 0.034940351150345265 -9.6747940080336225e-06 0 0.034966389714252914 -5.2727529188389974e-06 0 0.034958193644076027 -1.0472661015301122e-05 0 0.034940351150345265 -9.6747940080336225e-06 0 0.034966389714252914 -5.2727529188389974e-06 0 0.034980543175147212 -4.0891971688574206e-06 0 0.034966389714252914 -5.2727529188389974e-06 0 0.034963226404125913 -8.9978105573525696e-06 0 0.034958193644076027 -1.0472661015301122e-05 0 0.034966389714252914 -5.2727529188389974e-06 0 0.034963226404125913 -8.9978105573525696e-06 0 0.034956812697124147 -1.019341145054387e-05 0 0.034963226404125913 -8.9978105573525696e-06 0 0.034953421559245468 -8.7763844688849296e-06 0 0.034958193644076027 -1.0472661015301122e-05 0 0.034963226404125913 -8.9978105573525696e-06 0 0.034953421559245468 -8.7763844688849296e-06 0 0.034958193644076027 -1.0472661015301122e-05 0 0.034953421559245468 -8.7763844688849296e-06 0 0.034955833800043364 -1.2055339077555317e-05 0 0.034909618951267908 -1.2334640084480716e-05 0 0.034940351150345265 -9.6747940080336225e-06 0 0.034912250350731547 -3.4924880593105826e-05 0 0.034928489116164703 -7.3073708459565019e-07 0 0.034982623286028927 -2.7596022244712923e-05 0 0.034958193644076027 -1.0472661015301122e-05 0 0.034940351150345265 -9.6747940080336225e-06 0 0.034955833800043364 -1.2055339077555317e-05 0 0.034909618951267908 -1.2334640084480716e-05 0 0.034912250350731547 -3.4924880593105826e-05 0 0.034913476345803572 -4.0869107291194671e-05 0 0.030917425461385654 -0.0009330155134569068 0 0.03090143027492236 -0.00093638453046212904 0 0.030901340544297207 -0.00090725897253775604 0 0.034912250350731547 -3.4924880593105826e-05 0 0.034880361186705407 -3.256174758404739e-05 0 0.034913476345803572 -4.0869107291194671e-05 0 0.032989808959712222 -0.0010021969272161447 0 0.033111907099090412 -0.00048411661467193367 0 0.034982623286028927 -2.7596022244712923e-05 0 0.032989808959712222 -0.0010021969272161447 0 0.034953421559245468 -8.7763844688849296e-06 0 0.034944233098107826 7.29778034608024e-07 0 0.034933600607900801 7.4743166366883984e-06 0 0.034953421559245468 -8.7763844688849296e-06 0 0.034955833800043364 -1.2055339077555317e-05 0 0.034944233098107826 7.29778034608024e-07 0 0.032989808959712222 -0.0010021969272161447 0 0.028988693999291274 -0.0020633906148698456 0 0.028988693999291274 -0.0020633906148698456 0 0.029847445885401086 -0.00055666916202408261 0 0.030917425461385654 -0.0009330155134569068 0 0.030904436138475676 -0.00095340047333501851 0 0.03090143027492236 -0.00093638453046212904 0 0.028512730252082084 -0.00041718771030597166 0 0.028515653306466524 -0.00013826932854604863 0 0.028637319770039155 -0.00023479158586076884 0 0.028171822500839244 -0.00035756100871427241 0 0.028512730252082084 -0.00041718771030597166 0 0.028515653306466524 -0.00013826932854604863 0 0.034939780590087059 1.1819481599312582e-05 0 0.034934843250378704 1.0759967603061361e-05 0 0.034919891131056723 1.8892525373369912e-05 0 0.034954946987378457 -3.2434121475198353e-07 0 0.034937806475558122 6.9064259819852498e-06 0 0.034953675512911016 8.4918069793072948e-06 0 0.034934843250378704 1.0759967603061361e-05 0 0.034933600607900801 7.4743166366883984e-06 0 0.034934843250378704 1.0759967603061361e-05 0 0.034933600607900801 7.4743166366883984e-06 0 0.034922931496595956 1.5594253348765856e-05 0 0.034944233098107826 7.29778034608024e-07 0 0.034933600607900801 7.4743166366883984e-06 0 0.034922931496595956 1.5594253348765856e-05 0 0.032989808959712222 -0.0010021969272161447 0 0.032513289249800466 -0.0012185375847751517 0 0.031421428190619126 -0.0029633414778530921 0 0.030762963589017513 -0.0019636588180982572 0 0.030052356955467936 -0.0023488378240515482 0 0.030762963589017513 -0.0019636588180982572 0 0.030052356955467936 -0.0023488378240515482 0 0.029647878393318436 -0.0015097053792638728 0 0.034934843250378704 1.0759967603061361e-05 0 0.034922931496595956 1.5594253348765856e-05 0 0.034919891131056723 1.8892525373369912e-05 0 0.034922931496595956 1.5594253348765856e-05 0 0.034919891131056723 1.8892525373369912e-05 0 0.034898301180414128 3.1352207279701291e-05 0 0.032513289249800466 -0.0012185375847751517 0 0.031871736274162371 -0.00095295492516818967 0 0.027343284110347404 -0.0029294629103251719 0 0.026052940459625598 -0.0021320199976810885 0 0.030052356955467936 -0.0023488378240515482 0 0.029647878393318436 -0.0015097053792638728 0 0.028624076979080003 -0.0017152687965375629 0 0.025039532584241346 -0.0041597173685496173 0 0.024281481562627938 -0.0028711900489106451 0 0.023030248626529692 -0.0033577470011228023 0 0.029647878393318436 -0.0015097053792638728 0 0.028624076979080003 -0.0017152687965375629 0 0.028486492953576487 -0.0010349278604531817 0 0.025039532584241346 -0.0041597173685496173 0 0.025753680778640972 -0.0029853207069499869 0 0.024281481562627938 -0.0028711900489106451 0 0.027031876976225108 -0.0049510779542428513 0 0.025039532584241346 -0.0041597173685496173 0 0.025753680778640972 -0.0029853207069499869 0 0.028988693999291274 -0.0020633906148698456 0 0.027343284110347404 -0.0029294629103251719 0 0.028988693999291274 -0.0020633906148698456 0 0.027061568941878809 -0.0016801502946762227 0 0.028171822500839244 -0.00035756100871427241 0 0.027936835393188215 -0.00011866547073017147 0 0.028212402866758645 -0.00012006528245419492 0 0.027936835393188215 -0.00011866547073017147 0 0.02821160052671615 0.00013596161858526985 0 0.027661974907767773 0.00019908807516851027 0 0.027936835393188215 -0.00011866547073017147 0 0.028212402866758645 -0.00012006528245419492 0 0.02821160052671615 0.00013596161858526985 0 0.024281481562627938 -0.0028711900489106451 0 0.022739362419735967 -0.0020993267402713688 0 0.024464237617937961 -0.00098711688468188061 0 0.027061568941878809 -0.0016801502946762227 0 0.022940946088606452 -0.00073334090993054082 0 0.025753680778640972 -0.0029853207069499869 0 0.024281481562627938 -0.0028711900489106451 0 0.024464237617937961 -0.00098711688468188061 0 0.028171822500839244 -0.00035756100871427241 0 0.028515653306466524 -0.00013826932854604863 0 0.028212402866758645 -0.00012006528245419492 0 0.028515653306466524 -0.00013826932854604863 0 0.028212402866758645 -0.00012006528245419492 0 0.02821160052671615 0.00013596161858526985 0 0.028515653306466524 -0.00013826932854604863 0 0.028638331019923181 -2.3441792334302062e-05 0 0.02821160052671615 0.00013596161858526985 0 0.028515653306466524 -0.00013826932854604863 0 0.028803320360592164 -1.7353208693756224e-05 0 0.028638331019923181 -2.3441792334302062e-05 0 0.028515653306466524 -0.00013826932854604863 0 0.028803320360592164 -1.7353208693756224e-05 0 0.028637319770039155 -0.00023479158586076884 0 0.028803320360592164 -1.7353208693756224e-05 0 0.028637319770039155 -0.00023479158586076884 0 0.02884781711248114 -0.00032949685202479054 0 0.028803320360592164 -1.7353208693756224e-05 0 0.028415959865004427 0.00016578735205580237 0 0.028795540081153637 0.00021057525264289744 0 0.028833813899943762 -2.1995119239184128e-05 0 0.028894089610197276 -5.8781107602575977e-06 0 0.028803320360592164 -1.7353208693756224e-05 0 0.028415959865004427 0.00016578735205580237 0 0.028522164044085349 -0.00035994587529780252 0 0.028803320360592164 -1.7353208693756224e-05 0 0.028522164044085349 -0.00035994587529780252 0 0.028638331019923181 -2.3441792334302062e-05 0 0.026341090669985596 -1.5060715742572158e-06 0 0.028415959865004427 0.00016578735205580237 0 0.028522164044085349 -0.00035994587529780252 0 0.026336705351596178 -3.3324098195226112e-07 0 0.025714265388061718 -0.00081619319472187751 0 0.026341090669985596 -1.5060715742572158e-06 0 0.02829008048896188 8.4122290785369208e-07 0 0.028415959865004427 0.00016578735205580237 0 0.02829008048896188 8.4122290785369208e-07 0 0.028415959865004427 0.00016578735205580237 0 0.028971252947530828 0.00023259258075999822 0 0.028415959865004427 0.00016578735205580237 0 0.028971252947530828 0.00023259258075999822 0 0.028795540081153637 0.00021057525264289744 0 0.028971252947530828 0.00023259258075999822 0 0.028795540081153637 0.00021057525264289744 0 0.029048125869664189 0.0002236491459792097 0 0.028971252947530828 0.00023259258075999822 0 0.029449748391603942 0.00012614147987262999 0 0.029048125869664189 0.0002236491459792097 0 0.02829008048896188 8.4122290785369208e-07 0 0.028971252947530828 0.00023259258075999822 0 0.030245425317937134 8.6286900867390433e-07 0 0.029906539095085949 -2.6059604558495841e-05 0 0.030245425317937134 8.6286900867390433e-07 0 0.029449748391603942 0.00012614147987262999 0 0.028971252947530828 0.00023259258075999822 0 0.030245425317937134 8.6286900867390433e-07 0 0.029449748391603942 0.00012614147987262999 0 0.029449748391603942 0.00012614147987262999 0 0.029262941544839893 8.844889025475272e-05 0 0.029048125869664189 0.0002236491459792097 0 0.029906539095085949 -2.6059604558495841e-05 0 0.029449748391603942 0.00012614147987262999 0 0.029262941544839893 8.844889025475272e-05 0 0.031351822073409912 -0.00054407533720708125 0 0.029511521893389903 -0.00043570666162359028 0 0.029284863578716586 -0.00010558136072861128 0 0.029262941544839893 8.844889025475272e-05 0 0.029028547756006835 0.00020919358188251332 0 0.029036833076615594 7.3814482820806971e-05 0 0.029511521893389903 -0.00043570666162359028 0 0.029262941544839893 8.844889025475272e-05 0 0.028990397619272561 0.00014280691965933183 0 0.029048125869664189 0.0002236491459792097 0 0.029847445885401086 -0.00055666916202408261 0 0.029511521893389903 -0.00043570666162359028 0 0.03090143027492236 -0.00093638453046212904 0 0.030857675701874338 -0.00091509700147442965 0 0.030901340544297207 -0.00090725897253775604 0 0.030861510218626268 -0.00088093683675315886 0 0.030857675701874338 -0.00091509700147442965 0 0.030901340544297207 -0.00090725897253775604 0 0.028512730252082084 -0.00041718771030597166 0 0.028637319770039155 -0.00023479158586076884 0 0.02884781711248114 -0.00032949685202479054 0 0.028512730252082084 -0.00041718771030597166 0 0.028867077276805628 -0.00055108281932761155 0 0.02884781711248114 -0.00032949685202479054 0 0.028803320360592164 -1.7353208693756224e-05 0 0.028913105345931448 0.00023508791332632452 0 0.028795540081153637 0.00021057525264289744 0 0.028913105345931448 0.00023508791332632452 0 0.028795540081153637 0.00021057525264289744 0 0.029048125869664189 0.0002236491459792097 0 0.029511521893389903 -0.00043570666162359028 0 0.028894089610197276 -5.8781107602575977e-06 0 0.028990397619272561 0.00014280691965933183 0 0.028913105345931448 0.00023508791332632452 0 0.029048125869664189 0.0002236491459792097 0 0.033785346935752837 0.00056282691186847244 0 0.033265901391396367 5.2130253933643207e-05 0 0.033154056768098759 0.00065632829068556391 0 0.03344221784055125 0.00057016062949684246 0 0.033071961333100336 0.0011572580259111289 0 0.033785346935752837 0.00056282691186847244 0 0.033387366141174803 0.0012195827819810007 0 0.033154056768098759 0.00065632829068556391 0 0.033203169638207172 0.00052323945544174302 0 0.034037357509889996 0.00038735996987838506 0 0.033602980280307254 0.00088161865020109297 0 0.033203169638207172 0.00052323945544174302 0 0.033729445903876908 -0.00010534146970499332 0 0.034037357509889996 0.00038735996987838506 0 0.03344221784055125 0.00057016062949684246 0 0.034380908891923953 -4.0614418330396996e-05 0 0.033785346935752837 0.00056282691186847244 0 0.034181444820204729 -9.7112875839780436e-05 0 0.033265901391396367 5.2130253933643207e-05 0 0.034380908891923953 -4.0614418330396996e-05 0 0.034417040797553332 -4.3365132986939836e-05 0 0.034970506591862349 -1.2973088984469093e-05 0 0.034964194024132048 -2.450652917681897e-06 0 0.03497988690644676 -4.4714531257069189e-06 0 0.034933869302581855 -3.4994791703130494e-05 0 0.034970506591862349 -1.2973088984469093e-05 0 0.034964194024132048 -2.450652917681897e-06 0 0.035000006911279566 7.3948956543248039e-09 0 0.034964194024132048 -2.450652917681897e-06 0 0.03497988690644676 -4.4714531257069189e-06 0 0.034964194024132048 -2.450652917681897e-06 0 0.034885944118744482 -6.3679028627890604e-06 0 0.034999771856959856 2.7246204462068219e-08 0 0.035000006911279566 7.3948956543248039e-09 0 0.034964194024132048 -2.450652917681897e-06 0 0.034999771856959856 2.7246204462068219e-08 0 0.034933869302581855 -3.4994791703130494e-05 0 0.034964194024132048 -2.450652917681897e-06 0 0.034885944118744482 -6.3679028627890604e-06 0 0.034885944118744482 -6.3679028627890604e-06 0 0.034888053330081013 -3.5566757456927338e-05 0 0.034633126793697455 -6.6763362429702146e-05 0 0.034380908891923953 -4.0614418330396996e-05 0 0.034956567919529183 -9.9773234513632887e-05 0 0.034924235853816932 -0.00015006458222075803 0 0.034885944118744482 -6.3679028627890604e-06 0 0.034633126793697455 -6.6763362429702146e-05 0 0.034885944118744482 -6.3679028627890604e-06 0 0.034999771856959856 2.7246204462068219e-08 0 0.034888053330081013 -3.5566757456927338e-05 0 0.034999771856959856 2.7246204462068219e-08 0 0.034888053330081013 -3.5566757456927338e-05 0 0.034999893739226129 -7.0613766226445137e-08 0 0.034888053330081013 -3.5566757456927338e-05 0 0.034938714148288134 -3.1111549836980302e-05 0 0.034999893739226129 -7.0613766226445137e-08 0 0.034888053330081013 -3.5566757456927338e-05 0 0.034847833810316517 4.4820699604904351e-05 0 0.034938714148288134 -3.1111549836980302e-05 0 0.034888053330081013 -3.5566757456927338e-05 0 0.034847833810316517 4.4820699604904351e-05 0 0.034633126793697455 -6.6763362429702146e-05 0 0.034847833810316517 4.4820699604904351e-05 0 0.034665936811935305 0.00032011568137718172 0 0.035089095163348905 0.00019860521472970445 0 0.034847833810316517 4.4820699604904351e-05 0 0.034665936811935305 0.00032011568137718172 0 0.034633126793697455 -6.6763362429702146e-05 0 0.034380908891923953 -4.0614418330396996e-05 0 0.034571429273371729 -9.4491793807046747e-05 0 0.033729445903876908 -0.00010534146970499332 0 0.034633126793697455 -6.6763362429702146e-05 0 0.034037357509889996 0.00038735996987838506 0 0.034665936811935305 0.00032011568137718172 0 0.034633126793697455 -6.6763362429702146e-05 0 0.034037357509889996 0.00038735996987838506 0 0.034037357509889996 0.00038735996987838506 0 0.034253488820162978 0.00069748538975007593 0 0.033602980280307254 0.00088161865020109297 0 0.034665936811935305 0.00032011568137718172 0 0.034037357509889996 0.00038735996987838506 0 0.034253488820162978 0.00069748538975007593 0 0.034665936811935305 0.00032011568137718172 0 0.034253488820162978 0.00069748538975007593 0 0.034714120988091929 0.00086080457221745003 0 0.034665936811935305 0.00032011568137718172 0 0.035089095163348905 0.00019860521472970445 0 0.034714120988091929 0.00086080457221745003 0 0.035089095163348905 0.00019860521472970445 0 0.035323795675355138 0.00088239899342428983 0 0.034714120988091929 0.00086080457221745003 0 0.035026993493934878 0.00013590858492416977 0 0.035056332067762305 0.00035944548372048013 0 0.034946087359190199 1.1913838061702605e-05 0 0.034949577822167968 1.3201107232842605e-05 0 0.034933798716692367 2.2537706749768475e-05 0 0.034946087359190199 1.1913838061702605e-05 0 0.034973595419940114 -3.9204468762418253e-06 0 0.034949577822167968 1.3201107232842605e-05 0 0.035026993493934878 0.00013590858492416977 0 0.034945582849598915 -3.1211386095525902e-05 0 0.034946087359190199 1.1913838061702605e-05 0 0.034938714148288134 -3.1111549836980302e-05 0 0.034973595419940114 -3.9204468762418253e-06 0 0.034938714148288134 -3.1111549836980302e-05 0 0.034977967798401385 -1.2390451898282246e-05 0 0.034973595419940114 -3.9204468762418253e-06 0 0.034847833810316517 4.4820699604904351e-05 0 0.035089095163348905 0.00019860521472970445 0 0.034938714148288134 -3.1111549836980302e-05 0 0.034938714148288134 -3.1111549836980302e-05 0 0.034999893739226129 -7.0613766226445137e-08 0 0.034977967798401385 -1.2390451898282246e-05 0 0.034999972360558566 -4.6859025453489953e-10 0 0.034977967798401385 -1.2390451898282246e-05 0 0.034973595419940114 -3.9204468762418253e-06 0 0.034999893739226129 -7.0613766226445137e-08 0 0.034999972360558566 -4.6859025453489953e-10 0 0.034977967798401385 -1.2390451898282246e-05 0 0.034973595419940114 -3.9204468762418253e-06 0 0.034982960580923803 -1.8600160604039304e-07 0 0.034964225128355383 5.8946810221217733e-06 0 0.034999972360558566 -4.6859025453489953e-10 0 0.034982960580923803 -1.8600160604039304e-07 0 0.034999971994497496 -1.6047356553108242e-10 0 0.034999972360558566 -4.6859025453489953e-10 0 0.034973595419940114 -3.9204468762418253e-06 0 0.034982960580923803 -1.8600160604039304e-07 0 0.034979009771284209 2.4313252486371856e-06 0 0.034982960580923803 -1.8600160604039304e-07 0 0.034999971994497496 -1.6047356553108242e-10 0 0.034979009771284209 2.4313252486371856e-06 0 0.034982960580923803 -1.8600160604039304e-07 0 0.034964225128355383 5.8946810221217733e-06 0 0.034979009771284209 2.4313252486371856e-06 0 0.034957370547852203 7.8337491081871866e-06 0 0.034964225128355383 5.8946810221217733e-06 0 0.034957370547852203 7.8337491081871866e-06 0 0.034964225128355383 5.8946810221217733e-06 0 0.034947827211540369 1.1375051124463323e-05 0 0.034973595419940114 -3.9204468762418253e-06 0 0.034964225128355383 5.8946810221217733e-06 0 0.034949577822167968 1.3201107232842605e-05 0 0.034964225128355383 5.8946810221217733e-06 0 0.034949577822167968 1.3201107232842605e-05 0 0.034947827211540369 1.1375051124463323e-05 0 0.034949577822167968 1.3201107232842605e-05 0 0.034927170570098517 1.9550070708306429e-05 0 0.034933798716692367 2.2537706749768475e-05 0 0.034949577822167968 1.3201107232842605e-05 0 0.034947827211540369 1.1375051124463323e-05 0 0.034927170570098517 1.9550070708306429e-05 0 0.034939780590087059 1.1819481599312582e-05 0 0.034947827211540369 1.1375051124463323e-05 0 0.034927170570098517 1.9550070708306429e-05 0 0.034939780590087059 1.1819481599312582e-05 0 0.034919891131056723 1.8892525373369912e-05 0 0.034927170570098517 1.9550070708306429e-05 0 0.034919891131056723 1.8892525373369912e-05 0 0.034927170570098517 1.9550070708306429e-05 0 0.034906244379790202 2.6708206617323896e-05 0 0.034927170570098517 1.9550070708306429e-05 0 0.034906244379790202 2.6708206617323896e-05 0 0.034906329893102182 3.2131582624159415e-05 0 0.034906244379790202 2.6708206617323896e-05 0 0.034865204991957131 4.2694057843827006e-05 0 0.034906329893102182 3.2131582624159415e-05 0 0.034919891131056723 1.8892525373369912e-05 0 0.034906244379790202 2.6708206617323896e-05 0 0.034898301180414128 3.1352207279701291e-05 0 0.028624076979080003 -0.0017152687965375629 0 0.028486492953576487 -0.0010349278604531817 0 0.02712078277248384 -0.0010336833233146364 0 0.024281481562627938 -0.0028711900489106451 0 0.023030248626529692 -0.0033577470011228023 0 0.022739362419735967 -0.0020993267402713688 0 0.023030248626529692 -0.0033577470011228023 0 0.022739362419735967 -0.0020993267402713688 0 0.021020114651716111 -0.0025432518306904338 0 0.022739362419735967 -0.0020993267402713688 0 0.021020114651716111 -0.0025432518306904338 0 0.021590625989679747 -0.00083429613767767872 0 0.028486492953576487 -0.0010349278604531817 0 0.027274582157467746 -0.00055061839368414117 0 0.02712078277248384 -0.0010336833233146364 0 0.021800131267287838 -0.0036677685112423723 0 0.016573716270713832 -0.003994793438796925 0 0.026052940459625598 -0.0021320199976810885 0 0.021800131267287838 -0.0036677685112423723 0 0.021800131267287838 -0.0036677685112423723 0 0.030513132800474466 0.00026119312476794983 0 0.031871736274162371 -0.00095295492516818967 0 0.030513132800474466 0.00026119312476794983 0 0.034906244379790202 2.6708206617323896e-05 0 0.034898301180414128 3.1352207279701291e-05 0 0.034865204991957131 4.2694057843827006e-05 0 0.030513132800474466 0.00026119312476794983 0 0.035769807692257773 0.0011965423552095678 0 0.035766275864063279 0.002379529544992241 0 0.035073919808318282 0.0027541354590224238 0 0.034857306444084031 0.0020238703537399363 0 0.035766275864063279 0.002379529544992241 0 0.034857306444084031 0.0020238703537399363 0 0.035551040902749784 0.0016267772961059718 0 0.021800131267287838 -0.0036677685112423723 0 0.017995681636829283 -0.0042699557032320973 0 0.025641547198593621 -0.0019917320629206869 0 0.02550082628758446 -0.002442128896363516 0 0.024267127980340666 -0.0018621831618962879 0 0.014118025770431347 -0.00776822609284928 0 0.012248177463647812 -0.0069571757256684961 0 0.013562860593962866 -0.0069010232830969192 0 0.030513132800474466 0.00026119312476794983 0 0.029734887504454167 0.00040314231414194862 0 0.025641547198593621 -0.0019917320629206869 0 0.024267127980340666 -0.0018621831618962879 0 0.024229261842970456 -0.0014134166121891516 0 0.035073919808318282 0.0027541354590224238 0 0.034857306444084031 0.0020238703537399363 0 0.034313937086991229 0.0026435709096983518 0 0.029734887504454167 0.00040314231414194862 0 0.028506198983266895 0.00097992645957391505 0 0.024267127980340666 -0.0018621831618962879 0 0.023072772693756176 -0.0012795042826044222 0 0.024229261842970456 -0.0014134166121891516 0 0.034857306444084031 0.0020238703537399363 0 0.034972587128799956 0.0013814206583551588 0 0.035551040902749784 0.0016267772961059718 0 0.034857306444084031 0.0020238703537399363 0 0.034972587128799956 0.0013814206583551588 0 0.034404422994436065 0.0015489945880868294 0 0.035769807692257773 0.0011965423552095678 0 0.035056332067762305 0.00035944548372048013 0 0.034927170570098517 1.9550070708306429e-05 0 0.034906329893102182 3.2131582624159415e-05 0 0.034933798716692367 2.2537706749768475e-05 0 0.034972587128799956 0.0013814206583551588 0 0.035551040902749784 0.0016267772961059718 0 0.035323795675355138 0.00088239899342428983 0 0.034972587128799956 0.0013814206583551588 0 0.035323795675355138 0.00088239899342428983 0 0.034714120988091929 0.00086080457221745003 0 0.034714120988091929 0.00086080457221745003 0 0.034023597313185334 0.0011758971215781249 0 0.034404422994436065 0.0015489945880868294 0 0.034253488820162978 0.00069748538975007593 0 0.034714120988091929 0.00086080457221745003 0 0.034023597313185334 0.0011758971215781249 0 0.034972587128799956 0.0013814206583551588 0 0.034714120988091929 0.00086080457221745003 0 0.034404422994436065 0.0015489945880868294 0 0.034253488820162978 0.00069748538975007593 0 0.034023597313185334 0.0011758971215781249 0 0.033602980280307254 0.00088161865020109297 0 0.033698381472688346 0.0017842348361009905 0 0.034404422994436065 0.0015489945880868294 0 0.034094442531562921 0.0021350002054108305 0 0.034023597313185334 0.0011758971215781249 0 0.033698381472688346 0.0017842348361009905 0 0.033374011629330291 0.0013669434887031815 0 0.034023597313185334 0.0011758971215781249 0 0.033698381472688346 0.0017842348361009905 0 0.034404422994436065 0.0015489945880868294 0 0.034857306444084031 0.0020238703537399363 0 0.034404422994436065 0.0015489945880868294 0 0.034094442531562921 0.0021350002054108305 0 0.034857306444084031 0.0020238703537399363 0 0.034313937086991229 0.0026435709096983518 0 0.034094442531562921 0.0021350002054108305 0 0.035073919808318282 0.0027541354590224238 0 0.034313937086991229 0.0026435709096983518 0 0.034299003868583505 0.0032011151676352603 0 0.034313937086991229 0.0026435709096983518 0 0.033743908256026148 0.0031110128800545369 0 0.034299003868583505 0.0032011151676352603 0 0.034178765184395464 0.0027756453164601768 0 0.033900565220151169 0.002850632305377296 0 0.033829747642542075 0.0026349409780870702 0 0.033267318548846972 0.0030190276179976952 0 0.033990606821651566 0.0031798860356417541 0 0.034313937086991229 0.0026435709096983518 0 0.033829747642542075 0.0026349409780870702 0 0.033990606821651566 0.0031798860356417541 0 0.033829747642542075 0.0026349409780870702 0 0.034094442531562921 0.0021350002054108305 0 0.033437089449898767 0.0023103666477469029 0 0.033698381472688346 0.0017842348361009905 0 0.034094442531562921 0.0021350002054108305 0 0.033437089449898767 0.0023103666477469029 0 0.034313937086991229 0.0026435709096983518 0 0.033829747642542075 0.0026349409780870702 0 0.034094442531562921 0.0021350002054108305 0 0.033437089449898767 0.0023103666477469029 0 0.032876856573473404 0.0024879133523462165 0 0.032910768732567326 0.0018832737095342924 0 0.033698381472688346 0.0017842348361009905 0 0.033437089449898767 0.0023103666477469029 0 0.032910768732567326 0.0018832737095342924 0 0.033267318548846972 0.0030190276179976952 0 0.032576190254753744 0.0029978132257665671 0 0.032876856573473404 0.0024879133523462165 0 0.033437089449898767 0.0023103666477469029 0 0.033267318548846972 0.0030190276179976952 0 0.032876856573473404 0.0024879133523462165 0 0.033829747642542075 0.0026349409780870702 0 0.033437089449898767 0.0023103666477469029 0 0.033267318548846972 0.0030190276179976952 0 0.032576190254753744 0.0029978132257665671 0 0.032243724101178997 0.0022911393598111437 0 0.031866825281999224 0.0030788835011323866 0 0.032576190254753744 0.0029978132257665671 0 0.032876856573473404 0.0024879133523462165 0 0.032243724101178997 0.0022911393598111437 0 0.032876856573473404 0.0024879133523462165 0 0.032910768732567326 0.0018832737095342924 0 0.032243724101178997 0.0022911393598111437 0 0.032910768732567326 0.0018832737095342924 0 0.032145849961815277 0.0017722691445143167 0 0.032243724101178997 0.0022911393598111437 0 0.032910768732567326 0.0018832737095342924 0 0.032669681132718703 0.0011302912720477314 0 0.032145849961815277 0.0017722691445143167 0 0.032910768732567326 0.0018832737095342924 0 0.033374011629330291 0.0013669434887031815 0 0.032669681132718703 0.0011302912720477314 0 0.033698381472688346 0.0017842348361009905 0 0.032910768732567326 0.0018832737095342924 0 0.033374011629330291 0.0013669434887031815 0 0.034023597313185334 0.0011758971215781249 0 0.033374011629330291 0.0013669434887031815 0 0.033602980280307254 0.00088161865020109297 0 0.033374011629330291 0.0013669434887031815 0 0.033602980280307254 0.00088161865020109297 0 0.032669681132718703 0.0011302912720477314 0 0.033203169638207172 0.00052323945544174302 0 0.033602980280307254 0.00088161865020109297 0 0.032669681132718703 0.0011302912720477314 0 0.017020158839448667 -0.00022627102323533171 0 0.013562533353004488 -0.00098580936805234731 0 0.0089620399204052275 -0.003729441271422552 0 0.0086212631067021477 -0.0043603706580751765 0 0.0085330578437350802 -0.0030616152198599872 0 0.0089620399204052275 -0.003729441271422552 0 0.0086212631067021477 -0.0043603706580751765 0 0.0094846983402051138 -0.0042493737849495115 0 0.01878107936566242 0.0024804475970458652 0 0.018829385142968186 0.00106591494069116 0 0.019622417902615527 0.0015609642162672359 0 0.0089620399204052275 -0.003729441271422552 0 0.0094846983402051138 -0.0042493737849495115 0 0.0093069339282767002 -0.0033318722656848752 0 0.0094846983402051138 -0.0042493737849495115 0 0.0099615037136565384 -0.0035229809276957772 0 0.0093069339282767002 -0.0033318722656848752 0 0.0083572782074875576 -0.0053965464599296069 0 0.013679627212846776 -0.0029489026552518794 0 0.0097252641253523335 -0.0049036452152155649 0 0.0089130529668307833 -0.0048567723659709988 0 0.0096512480544961466 -0.0057563379033931132 0 0.0094846983402051138 -0.0042493737849495115 0 0.0097252641253523335 -0.0049036452152155649 0 0.0089130529668307833 -0.0048567723659709988 0 0.0094846983402051138 -0.0042493737849495115 0 0.0097252641253523335 -0.0049036452152155649 0 0.010272711772478496 -0.0043178479436238888 0 0.020435990133292153 0.0016966687720588994 0 0.02045580701427405 0.0025077092218679449 0 0.020541236128414412 0.0025881543525852397 0 0.0086212631067021477 -0.0043603706580751765 0 0.0094846983402051138 -0.0042493737849495115 0 0.0089474031426445746 -0.0047413634397310989 0 0.0187613155315118 -0.0010370800304429081 0 0.019032575859876465 -0.00078549154117869293 0 0.019033689709157926 -0.00070500411765335891 0 0.013679627212846776 -0.0029489026552518794 0 0.022864031625615042 0.00091651511613940345 0 0.017020158839448667 -0.00022627102323533171 0 0.013679627212846776 -0.0029489026552518794 0 0.01855989933641344 -0.001114178765542654 0 0.018297465295288643 -0.00079268319920216841 0 0.018576374361181994 -0.00053809878762602732 0 0.017020158839448667 -0.00022627102323533171 0 0.022864031625615042 0.00091651511613940345 0 0.022864031625615042 0.00091651511613940345 0 0.024541226386522869 0.0016708000491973784 0 0.023983385264551571 0.0028284098247032753 0 0.022822897231551328 0.001717836097866297 0 0.024006460130726975 0.0012194277612046073 0 0.022864031625615042 0.00091651511613940345 0 0.024806790890672944 0.0016733398176729845 0 0.0187613155315118 -0.0010370800304429081 0 0.019033689709157926 -0.00070500411765335891 0 0.018226455060436277 -0.00038214036044114898 0 0.032376805379133587 0.0044742500202051422 0 0.032424113880249197 0.0035517774484980368 0 0.031923888148941315 0.0039616741030598594 0 0.029060166647196902 0.0031530123666985532 0 0.028491952756719563 0.0032768634568145633 0 0.028491952756719563 0.0032768634568145633 0 0.03260524061027463 0.0040179780280006176 0 0.032187791781250703 0.0045610863828471557 0 0.032376805379133587 0.0044742500202051422 0 0.031923888148941315 0.0039616741030598594 0 0.025023511147746508 0.0017253891778188861 0 0.025026960597012909 0.0016829591354262476 0 0.02525346462865689 0.0016042583717905052 0 0.029060166647196902 0.0031530123666985532 0 0.024806790890672944 0.0016733398176729845 0 0.025908093580803728 0.0031468316839379498 0 0.026857009044506011 0.0040563986570365399 0 0.027453394205013176 0.0038050092185204589 0 0.025908093580803728 0.0031468316839379498 0 0.027453394205013176 0.0038050092185204589 0 0.027475610815179095 0.0023910360357119157 0 0.024806790890672944 0.0016733398176729845 0 0.024541226386522869 0.0016708000491973784 0 0.024541226386522869 0.0016708000491973784 0 0.028491952756719563 0.0032768634568145633 0 0.032381587075893378 0.0043330784446674129 0 0.032424113880249197 0.0035517774484980368 0 0.032916564840576361 0.0035624671443292041 0 0.032576190254753744 0.0029978132257665671 0 0.032424113880249197 0.0035517774484980368 0 0.032916564840576361 0.0035624671443292041 0 0.032576190254753744 0.0029978132257665671 0 0.032424113880249197 0.0035517774484980368 0 0.031866825281999224 0.0030788835011323866 0 0.033267318548846972 0.0030190276179976952 0 0.032576190254753744 0.0029978132257665671 0 0.032916564840576361 0.0035624671443292041 0 0.033267318548846972 0.0030190276179976952 0 0.032916564840576361 0.0035624671443292041 0 0.033567950414997522 0.003740945141338384 0 0.025026960597012909 0.0016829591354262476 0 0.02525346462865689 0.0016042583717905052 0 0.025334818446759208 0.0015037602763286596 0 0.028491952756719563 0.0032768634568145633 0 0.028485866404604949 0.0017907557481235902 0 0.024541226386522869 0.0016708000491973784 0 0.018510628674755628 -0.00076504493752199286 0 0.032381587075893378 0.0043330784446674129 0 0.032916564840576361 0.0035624671443292041 0 0.033567950414997522 0.003740945141338384 0 0.013679627212846776 -0.0029489026552518794 0 0.018510628674755628 -0.00076504493752199286 0 0.018510628674755628 -0.00076504493752199286 0 0.028485866404604949 0.0017907557481235902 0 0.02152194372350439 -0.00024702216074082506 0 0.021897198915833853 -0.0006972113209606799 0 0.022864988505194465 -0.00083430999315419288 0 0.018510628674755628 -0.00076504493752199286 0 0.016443189168268851 -0.0037747520569919725 0 0.0097252641253523335 -0.0049036452152155649 0 0.0096512480544961466 -0.0057563379033931132 0 0.010551592688416895 -0.0052202364340471121 0 0.0096512480544961466 -0.0057563379033931132 0 0.010922679284546702 -0.0063366210359649573 0 0.010551592688416895 -0.0052202364340471121 0 0.033181310320987326 0.0037303873948481142 0 0.033743908256026148 0.0031110128800545369 0 0.034299003868583505 0.0032011151676352603 0 0.021897198915833853 -0.0006972113209606799 0 0.022864988505194465 -0.00083430999315419288 0 0.023072772693756176 -0.0012795042826044222 0 0.028485866404604949 0.0017907557481235902 0 0.028506198983266895 0.00097992645957391505 0 0.033267318548846972 0.0030190276179976952 0 0.033567950414997522 0.003740945141338384 0 0.033990606821651566 0.0031798860356417541 0 0.028485866404604949 0.0017907557481235902 0 0.033900565220151169 0.002850632305377296 0 0.022864988505194465 -0.00083430999315419288 0 0.023072772693756176 -0.0012795042826044222 0 0.024229261842970456 -0.0014134166121891516 0 0.010922679284546702 -0.0063366210359649573 0 0.011618683587341548 -0.0054947786167841902 0 0.012020135749020144 -0.0062032543409866591 0 0.010922679284546702 -0.0063366210359649573 0 0.010551592688416895 -0.0052202364340471121 0 0.011618683587341548 -0.0054947786167841902 0 0.011315928298648185 -0.0045570008627235882 0 0.010551592688416895 -0.0052202364340471121 0 0.011618683587341548 -0.0054947786167841902 0 0.011315928298648185 -0.0045570008627235882 0 0.010551592688416895 -0.0052202364340471121 0 0.010272711772478496 -0.0043178479436238888 0 0.0097252641253523335 -0.0049036452152155649 0 0.010551592688416895 -0.0052202364340471121 0 0.010272711772478496 -0.0043178479436238888 0 0.0094846983402051138 -0.0042493737849495115 0 0.010272711772478496 -0.0043178479436238888 0 0.0099615037136565384 -0.0035229809276957772 0 0.010272711772478496 -0.0043178479436238888 0 0.010733318910554117 -0.0036865272684408167 0 0.0099615037136565384 -0.0035229809276957772 0 0.011315928298648185 -0.0045570008627235882 0 0.010272711772478496 -0.0043178479436238888 0 0.010733318910554117 -0.0036865272684408167 0 0.011315928298648185 -0.0045570008627235882 0 0.011637931662510047 -0.0038173887795948857 0 0.010733318910554117 -0.0036865272684408167 0 0.011315928298648185 -0.0045570008627235882 0 0.012181811751196181 -0.0043992341640115389 0 0.011637931662510047 -0.0038173887795948857 0 0.012181811751196181 -0.0043992341640115389 0 0.011637931662510047 -0.0038173887795948857 0 0.012653421754574913 -0.0039608243187981076 0 0.012181811751196181 -0.0043992341640115389 0 0.012653421754574913 -0.0039608243187981076 0 0.013155018464928584 -0.0046771793659778774 0 0.012653421754574913 -0.0039608243187981076 0 0.013155018464928584 -0.0046771793659778774 0 0.013405346319746806 -0.0039886942866017459 0 0.012181811751196181 -0.0043992341640115389 0 0.013155018464928584 -0.0046771793659778774 0 0.012357049600335833 -0.0051159956908795158 0 0.013155018464928584 -0.0046771793659778774 0 0.012357049600335833 -0.0051159956908795158 0 0.013047289368781198 -0.0053899845854295352 0 0.011315928298648185 -0.0045570008627235882 0 0.012181811751196181 -0.0043992341640115389 0 0.012357049600335833 -0.0051159956908795158 0 0.011315928298648185 -0.0045570008627235882 0 0.012357049600335833 -0.0051159956908795158 0 0.011618683587341548 -0.0054947786167841902 0 0.011618683587341548 -0.0054947786167841902 0 0.012020135749020144 -0.0062032543409866591 0 0.012513840762563077 -0.0057785277869264627 0 0.012357049600335833 -0.0051159956908795158 0 0.011618683587341548 -0.0054947786167841902 0 0.012513840762563077 -0.0057785277869264627 0 0.010922679284546702 -0.0063366210359649573 0 0.012020135749020144 -0.0062032543409866591 0 0.012248177463647812 -0.0069571757256684961 0 0.016443189168268851 -0.0037747520569919725 0 0.017995681636829283 -0.0042699557032320973 0 0.012020135749020144 -0.0062032543409866591 0 0.012712016051449905 -0.0064353415772163865 0 0.012513840762563077 -0.0057785277869264627 0 0.012020135749020144 -0.0062032543409866591 0 0.012248177463647812 -0.0069571757256684961 0 0.012712016051449905 -0.0064353415772163865 0 0.012712016051449905 -0.0064353415772163865 0 0.013253001774468903 -0.0060236284616097015 0 0.013769310042171988 -0.006492707364658408 0 0.013562860593962866 -0.0069010232830969192 0 0.012712016051449905 -0.0064353415772163865 0 0.014586022771867361 -0.0064386166993329417 0 0.012248177463647812 -0.0069571757256684961 0 0.013562860593962866 -0.0069010232830969192 0 0.012712016051449905 -0.0064353415772163865 0 0.011905524612556255 -0.0067932530324077743 0 0.016573716270713832 -0.003994793438796925 0 0.012712016051449905 -0.0064353415772163865 0 0.012513840762563077 -0.0057785277869264627 0 0.013253001774468903 -0.0060236284616097015 0 0.012357049600335833 -0.0051159956908795158 0 0.012513840762563077 -0.0057785277869264627 0 0.013047289368781198 -0.0053899845854295352 0 0.012513840762563077 -0.0057785277869264627 0 0.013047289368781198 -0.0053899845854295352 0 0.013253001774468903 -0.0060236284616097015 0 0.016573716270713832 -0.003994793438796925 0 0.015478512591719675 -0.0030872480158381167 0 0.013047289368781198 -0.0053899845854295352 0 0.013253001774468903 -0.0060236284616097015 0 0.014246520225206146 -0.0052652324529827111 0 0.013253001774468903 -0.0060236284616097015 0 0.013769310042171988 -0.006492707364658408 0 0.014246520225206146 -0.0052652324529827111 0 0.014118025770431347 -0.00776822609284928 0 0.013562860593962866 -0.0069010232830969192 0 0.014586022771867361 -0.0064386166993329417 0 0.016595956396726959 -0.0018582416370093418 0 0.017751194537496569 -0.001867727546644435 0 0.01782049822244778 -0.0019739764306106384 0 0.022739362419735967 -0.0020993267402713688 0 0.021590625989679747 -0.00083429613767767872 0 0.024464237617937961 -0.00098711688468188061 0 0.016573716270713832 -0.003994793438796925 0 0.022940946088606452 -0.00073334090993054082 0 0.016595956396726959 -0.0018582416370093418 0 0.017171103244926007 -0.0013951637777991335 0 0.017751194537496569 -0.001867727546644435 0 0.017171103244926007 -0.0013951637777991335 0 0.017751194537496569 -0.001867727546644435 0 0.017550759537972076 -0.0014470863457308448 0 0.016595956396726959 -0.0018582416370093418 0 0.017171103244926007 -0.0013951637777991335 0 0.017081541171695188 -0.00069345232660062534 0 0.017171103244926007 -0.0013951637777991335 0 0.017081541171695188 -0.00069345232660062534 0 0.017658532258522177 -0.0010590192242416834 0 0.013155018464928584 -0.0046771793659778774 0 0.013047289368781198 -0.0053899845854295352 0 0.014246520225206146 -0.0052652324529827111 0 0.013155018464928584 -0.0046771793659778774 0 0.014246520225206146 -0.0052652324529827111 0 0.013942964142305576 -0.0043230555538527815 0 0.013155018464928584 -0.0046771793659778774 0 0.013942964142305576 -0.0043230555538527815 0 0.013405346319746806 -0.0039886942866017459 0 0.013942964142305576 -0.0043230555538527815 0 0.013405346319746806 -0.0039886942866017459 0 0.014028279592506344 -0.0035968200084806677 0 0.017081541171695188 -0.00069345232660062534 0 0.017348880860203628 -0.00081269824981511341 0 0.017350375604669649 -0.0003616100612979576 0 0.013942964142305576 -0.0043230555538527815 0 0.014914422106044515 -0.0039927044234555143 0 0.014028279592506344 -0.0035968200084806677 0 0.015478512591719675 -0.0030872480158381167 0 0.016120081294707753 -0.0023443005929129376 0 0.014246520225206146 -0.0052652324529827111 0 0.013942964142305576 -0.0043230555538527815 0 0.014914422106044515 -0.0039927044234555143 0 0.014914422106044515 -0.0039927044234555143 0 0.014538508308306566 -0.0028282682515585254 0 0.015963157096619298 -0.0021154911898938612 0 0.014914422106044515 -0.0039927044234555143 0 0.014538508308306566 -0.0028282682515585254 0 0.014028279592506344 -0.0035968200084806677 0 0.013405346319746806 -0.0039886942866017459 0 0.014028279592506344 -0.0035968200084806677 0 0.013027517607290175 -0.0032975734774962177 0 0.014538508308306566 -0.0028282682515585254 0 0.014028279592506344 -0.0035968200084806677 0 0.013488634052826746 -0.0025449580908262787 0 0.014028279592506344 -0.0035968200084806677 0 0.013488634052826746 -0.0025449580908262787 0 0.013027517607290175 -0.0032975734774962177 0 0.014538508308306566 -0.0028282682515585254 0 0.014582523888885864 -0.0018199876994375935 0 0.015963157096619298 -0.0021154911898938612 0 0.014538508308306566 -0.0028282682515585254 0 0.013488634052826746 -0.0025449580908262787 0 0.014582523888885864 -0.0018199876994375935 0 0.014582523888885864 -0.0018199876994375935 0 0.015055887896838246 -0.00057734358029577402 0 0.012727111533228747 -0.0013935917963950569 0 0.015055887896838246 -0.00057734358029577402 0 0.012727111533228747 -0.0013935917963950569 0 0.012976036917647921 -0.00010354150732326016 0 0.014582523888885864 -0.0018199876994375935 0 0.015055887896838246 -0.00057734358029577402 0 0.015779284413788654 -0.0015725533855453348 0 0.01403161186420133 -0.00084995528275938308 0 0.012445740937925769 -0.00042401010567123706 0 0.013488634052826746 -0.0025449580908262787 0 0.014582523888885864 -0.0018199876994375935 0 0.012727111533228747 -0.0013935917963950569 0 0.012727111533228747 -0.0013935917963950569 0 0.011546252894733319 -0.0018725731336652184 0 0.012316004464739386 -0.0024644786146383593 0 0.012727111533228747 -0.0013935917963950569 0 0.011654796264347598 -0.00062690921776207187 0 0.011191881966228555 -0.0011939049578734791 0 0.012727111533228747 -0.0013935917963950569 0 0.011654796264347598 -0.00062690921776207187 0 0.012976036917647921 -0.00010354150732326016 0 0.011654796264347598 -0.00062690921776207187 0 0.011191881966228555 -0.0011939049578734791 0 0.010763206856806389 -0.00064895826461440422 0 0.011191881966228555 -0.0011939049578734791 0 0.011546252894733319 -0.0018725731336652184 0 0.010501377072356146 -0.0018098802531964187 0 0.012727111533228747 -0.0013935917963950569 0 0.011191881966228555 -0.0011939049578734791 0 0.011546252894733319 -0.0018725731336652184 0 0.011200831699410215 -0.002464554585585465 0 0.012316004464739386 -0.0024644786146383593 0 0.012041153027095835 -0.0032210346774161633 0 0.011546252894733319 -0.0018725731336652184 0 0.011200831699410215 -0.002464554585585465 0 0.012316004464739386 -0.0024644786146383593 0 0.013488634052826746 -0.0025449580908262787 0 0.012727111533228747 -0.0013935917963950569 0 0.012316004464739386 -0.0024644786146383593 0 0.013488634052826746 -0.0025449580908262787 0 0.012316004464739386 -0.0024644786146383593 0 0.013027517607290175 -0.0032975734774962177 0 0.012316004464739386 -0.0024644786146383593 0 0.013027517607290175 -0.0032975734774962177 0 0.012041153027095835 -0.0032210346774161633 0 0.012653421754574913 -0.0039608243187981076 0 0.013027517607290175 -0.0032975734774962177 0 0.012041153027095835 -0.0032210346774161633 0 0.012653421754574913 -0.0039608243187981076 0 0.013405346319746806 -0.0039886942866017459 0 0.013027517607290175 -0.0032975734774962177 0 0.011637931662510047 -0.0038173887795948857 0 0.012653421754574913 -0.0039608243187981076 0 0.012041153027095835 -0.0032210346774161633 0 0.011637931662510047 -0.0038173887795948857 0 0.012041153027095835 -0.0032210346774161633 0 0.011200587701058431 -0.0032202861899702953 0 0.011200831699410215 -0.002464554585585465 0 0.012041153027095835 -0.0032210346774161633 0 0.011200587701058431 -0.0032202861899702953 0 0.011637931662510047 -0.0038173887795948857 0 0.011200587701058431 -0.0032202861899702953 0 0.010733318910554117 -0.0036865272684408167 0 0.011200587701058431 -0.0032202861899702953 0 0.010733318910554117 -0.0036865272684408167 0 0.010434253568169401 -0.0029239886832204704 0 0.010733318910554117 -0.0036865272684408167 0 0.0099615037136565384 -0.0035229809276957772 0 0.010434253568169401 -0.0029239886832204704 0 0.0099615037136565384 -0.0035229809276957772 0 0.010434253568169401 -0.0029239886832204704 0 0.0096971205896354464 -0.0027859986915770279 0 0.010434253568169401 -0.0029239886832204704 0 0.0099102975488760577 -0.0022789798251192203 0 0.010501377072356146 -0.0018098802531964187 0 0.010434253568169401 -0.0029239886832204704 0 0.0099102975488760577 -0.0022789798251192203 0 0.0096971205896354464 -0.0027859986915770279 0 0.011200831699410215 -0.002464554585585465 0 0.011200587701058431 -0.0032202861899702953 0 0.010434253568169401 -0.0029239886832204704 0 0.011200831699410215 -0.002464554585585465 0 0.010434253568169401 -0.0029239886832204704 0 0.010501377072356146 -0.0018098802531964187 0 0.011546252894733319 -0.0018725731336652184 0 0.011200831699410215 -0.002464554585585465 0 0.010501377072356146 -0.0018098802531964187 0 0.01043815562536256 -0.00098516442114742939 0 0.0098779873585411859 -0.0011833151059064597 0 0.010073549939562734 -0.00051559044441715403 0 0.011191881966228555 -0.0011939049578734791 0 0.010501377072356146 -0.0018098802531964187 0 0.01043815562536256 -0.00098516442114742939 0 0.010501377072356146 -0.0018098802531964187 0 0.01043815562536256 -0.00098516442114742939 0 0.0098779873585411859 -0.0011833151059064597 0 0.011191881966228555 -0.0011939049578734791 0 0.01043815562536256 -0.00098516442114742939 0 0.010763206856806389 -0.00064895826461440422 0 0.0098779873585411859 -0.0011833151059064597 0 0.0093754079997332256 -0.0010954993063194832 0 0.0094339518101330053 -0.00066097930190704994 0 0.0098779873585411859 -0.0011833151059064597 0 0.0097217189198880796 -0.0016837141259890508 0 0.0093754079997332256 -0.0010954993063194832 0 0.0099102975488760577 -0.0022789798251192203 0 0.010501377072356146 -0.0018098802531964187 0 0.0097217189198880796 -0.0016837141259890508 0 0.010501377072356146 -0.0018098802531964187 0 0.0098779873585411859 -0.0011833151059064597 0 0.0097217189198880796 -0.0016837141259890508 0 0.0099102975488760577 -0.0022789798251192203 0 0.0097217189198880796 -0.0016837141259890508 0 0.0093212687393562539 -0.0020431092008998042 0 0.0093212687393562539 -0.0020431092008998042 0 0.0088754687746167415 -0.0015719308290866156 0 0.0087457151618024788 -0.0020067877704734657 0 0.0093212687393562539 -0.0020431092008998042 0 0.0092387738158891692 -0.0014922510985675491 0 0.0088754687746167415 -0.0015719308290866156 0 0.0097217189198880796 -0.0016837141259890508 0 0.0093212687393562539 -0.0020431092008998042 0 0.0092387738158891692 -0.0014922510985675491 0 0.0097217189198880796 -0.0016837141259890508 0 0.0092387738158891692 -0.0014922510985675491 0 0.0093754079997332256 -0.0010954993063194832 0 0.0092387738158891692 -0.0014922510985675491 0 0.0089580599955976156 -0.001192884034692712 0 0.0093754079997332256 -0.0010954993063194832 0 0.0092387738158891692 -0.0014922510985675491 0 0.0089580599955976156 -0.001192884034692712 0 0.0088754687746167415 -0.0015719308290866156 0 0.0089580599955976156 -0.001192884034692712 0 0.0093754079997332256 -0.0010954993063194832 0 0.0088924437585549947 -0.00077724375651443112 0 0.0085644523601382354 -0.0011697542623710475 0 0.0088924437585549947 -0.00077724375651443112 0 0.0084331227898930342 -0.00055490122155818858 0 0.0089580599955976156 -0.001192884034692712 0 0.0085644523601382354 -0.0011697542623710475 0 0.0088924437585549947 -0.00077724375651443112 0 0.0089580599955976156 -0.001192884034692712 0 0.0085644523601382354 -0.0011697542623710475 0 0.0088754687746167415 -0.0015719308290866156 0 0.0085644523601382354 -0.0011697542623710475 0 0.0088754687746167415 -0.0015719308290866156 0 0.0085119828871220212 -0.0017787416512364553 0 0.0090572979448053856 -0.0013347879863222451 0 0.011371390400753943 -0.0013045355322254108 0 0.0088754687746167415 -0.0015719308290866156 0 0.0087457151618024788 -0.0020067877704734657 0 0.0085119828871220212 -0.0017787416512364553 0 0.009691562422796873 -0.001030153903627056 0 0.011371390400753943 -0.0013045355322254108 0 0.0087457151618024788 -0.0020067877704734657 0 0.008489839039543777 -0.0017779401704759437 0 0.0085330578437350802 -0.0030616152198599872 0 0.011371390400753943 -0.0013045355322254108 0 0.013562533353004488 -0.00098580936805234731 0 0.0087457151618024788 -0.0020067877704734657 0 0.0089601276729920267 -0.0024420322751596466 0 0.0085330578437350802 -0.0030616152198599872 0 0.018884299011517312 0.00054155985644857043 0 0.018829385142968186 0.00106591494069116 0 0.019040278482971046 0.00084115785512445783 0 0.0089601276729920267 -0.0024420322751596466 0 0.0092183677071598618 -0.0026689896449334574 0 0.0085330578437350802 -0.0030616152198599872 0 0.0093212687393562539 -0.0020431092008998042 0 0.0087457151618024788 -0.0020067877704734657 0 0.0089601276729920267 -0.0024420322751596466 0 0.0093212687393562539 -0.0020431092008998042 0 0.0089601276729920267 -0.0024420322751596466 0 0.0092183677071598618 -0.0026689896449334574 0 0.0099102975488760577 -0.0022789798251192203 0 0.0093212687393562539 -0.0020431092008998042 0 0.0096971205896354464 -0.0027859986915770279 0 0.0093212687393562539 -0.0020431092008998042 0 0.0096971205896354464 -0.0027859986915770279 0 0.0092183677071598618 -0.0026689896449334574 0 0.0092183677071598618 -0.0026689896449334574 0 0.0093069339282767002 -0.0033318722656848752 0 0.0085330578437350802 -0.0030616152198599872 0 0.0096971205896354464 -0.0027859986915770279 0 0.0092183677071598618 -0.0026689896449334574 0 0.0093069339282767002 -0.0033318722656848752 0 0.0099615037136565384 -0.0035229809276957772 0 0.0096971205896354464 -0.0027859986915770279 0 0.0093069339282767002 -0.0033318722656848752 0 0.0089620399204052275 -0.003729441271422552 0 0.0093069339282767002 -0.0033318722656848752 0 0.0085330578437350802 -0.0030616152198599872 0 0.021655167121819731 5.5841333920521973e-05 0 0.022331855668450709 0.00023978003161516197 0 0.022214527370161229 -0.00044890139078792858 0 0.021655167121819731 5.5841333920521973e-05 0 0.021214553355143259 0.00044611027387524632 0 0.020763988169552623 -2.5783417702290891e-05 0 0.021655167121819731 5.5841333920521973e-05 0 0.021084842568921246 -0.00058386850784250001 0 0.020763988169552623 -2.5783417702290891e-05 0 0.021214553355143259 0.00044611027387524632 0 0.020510489587060702 0.00058131327170274133 0 0.020902544847198588 0.00083742119978666104 0 0.021655167121819731 5.5841333920521973e-05 0 0.021732043739714067 0.00048142192431119464 0 0.022331855668450709 0.00023978003161516197 0 0.021214553355143259 0.00044611027387524632 0 0.021732043739714067 0.00048142192431119464 0 0.021330782558944234 0.00073831721576205465 0 0.021655167121819731 5.5841333920521973e-05 0 0.021214553355143259 0.00044611027387524632 0 0.021732043739714067 0.00048142192431119464 0 0.021732043739714067 0.00048142192431119464 0 0.022331855668450709 0.00023978003161516197 0 0.021733371977132574 0.00039681905856795829 0 0.022401363314262974 8.0121053905512761e-07 0 0.022331855668450709 0.00023978003161516197 0 0.021733371977132574 0.00039681905856795829 0 0.022401363314262974 8.0121053905512761e-07 0 0.023334750104030553 1.0408556579926486e-05 0 0.024369198697288871 7.3560119952760878e-07 0 0.022331855668450709 0.00023978003161516197 0 0.023334750104030553 1.0408556579926486e-05 0 0.022214527370161229 -0.00044890139078792858 0 0.022401363314262974 8.0121053905512761e-07 0 0.022331855668450709 0.00023978003161516197 0 0.023334750104030553 1.0408556579926486e-05 0 0.023334750104030553 1.0408556579926486e-05 0 0.023044590204307075 -0.0014015309597457724 0 0.022214527370161229 -0.00044890139078792858 0 0.026333070486058235 -3.6655337924000571e-06 0 0.023334750104030553 1.0408556579926486e-05 0 0.024369198697288871 7.3560119952760878e-07 0 0.026333070486058235 -3.6655337924000571e-06 0 0.023334750104030553 1.0408556579926486e-05 0 0.023044590204307075 -0.0014015309597457724 0 0.023044590204307075 -0.0014015309597457724 0 0.022214527370161229 -0.00044890139078792858 0 0.021163269641944649 -0.0018269458956140898 0 0.025714265388061718 -0.00081619319472187751 0 0.024883559811819774 -0.00092993754147147729 0 0.021655167121819731 5.5841333920521973e-05 0 0.022214527370161229 -0.00044890139078792858 0 0.021084842568921246 -0.00058386850784250001 0 0.022214527370161229 -0.00044890139078792858 0 0.021084842568921246 -0.00058386850784250001 0 0.021163269641944649 -0.0018269458956140898 0 0.021163269641944649 -0.0018269458956140898 0 0.019465021590940341 -0.0020522244621842831 0 0.019904862427624261 -0.00083043151135786324 0 0.024883559811819774 -0.00092993754147147729 0 0.023782960193185095 -0.00097308651958479041 0 0.019465021590940341 -0.0020522244621842831 0 0.019904862427624261 -0.00083043151135786324 0 0.018668587739185772 -0.0010201145064882642 0 0.021084842568921246 -0.00058386850784250001 0 0.021163269641944649 -0.0018269458956140898 0 0.019904862427624261 -0.00083043151135786324 0 0.017751194537496569 -0.001867727546644435 0 0.018143642181752618 -0.001576059002718577 0 0.017550759537972076 -0.0014470863457308448 0 0.022384271085647819 -0.0005490709976781684 0 0.022940946088606452 -0.00073334090993054082 0 0.017751194537496569 -0.001867727546644435 0 0.017827627200027295 -0.0020062075513744039 0 0.018143642181752618 -0.001576059002718577 0 0.019465021590940341 -0.0020522244621842831 0 0.018143642181752618 -0.001576059002718577 0 0.018668587739185772 -0.0010201145064882642 0 0.023782960193185095 -0.00097308651958479041 0 0.022940946088606452 -0.00073334090993054082 0 0.019465021590940341 -0.0020522244621842831 0 0.017827627200027295 -0.0020062075513744039 0 0.018143642181752618 -0.001576059002718577 0 0.018143642181752618 -0.001576059002718577 0 0.018668587739185772 -0.0010201145064882642 0 0.017658532258522177 -0.0010590192242416834 0 0.018143642181752618 -0.001576059002718577 0 0.017658532258522177 -0.0010590192242416834 0 0.017550759537972076 -0.0014470863457308448 0 0.017171103244926007 -0.0013951637777991335 0 0.017658532258522177 -0.0010590192242416834 0 0.017550759537972076 -0.0014470863457308448 0 0.018668587739185772 -0.0010201145064882642 0 0.017658532258522177 -0.0010590192242416834 0 0.017350375604669649 -0.0003616100612979576 0 0.017081541171695188 -0.00069345232660062534 0 0.017658532258522177 -0.0010590192242416834 0 0.017350375604669649 -0.0003616100612979576 0 0.018668587739185772 -0.0010201145064882642 0 0.017350375604669649 -0.0003616100612979576 0 0.019182340235762711 -0.00020503737659981514 0 0.017312212384053199 -0.00034417437535447877 0 0.017505345505946936 -0.00017726245041616853 0 0.017350375604669649 -0.0003616100612979576 0 0.018948130604897931 0.00075023142958350448 0 0.019182340235762711 -0.00020503737659981514 0 0.017350375604669649 -0.0003616100612979576 0 0.015912754262227918 -0.0010740655803424717 0 0.01677834259680152 -0.00093470531453002494 0 0.017348880860203628 -0.00081269824981511341 0 0.017350375604669649 -0.0003616100612979576 0 0.01677834259680152 -0.00093470531453002494 0 0.021084842568921246 -0.00058386850784250001 0 0.019904862427624261 -0.00083043151135786324 0 0.020763988169552623 -2.5783417702290891e-05 0 0.019904862427624261 -0.00083043151135786324 0 0.020763988169552623 -2.5783417702290891e-05 0 0.020033488684878 7.6008194590634426e-05 0 0.019904862427624261 -0.00083043151135786324 0 0.019182340235762711 -0.00020503737659981514 0 0.020033488684878 7.6008194590634426e-05 0 0.019904862427624261 -0.00083043151135786324 0 0.018668587739185772 -0.0010201145064882642 0 0.019182340235762711 -0.00020503737659981514 0 0.019182340235762711 -0.00020503737659981514 0 0.020033488684878 7.6008194590634426e-05 0 0.019808755601019339 0.00050168358984050906 0 0.018948130604897931 0.00075023142958350448 0 0.019182340235762711 -0.00020503737659981514 0 0.019808755601019339 0.00050168358984050906 0 0.021214553355143259 0.00044611027387524632 0 0.020763988169552623 -2.5783417702290891e-05 0 0.020510489587060702 0.00058131327170274133 0 0.020763988169552623 -2.5783417702290891e-05 0 0.020033488684878 7.6008194590634426e-05 0 0.020510489587060702 0.00058131327170274133 0 0.020033488684878 7.6008194590634426e-05 0 0.019808755601019339 0.00050168358984050906 0 0.020510489587060702 0.00058131327170274133 0 0.020224064339742304 0.0011180762568948847 0 0.021018882973566327 0.0012147334004646096 0 0.020902544847198588 0.00083742119978666104 0 0.020510489587060702 0.00058131327170274133 0 0.020224064339742304 0.0011180762568948847 0 0.020902544847198588 0.00083742119978666104 0 0.019808755601019339 0.00050168358984050906 0 0.020510489587060702 0.00058131327170274133 0 0.020224064339742304 0.0011180762568948847 0 0.015912754262227918 -0.0010740655803424717 0 0.015741299384064142 -0.001481444661780007 0 0.015783762416561587 -0.0014356156591096704 0 0.018948130604897931 0.00075023142958350448 0 0.019808755601019339 0.00050168358984050906 0 0.020224064339742304 0.0011180762568948847 0 0.017505345505946936 -0.00017726245041616853 0 0.017740630122054034 -0.00027828493032941128 0 0.015741299384064142 -0.001481444661780007 0 0.015762327898423984 -0.00141964788755757 0 0.015791573839897013 -0.0013769189022833832 0 0.015783762416561587 -0.0014356156591096704 0 0.015762327898423984 -0.00141964788755757 0 0.015760537685368312 -0.001375201861781401 0 0.015741299384064142 -0.001481444661780007 0 0.015783762416561587 -0.0014356156591096704 0 0.015762327898423984 -0.00141964788755757 0 0.015762327898423984 -0.00141964788755757 0 0.015760537685368312 -0.001375201861781401 0 0.015791573839897013 -0.0013769189022833832 0 0.015783762416561587 -0.0014356156591096704 0 0.015760537685368312 -0.001375201861781401 0 0.015730900334511935 -0.0013106027185010921 0 0.015751348570136495 -0.0017056375206005914 0 0.015814214278687046 -0.0011929127620588645 0 0.015783762416561587 -0.0014356156591096704 0 0.015730900334511935 -0.0013106027185010921 0 0.015670806406450803 -0.0012269558004125022 0 0.015760537685368312 -0.001375201861781401 0 0.015787732511519499 -0.0013042038112108349 0 0.015791573839897013 -0.0013769189022833832 0 0.015787732511519499 -0.0013042038112108349 0 0.015879159761153575 -0.001324830102757877 0 0.015732163398537176 -0.0012221717311316758 0 0.015747819390417892 -0.0012806218661275944 0 0.015787732511519499 -0.0013042038112108349 0 0.015732163398537176 -0.0012221717311316758 0 0.015760537685368312 -0.001375201861781401 0 0.015730900334511935 -0.0013106027185010921 0 0.015787732511519499 -0.0013042038112108349 0 0.015730900334511935 -0.0013106027185010921 0 0.015747819390417892 -0.0012806218661275944 0 0.015787732511519499 -0.0013042038112108349 0 0.015730900334511935 -0.0013106027185010921 0 0.015747819390417892 -0.0012806218661275944 0 0.015729219685145467 -0.0012513953509347908 0 0.017740630122054034 -0.00027828493032941128 0 0.01970873117102941 0.00025850887939678566 0 0.015879159761153575 -0.001324830102757877 0 0.015732163398537176 -0.0012221717311316758 0 0.01609876294453846 -0.0013155416801926868 0 0.015741299384064142 -0.001481444661780007 0 0.015879159761153575 -0.001324830102757877 0 0.01609876294453846 -0.0013155416801926868 0 0.016812902147276605 -0.0003632535982993948 0 0.01970873117102941 0.00025850887939678566 0 0.015787732511519499 -0.0013042038112108349 0 0.015879159761153575 -0.001324830102757877 0 0.015791573839897013 -0.0013769189022833832 0 0.015741299384064142 -0.001481444661780007 0 0.015879159761153575 -0.001324830102757877 0 0.015791573839897013 -0.0013769189022833832 0 0.016120081294707753 -0.0023443005929129376 0 0.016025725950012407 -0.0020848754149633375 0 0.017348880860203628 -0.00081269824981511341 0 0.01677834259680152 -0.00093470531453002494 0 0.016390261302835451 -0.0014822097228309684 0 0.017348880860203628 -0.00081269824981511341 0 0.016390261302835451 -0.0014822097228309684 0 0.015963157096619298 -0.0021154911898938612 0 0.015912754262227918 -0.0010740655803424717 0 0.01677834259680152 -0.00093470531453002494 0 0.016390261302835451 -0.0014822097228309684 0 0.016390261302835451 -0.0014822097228309684 0 0.016068150896448013 -0.0014935958478355289 0 0.016205777131814616 -0.0019588935559989012 0 0.015783762416561587 -0.0014356156591096704 0 0.016068150896448013 -0.0014935958478355289 0 0.016205777131814616 -0.0019588935559989012 0 0.015912754262227918 -0.0010740655803424717 0 0.016390261302835451 -0.0014822097228309684 0 0.016068150896448013 -0.0014935958478355289 0 0.015912754262227918 -0.0010740655803424717 0 0.015783762416561587 -0.0014356156591096704 0 0.016068150896448013 -0.0014935958478355289 0 0.015783762416561587 -0.0014356156591096704 0 0.016205777131814616 -0.0019588935559989012 0 0.015766199077479014 -0.0023487854445940924 0 0.016390261302835451 -0.0014822097228309684 0 0.016205777131814616 -0.0019588935559989012 0 0.015963157096619298 -0.0021154911898938612 0 0.014582523888885864 -0.0018199876994375935 0 0.015963157096619298 -0.0021154911898938612 0 0.015779284413788654 -0.0015725533855453348 0 0.016205777131814616 -0.0019588935559989012 0 0.015963157096619298 -0.0021154911898938612 0 0.015779284413788654 -0.0015725533855453348 0 0.015055887896838246 -0.00057734358029577402 0 0.015779284413788654 -0.0015725533855453348 0 0.016562318254774642 -0.0012674228548914216 0 0.016285823888672106 -0.0019776131752361594 0 0.015283228520300151 -0.0015325316743684621 0 0.016205777131814616 -0.0019588935559989012 0 0.015779284413788654 -0.0015725533855453348 0 0.016562318254774642 -0.0012674228548914216 0 0.016205777131814616 -0.0019588935559989012 0 0.016060435441336968 -0.0024730728784565685 0 0.015766199077479014 -0.0023487854445940924 0 0.015283228520300151 -0.0015325316743684621 0 0.015814214278687046 -0.0011929127620588645 0 0.015283228520300151 -0.0015325316743684621 0 0.014698572881768859 -0.00073943199921332702 0 0.014082926313194081 -0.0015901081045910815 0 0.014239335338699506 -0.00094178479958886699 0 0.013742728249028878 -0.00094925329805588938 0 0.015003753445946576 -0.0011205241955417576 0 0.015170619946462575 -0.00045075802649258617 0 0.015380241756652629 -0.00054051898920939423 0 0.014239335338699506 -0.00094178479958886699 0 0.013742728249028878 -0.00094925329805588938 0 0.013928042214707583 -0.00057367980451964991 0 0.013001839261481758 -0.001130056382364119 0 0.013742728249028878 -0.00094925329805588938 0 0.013460114392042363 -0.00051135682644781397 0 0.013001839261481758 -0.001130056382364119 0 0.014082926313194081 -0.0015901081045910815 0 0.013742728249028878 -0.00094925329805588938 0 0.01403161186420133 -0.00084995528275938308 0 0.015283228520300151 -0.0015325316743684621 0 0.02027352896087399 0.0015510126901635819 0 0.020597228954237285 0.0013148688037503248 0 0.019878397485990108 0.0012844304281454464 0 0.020597228954237285 0.0013148688037503248 0 0.019878397485990108 0.0012844304281454464 0 0.020822856491744701 0.00092841375232355101 0 0.02027352896087399 0.0015510126901635819 0 0.019878397485990108 0.0012844304281454464 0 0.020133381777928349 0.0019119624488121291 0 0.02027352896087399 0.0015510126901635819 0 0.020597228954237285 0.0013148688037503248 0 0.020634754979971637 0.0015274177755144496 0 0.02027352896087399 0.0015510126901635819 0 0.020562299931236698 0.0018835598426940794 0 0.020634754979971637 0.0015274177755144496 0 0.016812902147276605 -0.0003632535982993948 0 0.018475819564907056 0.001524897170491148 0 0.015003753445946576 -0.0011205241955417576 0 0.015423220567479098 -0.0013005681793559955 0 0.015380241756652629 -0.00054051898920939423 0 0.016100835075277577 -0.00020902086951251348 0 0.016063023110723315 8.0610980891784181e-05 0 0.016265553325604244 0.00025604486237938061 0 0.015747819390417892 -0.0012806218661275944 0 0.015729219685145467 -0.0012513953509347908 0 0.015732163398537176 -0.0012221717311316758 0 0.016712337382763353 -0.00054037680425279161 0 0.016812902147276605 -0.0003632535982993948 0 0.015729219685145467 -0.0012513953509347908 0 0.015735110504790269 -0.0012347219088410138 0 0.015670806406450803 -0.0012269558004125022 0 0.015730900334511935 -0.0013106027185010921 0 0.015729219685145467 -0.0012513953509347908 0 0.015670806406450803 -0.0012269558004125022 0 0.016812902147276605 -0.0003632535982993948 0 0.015814214278687046 -0.0011929127620588645 0 0.016100835075277577 -0.00020902086951251348 0 0.015954994019128609 -0.00014800667877302564 0 0.016063023110723315 8.0610980891784181e-05 0 0.016063023110723315 8.0610980891784181e-05 0 0.015926239883404924 0.00031240970137647056 0 0.016265553325604244 0.00025604486237938061 0 0.015814214278687046 -0.0011929127620588645 0 0.015663289963396009 9.7502012826001335e-06 0 0.015954994019128609 -0.00014800667877302564 0 0.016063023110723315 8.0610980891784181e-05 0 0.015926239883404924 0.00031240970137647056 0 0.015926239883404924 0.00031240970137647056 0 0.016265553325604244 0.00025604486237938061 0 0.016090346329946055 0.0006024676311948944 0 0.020133381777928349 0.0019119624488121291 0 0.020562299931236698 0.0018835598426940794 0 0.020343037525823632 0.0025024566420925719 0 0.02027352896087399 0.0015510126901635819 0 0.020133381777928349 0.0019119624488121291 0 0.020562299931236698 0.0018835598426940794 0 0.021216328244707858 0.0014086887979013606 0 0.020813578699860363 0.0015852159833342385 0 0.020753293706216421 0.0022725976458815907 0 0.020562299931236698 0.0018835598426940794 0 0.020813578699860363 0.0015852159833342385 0 0.020753293706216421 0.0022725976458815907 0 0.022048837177656658 0.00030639661449563619 0 0.018561955796047486 -0.00014949423647857 0 0.015517669019292741 -0.00078651679079546353 0 0.013932640373806331 -0.00042349554665702252 0 0.014740525955060695 -0.00017918244033598502 0 0.021289930354148726 -0.0015046228140121877 0 0.021909476376623247 -0.00067343188610290573 0 0.022495980995533123 -0.0021897312751995145 0 0.018379178646961494 -0.0012080735983378099 0 0.018561955796047486 -0.00014949423647857 0 0.021909476376623247 -0.00067343188610290573 0 0.020994421391651912 -0.00013180078340503678 0 0.020964939944983232 -0.00067665957868789743 0 0.021289930354148726 -0.0015046228140121877 0 0.021909476376623247 -0.00067343188610290573 0 0.020964939944983232 -0.00067665957868789743 0 0.020597228954237285 0.0013148688037503248 0 0.020634754979971637 0.0015274177755144496 0 0.020813578699860363 0.0015852159833342385 0 0.020562299931236698 0.0018835598426940794 0 0.020634754979971637 0.0015274177755144496 0 0.020813578699860363 0.0015852159833342385 0 0.021216328244707858 0.0014086887979013606 0 0.020813578699860363 0.0015852159833342385 0 0.021114700567305685 0.0011426868618739556 0 0.020597228954237285 0.0013148688037503248 0 0.020813578699860363 0.0015852159833342385 0 0.021114700567305685 0.0011426868618739556 0 0.020597228954237285 0.0013148688037503248 0 0.020822856491744701 0.00092841375232355101 0 0.021114700567305685 0.0011426868618739556 0 0.021216328244707858 0.0014086887979013606 0 0.021114700567305685 0.0011426868618739556 0 0.02124044013064302 0.00092040269763818015 0 0.01970873117102941 0.00025850887939678566 0 0.021152119096432474 0.00059736194693219339 0 0.021018882973566327 0.0012147334004646096 0 0.02124044013064302 0.00092040269763818015 0 0.021135468307514983 0.00093412532318267176 0 0.020930862824479795 0.0010195430715950482 0 0.021114700567305685 0.0011426868618739556 0 0.02124044013064302 0.00092040269763818015 0 0.01970873117102941 0.00025850887939678566 0 0.021050450667323084 0.0011190956157071193 0 0.022048837177656658 0.00030639661449563619 0 0.021362526158878379 0.00068151856406806243 0 0.021909476376623247 -0.00067343188610290573 0 0.021524785176233331 0.0006302821827705228 0 0.020994421391651912 -0.00013180078340503678 0 0.021216328244707858 0.0014086887979013606 0 0.02124044013064302 0.00092040269763818015 0 0.021524785176233331 0.0006302821827705228 0 0.02124044013064302 0.00092040269763818015 0 0.021524785176233331 0.0006302821827705228 0 0.021330782558944234 0.00073831721576205465 0 0.021732043739714067 0.00048142192431119464 0 0.021524785176233331 0.0006302821827705228 0 0.021330782558944234 0.00073831721576205465 0 0.021018882973566327 0.0012147334004646096 0 0.020902544847198588 0.00083742119978666104 0 0.021135468307514983 0.00093412532318267176 0 0.021214553355143259 0.00044611027387524632 0 0.021330782558944234 0.00073831721576205465 0 0.020902544847198588 0.00083742119978666104 0 0.02124044013064302 0.00092040269763818015 0 0.021330782558944234 0.00073831721576205465 0 0.021135468307514983 0.00093412532318267176 0 0.021330782558944234 0.00073831721576205465 0 0.020902544847198588 0.00083742119978666104 0 0.021135468307514983 0.00093412532318267176 0 0.022401363314262974 8.0121053905512761e-07 0 0.020904465580422065 0.00030706015267817767 0 0.020433618648019292 1.1890487919779034e-07 0 0.022401363314262974 8.0121053905512761e-07 0 0.021733371977132574 0.00039681905856795829 0 0.020904465580422065 0.00030706015267817767 0 0.021524785176233331 0.0006302821827705228 0 0.021733371977132574 0.00039681905856795829 0 0.020904465580422065 0.00030706015267817767 0 0.021732043739714067 0.00048142192431119464 0 0.021524785176233331 0.0006302821827705228 0 0.021733371977132574 0.00039681905856795829 0 0.021524785176233331 0.0006302821827705228 0 0.020904465580422065 0.00030706015267817767 0 0.020994421391651912 -0.00013180078340503678 0 0.020994421391651912 -0.00013180078340503678 0 0.020222061459805374 -1.9235378495765299e-05 0 0.019150315588602827 -0.00045321593268146031 0 0.020904465580422065 0.00030706015267817767 0 0.020994421391651912 -0.00013180078340503678 0 0.020222061459805374 -1.9235378495765299e-05 0 0.020222061459805374 -1.9235378495765299e-05 0 0.020433618648019292 1.1890487919779034e-07 0 0.019150315588602827 -0.00045321593268146031 0 0.020904465580422065 0.00030706015267817767 0 0.020222061459805374 -1.9235378495765299e-05 0 0.020433618648019292 1.1890487919779034e-07 0 0.019150315588602827 -0.00045321593268146031 0 0.017287987393531823 -0.00025001353976324326 0 0.018465487372860696 -1.4208359550480254e-06 0 0.020433618648019292 1.1890487919779034e-07 0 0.019150315588602827 -0.00045321593268146031 0 0.018465487372860696 -1.4208359550480254e-06 0 0.020994421391651912 -0.00013180078340503678 0 0.019150315588602827 -0.00045321593268146031 0 0.020964939944983232 -0.00067665957868789743 0 0.018379178646961494 -0.0012080735983378099 0 0.018926937933473081 -0.00048937619065550183 0 0.021289930354148726 -0.0015046228140121877 0 0.019150315588602827 -0.00045321593268146031 0 0.020964939944983232 -0.00067665957868789743 0 0.015517669019292741 -0.00078651679079546353 0 0.019150315588602827 -0.00045321593268146031 0 0.017287987393531823 -0.00025001353976324326 0 0.015517669019292741 -0.00078651679079546353 0 0.017287987393531823 -0.00025001353976324326 0 0.015797929173338669 1.7738262518186367e-05 0 0.017287987393531823 -0.00025001353976324326 0 0.018465487372860696 -1.4208359550480254e-06 0 0.016497567222606993 5.3023396165290546e-07 0 0.017287987393531823 -0.00025001353976324326 0 0.016497567222606993 5.3023396165290546e-07 0 0.015797929173338669 1.7738262518186367e-05 0 0.015797929173338669 1.7738262518186367e-05 0 0.014788856271001757 0.00017888324497246729 0 0.014497542893327066 0.00012915632989929412 0 0.016497567222606993 5.3023396165290546e-07 0 0.015797929173338669 1.7738262518186367e-05 0 0.014788856271001757 0.00017888324497246729 0 0.016497567222606993 5.3023396165290546e-07 0 0.014788856271001757 0.00017888324497246729 0 0.014529977581286385 3.3793348234639898e-07 0 0.018561955796047486 -0.00014949423647857 0 0.014048148327582092 -1.7555614479395071e-05 0 0.013932640373806331 -0.00042349554665702252 0 0.014740525955060695 -0.00017918244033598502 0 0.014072251048668966 1.9393985351112996e-06 0 0.013932640373806331 -0.00042349554665702252 0 0.014072251048668966 1.9393985351112996e-06 0 0.013685685636468931 9.0101538342879549e-05 0 0.015517669019292741 -0.00078651679079546353 0 0.015797929173338669 1.7738262518186367e-05 0 0.014740525955060695 -0.00017918244033598502 0 0.015797929173338669 1.7738262518186367e-05 0 0.014740525955060695 -0.00017918244033598502 0 0.014497542893327066 0.00012915632989929412 0 0.014740525955060695 -0.00017918244033598502 0 0.014497542893327066 0.00012915632989929412 0 0.014072251048668966 1.9393985351112996e-06 0 0.014788856271001757 0.00017888324497246729 0 0.014497542893327066 0.00012915632989929412 0 0.013784717257180714 0.00026546429031868449 0 0.014497542893327066 0.00012915632989929412 0 0.013797956254839851 0.00016070503703907493 0 0.013784717257180714 0.00026546429031868449 0 0.014497542893327066 0.00012915632989929412 0 0.014072251048668966 1.9393985351112996e-06 0 0.013797956254839851 0.00016070503703907493 0 0.014072251048668966 1.9393985351112996e-06 0 0.013797956254839851 0.00016070503703907493 0 0.013685685636468931 9.0101538342879549e-05 0 0.013797956254839851 0.00016070503703907493 0 0.01317910779883974 0.00022305452220339807 0 0.013784717257180714 0.00026546429031868449 0 0.013029545284343094 0.000114387899125398 0 0.014048148327582092 -1.7555614479395071e-05 0 0.013797956254839851 0.00016070503703907493 0 0.01317910779883974 0.00022305452220339807 0 0.013685685636468931 9.0101538342879549e-05 0 0.013784717257180714 0.00026546429031868449 0 0.013030565633268347 0.00037125093266055604 0 0.013607879455219959 0.00026593234338384336 0 0.01317910779883974 0.00022305452220339807 0 0.013784717257180714 0.00026546429031868449 0 0.013030565633268347 0.00037125093266055604 0 0.013030565633268347 0.00037125093266055604 0 0.013607879455219959 0.00026593234338384336 0 0.012668771880412639 0.00031850641669719837 0 0.01317910779883974 0.00022305452220339807 0 0.01276044944342321 0.00038725208906450641 0 0.012732010592912594 5.7183684781368557e-05 0 0.01317910779883974 0.00022305452220339807 0 0.013030565633268347 0.00037125093266055604 0 0.01276044944342321 0.00038725208906450641 0 0.014788856271001757 0.00017888324497246729 0 0.014529977581286385 3.3793348234639898e-07 0 0.013607879455219959 0.00026593234338384336 0 0.014788856271001757 0.00017888324497246729 0 0.013784717257180714 0.00026546429031868449 0 0.013607879455219959 0.00026593234338384336 0 0.014529977581286385 3.3793348234639898e-07 0 0.013607879455219959 0.00026593234338384336 0 0.012562734135349569 4.8848914065649887e-07 0 0.012562734135349569 4.8848914065649887e-07 0 0.01166168948238107 0.0002844859707429415 0 0.01059423682124431 6.5317205287969464e-07 0 0.012562734135349569 4.8848914065649887e-07 0 0.01166168948238107 0.0002844859707429415 0 0.012668771880412639 0.00031850641669719837 0 0.013607879455219959 0.00026593234338384336 0 0.012562734135349569 4.8848914065649887e-07 0 0.012668771880412639 0.00031850641669719837 0 0.01166168948238107 0.0002844859707429415 0 0.012668771880412639 0.00031850641669719837 0 0.012481022428095451 0.00044235093380294251 0 0.013030565633268347 0.00037125093266055604 0 0.012668771880412639 0.00031850641669719837 0 0.012481022428095451 0.00044235093380294251 0 0.01276044944342321 0.00038725208906450641 0 0.012481022428095451 0.00044235093380294251 0 0.012377493066031746 0.00047373160934237037 0 0.013030565633268347 0.00037125093266055604 0 0.01276044944342321 0.00038725208906450641 0 0.012481022428095451 0.00044235093380294251 0 0.012481022428095451 0.00044235093380294251 0 0.012008532293442984 0.00035313001398943852 0 0.012377493066031746 0.00047373160934237037 0 0.012008532293442984 0.00035313001398943852 0 0.01215131869482269 0.00039916101676234079 0 0.012377493066031746 0.00047373160934237037 0 0.01166168948238107 0.0002844859707429415 0 0.012481022428095451 0.00044235093380294251 0 0.012008532293442984 0.00035313001398943852 0 0.01166168948238107 0.0002844859707429415 0 0.011106617907783769 -4.3732660068714402e-05 0 0.012008532293442984 0.00035313001398943852 0 0.012008532293442984 0.00035313001398943852 0 0.011921543882590526 0.00014176717938871786 0 0.01215131869482269 0.00039916101676234079 0 0.011106617907783769 -4.3732660068714402e-05 0 0.012008532293442984 0.00035313001398943852 0 0.011921543882590526 0.00014176717938871786 0 0.011921543882590526 0.00014176717938871786 0 0.012000405262626223 0.00015566997008212898 0 0.011753378830430964 -4.9080350542443594e-05 0 0.01092613326819167 -1.8388600960280783e-05 0 0.010520559531818132 -0.00022567731072234583 0 0.011106617907783769 -4.3732660068714402e-05 0 0.010147554554891372 -0.00038102349529589482 0 0.0094073069834164913 -0.00065867312316988328 0 0.011106617907783769 -4.3732660068714402e-05 0 0.011921543882590526 0.00014176717938871786 0 0.011753378830430964 -4.9080350542443594e-05 0 0.011106617907783769 -4.3732660068714402e-05 0 0.010479804251590242 3.1467052735579265e-05 0 0.010147554554891372 -0.00038102349529589482 0 0.010479804251590242 3.1467052735579265e-05 0 0.010147554554891372 -0.00038102349529589482 0 0.008631030143510094 -1.5265837570531962e-06 0 0.01059423682124431 6.5317205287969464e-07 0 0.010479804251590242 3.1467052735579265e-05 0 0.008631030143510094 -1.5265837570531962e-06 0 0.01166168948238107 0.0002844859707429415 0 0.01059423682124431 6.5317205287969464e-07 0 0.010479804251590242 3.1467052735579265e-05 0 0.01166168948238107 0.0002844859707429415 0 0.011106617907783769 -4.3732660068714402e-05 0 0.010479804251590242 3.1467052735579265e-05 0 0.012007600560261459 0.00056450930987587283 0 0.012097205498047936 0.00041664104110270065 0 0.012105146534351206 0.00054024096429786106 0 0.011777096200732634 0.00088313424404092163 0 0.011571057967396103 0.00066911906476648051 0 0.011592787575813562 0.0012591518055302404 0 0.011557449912560415 0.00069778909270220755 0 0.010996451724828916 0.0012251635715455854 0 0.011592787575813562 0.0012591518055302404 0 0.010996451724828916 0.0012251635715455854 0 0.011279813075627254 0.0016798663950265921 0 0.011777096200732634 0.00088313424404092163 0 0.011831237600288914 0.00090172332519203899 0 0.011592787575813562 0.0012591518055302404 0 0.011610875962503786 0.0016505641689718053 0 0.011279813075627254 0.0016798663950265921 0 0.012007600560261459 0.00056450930987587283 0 0.012097205498047936 0.00041664104110270065 0 0.012150389913234408 0.00023894707275769344 0 0.012000405262626223 0.00015566997008212898 0 0.012097205498047936 0.00041664104110270065 0 0.012150389913234408 0.00023894707275769344 0 0.012000405262626223 0.00015566997008212898 0 0.01215131869482269 0.00039916101676234079 0 0.012097205498047936 0.00041664104110270065 0 0.011921543882590526 0.00014176717938871786 0 0.012000405262626223 0.00015566997008212898 0 0.01215131869482269 0.00039916101676234079 0 0.01215131869482269 0.00039916101676234079 0 0.012097205498047936 0.00041664104110270065 0 0.012105146534351206 0.00054024096429786106 0 0.01215131869482269 0.00039916101676234079 0 0.012105146534351206 0.00054024096429786106 0 0.012377493066031746 0.00047373160934237037 0 0.01276044944342321 0.00038725208906450641 0 0.012377493066031746 0.00047373160934237037 0 0.012387920265860155 0.00029872289601176935 0 0.012105146534351206 0.00054024096429786106 0 0.012377493066031746 0.00047373160934237037 0 0.012387920265860155 0.00029872289601176935 0 0.012105146534351206 0.00054024096429786106 0 0.011828588484972209 0.00045851661774457122 0 0.012387920265860155 0.00029872289601176935 0 0.011828588484972209 0.00045851661774457122 0 0.011795142861671796 0.00016024933824603188 0 0.012387920265860155 0.00029872289601176935 0 0.012105146534351206 0.00054024096429786106 0 0.011828588484972209 0.00045851661774457122 0 0.011557449912560415 0.00069778909270220755 0 0.012007600560261459 0.00056450930987587283 0 0.012105146534351206 0.00054024096429786106 0 0.011557449912560415 0.00069778909270220755 0 0.011828588484972209 0.00045851661774457122 0 0.011557449912560415 0.00069778909270220755 0 0.011180611646927392 0.00041138320605313086 0 0.011828588484972209 0.00045851661774457122 0 0.011395252383014805 0.0001668736979103351 0 0.011795142861671796 0.00016024933824603188 0 0.011828588484972209 0.00045851661774457122 0 0.011395252383014805 0.0001668736979103351 0 0.011180611646927392 0.00041138320605313086 0 0.011395252383014805 0.0001668736979103351 0 0.011622875015271492 -5.5537528865974709e-05 0 0.011140702719504982 -6.7513390847962545e-05 0 0.011395252383014805 0.0001668736979103351 0 0.011622875015271492 -5.5537528865974709e-05 0 0.011795142861671796 0.00016024933824603188 0 0.011622875015271492 -5.5537528865974709e-05 0 0.011795142861671796 0.00016024933824603188 0 0.011989234531819598 -0.00010400756627758798 0 0.012569771113691881 -0.00010408588924088677 0 0.012614692259297244 -0.00028333451814826751 0 0.011989234531819598 -0.00010400756627758798 0 0.011782396682385121 -0.00045366745353066251 0 0.012247098038727285 -0.00043045261236411943 0 0.011622875015271492 -5.5537528865974709e-05 0 0.011989234531819598 -0.00010400756627758798 0 0.011782396682385121 -0.00045366745353066251 0 0.012925611251290147 6.2421580801772972e-05 0 0.013405790744650084 8.4462743543661136e-05 0 0.013253733040621893 2.8472518793910241e-05 0 0.011743570270513856 -0.00041072332946778285 0 0.011030122040725945 -0.00043881864463726186 0 0.011140702719504982 -6.7513390847962545e-05 0 0.012569771113691881 -0.00010408588924088677 0 0.010871892024570314 -0.00013102981078234448 0 0.011622875015271492 -5.5537528865974709e-05 0 0.011782396682385121 -0.00045366745353066251 0 0.011140702719504982 -6.7513390847962545e-05 0 0.01276044944342321 0.00038725208906450641 0 0.012387920265860155 0.00029872289601176935 0 0.012732010592912594 5.7183684781368557e-05 0 0.011795142861671796 0.00016024933824603188 0 0.011989234531819598 -0.00010400756627758798 0 0.012387920265860155 0.00029872289601176935 0 0.012387920265860155 0.00029872289601176935 0 0.012429450879834172 -0.00012057674265026044 0 0.012507702584536382 -0.0001161360123103712 0 0.011989234531819598 -0.00010400756627758798 0 0.012387920265860155 0.00029872289601176935 0 0.012247098038727285 -0.00043045261236411943 0 0.0123247368981283 0.00026720120780165664 0 0.012614692259297244 -0.00028333451814826751 0 0.012614692259297244 -0.00028333451814826751 0 0.012528372245334774 -0.00024632736609887107 0 0.012387920265860155 0.00029872289601176935 0 0.012507702584536382 -0.0001161360123103712 0 0.012732010592912594 5.7183684781368557e-05 0 0.01317910779883974 0.00022305452220339807 0 0.012732010592912594 5.7183684781368557e-05 0 0.012803704513404563 -0.00030242130422189576 0 0.012507702584536382 -0.0001161360123103712 0 0.012732010592912594 5.7183684781368557e-05 0 0.012642867214424515 -0.00022401849076937589 0 0.012732010592912594 5.7183684781368557e-05 0 0.012803704513404563 -0.00030242130422189576 0 0.012642867214424515 -0.00022401849076937589 0 0.01317910779883974 0.00022305452220339807 0 0.012864241926198811 -0.00044687860841174552 0 0.012803704513404563 -0.00030242130422189576 0 0.012855670949380294 -0.00039220220051119513 0 0.012737369682563931 -0.00038152637599284247 0 0.012786527699530422 -0.0006223443709282234 0 0.012855670949380294 -0.00039220220051119513 0 0.012803704513404563 -0.00030242130422189576 0 0.012737369682563931 -0.00038152637599284247 0 0.014048148327582092 -1.7555614479395071e-05 0 0.013704757842399431 -2.5758076669664432e-05 0 0.012803704513404563 -0.00030242130422189576 0 0.012642867214424515 -0.00022401849076937589 0 0.012737369682563931 -0.00038152637599284247 0 0.012642867214424515 -0.00022401849076937589 0 0.012586625352905022 -0.00036670897576451778 0 0.012494788295247305 -0.00024060844972881567 0 0.012642867214424515 -0.00022401849076937589 0 0.012586625352905022 -0.00036670897576451778 0 0.012737369682563931 -0.00038152637599284247 0 0.012586625352905022 -0.00036670897576451778 0 0.012737369682563931 -0.00038152637599284247 0 0.012786527699530422 -0.0006223443709282234 0 0.013967205369627721 0.00027100326018337942 0 0.01636144876441788 0.00074921625664973221 0 0.012586625352905022 -0.00036670897576451778 0 0.012342707446428002 -0.00036858323256230445 0 0.012786527699530422 -0.0006223443709282234 0 0.012391871984847067 -0.00012761415750448966 0 0.012494788295247305 -0.00024060844972881567 0 0.012342707446428002 -0.00036858323256230445 0 0.012586625352905022 -0.00036670897576451778 0 0.012494788295247305 -0.00024060844972881567 0 0.012342707446428002 -0.00036858323256230445 0 0.012507702584536382 -0.0001161360123103712 0 0.012642867214424515 -0.00022401849076937589 0 0.012494788295247305 -0.00024060844972881567 0 0.012391871984847067 -0.00012761415750448966 0 0.012507702584536382 -0.0001161360123103712 0 0.012494788295247305 -0.00024060844972881567 0 0.013405790744650084 8.4462743543661136e-05 0 0.013253733040621893 2.8472518793910241e-05 0 0.013339707543808074 -0.00018336076604170517 0 0.013253733040621893 2.8472518793910241e-05 0 0.013264995946027416 -0.0001385871246559816 0 0.013339707543808074 -0.00018336076604170517 0 0.012614692259297244 -0.00028333451814826751 0 0.013967205369627721 0.00027100326018337942 0 0.013731808515979525 8.9924574090960627e-06 0 0.013969058458814125 7.0426727090192138e-05 0 0.013967205369627721 0.00027100326018337942 0 0.014840791226185016 0.00022689077758488227 0 0.013969058458814125 7.0426727090192138e-05 0 0.014840791226185016 0.00022689077758488227 0 0.014337487883343257 0.00019343807187213941 0 0.014328077608500953 0.00019949061390937091 0 0.014339133223121187 0.00023077117516979634 0 0.013969058458814125 7.0426727090192138e-05 0 0.013967205369627721 0.00027100326018337942 0 0.015926239883404924 0.00031240970137647056 0 0.0158930673444924 0.00075908475027813024 0 0.016090346329946055 0.0006024676311948944 0 0.014698572881768859 -0.00073943199921332702 0 0.014840791226185016 0.00022689077758488227 0 0.015663289963396009 9.7502012826001335e-06 0 0.014840791226185016 0.00022689077758488227 0 0.015943699780733636 0.00097932744345545345 0 0.0158930673444924 0.00075908475027813024 0 0.016090346329946055 0.0006024676311948944 0 0.015170619946462575 -0.00045075802649258617 0 0.015380241756652629 -0.00054051898920939423 0 0.015334241787311421 0.00021639610549872569 0 0.015943699780733636 0.00097932744345545345 0 0.016090346329946055 0.0006024676311948944 0 0.016422661282781789 0.00070421487077240318 0 0.020562299931236698 0.0018835598426940794 0 0.020753293706216421 0.0022725976458815907 0 0.020343037525823632 0.0025024566420925719 0 0.016790468891798343 -0.0004985631526966607 0 0.016194407394501689 0.00080130923192085887 0 0.015912665913240628 2.331167141467328e-05 0 0.018475819564907056 0.001524897170491148 0 0.01636144876441788 0.00074921625664973221 0 0.016265553325604244 0.00025604486237938061 0 0.016090346329946055 0.0006024676311948944 0 0.016422661282781789 0.00070421487077240318 0 0.018561955796047486 -0.00014949423647857 0 0.01636144876441788 0.00074921625664973221 0 0.014048148327582092 -1.7555614479395071e-05 0 0.01636144876441788 0.00074921625664973221 0 0.012569771113691881 -0.00010408588924088677 0 0.011918484069720993 5.0901779573492706e-07 0 0.013854351331651985 0.00044176770100861804 0 0.013343947792790059 -1.6764622498889815e-05 0 0.012696780784047896 0.00038973610901697222 0 0.012569771113691881 -0.00010408588924088677 0 0.013969058458814125 7.0426727090192138e-05 0 0.012925611251290147 6.2421580801772972e-05 0 0.013253733040621893 2.8472518793910241e-05 0 0.013264051860805022 -0.00013995014869846469 0 0.013854351331651985 0.00044176770100861804 0 0.014370018400435088 0.0001344199261752924 0 0.013924615770094389 -0.00010403429749498443 0 0.014370018400435088 0.0001344199261752924 0 0.014396462676195456 -0.00029421469797387043 0 0.013924615770094389 -0.00010403429749498443 0 0.013854351331651985 0.00044176770100861804 0 0.013343947792790059 -1.6764622498889815e-05 0 0.013924615770094389 -0.00010403429749498443 0 0.014239335338699506 -0.00094178479958886699 0 0.014396462676195456 -0.00029421469797387043 0 0.013928042214707583 -0.00057367980451964991 0 0.013924615770094389 -0.00010403429749498443 0 0.013928042214707583 -0.00057367980451964991 0 0.013460114392042363 -0.00051135682644781397 0 0.014396462676195456 -0.00029421469797387043 0 0.013924615770094389 -0.00010403429749498443 0 0.013928042214707583 -0.00057367980451964991 0 0.013742728249028878 -0.00094925329805588938 0 0.013928042214707583 -0.00057367980451964991 0 0.013460114392042363 -0.00051135682644781397 0 0.013001839261481758 -0.001130056382364119 0 0.013460114392042363 -0.00051135682644781397 0 0.012781306916668584 -0.00030128969163963429 0 0.013343947792790059 -1.6764622498889815e-05 0 0.013460114392042363 -0.00051135682644781397 0 0.012781306916668584 -0.00030128969163963429 0 0.013343947792790059 -1.6764622498889815e-05 0 0.013924615770094389 -0.00010403429749498443 0 0.013460114392042363 -0.00051135682644781397 0 0.013001839261481758 -0.001130056382364119 0 0.012781306916668584 -0.00030128969163963429 0 0.011912172448904391 -0.0006718099540081497 0 0.013343947792790059 -1.6764622498889815e-05 0 0.012781306916668584 -0.00030128969163963429 0 0.012696780784047896 0.00038973610901697222 0 0.012781306916668584 -0.00030128969163963429 0 0.012696780784047896 0.00038973610901697222 0 0.012131987233489679 -9.1681380709615016e-06 0 0.011918484069720993 5.0901779573492706e-07 0 0.010894010598220013 2.2149037039325703e-06 0 0.012131987233489679 -9.1681380709615016e-06 0 0.011912172448904391 -0.0006718099540081497 0 0.011522844923931011 0.00034348570438855837 0 0.012696780784047896 0.00038973610901697222 0 0.012131987233489679 -9.1681380709615016e-06 0 0.011522844923931011 0.00034348570438855837 0 0.012781306916668584 -0.00030128969163963429 0 0.012131987233489679 -9.1681380709615016e-06 0 0.011912172448904391 -0.0006718099540081497 0 0.012445740937925769 -0.00042401010567123706 0 0.010938464353649285 -0.00017958517245169359 0 0.011654796264347598 -0.00062690921776207187 0 0.012976036917647921 -0.00010354150732326016 0 0.010801352849757162 -0.00020755049891996394 0 0.011654796264347598 -0.00062690921776207187 0 0.010801352849757162 -0.00020755049891996394 0 0.010763206856806389 -0.00064895826461440422 0 0.010801352849757162 -0.00020755049891996394 0 0.011522844923931011 0.00034348570438855837 0 0.010033320170300623 -3.6178967536349973e-05 0 0.010894010598220013 2.2149037039325703e-06 0 0.010107190351334379 -2.8652827932658974e-05 0 0.011912172448904391 -0.0006718099540081497 0 0.010801352849757162 -0.00020755049891996394 0 0.011522844923931011 0.00034348570438855837 0 0.010271540861593336 -0.00031794935441911037 0 0.010282786800031319 9.9205055114891231e-05 0 0.010695063715071468 -3.9651324441118377e-05 0 0.010271540861593336 -0.00031794935441911037 0 0.010022636690566392 -4.3102945668580873e-05 0 0.010282786800031319 9.9205055114891231e-05 0 0.010271540861593336 -0.00031794935441911037 0 0.010022636690566392 -4.3102945668580873e-05 0 0.010033320170300623 -3.6178967536349973e-05 0 0.010022636690566392 -4.3102945668580873e-05 0 0.0099113317291620578 0.00028946447285235966 0 0.010282786800031319 9.9205055114891231e-05 0 0.010022636690566392 -4.3102945668580873e-05 0 0.0099113317291620578 0.00028946447285235966 0 0.0096641191877852965 6.2474985296412776e-05 0 0.010282786800031319 9.9205055114891231e-05 0 0.010695063715071468 -3.9651324441118377e-05 0 0.010606659765810891 0.00032261188023859262 0 0.010956916510458242 0.00016692915191763043 0 0.010695063715071468 -3.9651324441118377e-05 0 0.010606659765810891 0.00032261188023859262 0 0.011395252383014805 0.0001668736979103351 0 0.010956916510458242 0.00016692915191763043 0 0.011140702719504982 -6.7513390847962545e-05 0 0.011395252383014805 0.0001668736979103351 0 0.010956916510458242 0.00016692915191763043 0 0.011180611646927392 0.00041138320605313086 0 0.010956916510458242 0.00016692915191763043 0 0.011140702719504982 -6.7513390847962545e-05 0 0.010695063715071468 -3.9651324441118377e-05 0 0.011030122040725945 -0.00043881864463726186 0 0.011140702719504982 -6.7513390847962545e-05 0 0.010695063715071468 -3.9651324441118377e-05 0 0.011030122040725945 -0.00043881864463726186 0 0.010271540861593336 -0.00031794935441911037 0 0.010695063715071468 -3.9651324441118377e-05 0 0.0086032203039023477 -0.00023316419958494021 0 0.0077647950485022418 0.00017527395709170592 0 0.0086824848944759732 -0.00026340099545251388 0 0.0084331227898930342 -0.00055490122155818858 0 0.0082835438140202687 -0.00015085162627920051 0 0.0088924437585549947 -0.00077724375651443112 0 0.0086824848944759732 -0.00026340099545251388 0 0.0084331227898930342 -0.00055490122155818858 0 0.0093754079997332256 -0.0010954993063194832 0 0.0088924437585549947 -0.00077724375651443112 0 0.0094339518101330053 -0.00066097930190704994 0 0.0088924437585549947 -0.00077724375651443112 0 0.0086824848944759732 -0.00026340099545251388 0 0.0094339518101330053 -0.00066097930190704994 0 0.0086824848944759732 -0.00026340099545251388 0 0.0094291803585312018 -0.00013731703172314337 0 0.0094339518101330053 -0.00066097930190704994 0 0.0094291803585312018 -0.00013731703172314337 0 0.0094339518101330053 -0.00066097930190704994 0 0.010073549939562734 -0.00051559044441715403 0 0.0098779873585411859 -0.0011833151059064597 0 0.0094339518101330053 -0.00066097930190704994 0 0.010073549939562734 -0.00051559044441715403 0 0.010801352849757162 -0.00020755049891996394 0 0.010763206856806389 -0.00064895826461440422 0 0.010073549939562734 -0.00051559044441715403 0 0.01043815562536256 -0.00098516442114742939 0 0.010763206856806389 -0.00064895826461440422 0 0.010073549939562734 -0.00051559044441715403 0 0.010801352849757162 -0.00020755049891996394 0 0.010073549939562734 -0.00051559044441715403 0 0.010033320170300623 -3.6178967536349973e-05 0 0.0094291803585312018 -0.00013731703172314337 0 0.010073549939562734 -0.00051559044441715403 0 0.010033320170300623 -3.6178967536349973e-05 0 0.010022636690566392 -4.3102945668580873e-05 0 0.010033320170300623 -3.6178967536349973e-05 0 0.0096641191877852965 6.2474985296412776e-05 0 0.0094291803585312018 -0.00013731703172314337 0 0.010033320170300623 -3.6178967536349973e-05 0 0.0096641191877852965 6.2474985296412776e-05 0 0.0099113317291620578 0.00028946447285235966 0 0.0096641191877852965 6.2474985296412776e-05 0 0.0092937179012432345 0.00035044431545716657 0 0.0096641191877852965 6.2474985296412776e-05 0 0.009153533746691471 0.00010376088046497051 0 0.0092937179012432345 0.00035044431545716657 0 0.009153533746691471 0.00010376088046497051 0 0.0086479938818287711 0.0003192679193275707 0 0.0092937179012432345 0.00035044431545716657 0 0.009153533746691471 0.00010376088046497051 0 0.0088213927205725226 2.8077573001893156e-05 0 0.0086479938818287711 0.0003192679193275707 0 0.0094291803585312018 -0.00013731703172314337 0 0.0096641191877852965 6.2474985296412776e-05 0 0.009153533746691471 0.00010376088046497051 0 0.0094291803585312018 -0.00013731703172314337 0 0.009153533746691471 0.00010376088046497051 0 0.0088213927205725226 2.8077573001893156e-05 0 0.0086824848944759732 -0.00026340099545251388 0 0.0088213927205725226 2.8077573001893156e-05 0 0.0080825276361444921 0.000240075192527346 0 0.0086824848944759732 -0.00026340099545251388 0 0.0094291803585312018 -0.00013731703172314337 0 0.0088213927205725226 2.8077573001893156e-05 0 0.0088213927205725226 2.8077573001893156e-05 0 0.0086479938818287711 0.0003192679193275707 0 0.0080825276361444921 0.000240075192527346 0 0.0086824848944759732 -0.00026340099545251388 0 0.0080825276361444921 0.000240075192527346 0 0.0076500487791417828 0.00016139162560852114 0 0.0086824848944759732 -0.00026340099545251388 0 0.0073702301805488755 -0.00013252020225802639 0 0.0076500487791417828 0.00016139162560852114 0 0.0080825276361444921 0.000240075192527346 0 0.0078270611569204677 0.00057307564990990881 0 0.0071741986063101311 0.00039281377401392473 0 0.0086479938818287711 0.0003192679193275707 0 0.0080825276361444921 0.000240075192527346 0 0.0078270611569204677 0.00057307564990990881 0 0.0086479938818287711 0.0003192679193275707 0 0.0078270611569204677 0.00057307564990990881 0 0.0087317350358004676 0.00067306694063025353 0 0.0078270611569204677 0.00057307564990990881 0 0.0087317350358004676 0.00067306694063025353 0 0.0082388115579287123 0.0010889627949201314 0 0.0086479938818287711 0.0003192679193275707 0 0.0087317350358004676 0.00067306694063025353 0 0.0092937179012432345 0.00035044431545716657 0 0.0099113317291620578 0.00028946447285235966 0 0.0092937179012432345 0.00035044431545716657 0 0.0097851856571222785 0.00079687277580016696 0 0.0087317350358004676 0.00067306694063025353 0 0.0092937179012432345 0.00035044431545716657 0 0.0097851856571222785 0.00079687277580016696 0 0.0088264192671640204 0.0008037182105421031 0 0.0089683597106061594 0.00090482723931409673 0 0.0087317350358004676 0.00067306694063025353 0 0.0094465062684542297 0.001320767689358734 0 0.0097851856571222785 0.00079687277580016696 0 0.008869665044153487 0.0010751756258858046 0 0.0085387716536750452 0.001484764048183735 0 0.0089716577185687922 0.001949719673648583 0 0.008618074501463284 0.00035624183278699489 0 0.0091491950797770241 0.001064400209237423 0 0.0087002471326150417 0.001389179765927763 0 0.0089683597106061594 0.00090482723931409673 0 0.0092123159157055361 0.001786603277882573 0 0.0085387716536750452 0.001484764048183735 0 0.0081828884565722584 0.0014853117133157066 0 0.0084742692737601356 0.0019138588371816834 0 0.0085387716536750452 0.001484764048183735 0 0.0081828884565722584 0.0014853117133157066 0 0.0082388115579287123 0.0010889627949201314 0 0.008869665044153487 0.0010751756258858046 0 0.0085387716536750452 0.001484764048183735 0 0.0082388115579287123 0.0010889627949201314 0 0.0087317350358004676 0.00067306694063025353 0 0.008869665044153487 0.0010751756258858046 0 0.0082388115579287123 0.0010889627949201314 0 0.0078270611569204677 0.00057307564990990881 0 0.0082388115579287123 0.0010889627949201314 0 0.0074344388634462275 0.0010748683786003983 0 0.0081828884565722584 0.0014853117133157066 0 0.0082388115579287123 0.0010889627949201314 0 0.0077219978464696908 0.0014643130849823563 0 0.0082388115579287123 0.0010889627949201314 0 0.0077219978464696908 0.0014643130849823563 0 0.0074344388634462275 0.0010748683786003983 0 0.0081828884565722584 0.0014853117133157066 0 0.0077219978464696908 0.0014643130849823563 0 0.0077789516529748297 0.001960597965493663 0 0.0077219978464696908 0.0014643130849823563 0 0.0074344388634462275 0.0010748683786003983 0 0.0071275535126910051 0.0017157210487991751 0 0.0074344388634462275 0.0010748683786003983 0 0.0071275535126910051 0.0017157210487991751 0 0.0067823529590144141 0.0010171979063826268 0 0.0078270611569204677 0.00057307564990990881 0 0.0074344388634462275 0.0010748683786003983 0 0.0070137812633523288 0.00058288489911715192 0 0.010855865083411232 0.000732083294614971 0 0.010427436804724091 0.0010174843297091792 0 0.010996451724828916 0.0012251635715455854 0 0.010855865083411232 0.000732083294614971 0 0.010287524135127981 0.00059037062398755369 0 0.010427436804724091 0.0010174843297091792 0 0.011557449912560415 0.00069778909270220755 0 0.010855865083411232 0.000732083294614971 0 0.010996451724828916 0.0012251635715455854 0 0.011557449912560415 0.00069778909270220755 0 0.010855865083411232 0.000732083294614971 0 0.011180611646927392 0.00041138320605313086 0 0.010855865083411232 0.000732083294614971 0 0.011180611646927392 0.00041138320605313086 0 0.010606659765810891 0.00032261188023859262 0 0.010956916510458242 0.00016692915191763043 0 0.011180611646927392 0.00041138320605313086 0 0.010606659765810891 0.00032261188023859262 0 0.010855865083411232 0.000732083294614971 0 0.010606659765810891 0.00032261188023859262 0 0.010287524135127981 0.00059037062398755369 0 0.0099113317291620578 0.00028946447285235966 0 0.010282786800031319 9.9205055114891231e-05 0 0.010287524135127981 0.00059037062398755369 0 0.010282786800031319 9.9205055114891231e-05 0 0.010606659765810891 0.00032261188023859262 0 0.010287524135127981 0.00059037062398755369 0 0.0099113317291620578 0.00028946447285235966 0 0.010287524135127981 0.00059037062398755369 0 0.0097851856571222785 0.00079687277580016696 0 0.010287524135127981 0.00059037062398755369 0 0.0097851856571222785 0.00079687277580016696 0 0.010427436804724091 0.0010174843297091792 0 0.010427436804724091 0.0010174843297091792 0 0.0099748004929171678 0.0012977855593583019 0 0.010379117418742281 0.0014689483665353417 0 0.0097851856571222785 0.00079687277580016696 0 0.010427436804724091 0.0010174843297091792 0 0.0099748004929171678 0.0012977855593583019 0 0.0094465062684542297 0.001320767689358734 0 0.0097851856571222785 0.00079687277580016696 0 0.0099748004929171678 0.0012977855593583019 0 0.0094465062684542297 0.001320767689358734 0 0.0099748004929171678 0.0012977855593583019 0 0.009884053658160535 0.0017130120733070573 0 0.0089683597106061594 0.00090482723931409673 0 0.0095169274792840756 0.0013763409248971458 0 0.009884053658160535 0.0017130120733070573 0 0.010379117418742281 0.0014689483665353417 0 0.010352970358830871 0.0018108391256876693 0 0.0099748004929171678 0.0012977855593583019 0 0.009884053658160535 0.0017130120733070573 0 0.010379117418742281 0.0014689483665353417 0 0.010379117418742281 0.0014689483665353417 0 0.010996451724828916 0.0012251635715455854 0 0.010812322866685903 0.0017391337399937309 0 0.010379117418742281 0.0014689483665353417 0 0.010812322866685903 0.0017391337399937309 0 0.010352970358830871 0.0018108391256876693 0 0.010427436804724091 0.0010174843297091792 0 0.010379117418742281 0.0014689483665353417 0 0.010996451724828916 0.0012251635715455854 0 0.010996451724828916 0.0012251635715455854 0 0.010812322866685903 0.0017391337399937309 0 0.011279813075627254 0.0016798663950265921 0 0.011041036786211759 0.0018901195008034233 0 0.010812322866685903 0.0017391337399937309 0 0.011279813075627254 0.0016798663950265921 0 0.011041036786211759 0.0018901195008034233 0 0.010812322866685903 0.0017391337399937309 0 0.010856718132198077 0.002009818633401648 0 0.011041036786211759 0.0018901195008034233 0 0.010856718132198077 0.002009818633401648 0 0.011077534607033894 0.0021124526323238538 0 0.010691079185526061 0.0022417572936139331 0 0.010511041857598999 0.0019826694731169148 0 0.010210555794015986 0.0021180938762814308 0 0.010691079185526061 0.0022417572936139331 0 0.010210555794015986 0.0021180938762814308 0 0.010429408662750377 0.0026174543340068751 0 0.010812322866685903 0.0017391337399937309 0 0.010511041857598999 0.0019826694731169148 0 0.010352970358830871 0.0018108391256876693 0 0.010777554482773352 0.0016726844229843145 0 0.011007428319225177 0.0023463349920323749 0 0.010812322866685903 0.0017391337399937309 0 0.010691079185526061 0.0022417572936139331 0 0.010511041857598999 0.0019826694731169148 0 0.009884053658160535 0.0017130120733070573 0 0.010352970358830871 0.0018108391256876693 0 0.010210555794015986 0.0021180938762814308 0 0.0095169274792840756 0.0013763409248971458 0 0.0099888804695342486 0.0019843720919362662 0 0.010511041857598999 0.0019826694731169148 0 0.010352970358830871 0.0018108391256876693 0 0.010210555794015986 0.0021180938762814308 0 0.0091491950797770241 0.001064400209237423 0 0.0091479470759234637 0.0018994253518660291 0 0.0097575126025356423 0.0018119425723736125 0 0.0091491950797770241 0.001064400209237423 0 0.0091479470759234637 0.0018994253518660291 0 0.0087002471326150417 0.001389179765927763 0 0.0091479470759234637 0.0018994253518660291 0 0.0087002471326150417 0.001389179765927763 0 0.0087637206558985135 0.0025244729250419044 0 0.0099888804695342486 0.0019843720919362662 0 0.01041280525219603 0.0025813143777085983 0 0.0091479470759234637 0.0018994253518660291 0 0.0097575126025356423 0.0018119425723736125 0 0.0097201752691460849 0.0027209359561468842 0 0.0097575126025356423 0.0018119425723736125 0 0.0097201752691460849 0.0027209359561468842 0 0.010429408662750377 0.0026174543340068751 0 0.0051685668668211464 0.0014390876412515162 0 0.0059671591449262625 0.0020855005858118696 0 0.0014065254260283281 0.00033144734007174324 0 0.0014360437069399542 0.00018486326461254353 0 0.0016730184416480314 0.00040343800715175 0 0.0091479470759234637 0.0018994253518660291 0 0.0097201752691460849 0.0027209359561468842 0 0.0087637206558985135 0.0025244729250419044 0 0.0015860055688821149 0.00013800963849326374 0 0.0014360437069399542 0.00018486326461254353 0 0.0016730184416480314 0.00040343800715175 0 0.0020769846504940293 3.8773457367836627e-05 0 0.0059671591449262625 0.0020855005858118696 0 0.0015860055688821149 0.00013800963849326374 0 0.0014360437069399542 0.00018486326461254353 0 0.0013399407439366232 5.5941883102084561e-05 0 0.0014065254260283281 0.00033144734007174324 0 0.0014360437069399542 0.00018486326461254353 0 0.0013019305712215195 0.00016684930727826392 0 0.0014360437069399542 0.00018486326461254353 0 0.0013019305712215195 0.00016684930727826392 0 0.0013399407439366232 5.5941883102084561e-05 0 0.0071350365229208516 0.0013777118302230338 0 0.0032615893536918571 0.00024439809247510966 0 0.0014065254260283281 0.00033144734007174324 0 0.0013019305712215195 0.00016684930727826392 0 0.0012057864510464471 0.00027095599965763594 0 0.0013019305712215195 0.00016684930727826392 0 0.0012057864510464471 0.00027095599965763594 0 0.001178309005508409 2.1069149357541364e-05 0 0.0058560065755039045 0.0011677924430209552 0 0.005576915984382624 0.00082785054538047004 0 0.0058437039410972535 0.00071623196797360308 0 0.0058560065755039045 0.0011677924430209552 0 0.005576915984382624 0.00082785054538047004 0 0.0053279106772223511 0.0010726447213418805 0 0.0071350365229208516 0.0013777118302230338 0 0.0087595437298538109 0.0018829501642370434 0 0.010856718132198077 0.002009818633401648 0 0.011077534607033894 0.0021124526323238538 0 0.010828138764428029 0.0022766842588274969 0 0.011077534607033894 0.0021124526323238538 0 0.010828138764428029 0.0022766842588274969 0 0.011234036227232175 0.0023343727802104942 0 0.010691079185526061 0.0022417572936139331 0 0.010429408662750377 0.0026174543340068751 0 0.010674571166479699 0.0028478447616801313 0 0.011007428319225177 0.0023463349920323749 0 0.0071350365229208516 0.0013777118302230338 0 0.0051685668668211464 0.0014390876412515162 0 0.0071350365229208516 0.0013777118302230338 0 0.0097201752691460849 0.0027209359561468842 0 0.010429408662750377 0.0026174543340068751 0 0.010674571166479699 0.0028478447616801313 0 0.0069524177445116023 0.0022659783281191379 0 0.0063613204627392681 0.002203532398507574 0 0.0060044997086297651 0.0026698124595878419 0 0.0054227526819941776 0.0027094723489740104 0 0.0059726247111239125 0.0027028516447398375 0 0.0069524177445116023 0.0022659783281191379 0 0.0075663481384889422 0.0029087531425425611 0 0.0060044997086297651 0.0026698124595878419 0 0.0069524177445116023 0.0022659783281191379 0 0.0071275535126910051 0.0017157210487991751 0 0.0063613204627392681 0.002203532398507574 0 0.0069524177445116023 0.0022659783281191379 0 0.0071275535126910051 0.0017157210487991751 0 0.0077789516529748297 0.001960597965493663 0 0.0077219978464696908 0.0014643130849823563 0 0.0071275535126910051 0.0017157210487991751 0 0.0077789516529748297 0.001960597965493663 0 0.0069524177445116023 0.0022659783281191379 0 0.0077789516529748297 0.001960597965493663 0 0.0075663481384889422 0.0029087531425425611 0 0.0077789516529748297 0.001960597965493663 0 0.0075663481384889422 0.0029087531425425611 0 0.0082233563044723425 0.0023421699928228078 0 0.0075663481384889422 0.0029087531425425611 0 0.0082233563044723425 0.0023421699928228078 0 0.0085338832337137158 0.0030383615796457713 0 0.0054227526819941776 0.0027094723489740104 0 0.0056671926143727338 0.0022948446164875614 0 0.0084542041760191176 0.0029413488163048877 0 0.0056671926143727338 0.0022948446164875614 0 0.0082233563044723425 0.0023421699928228078 0 0.0086343966915667647 0.0023751749287376674 0 0.0084344534208795358 0.0027571220749938942 0 0.0081828884565722584 0.0014853117133157066 0 0.0077789516529748297 0.001960597965493663 0 0.0084742692737601356 0.0019138588371816834 0 0.0077789516529748297 0.001960597965493663 0 0.0082233563044723425 0.0023421699928228078 0 0.0084742692737601356 0.0019138588371816834 0 0.0082233563044723425 0.0023421699928228078 0 0.0084742692737601356 0.0019138588371816834 0 0.0086343966915667647 0.0023751749287376674 0 0.0085387716536750452 0.001484764048183735 0 0.0084742692737601356 0.0019138588371816834 0 0.0089716577185687922 0.001949719673648583 0 0.0084742692737601356 0.0019138588371816834 0 0.0089716577185687922 0.001949719673648583 0 0.0086343966915667647 0.0023751749287376674 0 0.0086343966915667647 0.0023751749287376674 0 0.0090121495833730501 0.0028762355765856304 0 0.0084344534208795358 0.0027571220749938942 0 0.0089716577185687922 0.001949719673648583 0 0.0086343966915667647 0.0023751749287376674 0 0.0090121495833730501 0.0028762355765856304 0 0.0092123159157055361 0.001786603277882573 0 0.0059671591449262625 0.0020855005858118696 0 0.0033087731806440658 0.0021263280064454191 0 0.0038343631795932742 0.0005518159647183396 0 0.0047601283921674242 0.0024147827110278237 0 0.0059671591449262625 0.0020855005858118696 0 0.0056671926143727338 0.0022948446164875614 0 0.0021880647654730512 0.00032713233149954537 0 0.0056671926143727338 0.0022948446164875614 0 0.0031118237280180734 0.00041053265901605106 0 0.0033087731806440658 0.0021263280064454191 0 0.0038343631795932742 0.0005518159647183396 0 0.0011946253115688336 0.0003881998719204449 0 0.0019558616643134239 0.00031101496774477269 0 0.001684316810573526 0.002012020423800494 0 0.0019558616643134239 0.00031101496774477269 0 0.001684316810573526 0.002012020423800494 0 0.002797485918418044 0.0011158481471570125 0 0.0034857907034465487 0.0025716169601815958 0 0.002797485918418044 0.0011158481471570125 0 0.0050397241774450202 0.0011587362514054215 0 0.0034857907034465487 0.0025716169601815958 0 0.001684316810573526 0.002012020423800494 0 0.002797485918418044 0.0011158481471570125 0 0.0019558616643134239 0.00031101496774477269 0 0.002797485918418044 0.0011158481471570125 0 0.0024014554318960331 -0.00015153532206450026 0 0.002797485918418044 0.0011158481471570125 0 0.0050397241774450202 0.0011587362514054215 0 0.0024014554318960331 -0.00015153532206450026 0 0.0021294677207265317 -8.115326750197489e-05 0 0.0020668318404929169 0.00016480397399676376 0 0.0022839137661874649 -5.6723864241854562e-06 0 0.0021294677207265317 -8.115326750197489e-05 0 0.0020668318404929169 0.00016480397399676376 0 0.0024014554318960331 -0.00015153532206450026 0 0.0035406698009237971 0.00072099369804340353 0 0.0025459820708876352 -8.4752121176280413e-05 0 0.0034857907034465487 0.0025716169601815958 0 0.0050397241774450202 0.0011587362514054215 0 0.0060044997086297651 0.0026698124595878419 0 0.0019059934815292422 -0.00028282351986369726 0 0.0021018662953169393 -0.00015629386174315335 0 0.0017026899588994545 -0.00031570203693627322 0 0.0019059934815292422 -0.00028282351986369726 0 0.0020620183111301951 -0.00017727916492587899 0 0.0021018662953169393 -0.00015629386174315335 0 0.0019059934815292422 -0.00028282351986369726 0 0.0020620183111301951 -0.00017727916492587899 0 0.0021091921338650182 -0.00021421679561735974 0 0.0021294677207265317 -8.115326750197489e-05 0 0.0020620183111301951 -0.00017727916492587899 0 0.0021091921338650182 -0.00021421679561735974 0 0.0021294677207265317 -8.115326750197489e-05 0 0.0020620183111301951 -0.00017727916492587899 0 0.0021018662953169393 -0.00015629386174315335 0 0.0021294677207265317 -8.115326750197489e-05 0 0.0021018662953169393 -0.00015629386174315335 0 0.0024014554318960331 -0.00015153532206450026 0 0.0019558616643134239 0.00031101496774477269 0 0.0024014554318960331 -0.00015153532206450026 0 0.0020806856278932028 -0.00022966595138311738 0 0.0021018662953169393 -0.00015629386174315335 0 0.0024014554318960331 -0.00015153532206450026 0 0.0020806856278932028 -0.00022966595138311738 0 0.0021018662953169393 -0.00015629386174315335 0 0.0019711700899409748 -0.00063213353880802565 0 0.0020806856278932028 -0.00022966595138311738 0 0.0021018662953169393 -0.00015629386174315335 0 0.0017026899588994545 -0.00031570203693627322 0 0.0014050315502171526 -0.00024723451177907819 0 0.0020326031049144235 -0.00020045169857549238 0 0.0016888477027634887 -0.00043778966234070177 0 0.0019711700899409748 -0.00063213353880802565 0 0.0015801151542025283 -0.00028405701225979739 0 0.0020806856278932028 -0.00022966595138311738 0 0.0019711700899409748 -0.00063213353880802565 0 0.0015801151542025283 -0.00028405701225979739 0 0.0013678864828666477 -0.00069815585805288157 0 0.0011946253115688336 0.0003881998719204449 0 0.0019558616643134239 0.00031101496774477269 0 0.0015801151542025283 -0.00028405701225979739 0 0.0019558616643134239 0.00031101496774477269 0 0.0015801151542025283 -0.00028405701225979739 0 0.0020806856278932028 -0.00022966595138311738 0 0.0031118237280180734 0.00041053265901605106 0 0.0038343631795932742 0.0005518159647183396 0 0.0029059678683049876 -0.0012743983191424448 0 0.0011946253115688336 0.0003881998719204449 0 0.0015801151542025283 -0.00028405701225979739 0 0.00098435900780008629 -0.00044679057745953979 0 0.0021880647654730512 0.00032713233149954537 0 0.0017229275870781944 -0.00047769000468219009 0 0.0015801151542025283 -0.00028405701225979739 0 0.0013678864828666477 -0.00069815585805288157 0 0.00098435900780008629 -0.00044679057745953979 0 0.0013678864828666477 -0.00069815585805288157 0 0.0014054189263152373 -0.0011294129925686672 0 0.00095780254648265156 -0.0010030312396364421 0 0.0019711700899409748 -0.00063213353880802565 0 0.0013678864828666477 -0.00069815585805288157 0 0.0014054189263152373 -0.0011294129925686672 0 0.0011194329721536558 -0.0003613793980359789 0 0.0010865834861993333 -0.0004291639164633903 0 0.0010396532645427774 -0.0004280868136035116 0 0.0012304868029403685 -0.00081733116657990387 0 0.0010359002373738538 -0.0005148730907364676 0 0.0011194329721536558 -0.0003613793980359789 0 0.0010865834861993333 -0.0004291639164633903 0 0.0012193965553714439 -0.00043382511962201036 0 0.0010865834861993333 -0.0004291639164633903 0 0.0012193965553714439 -0.00043382511962201036 0 0.0010999084118256579 -0.00045978472097777615 0 0.0012193965553714439 -0.00043382511962201036 0 0.0014093570486660022 -0.00043773780369366257 0 0.0012410076253972964 -0.00048236123340343574 0 0.0016888477027634887 -0.00043778966234070177 0 0.0012304868029403685 -0.00081733116657990387 0 0.0014050315502171526 -0.00024723451177907819 0 0.0011194329721536558 -0.0003613793980359789 0 0.0012193965553714439 -0.00043382511962201036 0 0.0014050315502171526 -0.00024723451177907819 0 0.0012193965553714439 -0.00043382511962201036 0 0.0014093570486660022 -0.00043773780369366257 0 0.0017026899588994545 -0.00031570203693627322 0 0.0014050315502171526 -0.00024723451177907819 0 0.0014093570486660022 -0.00043773780369366257 0 0.0017026899588994545 -0.00031570203693627322 0 0.0014093570486660022 -0.00043773780369366257 0 0.0016298093057033501 -0.00041747872775039368 0 0.0014093570486660022 -0.00043773780369366257 0 0.0016298093057033501 -0.00041747872775039368 0 0.0013829700188183072 -0.00052824078042999041 0 0.0014093570486660022 -0.00043773780369366257 0 0.0012410076253972964 -0.00048236123340343574 0 0.0013829700188183072 -0.00052824078042999041 0 0.0016298093057033501 -0.00041747872775039368 0 0.0017374749680079591 -0.00047497760382209699 0 0.0013829700188183072 -0.00052824078042999041 0 0.0019059934815292422 -0.00028282351986369726 0 0.0016298093057033501 -0.00041747872775039368 0 0.0017374749680079591 -0.00047497760382209699 0 0.0019059934815292422 -0.00028282351986369726 0 0.0017026899588994545 -0.00031570203693627322 0 0.0016298093057033501 -0.00041747872775039368 0 0.0012475510112804767 -8.0510168941693276e-05 0 0.001178309005508409 2.1069149357541364e-05 0 0.0011966941779087505 -0.00014147464711277341 0 0.0032615893536918571 0.00024439809247510966 0 0.0024791836659888906 8.1158639291770899e-05 0 0.0055698050638981894 0.00051391387096334632 0 0.0058282072158160536 0.00028189187296099759 0 0.0054684168247439748 0.00021432243926885512 0 0.0055698050638981894 0.00051391387096334632 0 0.0058437039410972535 0.00071623196797360308 0 0.0058282072158160536 0.00028189187296099759 0 0.0055698050638981894 0.00051391387096334632 0 0.005576915984382624 0.00082785054538047004 0 0.0058437039410972535 0.00071623196797360308 0 0.0013019305712215195 0.00016684930727826392 0 0.001178309005508409 2.1069149357541364e-05 0 0.0013399407439366232 5.5941883102084561e-05 0 0.0012475510112804767 -8.0510168941693276e-05 0 0.001178309005508409 2.1069149357541364e-05 0 0.0013399407439366232 5.5941883102084561e-05 0 0.0012475510112804767 -8.0510168941693276e-05 0 0.0013399407439366232 5.5941883102084561e-05 0 0.0013741506019340664 -4.0962884093569571e-05 0 0.0020769846504940293 3.8773457367836627e-05 0 0.0017229275870781944 -0.00047769000468219009 0 0.0015860055688821149 0.00013800963849326374 0 0.0013741506019340664 -4.0962884093569571e-05 0 0.0014763690852626142 -9.7975223111325662e-05 0 0.0015860055688821149 0.00013800963849326374 0 0.0013399407439366232 5.5941883102084561e-05 0 0.0013741506019340664 -4.0962884093569571e-05 0 0.0017229275870781944 -0.00047769000468219009 0 0.00095831938559391456 -0.00066348459646374709 0 0.0010334597840912425 -0.00035251233513941511 0 0.001069084742469152 -0.00025880697865568621 0 0.0010363824796153316 -0.00022490797534099107 0 0.0013678864828666477 -0.00069815585805288157 0 0.00098435900780008629 -0.00044679057745953979 0 0.00095780254648265156 -0.0010030312396364421 0 0.0013741506019340664 -4.0962884093569571e-05 0 0.0014763690852626142 -9.7975223111325662e-05 0 0.0012882885198644551 -0.00016718648957995209 0 0.0014763690852626142 -9.7975223111325662e-05 0 0.0012882885198644551 -0.00016718648957995209 0 0.00130439197009465 -0.00023243449615516191 0 0.0017229275870781944 -0.00047769000468219009 0 0.001199790826579804 -0.00022702134640491224 0 0.0012475510112804767 -8.0510168941693276e-05 0 0.0013741506019340664 -4.0962884093569571e-05 0 0.0012882885198644551 -0.00016718648957995209 0 0.00075033285052026775 -0.00030356965286674581 0 0.0024791836659888906 8.1158639291770899e-05 0 0.0012475510112804767 -8.0510168941693276e-05 0 0.0012882885198644551 -0.00016718648957995209 0 0.0011966941779087505 -0.00014147464711277341 0 0.0012238967844324287 -0.00029131391594013577 0 0.0012090495414249665 -0.00023498354993095757 0 0.0011537840788125504 -0.00022668520707477135 0 0.0012882885198644551 -0.00016718648957995209 0 0.0012238967844324287 -0.00029131391594013577 0 0.0012101590571857515 -0.0003803284039775588 0 0.0012882885198644551 -0.00016718648957995209 0 0.0012090495414249665 -0.00023498354993095757 0 0.00130439197009465 -0.00023243449615516191 0 0.0012882885198644551 -0.00016718648957995209 0 0.0012238967844324287 -0.00029131391594013577 0 0.0012090495414249665 -0.00023498354993095757 0 0.0012090495414249665 -0.00023498354993095757 0 0.0011537840788125504 -0.00022668520707477135 0 0.0011046734124475872 -0.0001655805532317325 0 0.0012090495414249665 -0.00023498354993095757 0 0.00130439197009465 -0.00023243449615516191 0 0.0011046734124475872 -0.0001655805532317325 0 0.0011537840788125504 -0.00022668520707477135 0 0.0011026272054178766 -0.00012403466281516199 0 0.001180841459201436 -0.00029545796308229707 0 0.0012238967844324287 -0.00029131391594013577 0 0.0011537840788125504 -0.00022668520707477135 0 0.001180841459201436 -0.00029545796308229707 0 0.001069084742469152 -0.00025880697865568621 0 0.0010363824796153316 -0.00022490797534099107 0 0.0011046734124475872 -0.0001655805532317325 0 0.001199790826579804 -0.00022702134640491224 0 0.0011444821089334448 -0.00017496784869861136 0 0.0014054189263152373 -0.0011294129925686672 0 0.00095780254648265156 -0.0010030312396364421 0 0.00090747512384667904 -0.0015419189315810618 0 0.0010363824796153316 -0.00022490797534099107 0 0.0010654966084800298 -8.5222475338402487e-05 0 0.0011046734124475872 -0.0001655805532317325 0 0.00095831938559391456 -0.00066348459646374709 0 0.0010359002373738538 -0.0005148730907364676 0 0.0010654966084800298 -8.5222475338402487e-05 0 0.0011046734124475872 -0.0001655805532317325 0 0.001050776288739835 -5.2824248265985902e-05 0 0.0011026272054178766 -0.00012403466281516199 0 0.0011046734124475872 -0.0001655805532317325 0 0.001050776288739835 -5.2824248265985902e-05 0 0.0011537840788125504 -0.00022668520707477135 0 0.0011026272054178766 -0.00012403466281516199 0 0.0011046734124475872 -0.0001655805532317325 0 0.0011026272054178766 -0.00012403466281516199 0 0.001050776288739835 -5.2824248265985902e-05 0 0.0010741227676898889 0.00017283014504184416 0 0.0011026272054178766 -0.00012403466281516199 0 0.0010741227676898889 0.00017283014504184416 0 0.0013051744701638717 -0.00015229702338801412 0 0.0011026272054178766 -0.00012403466281516199 0 0.0013051744701638717 -0.00015229702338801412 0 0.001180841459201436 -0.00029545796308229707 0 0.001180841459201436 -0.00029545796308229707 0 0.0012927230084999021 -0.00046527781583973247 0 0.0012256932602893321 -0.00036870579446266936 0 0.0013051744701638717 -0.00015229702338801412 0 0.001180841459201436 -0.00029545796308229707 0 0.0012927230084999021 -0.00046527781583973247 0 0.0012927230084999021 -0.00046527781583973247 0 0.0012101590571857515 -0.0003803284039775588 0 0.0012256932602893321 -0.00036870579446266936 0 0.0020120778975688484 -0.00041200009292384894 0 0.0024791836659888906 8.1158639291770899e-05 0 0.0012238967844324287 -0.00029131391594013577 0 0.001180841459201436 -0.00029545796308229707 0 0.0012256932602893321 -0.00036870579446266936 0 0.0012238967844324287 -0.00029131391594013577 0 0.0012101590571857515 -0.0003803284039775588 0 0.0012256932602893321 -0.00036870579446266936 0 0.0012927230084999021 -0.00046527781583973247 0 0.0013099240752097606 -0.00084349403731507537 0 0.0023974482673775272 -0.0007969828645478605 0 0.0012927230084999021 -0.00046527781583973247 0 0.0018700344483441236 -0.00015097588724731378 0 0.0023974482673775272 -0.0007969828645478605 0 0.0024791836659888906 8.1158639291770899e-05 0 0.0041514844125088565 -0.00028744074929599875 0 0.0010741227676898889 0.00017283014504184416 0 0.0018700344483441236 -0.00015097588724731378 0 0.0027274054587343188 0.00048495197603819765 0 0.0013051744701638717 -0.00015229702338801412 0 0.0012927230084999021 -0.00046527781583973247 0 0.0018700344483441236 -0.00015097588724731378 0 0.0010741227676898889 0.00017283014504184416 0 0.0013051744701638717 -0.00015229702338801412 0 0.0018700344483441236 -0.00015097588724731378 0 0.0018700344483441236 -0.00015097588724731378 0 0.0023974482673775272 -0.0007969828645478605 0 0.0027274054587343188 0.00048495197603819765 0 0.0035493506050882726 -0.00053745882755272349 0 0.0023974482673775272 -0.0007969828645478605 0 0.0027274054587343188 0.00048495197603819765 0 0.0035493506050882726 -0.00053745882755272349 0 0.0027274054587343188 0.00048495197603819765 0 0.0040545100049800987 0.00028022052919781201 0 0.0042532232895815241 -0.00021972933091503989 0 0.0041514844125088565 -0.00028744074929599875 0 0.0051044919769501866 9.5096052809330014e-05 0 0.0054684168247439748 0.00021432243926885512 0 0.0052613016262031262 0.00036940093827617733 0 0.0055698050638981894 0.00051391387096334632 0 0.0052613016262031262 0.00036940093827617733 0 0.0052786294406137052 0.00067097512014664207 0 0.0055698050638981894 0.00051391387096334632 0 0.0054684168247439748 0.00021432243926885512 0 0.0052613016262031262 0.00036940093827617733 0 0.0051044919769501866 9.5096052809330014e-05 0 0.0052613016262031262 0.00036940093827617733 0 0.0049589235275298094 0.0005013382371504663 0 0.0052613016262031262 0.00036940093827617733 0 0.0049589235275298094 0.0005013382371504663 0 0.0052786294406137052 0.00067097512014664207 0 0.0052786294406137052 0.00067097512014664207 0 0.0048695422388335772 0.00073938342860600326 0 0.0053279106772223511 0.0010726447213418805 0 0.0049589235275298094 0.0005013382371504663 0 0.0052786294406137052 0.00067097512014664207 0 0.0048695422388335772 0.00073938342860600326 0 0.0055698050638981894 0.00051391387096334632 0 0.005576915984382624 0.00082785054538047004 0 0.0052786294406137052 0.00067097512014664207 0 0.005576915984382624 0.00082785054538047004 0 0.0052786294406137052 0.00067097512014664207 0 0.0053279106772223511 0.0010726447213418805 0 0.004911677571653934 0.00081220808712444603 0 0.0058433844181589693 0.00081953838466198529 0 0.0047816552743134202 0.0004924051832127706 0 0.004911677571653934 0.00081220808712444603 0 0.0051125665366037231 0.00083592957646877659 0 0.0058433844181589693 0.00081953838466198529 0 0.004911677571653934 0.00081220808712444603 0 0.004650117426409273 0.00057774062041224033 0 0.0051125665366037231 0.00083592957646877659 0 0.004911677571653934 0.00081220808712444603 0 0.0048695422388335772 0.00073938342860600326 0 0.0047816552743134202 0.0004924051832127706 0 0.0049589235275298094 0.0005013382371504663 0 0.0048695422388335772 0.00073938342860600326 0 0.0048591718734081191 0.00066637274517356417 0 0.0050562985134689174 0.0011543163071869886 0 0.0072181769229138779 0.00097926409273233882 0 0.004911677571653934 0.00081220808712444603 0 0.0048591718734081191 0.00066637274517356417 0 0.0047154533798715341 0.00052323635065445247 0 0.004911677571653934 0.00081220808712444603 0 0.0048695422388335772 0.00073938342860600326 0 0.0048591718734081191 0.00066637274517356417 0 0.0049589235275298094 0.0005013382371504663 0 0.0048591718734081191 0.00066637274517356417 0 0.0047154533798715341 0.00052323635065445247 0 0.0051044919769501866 9.5096052809330014e-05 0 0.0049589235275298094 0.0005013382371504663 0 0.0047282978559986723 0.00026081237201940039 0 0.0049589235275298094 0.0005013382371504663 0 0.0047154533798715341 0.00052323635065445247 0 0.0047282978559986723 0.00026081237201940039 0 0.0047154533798715341 0.00052323635065445247 0 0.0043731383112031418 0.0002309968388579326 0 0.0047282978559986723 0.00026081237201940039 0 0.0047154533798715341 0.00052323635065445247 0 0.004650117426409273 0.00057774062041224033 0 0.0043731383112031418 0.0002309968388579326 0 0.004911677571653934 0.00081220808712444603 0 0.0047154533798715341 0.00052323635065445247 0 0.004650117426409273 0.00057774062041224033 0 0.004650117426409273 0.00057774062041224033 0 0.0043731383112031418 0.0002309968388579326 0 0.0040833052268927847 0.00036331141755893134 0 0.004373661391961864 -0.00012580133634258875 0 0.0043731383112031418 0.0002309968388579326 0 0.0039237885901107251 -4.5418646206168312e-05 0 0.004373661391961864 -0.00012580133634258875 0 0.0043731383112031418 0.0002309968388579326 0 0.0047282978559986723 0.00026081237201940039 0 0.0042532232895815241 -0.00021972933091503989 0 0.0043733810340159038 -0.00014831735588895971 0 0.0051044919769501866 9.5096052809330014e-05 0 0.004373661391961864 -0.00012580133634258875 0 0.0047282978559986723 0.00026081237201940039 0 0.0035493506050882726 -0.00053745882755272349 0 0.004373661391961864 -0.00012580133634258875 0 0.0040545100049800987 0.00028022052919781201 0 0.004373661391961864 -0.00012580133634258875 0 0.0040933300054630112 -0.00013016530147294555 0 0.0040545100049800987 0.00028022052919781201 0 0.004373661391961864 -0.00012580133634258875 0 0.0040933300054630112 -0.00013016530147294555 0 0.0039237885901107251 -4.5418646206168312e-05 0 0.0040933300054630112 -0.00013016530147294555 0 0.0039237885901107251 -4.5418646206168312e-05 0 0.0037037891553820803 -0.00028381109421668976 0 0.0039237885901107251 -4.5418646206168312e-05 0 0.0037037891553820803 -0.00028381109421668976 0 0.0031124594445702826 -0.00031999139311521117 0 0.0033163125330889737 0.00023549963361258695 0 0.0018872354410831393 -9.3254193641211605e-06 0 0.0031124594445702826 -0.00031999139311521117 0 0.0039237885901107251 -4.5418646206168312e-05 0 0.0033163125330889737 0.00023549963361258695 0 0.0031124594445702826 -0.00031999139311521117 0 0.0039237885901107251 -4.5418646206168312e-05 0 0.0033163125330889737 0.00023549963361258695 0 0.0040833052268927847 0.00036331141755893134 0 0.0043731383112031418 0.0002309968388579326 0 0.0039237885901107251 -4.5418646206168312e-05 0 0.0040833052268927847 0.00036331141755893134 0 0.00057050813648582476 1.1523822739763443e-06 0 0.0018872354410831393 -9.3254193641211605e-06 0 0.0026532883041152822 0.00027256268214701526 0 0.0033163125330889737 0.00023549963361258695 0 0.0018872354410831393 -9.3254193641211605e-06 0 0.0026532883041152822 0.00027256268214701526 0 0.00057050813648582476 1.1523822739763443e-06 0 0.0026532883041152822 0.00027256268214701526 0 0.0025850720697645846 4.3714923642553173e-07 0 0.0026532883041152822 0.00027256268214701526 0 0.0025850720697645846 4.3714923642553173e-07 0 0.0035455602907624923 0.00034397717562583449 0 0.0026532883041152822 0.00027256268214701526 0 0.0035455602907624923 0.00034397717562583449 0 0.0037805329941105275 0.00051479859236600912 0 0.0035455602907624923 0.00034397717562583449 0 0.0037805329941105275 0.00051479859236600912 0 0.0043070607750206377 0.0005273605776922952 0 0.0035455602907624923 0.00034397717562583449 0 0.0045984170948199692 8.6643351341569846e-07 0 0.0043070607750206377 0.0005273605776922952 0 0.0025850720697645846 4.3714923642553173e-07 0 0.0035455602907624923 0.00034397717562583449 0 0.0045984170948199692 8.6643351341569846e-07 0 0.0040833052268927847 0.00036331141755893134 0 0.0037805329941105275 0.00051479859236600912 0 0.0043340736495370378 0.00054518497981322382 0 0.004650117426409273 0.00057774062041224033 0 0.0040833052268927847 0.00036331141755893134 0 0.0043340736495370378 0.00054518497981322382 0 0.0033163125330889737 0.00023549963361258695 0 0.0040833052268927847 0.00036331141755893134 0 0.0037805329941105275 0.00051479859236600912 0 0.0033163125330889737 0.00023549963361258695 0 0.0026532883041152822 0.00027256268214701526 0 0.0037805329941105275 0.00051479859236600912 0 0.0037805329941105275 0.00051479859236600912 0 0.0041906266747722817 0.00066893666727696878 0 0.0043340736495370378 0.00054518497981322382 0 0.0037805329941105275 0.00051479859236600912 0 0.0041906266747722817 0.00066893666727696878 0 0.0043070607750206377 0.0005273605776922952 0 0.0041906266747722817 0.00066893666727696878 0 0.0043340736495370378 0.00054518497981322382 0 0.0051125665366037231 0.00083592957646877659 0 0.0041906266747722817 0.00066893666727696878 0 0.0051125665366037231 0.00083592957646877659 0 0.0041880774704447336 0.00066171267739632258 0 0.004650117426409273 0.00057774062041224033 0 0.0043340736495370378 0.00054518497981322382 0 0.0051125665366037231 0.00083592957646877659 0 0.0053507315850971123 0.00078283659011972324 0 0.0059511126566960271 0.0007414894999543221 0 0.0058433844181589693 0.00081953838466198529 0 0.0066437243726193704 0.00088758762050580766 0 0.0063607474314452397 0.00088391187180162105 0 0.0058433844181589693 0.00081953838466198529 0 0.0066437243726193704 0.00088758762050580766 0 0.0076212882300445697 0.0010513028414735053 0 0.0051125665366037231 0.00083592957646877659 0 0.0058433844181589693 0.00081953838466198529 0 0.0076212882300445697 0.0010513028414735053 0 0.0066437243726193704 0.00088758762050580766 0 0.0076212882300445697 0.0010513028414735053 0 0.0071971062492212374 0.0004752399009295055 0 0.0041906266747722817 0.00066893666727696878 0 0.0041880774704447336 0.00066171267739632258 0 0.0043070607750206377 0.0005273605776922952 0 0.0041880774704447336 0.00066171267739632258 0 0.0043070607750206377 0.0005273605776922952 0 0.0046905154790499188 8.8320734321419543e-05 0 0.0076212882300445697 0.0010513028414735053 0 0.0082544249193057789 0.00015608591701007349 0 0.0092275649680245014 0.00024623134716199546 0 0.0059511126566960271 0.0007414894999543221 0 0.0069544850183831238 0.00017607985256769927 0 0.0076212882300445697 0.0010513028414735053 0 0.0082544249193057789 0.00015608591701007349 0 0.0071971062492212374 0.0004752399009295055 0 0.0082544249193057789 0.00015608591701007349 0 0.0071971062492212374 0.0004752399009295055 0 0.0077411831986162047 -0.00037167527348862619 0 0.0066437243726193704 0.00088758762050580766 0 0.0071971062492212374 0.0004752399009295055 0 0.0064575608521260548 0.0009076504515105364 0 0.0045984170948199692 8.6643351341569846e-07 0 0.0043070607750206377 0.0005273605776922952 0 0.0052893599715947079 0.00021252509529544452 0 0.0046905154790499188 8.8320734321419543e-05 0 0.0052893599715947079 0.00021252509529544452 0 0.0061919265162497421 -0.00027529122956778285 0 0.0043070607750206377 0.0005273605776922952 0 0.0046905154790499188 8.8320734321419543e-05 0 0.0052893599715947079 0.00021252509529544452 0 0.0045984170948199692 8.6643351341569846e-07 0 0.0052893599715947079 0.00021252509529544452 0 0.0066123900348075597 3.2858114873909446e-07 0 0.0052893599715947079 0.00021252509529544452 0 0.0066123900348075597 3.2858114873909446e-07 0 0.0061919265162497421 -0.00027529122956778285 0 0.0066123900348075597 3.2858114873909446e-07 0 0.0061919265162497421 -0.00027529122956778285 0 0.0086248502079777113 -1.4165499734355278e-06 0 0.0069544850183831238 0.00017607985256769927 0 0.0078854034761353005 -0.00027100255826510705 0 0.0092275649680245014 0.00024623134716199546 0 0.0097250466060468041 -0.00056876608884403679 0 0.0094246446835610474 -0.00042118392255752012 0 0.0097250466060468041 -0.00056876608884403679 0 0.010147554554891372 -0.00038102349529589482 0 0.0094246446835610474 -0.00042118392255752012 0 0.0078854034761353005 -0.00027100255826510705 0 0.0086264291685875134 6.4761777387588241e-08 0 0.0097250466060468041 -0.00056876608884403679 0 0.010147554554891372 -0.00038102349529589482 0 0.008631030143510094 -1.5265837570531962e-06 0 0.0082544249193057789 0.00015608591701007349 0 0.0077411831986162047 -0.00037167527348862619 0 0.0094246446835610474 -0.00042118392255752012 0 0.0082544249193057789 0.00015608591701007349 0 0.0092275649680245014 0.00024623134716199546 0 0.0094246446835610474 -0.00042118392255752012 0 0.010147554554891372 -0.00038102349529589482 0 0.0094246446835610474 -0.00042118392255752012 0 0.0094073069834164913 -0.00065867312316988328 0 0.0077411831986162047 -0.00037167527348862619 0 0.0094246446835610474 -0.00042118392255752012 0 0.0094073069834164913 -0.00065867312316988328 0 0.0097947409332932566 -0.00027811377526917402 0 0.010520559531818132 -0.00022567731072234583 0 0.012000405262626223 0.00015566997008212898 0 0.011873350852444209 -5.5085106067270335e-05 0 0.011753378830430964 -4.9080350542443594e-05 0 0.012000405262626223 0.00015566997008212898 0 0.011873350852444209 -5.5085106067270335e-05 0 0.012066511405571578 -8.2039870231708683e-06 0 0.0097947409332932566 -0.00027811377526917402 0 0.0095768898407813351 0.0010397844610064186 0 0.011873350852444209 -5.5085106067270335e-05 0 0.012066511405571578 -8.2039870231708683e-06 0 0.011956498587499548 -0.00016440894743307213 0 0.01164507167011207 0.0019382278360836219 0 0.01147681021929386 0.0018891336076114732 0 0.011496609081314422 0.0021566430750895862 0 0.012104776557061872 0.0010760505249280124 0 0.0095768898407813351 0.0010397844610064186 0 0.01164507167011207 0.0019382278360836219 0 0.011610875962503786 0.0016505641689718053 0 0.01147681021929386 0.0018891336076114732 0 0.012000405262626223 0.00015566997008212898 0 0.012066511405571578 -8.2039870231708683e-06 0 0.012150389913234408 0.00023894707275769344 0 0.012104776557061872 0.0010760505249280124 0 0.011831237600288914 0.00090172332519203899 0 0.011610875962503786 0.0016505641689718053 0 0.011279813075627254 0.0016798663950265921 0 0.01147681021929386 0.0018891336076114732 0 0.011041036786211759 0.0018901195008034233 0 0.011279813075627254 0.0016798663950265921 0 0.011240704964086535 0.0019453798963703977 0 0.011279813075627254 0.0016798663950265921 0 0.011240704964086535 0.0019453798963703977 0 0.01147681021929386 0.0018891336076114732 0 0.011077534607033894 0.0021124526323238538 0 0.011240704964086535 0.0019453798963703977 0 0.011301086318135053 0.0021134754914588312 0 0.011041036786211759 0.0018901195008034233 0 0.011077534607033894 0.0021124526323238538 0 0.011240704964086535 0.0019453798963703977 0 0.011240704964086535 0.0019453798963703977 0 0.01147681021929386 0.0018891336076114732 0 0.011301086318135053 0.0021134754914588312 0 0.01147681021929386 0.0018891336076114732 0 0.011301086318135053 0.0021134754914588312 0 0.011496609081314422 0.0021566430750895862 0 0.011301086318135053 0.0021134754914588312 0 0.011234036227232175 0.0023343727802104942 0 0.011496609081314422 0.0021566430750895862 0 0.011077534607033894 0.0021124526323238538 0 0.011301086318135053 0.0021134754914588312 0 0.011234036227232175 0.0023343727802104942 0 0.0048695422388335772 0.00073938342860600326 0 0.0053279106772223511 0.0010726447213418805 0 0.00474673075826503 0.00095715921061623546 0 0.011234036227232175 0.0023343727802104942 0 0.011580701891757091 0.0023713120646252075 0 0.011496609081314422 0.0021566430750895862 0 0.0087595437298538109 0.0018829501642370434 0 0.0072181769229138779 0.00097926409273233882 0 0.0072181769229138779 0.00097926409273233882 0 0.0095768898407813351 0.0010397844610064186 0 0.0053012147565739756 0.00064387772952049008 0 0.0072181769229138779 0.00097926409273233882 0 0.0069267444127892814 0.00069868284604226462 0 0.0063607474314452397 0.00088391187180162105 0 0.0064575608521260548 0.0009076504515105364 0 0.0069267444127892814 0.00069868284604226462 0 0.0064575608521260548 0.0009076504515105364 0 0.0065727857303383786 0.0011024545369462007 0 0.0058433844181589693 0.00081953838466198529 0 0.0069267444127892814 0.00069868284604226462 0 0.0063607474314452397 0.00088391187180162105 0 0.0066437243726193704 0.00088758762050580766 0 0.0063607474314452397 0.00088391187180162105 0 0.0064575608521260548 0.0009076504515105364 0 0.0071971062492212374 0.0004752399009295055 0 0.0077411831986162047 -0.00037167527348862619 0 0.0063637067812374023 0.00050742281173039177 0 0.0078572981752221913 0.00026890177102109933 0 0.0095768898407813351 0.0010397844610064186 0 0.0071971062492212374 0.0004752399009295055 0 0.0064575608521260548 0.0009076504515105364 0 0.0063637067812374023 0.00050742281173039177 0 0.011580701891757091 0.0023713120646252075 0 0.011722646585594914 0.0021750513223788219 0 0.011496609081314422 0.0021566430750895862 0 0.01164507167011207 0.0019382278360836219 0 0.011722646585594914 0.0021750513223788219 0 0.011496609081314422 0.0021566430750895862 0 -0.0012116394409402095 -0.0031525451059320553 0 -0.0011927066572294904 -0.0031482815429218301 0 -0.0014035580856723007 -0.002889002776567764 0 0.0038067131803426286 -0.0017379961049587829 0 0.0037902020808716357 -0.0017113347068915131 0 0.0037939830757028415 -0.0017741238317121879 0 0.0038067131803426286 -0.0017379961049587829 0 0.0037902020808716357 -0.0017113347068915131 0 0.0038108798084301133 -0.0017210310127718381 0 0.0038067131803426286 -0.0017379961049587829 0 0.0038191094755408153 -0.0017352138062617197 0 0.0038108798084301133 -0.0017210310127718381 0 0.0038191094755408153 -0.0017352138062617197 0 0.0038108798084301133 -0.0017210310127718381 0 0.00382800071259695 -0.001720204092087223 0 0.0038191094755408153 -0.0017352138062617197 0 0.00382800071259695 -0.001720204092087223 0 0.0038360484270259379 -0.00173524300883808 0 0.0038191094755408153 -0.0017352138062617197 0 0.0038192848919610307 -0.0017486176041064843 0 0.0038360484270259379 -0.00173524300883808 0 0.0038067131803426286 -0.0017379961049587829 0 0.0038191094755408153 -0.0017352138062617197 0 0.0038192848919610307 -0.0017486176041064843 0 0.0038067131803426286 -0.0017379961049587829 0 0.0038192848919610307 -0.0017486176041064843 0 0.0037939830757028415 -0.0017741238317121879 0 0.0037902020808716357 -0.0017113347068915131 0 0.0038012926627860005 -0.0017107961699362121 0 0.0038108798084301133 -0.0017210310127718381 0 0.0041781053388065294 -0.0019598215353140592 0 0.0041470142955682679 -0.0019671442414816559 0 0.0041610494188887405 -0.0018930154565261084 0 0.0031413572466269229 -0.0017877809527413798 0 0.003216558125656166 -0.0020336719739673516 0 0.0031413572466269229 -0.0017877809527413798 0 0.0048465271665520662 -0.0020022066084865479 0 0.0038012926627860005 -0.0017107961699362121 0 0.0038054581827747869 -0.0017058435629152811 0 0.0038122238977309729 -0.0017103998257846161 0 0.0031413572466269229 -0.0017877809527413798 0 0.0032510959602871487 -0.0017657797797667931 0 0.0037992448550514396 -0.001711714717960408 0 0.0038012926627860005 -0.0017107961699362121 0 0.0038054581827747869 -0.0017058435629152811 0 0.003216558125656166 -0.0020336719739673516 0 0.0048465271665520662 -0.0020022066084865479 0 0.0048909339856325808 -0.0019838313184360038 0 0.0048694936941299869 -0.0022039005833838997 0 0.0049272585623585949 -0.0023701186792696575 0 0.003216558125656166 -0.0020336719739673516 0 0.0066614132438784102 -0.0024730217876314659 0 0.010977649684104271 -0.0029704752321304592 0 0.010951637309339268 -0.0029254464873722181 0 0.011002906649186628 -0.002872409655647102 0 0.0048465271665520662 -0.0020022066084865479 0 0.0066614132438784102 -0.0024730217876314659 0 0.0037992448550514396 -0.001711714717960408 0 0.0038006802135020076 -0.0017037004712625093 0 0.0038054581827747869 -0.0017058435629152811 0 0.0038006802135020076 -0.0017037004712625093 0 0.0038054581827747869 -0.0017058435629152811 0 0.0038109417656578045 -0.0016963751884714546 0 0.0038054581827747869 -0.0017058435629152811 0 0.0038156935208307329 -0.0017022707277946586 0 0.0038109417656578045 -0.0016963751884714546 0 0.0038156935208307329 -0.0017022707277946586 0 0.0038247249536547613 -0.0016921322025106439 0 0.0038109417656578045 -0.0016963751884714546 0 0.0038156935208307329 -0.0017022707277946586 0 0.003825203324872465 -0.0017011117387367748 0 0.0038247249536547613 -0.0016921322025106439 0 0.0038156935208307329 -0.0017022707277946586 0 0.003825203324872465 -0.0017011117387367748 0 0.0038236608084502985 -0.0017087370297427496 0 0.0038156935208307329 -0.0017022707277946586 0 0.0038122238977309729 -0.0017103998257846161 0 0.0038236608084502985 -0.0017087370297427496 0 0.0038054581827747869 -0.0017058435629152811 0 0.0038156935208307329 -0.0017022707277946586 0 0.0038122238977309729 -0.0017103998257846161 0 0.0038012926627860005 -0.0017107961699362121 0 0.0038122238977309729 -0.0017103998257846161 0 0.0038108798084301133 -0.0017210310127718381 0 0.0038122238977309729 -0.0017103998257846161 0 0.0038108798084301133 -0.0017210310127718381 0 0.0038236608084502985 -0.0017087370297427496 0 0.0038236608084502985 -0.0017087370297427496 0 0.0038337103133900831 -0.0017105529251108741 0 0.0038432626004820275 -0.0017076754875519926 0 0.00382800071259695 -0.001720204092087223 0 0.0038337103133900831 -0.0017105529251108741 0 0.003845848083939851 -0.0017132608413527957 0 0.0038108798084301133 -0.0017210310127718381 0 0.00382800071259695 -0.001720204092087223 0 0.0038236608084502985 -0.0017087370297427496 0 0.00382800071259695 -0.001720204092087223 0 0.0038236608084502985 -0.0017087370297427496 0 0.0038337103133900831 -0.0017105529251108741 0 0.003825203324872465 -0.0017011117387367748 0 0.0038236608084502985 -0.0017087370297427496 0 0.0038432626004820275 -0.0017076754875519926 0 0.003825203324872465 -0.0017011117387367748 0 0.0038432626004820275 -0.0017076754875519926 0 0.0038247249536547613 -0.0016921322025106439 0 0.0038432626004820275 -0.0017076754875519926 0 0.0038896299478428167 -0.0017118998529310301 0 0.0038247249536547613 -0.0016921322025106439 0 0.0038599268205694688 -0.0017142816324606737 0 0.0038432626004820275 -0.0017076754875519926 0 0.0038896299478428167 -0.0017118998529310301 0 0.0058549207275333881 -0.0016328978203020606 0 0.0070724433368756189 -0.0019404878277870558 0 0.0088276036467783373 -0.0018348214034729785 0 0.0088184508433354677 -0.0017813125561315141 0 0.0090333277165125566 -0.0019271096129999013 0 0.0038599268205694688 -0.0017142816324606737 0 0.003845848083939851 -0.0017132608413527957 0 0.0038550573680473802 -0.0017243246544455953 0 0.0038599268205694688 -0.0017142816324606737 0 0.0038432626004820275 -0.0017076754875519926 0 0.003845848083939851 -0.0017132608413527957 0 0.0038337103133900831 -0.0017105529251108741 0 0.0038432626004820275 -0.0017076754875519926 0 0.003845848083939851 -0.0017132608413527957 0 0.0038599268205694688 -0.0017142816324606737 0 0.0038896299478428167 -0.0017118998529310301 0 0.0038709605179366572 -0.0017243936797731521 0 0.0038896299478428167 -0.0017118998529310301 0 0.00388469226950252 -0.00174058589483214 0 0.0039184232374537111 -0.0017448700366123177 0 0.0038896299478428167 -0.0017118998529310301 0 0.0038709605179366572 -0.0017243936797731521 0 0.00388469226950252 -0.00174058589483214 0 0.0038709605179366572 -0.0017243936797731521 0 0.00388469226950252 -0.00174058589483214 0 0.0038590605430885139 -0.0017363239620480598 0 0.00388469226950252 -0.00174058589483214 0 0.0038590605430885139 -0.0017363239620480598 0 0.0038530799595906163 -0.0017634236255146243 0 0.00388469226950252 -0.00174058589483214 0 0.0039080440397044032 -0.0017614852007556937 0 0.0039184232374537111 -0.0017448700366123177 0 0.00382800071259695 -0.001720204092087223 0 0.003845848083939851 -0.0017132608413527957 0 0.0038360484270259379 -0.00173524300883808 0 0.003845848083939851 -0.0017132608413527957 0 0.0038360484270259379 -0.00173524300883808 0 0.0038550573680473802 -0.0017243246544455953 0 0.0038360484270259379 -0.00173524300883808 0 0.0038550573680473802 -0.0017243246544455953 0 0.0038590605430885139 -0.0017363239620480598 0 0.0038599268205694688 -0.0017142816324606737 0 0.0038709605179366572 -0.0017243936797731521 0 0.0038550573680473802 -0.0017243246544455953 0 0.0038709605179366572 -0.0017243936797731521 0 0.0038550573680473802 -0.0017243246544455953 0 0.0038590605430885139 -0.0017363239620480598 0 0.0038590605430885139 -0.0017363239620480598 0 0.0038410192642892079 -0.0017491440451426761 0 0.0038530799595906163 -0.0017634236255146243 0 0.0038360484270259379 -0.00173524300883808 0 0.0038590605430885139 -0.0017363239620480598 0 0.0038410192642892079 -0.0017491440451426761 0 0.0038192848919610307 -0.0017486176041064843 0 0.0038360484270259379 -0.00173524300883808 0 0.0038410192642892079 -0.0017491440451426761 0 0.0038192848919610307 -0.0017486176041064843 0 0.0038410192642892079 -0.0017491440451426761 0 0.003823707651687709 -0.0017656813967294558 0 0.003823707651687709 -0.0017656813967294558 0 0.0038530799595906163 -0.0017634236255146243 0 0.0038335746515499231 -0.001787081144614645 0 0.0038410192642892079 -0.0017491440451426761 0 0.003823707651687709 -0.0017656813967294558 0 0.0038530799595906163 -0.0017634236255146243 0 0.0038335746515499231 -0.001787081144614645 0 0.0038660633831280717 -0.0017968035206874344 0 0.0038270176340787993 -0.0018170062987293157 0 0.0038530799595906163 -0.0017634236255146243 0 0.0038335746515499231 -0.001787081144614645 0 0.0038660633831280717 -0.0017968035206874344 0 0.0038335746515499231 -0.001787081144614645 0 0.0038088217950698056 -0.0017959801375981169 0 0.0038270176340787993 -0.0018170062987293157 0 0.003823707651687709 -0.0017656813967294558 0 0.0038335746515499231 -0.001787081144614645 0 0.0038088217950698056 -0.0017959801375981169 0 0.00388469226950252 -0.00174058589483214 0 0.0039080440397044032 -0.0017614852007556937 0 0.0038809449549887789 -0.0017673625307265189 0 0.0039080440397044032 -0.0017614852007556937 0 0.0038809449549887789 -0.0017673625307265189 0 0.0039196756581275473 -0.001781217563810033 0 0.00388469226950252 -0.00174058589483214 0 0.0038530799595906163 -0.0017634236255146243 0 0.0038809449549887789 -0.0017673625307265189 0 0.0038530799595906163 -0.0017634236255146243 0 0.0038809449549887789 -0.0017673625307265189 0 0.0038660633831280717 -0.0017968035206874344 0 0.0038660633831280717 -0.0017968035206874344 0 0.0039196756581275473 -0.001781217563810033 0 0.0039037174573695399 -0.0018209403107742224 0 0.0038809449549887789 -0.0017673625307265189 0 0.0038660633831280717 -0.0017968035206874344 0 0.0039196756581275473 -0.001781217563810033 0 0.0038560633805423865 -0.0018463801629069545 0 0.0039037174573695399 -0.0018209403107742224 0 0.0039133129850642944 -0.0018729509645931685 0 0.0038660633831280717 -0.0017968035206874344 0 0.0038560633805423865 -0.0018463801629069545 0 0.0039037174573695399 -0.0018209403107742224 0 0.0038660633831280717 -0.0017968035206874344 0 0.0038560633805423865 -0.0018463801629069545 0 0.0038270176340787993 -0.0018170062987293157 0 0.0038270176340787993 -0.0018170062987293157 0 0.0037712422255434573 -0.001838588591672642 0 0.0038190376047296374 -0.0018511911017657717 0 0.0038088217950698056 -0.0017959801375981169 0 0.0038270176340787993 -0.0018170062987293157 0 0.0037712422255434573 -0.001838588591672642 0 0.0038560633805423865 -0.0018463801629069545 0 0.0038270176340787993 -0.0018170062987293157 0 0.0038190376047296374 -0.0018511911017657717 0 -0.0011927066572294904 -0.0031482815429218301 0 -0.0014035580856723007 -0.002889002776567764 0 -0.0013115793190144531 -0.0028426471557962824 0 -0.00099420785498416939 -0.0025577899600177623 0 -0.0011660936501614778 -0.0025668603242124193 0 -0.0011412102752570363 -0.0025683168853996765 0 0.003216558125656166 -0.0020336719739673516 0 -0.0010004015279687858 -0.0020738402074122302 0 0.0037902020808716357 -0.0017113347068915131 0 0.0037712422255434573 -0.001838588591672642 0 0.0037939830757028415 -0.0017741238317121879 0 0.003216558125656166 -0.0020336719739673516 0 -0.0017958068379408563 -0.0028672537900017595 0 0.0038088217950698056 -0.0017959801375981169 0 0.0037712422255434573 -0.001838588591672642 0 0.0037939830757028415 -0.0017741238317121879 0 0.0031413572466269229 -0.0017877809527413798 0 0.00098392546698171921 -0.0024473276889717265 0 0.003823707651687709 -0.0017656813967294558 0 0.0038088217950698056 -0.0017959801375981169 0 0.0037939830757028415 -0.0017741238317121879 0 0.0038192848919610307 -0.0017486176041064843 0 0.003823707651687709 -0.0017656813967294558 0 0.0037939830757028415 -0.0017741238317121879 0 0.00023447083032509608 -0.0013428018869776411 0 7.912510913762507e-05 -0.0014327951628249755 0 3.2474567911191016e-05 -0.0015212364213165372 0 1.4247344209943129e-05 -0.0014922482723041931 0 7.912510913762507e-05 -0.0014327951628249755 0 3.2474567911191016e-05 -0.0015212364213165372 0 1.4247344209943129e-05 -0.0014922482723041931 0 7.912510913762507e-05 -0.0014327951628249755 0 -1.4933986030616785e-05 -0.0014921911014465614 0 1.4247344209943129e-05 -0.0014922482723041931 0 -1.4933986030616785e-05 -0.0014921911014465614 0 -3.4293691274107467e-05 -0.0015164197342732038 0 3.2456254577538596e-06 -0.0014261846133109186 0 -6.5588330149879721e-05 -0.0015099810768122003 0 -6.4787257213044702e-05 -0.0015046026384654765 0 7.912510913762507e-05 -0.0014327951628249755 0 -1.4933986030616785e-05 -0.0014921911014465614 0 3.2456254577538596e-06 -0.0014261846133109186 0 -1.4933986030616785e-05 -0.0014921911014465614 0 3.2456254577538596e-06 -0.0014261846133109186 0 -6.5588330149879721e-05 -0.0015099810768122003 0 0.010579685596436012 -0.0031653217404813984 0 0.010795431940771335 -0.0028550773397776849 0 0.010570623920027106 -0.002764975996419301 0 0.010579685596436012 -0.0031653217404813984 0 0.010853593916401996 -0.002946816863612848 0 0.010795431940771335 -0.0028550773397776849 0 0.003216558125656166 -0.0020336719739673516 0 0.005905438047537577 -0.0023416756586503891 0 0.00023447083032509608 -0.0013428018869776411 0 7.912510913762507e-05 -0.0014327951628249755 0 3.2456254577538596e-06 -0.0014261846133109186 0 0.010977649684104271 -0.0029704752321304592 0 0.010579685596436012 -0.0031653217404813984 0 0.010853593916401996 -0.002946816863612848 0 0.010853593916401996 -0.002946816863612848 0 0.010951637309339268 -0.0029254464873722181 0 0.010927965187186854 -0.002824597810382651 0 0.010977649684104271 -0.0029704752321304592 0 0.010853593916401996 -0.002946816863612848 0 0.010951637309339268 -0.0029254464873722181 0 0.010927965187186854 -0.002824597810382651 0 0.011005305474182396 -0.0027526456778031753 0 0.011002906649186628 -0.002872409655647102 0 0.010951637309339268 -0.0029254464873722181 0 0.010927965187186854 -0.002824597810382651 0 0.011002906649186628 -0.002872409655647102 0 0.010853593916401996 -0.002946816863612848 0 0.010927965187186854 -0.002824597810382651 0 0.010795431940771335 -0.0028550773397776849 0 0.010927965187186854 -0.002824597810382651 0 0.010795431940771335 -0.0028550773397776849 0 0.010940677419497193 -0.0025721151037697799 0 0.010927965187186854 -0.002824597810382651 0 0.010940677419497193 -0.0025721151037697799 0 0.011005305474182396 -0.0027526456778031753 0 0.011484093776244327 -0.0027992428216725919 0 0.010339572663921411 -0.0029216411696990283 0 0.010795431940771335 -0.0028550773397776849 0 0.010940677419497193 -0.0025721151037697799 0 0.010570623920027106 -0.002764975996419301 0 0.010930687808838442 -0.0023261714600149052 0 0.010598161453414049 -0.0020558235409137808 0 0.011431937027296975 -0.001691722206901606 0 0.010930687808838442 -0.0023261714600149052 0 0.010940677419497193 -0.0025721151037697799 0 0.010570623920027106 -0.002764975996419301 0 0.011592688038076358 -0.0022281189714375566 0 0.010930687808838442 -0.0023261714600149052 0 0.01177872309816452 -0.0028189928732586049 0 0.01091666136375135 -0.0023633433700576091 0 0.011484093776244327 -0.0027992428216725919 0 0.011592688038076358 -0.0022281189714375566 0 0.010930687808838442 -0.0023261714600149052 0 0.011431937027296975 -0.001691722206901606 0 0.012361795422775181 -0.0017062222565033588 0 0.01225077440247822 -0.0014625269675900715 0 0.012371380154077637 -0.0020517270848116995 0 0.012346127039860768 -0.0018092995243599436 0 0.010339572663921411 -0.0029216411696990283 0 0.01177872309816452 -0.0028189928732586049 0 0.012198130138762264 -0.0021182826110296587 0 0.0125047746701394 -0.0032616103892186481 0 0.011592688038076358 -0.0022281189714375566 0 0.01177872309816452 -0.0028189928732586049 0 0.012198130138762264 -0.0021182826110296587 0 0.012361795422775181 -0.0017062222565033588 0 0.01225077440247822 -0.0014625269675900715 0 0.012460111864091784 -0.0015883484215652587 0 0.01225077440247822 -0.0014625269675900715 0 0.012455019789629498 -0.001414416172343829 0 0.012460111864091784 -0.0015883484215652587 0 0.012455019789629498 -0.001414416172343829 0 0.012460111864091784 -0.0015883484215652587 0 0.012709538585344083 -0.0013833502651421452 0 0.012460111864091784 -0.0015883484215652587 0 0.012679969735060671 -0.0016308008100699848 0 0.012709538585344083 -0.0013833502651421452 0 0.012679969735060671 -0.0016308008100699848 0 0.012938358302066178 -0.0015829785626669415 0 0.012709538585344083 -0.0013833502651421452 0 0.012817406072396505 -0.0017556112115891854 0 0.012679969735060671 -0.0016308008100699848 0 0.012938358302066178 -0.0015829785626669415 0 0.012817406072396505 -0.0017556112115891854 0 0.012679969735060671 -0.0016308008100699848 0 0.012471704859133816 -0.0017489785624445859 0 0.012361795422775181 -0.0017062222565033588 0 0.012439803723449811 -0.0017801572592628767 0 0.012371380154077637 -0.0020517270848116995 0 0.012361795422775181 -0.0017062222565033588 0 0.012460111864091784 -0.0015883484215652587 0 0.01245980711845162 -0.0017888120039968364 0 0.011430357672443221 -0.001775627229561303 0 0.011006274486825705 -0.0020428160858632586 0 0.011402197996214903 -0.0021635894949978496 0 0.011006274486825705 -0.0020428160858632586 0 0.012460111864091784 -0.0015883484215652587 0 0.012679969735060671 -0.0016308008100699848 0 0.012471704859133816 -0.0017489785624445859 0 0.011006274486825705 -0.0020428160858632586 0 0.0088908474708725913 -0.0022892645099781817 0 0.012439803723449811 -0.0017801572592628767 0 0.012430314378214218 -0.0020908273398047455 0 0.012371380154077637 -0.0020517270848116995 0 0.0038896299478428167 -0.0017118998529310301 0 0.0038247249536547613 -0.0016921322025106439 0 0.0038092348992407377 -0.0016773070288823794 0 0.0090753237803301162 -0.0020521091927271956 0 0.0090313501196970323 -0.001990944771447338 0 0.008946619600845189 -0.0019436368592121354 0 0.0090753237803301162 -0.0020521091927271956 0 0.0090633351197164161 -0.0019470156067850199 0 0.0090313501196970323 -0.001990944771447338 0 0.0088908474708725913 -0.0022892645099781817 0 0.010339572663921411 -0.0029216411696990283 0 0.0090633351197164161 -0.0019470156067850199 0 0.0090313501196970323 -0.001990944771447338 0 0.009035606206679413 -0.0019322695587753107 0 0.0077004570909885162 -0.0018251791027873688 0 0.0070724433368756189 -0.0019404878277870558 0 0.011006274486825705 -0.0020428160858632586 0 0.010859799780945043 -0.0019335465416864392 0 0.0090313501196970323 -0.001990944771447338 0 0.008946619600845189 -0.0019436368592121354 0 0.0090333277165125566 -0.0019271096129999013 0 0.012817406072396505 -0.0017556112115891854 0 0.012471704859133816 -0.0017489785624445859 0 0.012841409788362767 -0.0020337506993073997 0 0.0083289294611903399 -0.0025900107231607364 0 0.0084248837094658083 -0.0026456437039194913 0 0.0083023221002481787 -0.0022868981197193771 0 0.010339572663921411 -0.0029216411696990283 0 0.0066614132438784102 -0.0024730217876314659 0 0.0068306955258362239 -0.0022486356410894876 0 0.0068037877515316142 -0.0021385127243298547 0 0.006893896344076474 -0.0019371750963493573 0 0.0048465271665520662 -0.0020022066084865479 0 0.0070724433368756189 -0.0019404878277870558 0 0.0038006802135020076 -0.0017037004712625093 0 0.0038109417656578045 -0.0016963751884714546 0 0.0038092348992407377 -0.0016773070288823794 0 0.0038247249536547613 -0.0016921322025106439 0 0.0038109417656578045 -0.0016963751884714546 0 0.0038092348992407377 -0.0016773070288823794 0 0.0068046326442709115 -0.0018815127962999122 0 0.0068037877515316142 -0.0021385127243298547 0 0.006893896344076474 -0.0019371750963493573 0 0.0088908474708725913 -0.0022892645099781817 0 0.0066614132438784102 -0.0024730217876314659 0 0.0088908474708725913 -0.0022892645099781817 0 0.0070724433368756189 -0.0019404878277870558 0 0.0088276036467783373 -0.0018348214034729785 0 0.008946619600845189 -0.0019436368592121354 0 0.0090333277165125566 -0.0019271096129999013 0 0.013224622115326443 -0.0023468261718965462 0 0.012841409788362767 -0.0020337506993073997 0 0.013166735970459262 -0.0017796015520226438 0 0.011715032532559167 -0.0014474084948737462 0 0.010859799780945043 -0.0019335465416864392 0 0.012817406072396505 -0.0017556112115891854 0 0.012841409788362767 -0.0020337506993073997 0 0.013166735970459262 -0.0017796015520226438 0 0.013166735970459262 -0.0017796015520226438 0 0.012938358302066178 -0.0015829785626669415 0 0.013163075314873558 -0.0012985084909250765 0 0.013166735970459262 -0.0017796015520226438 0 0.013713298566552786 -0.0015498037206355157 0 0.013163075314873558 -0.0012985084909250765 0 0.012817406072396505 -0.0017556112115891854 0 0.013166735970459262 -0.0017796015520226438 0 0.012938358302066178 -0.0015829785626669415 0 0.012938358302066178 -0.0015829785626669415 0 0.013163075314873558 -0.0012985084909250765 0 0.012709538585344083 -0.0013833502651421452 0 0.013131522422930933 -0.00063639464929309475 0 0.013503146925631896 -0.00061360525948178396 0 0.013203744057944012 -0.0010275961063945761 0 0.013503146925631896 -0.00061360525948178396 0 0.013203744057944012 -0.0010275961063945761 0 0.013573706649953842 -0.00094210849041740014 0 0.013203744057944012 -0.0010275961063945761 0 0.013573706649953842 -0.00094210849041740014 0 0.013408003778948728 -0.0012467421456690345 0 0.013224622115326443 -0.0023468261718965462 0 0.013166735970459262 -0.0017796015520226438 0 0.013713298566552786 -0.0015498037206355157 0 0.012784792442552128 -0.0011377442303508551 0 0.013131522422930933 -0.00063639464929309475 0 0.013203744057944012 -0.0010275961063945761 0 0.011715032532559167 -0.0014474084948737462 0 0.013621615813929599 -0.0011049996963949631 0 0.014127276779744855 -0.00050088949689790739 0 0.013797047454803342 -0.00059152167838587679 0 0.013918044317710512 -0.00092901173804354391 0 0.010227179501751303 -0.00095349676977231573 0 0.0092734333876309458 -0.0011393476935300125 0 0.0049156299998548538 -0.0011452533159714289 0 0.0047994377443839869 -0.0012970324320370936 0 0.0049415694380736631 -0.0012026769329729289 0 0.013503146925631896 -0.00061360525948178396 0 0.013797047454803342 -0.00059152167838587679 0 0.013573706649953842 -0.00094210849041740014 0 0.013503146925631896 -0.00061360525948178396 0 0.013797047454803342 -0.00059152167838587679 0 0.013751054247113479 -0.000345195103833125 0 0.013797047454803342 -0.00059152167838587679 0 0.013573706649953842 -0.00094210849041740014 0 0.013918044317710512 -0.00092901173804354391 0 0.013573706649953842 -0.00094210849041740014 0 0.013918044317710512 -0.00092901173804354391 0 0.013686234746330465 -0.0013405936130410135 0 0.0047994377443839869 -0.0012970324320370936 0 0.004823479560255705 -0.0014521638140127392 0 0.0049089543117678165 -0.0013190057240393882 0 0.0092734333876309458 -0.0011393476935300125 0 0.0093801598279626506 -0.0013454703484439699 0 0.0047994377443839869 -0.0012970324320370936 0 0.004823479560255705 -0.0014521638140127392 0 0.0046820527875742471 -0.0014686314378635408 0 0.013573706649953842 -0.00094210849041740014 0 0.013686234746330465 -0.0013405936130410135 0 0.013408003778948728 -0.0012467421456690345 0 0.0093801598279626506 -0.0013454703484439699 0 0.007067936229858753 -0.0014820551662049215 0 0.0046820527875742471 -0.0014686314378635408 0 0.0046970416887945248 -0.001583666735578295 0 0.0046040057334985982 -0.0016235386685806261 0 0.013686234746330465 -0.0013405936130410135 0 0.013408003778948728 -0.0012467421456690345 0 0.013464312464158065 -0.0017187754689135569 0 0.004823479560255705 -0.0014521638140127392 0 0.0046970416887945248 -0.001583666735578295 0 0.0047979338265018026 -0.0016122561601897469 0 0.004823479560255705 -0.0014521638140127392 0 0.0046820527875742471 -0.0014686314378635408 0 0.0046970416887945248 -0.001583666735578295 0 0.0088184508433354677 -0.0017813125561315141 0 0.0086483636757742066 -0.001633767598877389 0 0.008680427902077294 -0.0016699746391908945 0 0.011715032532559167 -0.0014474084948737462 0 0.010175690599112447 -0.0018433947537206778 0 0.012784792442552128 -0.0011377442303508551 0 0.013050613854939483 -0.0012468407865229977 0 0.013154079362608248 -0.0014320747723818225 0 0.0058549207275333881 -0.0016328978203020606 0 0.0083515188927978153 -0.0016121911591362964 0 0.0088276036467783373 -0.0018348214034729785 0 0.0088184508433354677 -0.0017813125561315141 0 0.008680427902077294 -0.0016699746391908945 0 0.0038896299478428167 -0.0017118998529310301 0 0.0040561789539320121 -0.0017745741548968854 0 0.0039683323309814642 -0.0017608761513892587 0 0.012784792442552128 -0.0011377442303508551 0 0.013203744057944012 -0.0010275961063945761 0 0.013062622702284669 -0.0011791694684992866 0 0.013050613854939483 -0.0012468407865229977 0 0.01319863013933412 -0.0012392065900844601 0 0.013154079362608248 -0.0014320747723818225 0 0.0038896299478428167 -0.0017118998529310301 0 0.0039184232374537111 -0.0017448700366123177 0 0.0039683323309814642 -0.0017608761513892587 0 0.012784792442552128 -0.0011377442303508551 0 0.013062622702284669 -0.0011791694684992866 0 0.013050613854939483 -0.0012468407865229977 0 0.013203744057944012 -0.0010275961063945761 0 0.013062622702284669 -0.0011791694684992866 0 0.01319863013933412 -0.0012392065900844601 0 0.013062622702284669 -0.0011791694684992866 0 0.013050613854939483 -0.0012468407865229977 0 0.01319863013933412 -0.0012392065900844601 0 0.013203744057944012 -0.0010275961063945761 0 0.01319863013933412 -0.0012392065900844601 0 0.013408003778948728 -0.0012467421456690345 0 0.01319863013933412 -0.0012392065900844601 0 0.013408003778948728 -0.0012467421456690345 0 0.013154079362608248 -0.0014320747723818225 0 0.013408003778948728 -0.0012467421456690345 0 0.013223667833342749 -0.0014920643128604968 0 0.013154079362608248 -0.0014320747723818225 0 0.0083515188927978153 -0.0016121911591362964 0 0.010175690599112447 -0.0018433947537206778 0 0.013408003778948728 -0.0012467421456690345 0 0.013223667833342749 -0.0014920643128604968 0 0.013464312464158065 -0.0017187754689135569 0 0.0083515188927978153 -0.0016121911591362964 0 0.007067936229858753 -0.0014820551662049215 0 0.0040561789539320121 -0.0017745741548968854 0 0.0040650689723671684 -0.0018609385756929934 0 0.0041727341314897401 -0.0018567807644547815 0 0.0040261986916973322 -0.0018167322598748865 0 0.0039874922845003907 -0.0018366467182439651 0 0.0040650689723671684 -0.0018609385756929934 0 0.0040561789539320121 -0.0017745741548968854 0 0.0040261986916973322 -0.0018167322598748865 0 0.0040650689723671684 -0.0018609385756929934 0 0.0040561789539320121 -0.0017745741548968854 0 0.0040261986916973322 -0.0018167322598748865 0 0.0039982178502220595 -0.0017949244960330432 0 0.0039874922845003907 -0.0018366467182439651 0 0.0039564384950324175 -0.0017955864331970028 0 0.003940724506649518 -0.0018284443882600507 0 0.0039874922845003907 -0.0018366467182439651 0 0.0039982178502220595 -0.0017949244960330432 0 0.0039564384950324175 -0.0017955864331970028 0 0.0040261986916973322 -0.0018167322598748865 0 0.0039874922845003907 -0.0018366467182439651 0 0.0039982178502220595 -0.0017949244960330432 0 0.0040561789539320121 -0.0017745741548968854 0 0.0039982178502220595 -0.0017949244960330432 0 0.0039683323309814642 -0.0017608761513892587 0 0.0039982178502220595 -0.0017949244960330432 0 0.0039683323309814642 -0.0017608761513892587 0 0.0039564384950324175 -0.0017955864331970028 0 0.0039080440397044032 -0.0017614852007556937 0 0.003928367271427714 -0.0017620733230631885 0 0.0039196756581275473 -0.001781217563810033 0 0.0039080440397044032 -0.0017614852007556937 0 0.0039184232374537111 -0.0017448700366123177 0 0.003928367271427714 -0.0017620733230631885 0 0.0039184232374537111 -0.0017448700366123177 0 0.0039683323309814642 -0.0017608761513892587 0 0.003928367271427714 -0.0017620733230631885 0 0.0039683323309814642 -0.0017608761513892587 0 0.003928367271427714 -0.0017620733230631885 0 0.0039196756581275473 -0.001781217563810033 0 0.0039683323309814642 -0.0017608761513892587 0 0.0039564384950324175 -0.0017955864331970028 0 0.0039196756581275473 -0.001781217563810033 0 0.0039564384950324175 -0.0017955864331970028 0 0.0039196756581275473 -0.001781217563810033 0 0.0039037174573695399 -0.0018209403107742224 0 0.0039874922845003907 -0.0018366467182439651 0 0.003940724506649518 -0.0018284443882600507 0 0.0039133129850642944 -0.0018729509645931685 0 0.0039037174573695399 -0.0018209403107742224 0 0.003940724506649518 -0.0018284443882600507 0 0.0039133129850642944 -0.0018729509645931685 0 0.0039564384950324175 -0.0017955864331970028 0 0.0039037174573695399 -0.0018209403107742224 0 0.003940724506649518 -0.0018284443882600507 0 0.0039133129850642944 -0.0018729509645931685 0 0.0039849232962848218 -0.0019240020264231325 0 0.0038978259955366342 -0.0019583897837137979 0 0.0039874922845003907 -0.0018366467182439651 0 0.0039133129850642944 -0.0018729509645931685 0 0.0039849232962848218 -0.0019240020264231325 0 0.0038413104768511039 -0.0020861190726440414 0 0.007067936229858753 -0.0014820551662049215 0 0.0039874922845003907 -0.0018366467182439651 0 0.0039849232962848218 -0.0019240020264231325 0 0.0040650689723671684 -0.0018609385756929934 0 0.0039849232962848218 -0.0019240020264231325 0 0.0040650689723671684 -0.0018609385756929934 0 0.0040799431751517012 -0.0020038216775484885 0 0.0040650689723671684 -0.0018609385756929934 0 0.0040799431751517012 -0.0020038216775484885 0 0.0041727341314897401 -0.0018567807644547815 0 0.0039849232962848218 -0.0019240020264231325 0 0.0040799431751517012 -0.0020038216775484885 0 0.0039657619107402202 -0.0020206248742982323 0 0.0040799431751517012 -0.0020038216775484885 0 0.0039657619107402202 -0.0020206248742982323 0 0.0039958343287808508 -0.0021465755829405448 0 0.0039657619107402202 -0.0020206248742982323 0 0.0038978259955366342 -0.0019583897837137979 0 0.0038695488227148316 -0.0020751538146593146 0 0.0039849232962848218 -0.0019240020264231325 0 0.0039657619107402202 -0.0020206248742982323 0 0.0038978259955366342 -0.0019583897837137979 0 0.0046970416887945248 -0.001583666735578295 0 0.0046040057334985982 -0.0016235386685806261 0 0.0046355025624304474 -0.0017542076068744899 0 0.0046970416887945248 -0.001583666735578295 0 0.0046355025624304474 -0.0017542076068744899 0 0.0047979338265018026 -0.0016122561601897469 0 0.007067936229858753 -0.0014820551662049215 0 0.0037553004960998483 -0.0015026168921628523 0 0.0041371898288552573 -0.0018136090337356275 0 0.0043017908466749652 -0.0014655030368609559 0 0.0046355025624304474 -0.0017542076068744899 0 0.0041371898288552573 -0.0018136090337356275 0 0.0046355025624304474 -0.0017542076068744899 0 0.0042702246779188829 -0.0020596450830124235 0 -1.4810640533542924e-05 -0.0016313407920213571 0 9.7759017554752245e-05 -0.0013253924663252426 0 0.0046355025624304474 -0.0017542076068744899 0 0.0044818223631724807 -0.0021971457689933908 0 0.004820578869064081 -0.0019649315504412282 0 0.0046355025624304474 -0.0017542076068744899 0 0.0042702246779188829 -0.0020596450830124235 0 0.0044818223631724807 -0.0021971457689933908 0 -1.4810640533542924e-05 -0.0016313407920213571 0 0.00037734103956970467 -0.001640142019108776 0 -0.0044462568086153162 -0.0010614293756996778 0 -0.003686298861577687 -0.0010206005226539531 0 -0.0042028851423735226 -0.0007206237622198442 0 0.0042702246779188829 -0.0020596450830124235 0 0.0044818223631724807 -0.0021971457689933908 0 0.0040855235660936743 -0.0023802826745213828 0 -0.0044462568086153162 -0.0010614293756996778 0 -0.0048209454096413105 -0.00086011830712065366 0 -0.0045321336604848246 -0.00078378061422640084 0 -0.0044462568086153162 -0.0010614293756996778 0 -0.0045321336604848246 -0.00078378061422640084 0 -0.0042028851423735226 -0.0007206237622198442 0 0.0039657619107402202 -0.0020206248742982323 0 0.0038695488227148316 -0.0020751538146593146 0 0.0039958343287808508 -0.0021465755829405448 0 0.0038695488227148316 -0.0020751538146593146 0 0.0039958343287808508 -0.0021465755829405448 0 0.0037523878429227254 -0.0022161712557717543 0 0.0041371898288552573 -0.0018136090337356275 0 0.0042702246779188829 -0.0020596450830124235 0 0.0039958343287808508 -0.0021465755829405448 0 0.0038413104768511039 -0.0020861190726440414 0 0.0040696280770089223 -0.0020421817998090394 0 0.0042702246779188829 -0.0020596450830124235 0 0.0039958343287808508 -0.0021465755829405448 0 0.0040855235660936743 -0.0023802826745213828 0 0.0039958343287808508 -0.0021465755829405448 0 0.0040855235660936743 -0.0023802826745213828 0 0.0038825908549010102 -0.0023222793674548773 0 0.0038825908549010102 -0.0023222793674548773 0 0.0037523878429227254 -0.0022161712557717543 0 0.0037673323304448746 -0.0024939067023023345 0 0.0039958343287808508 -0.0021465755829405448 0 0.0038825908549010102 -0.0023222793674548773 0 0.0037523878429227254 -0.0022161712557717543 0 -0.0018944366196992186 -0.0020434216916394182 0 -0.0014513050919191871 -0.0018012163019047419 0 -0.0018291325633289044 -0.0016269144561186172 0 0.0010892263446870623 -0.0022281082312134055 0 -0.00048166089505035948 -0.0016915763169695318 0 -0.0018944366196992186 -0.0020434216916394182 0 -0.0018291325633289044 -0.0016269144561186172 0 -0.0021612702261598372 -0.0014754886229954381 0 -0.0014513050919191871 -0.0018012163019047419 0 -0.001040660828130021 -0.0019041637999412727 0 -0.0015172336748804183 -0.0014325126088114749 0 -0.0014513050919191871 -0.0018012163019047419 0 -0.0012979324623151427 -0.0023398863115891657 0 -0.001040660828130021 -0.0019041637999412727 0 -0.0014550481156647458 -0.0018430806617713855 0 -0.0012724323124481466 -0.0023192359870982536 0 -0.0018944366196992186 -0.0020434216916394182 0 -0.0014513050919191871 -0.0018012163019047419 0 -0.0013901163567104499 -0.002403497646620414 0 -0.0018944366196992186 -0.0020434216916394182 0 -0.0016269009258782275 -0.0025301505341691721 0 -0.0013901163567104499 -0.002403497646620414 0 0.0038695488227148316 -0.0020751538146593146 0 0.0037523878429227254 -0.0022161712557717543 0 0.0037629424493642893 -0.0020054491480318679 0 0.0010892263446870623 -0.0022281082312134055 0 0.0010654104443610511 -0.0022276328940916907 0 0.0038978259955366342 -0.0019583897837137979 0 0.0037629424493642893 -0.0020054491480318679 0 0.0038226936064441244 -0.0019039954541582322 0 0.0038978259955366342 -0.0019583897837137979 0 0.0038695488227148316 -0.0020751538146593146 0 0.0037629424493642893 -0.0020054491480318679 0 -0.0012724323124481466 -0.0023192359870982536 0 -0.0017958068379408563 -0.0028672537900017595 0 -0.0016269009258782275 -0.0025301505341691721 0 -0.0013901163567104499 -0.002403497646620414 0 -0.0013115793190144531 -0.0028426471557962824 0 -0.0012979324623151427 -0.0023398863115891657 0 -0.0011660936501614778 -0.0025668603242124193 0 -0.0011436130230670668 -0.0023676320348654284 0 0.00098392546698171921 -0.0024473276889717265 0 0.0010654104443610511 -0.0022276328940916907 0 -0.0014035580856723007 -0.002889002776567764 0 -0.0016269009258782275 -0.0025301505341691721 0 -0.0013115793190144531 -0.0028426471557962824 0 0.0037712422255434573 -0.001838588591672642 0 0.0038190376047296374 -0.0018511911017657717 0 0.0038226936064441244 -0.0019039954541582322 0 0.0037712422255434573 -0.001838588591672642 0 0.0037629424493642893 -0.0020054491480318679 0 0.0038226936064441244 -0.0019039954541582322 0 0.0038560633805423865 -0.0018463801629069545 0 0.0038190376047296374 -0.0018511911017657717 0 0.0038226936064441244 -0.0019039954541582322 0 0.0038560633805423865 -0.0018463801629069545 0 0.0039133129850642944 -0.0018729509645931685 0 0.0038226936064441244 -0.0019039954541582322 0 0.0039133129850642944 -0.0018729509645931685 0 0.0038978259955366342 -0.0019583897837137979 0 0.0038226936064441244 -0.0019039954541582322 0 -0.00011138920369198192 -0.0015285300967299489 0 -8.5685044614162263e-05 -0.0015252393051332547 0 -0.00014299562157067241 -0.0015345680307848315 0 -8.5685044614162263e-05 -0.0015252393051332547 0 -0.00011007118941573082 -0.0015341883655233611 0 -0.00014299562157067241 -0.0015345680307848315 0 -0.00011138920369198192 -0.0015285300967299489 0 -0.0001516793920851923 -0.0015327825052092166 0 -0.00010378874982991935 -0.0015274670041972274 0 -0.00011138920369198192 -0.0015285300967299489 0 -0.00014299562157067241 -0.0015345680307848315 0 -0.0001516793920851923 -0.0015327825052092166 0 -0.00011138920369198192 -0.0015285300967299489 0 -6.5588330149879721e-05 -0.0015099810768122003 0 -8.5685044614162263e-05 -0.0015252393051332547 0 -0.00011138920369198192 -0.0015285300967299489 0 -6.5588330149879721e-05 -0.0015099810768122003 0 -0.00010378874982991935 -0.0015274670041972274 0 -1.4933986030616785e-05 -0.0014921911014465614 0 -6.5588330149879721e-05 -0.0015099810768122003 0 -8.5685044614162263e-05 -0.0015252393051332547 0 -0.0011660936501614778 -0.0025668603242124193 0 -0.0011412102752570363 -0.0025683168853996765 0 -0.0011436130230670668 -0.0023676320348654284 0 -1.4933986030616785e-05 -0.0014921911014465614 0 -8.5685044614162263e-05 -0.0015252393051332547 0 -3.4293691274107467e-05 -0.0015164197342732038 0 3.2474567911191016e-05 -0.0015212364213165372 0 -0.00011007118941573082 -0.0015341883655233611 0 -0.00022405506721923915 -0.00154499846962996 0 -0.0010004015279687858 -0.0020738402074122302 0 -0.00062400463363947785 -0.0019264401420930981 0 -3.4293691274107467e-05 -0.0015164197342732038 0 3.2474567911191016e-05 -0.0015212364213165372 0 -0.00011007118941573082 -0.0015341883655233611 0 1.4247344209943129e-05 -0.0014922482723041931 0 -3.4293691274107467e-05 -0.0015164197342732038 0 3.2474567911191016e-05 -0.0015212364213165372 0 -8.5685044614162263e-05 -0.0015252393051332547 0 -3.4293691274107467e-05 -0.0015164197342732038 0 -0.00011007118941573082 -0.0015341883655233611 0 -0.00011007118941573082 -0.0015341883655233611 0 -0.00018753175352364466 -0.0015364615832750583 0 -0.00014299562157067241 -0.0015345680307848315 0 -0.00011007118941573082 -0.0015341883655233611 0 -0.00018753175352364466 -0.0015364615832750583 0 -0.00022405506721923915 -0.00154499846962996 0 -0.00018753175352364466 -0.0015364615832750583 0 -0.00022405506721923915 -0.00154499846962996 0 -0.00024399876559303755 -0.0015263612417081905 0 -0.00024399876559303755 -0.0015263612417081905 0 -0.0001956900650173741 -0.0015316470154948349 0 -0.00022666533110896303 -0.0015169968576837351 0 -0.00018753175352364466 -0.0015364615832750583 0 -0.00024399876559303755 -0.0015263612417081905 0 -0.0001956900650173741 -0.0015316470154948349 0 -0.00018753175352364466 -0.0015364615832750583 0 -0.0001956900650173741 -0.0015316470154948349 0 -0.00014299562157067241 -0.0015345680307848315 0 -0.0001956900650173741 -0.0015316470154948349 0 -0.00014299562157067241 -0.0015345680307848315 0 -0.0001516793920851923 -0.0015327825052092166 0 -0.0001956900650173741 -0.0015316470154948349 0 -0.0001516793920851923 -0.0015327825052092166 0 -0.00022666533110896303 -0.0015169968576837351 0 -0.00024399876559303755 -0.0015263612417081905 0 -0.00022666533110896303 -0.0015169968576837351 0 -0.00033167898683279779 -0.0014948500906902143 0 -0.00022666533110896303 -0.0015169968576837351 0 -0.00030519946097914399 -0.0014672935669805657 0 -0.00033167898683279779 -0.0014948500906902143 0 -0.00062400463363947785 -0.0019264401420930981 0 -0.00078288942578381895 -0.001634327807328022 0 -0.00022405506721923915 -0.00154499846962996 0 -0.00033167898683279779 -0.0014948500906902143 0 -0.00051133384714193645 -0.0014189697031639732 0 -0.0012979324623151427 -0.0023398863115891657 0 -0.0011436130230670668 -0.0023676320348654284 0 -0.001040660828130021 -0.0019041637999412727 0 -0.00022405506721923915 -0.00154499846962996 0 -0.00024399876559303755 -0.0015263612417081905 0 -0.00033167898683279779 -0.0014948500906902143 0 -0.00030519946097914399 -0.0014672935669805657 0 -0.00033167898683279779 -0.0014948500906902143 0 -0.00051133384714193645 -0.0014189697031639732 0 -0.00030519946097914399 -0.0014672935669805657 0 -0.00051133384714193645 -0.0014189697031639732 0 -0.00045625162364050964 -0.0012834313874241791 0 -0.00030519946097914399 -0.0014672935669805657 0 -0.00015269404406235333 -0.0015723437838886952 0 -0.00014290543695543521 -0.0013818330800637992 0 -0.00030519946097914399 -0.0014672935669805657 0 -0.00014290543695543521 -0.0013818330800637992 0 -0.00045625162364050964 -0.0012834313874241791 0 -0.00022666533110896303 -0.0015169968576837351 0 -0.00030519946097914399 -0.0014672935669805657 0 -0.000128921551606529 -0.0014731745029629185 0 -0.00020296802537243697 -0.0015040194660466289 0 -0.00036619445528151428 -0.0014586688201461855 0 -0.00022666533110896303 -0.0015169968576837351 0 -0.000128921551606529 -0.0014731745029629185 0 -0.00013915278121823596 -0.0015262575815441098 0 -0.00015269404406235333 -0.0015723437838886952 0 0.00011123867975751438 -0.0014294551448380706 0 7.3726246493709292e-05 -0.0016649438445618162 0 -0.000128921551606529 -0.0014731745029629185 0 -5.8618900010468923e-05 -0.0014887879619690969 0 -9.6038879703462681e-05 -0.001512617466266915 0 -0.00036619445528151428 -0.0014586688201461855 0 0.0015162151380295401 -0.0011281853970607973 0 -0.00015269404406235333 -0.0015723437838886952 0 -0.00014290543695543521 -0.0013818330800637992 0 0.00011123867975751438 -0.0014294551448380706 0 0.0013163362182652546 -0.00056418552786701207 0 0.0012741416657834823 -0.00058986213098840418 0 0.0010093439738034136 -0.00064333127757263612 0 0.0013163362182652546 -0.00056418552786701207 0 0.0012741416657834823 -0.00058986213098840418 0 0.0015414092803992113 -0.00058051095965825402 0 -0.00014290543695543521 -0.0013818330800637992 0 0.00011123867975751438 -0.0014294551448380706 0 0.00020579965542139424 -0.0011580572549908892 0 0.0012741416657834823 -0.00058986213098840418 0 0.0016058392673704456 -0.00058545941215052831 0 0.0011466599975603026 -0.00062353115503284027 0 0.0012741416657834823 -0.00058986213098840418 0 0.0015414092803992113 -0.00058051095965825402 0 0.0016058392673704456 -0.00058545941215052831 0 0.0015414092803992113 -0.00058051095965825402 0 0.0016693107710189471 -0.00077120791536127006 0 0.0019848321891922571 -0.00058881745099742229 0 0.00065370263876003882 -0.0010164851663743949 0 0.0015162151380295401 -0.0011281853970607973 0 0.0013163362182652546 -0.00056418552786701207 0 0.0015414092803992113 -0.00058051095965825402 0 0.0013657592470997988 -0.00070674093136437774 0 0.0015414092803992113 -0.00058051095965825402 0 0.0013657592470997988 -0.00070674093136437774 0 0.0016693107710189471 -0.00077120791536127006 0 0.0044341297988500254 -0.0013447654842851146 0 0.0037072013264043708 -0.0010580777475852089 0 0.0045730553553630874 -0.00043691781899699445 0 0.0015162151380295401 -0.0011281853970607973 0 0.0029150356222124021 -0.00095238151452743333 0 0.0015162151380295401 -0.0011281853970607973 0 0.0021687724039138514 -0.00092199697801844456 0 0.0029150356222124021 -0.00095238151452743333 0 0.0024573006420233394 -0.00067239219574039715 0 0.0037072013264043708 -0.0010580777475852089 0 0.0033062045319262176 -0.00025838404257105086 0 0.0025798084898721206 -0.00065772008519862592 0 0.0037072013264043708 -0.0010580777475852089 0 0.0033062045319262176 -0.00025838404257105086 0 0.0039804901218510906 -0.00016104115599471327 0 0.0033062045319262176 -0.00025838404257105086 0 0.0039804901218510906 -0.00016104115599471327 0 0.0036584480822976135 0.00017621716240062913 0 0.0039804901218510906 -0.00016104115599471327 0 0.0045730553553630874 -0.00043691781899699445 0 0.004353362714390391 0.00027479086745430578 0 0.0037072013264043708 -0.0010580777475852089 0 0.0039804901218510906 -0.00016104115599471327 0 0.0045730553553630874 -0.00043691781899699445 0 0.0021687724039138514 -0.00092199697801844456 0 0.0042480107600487097 -0.001298336440260532 0 -6.8068025307342308e-05 -0.0015216213367315798 0 -7.0691579298469428e-05 -0.0015177394629428134 0 -4.4945241658257821e-05 -0.0015138414195731897 0 -6.8068025307342308e-05 -0.0015216213367315798 0 -9.2936909767806641e-05 -0.0015245027122730314 0 -7.0691579298469428e-05 -0.0015177394629428134 0 -6.8068025307342308e-05 -0.0015216213367315798 0 -9.2936909767806641e-05 -0.0015245027122730314 0 -9.6038879703462681e-05 -0.001512617466266915 0 -9.2936909767806641e-05 -0.0015245027122730314 0 -7.0691579298469428e-05 -0.0015177394629428134 0 -7.9521402812927734e-05 -0.0015185235928791257 0 -6.5588330149879721e-05 -0.0015099810768122003 0 -0.00010378874982991935 -0.0015274670041972274 0 -6.4787257213044702e-05 -0.0015046026384654765 0 -7.9521402812927734e-05 -0.0015185235928791257 0 -0.00010378874982991935 -0.0015274670041972274 0 -6.4787257213044702e-05 -0.0015046026384654765 0 -9.2936909767806641e-05 -0.0015245027122730314 0 -0.00010378874982991935 -0.0015274670041972274 0 -0.00013915278121823596 -0.0015262575815441098 0 -9.2936909767806641e-05 -0.0015245027122730314 0 -7.9521402812927734e-05 -0.0015185235928791257 0 -0.00010378874982991935 -0.0015274670041972274 0 -9.2936909767806641e-05 -0.0015245027122730314 0 -0.00013915278121823596 -0.0015262575815441098 0 -9.6038879703462681e-05 -0.001512617466266915 0 -0.000128921551606529 -0.0014731745029629185 0 -0.00013915278121823596 -0.0015262575815441098 0 -9.6038879703462681e-05 -0.001512617466266915 0 -0.0001516793920851923 -0.0015327825052092166 0 -0.00010378874982991935 -0.0015274670041972274 0 -0.00013915278121823596 -0.0015262575815441098 0 -0.0001516793920851923 -0.0015327825052092166 0 -0.00022666533110896303 -0.0015169968576837351 0 -0.00013915278121823596 -0.0015262575815441098 0 -5.8618900010468923e-05 -0.0014887879619690969 0 -6.8068025307342308e-05 -0.0015216213367315798 0 -9.6038879703462681e-05 -0.001512617466266915 0 0.0017374749680079591 -0.00047497760382209699 0 0.002012036516787879 -0.00045768893398726929 0 0.0019901163363900323 -0.00035512138791177531 0 0.0017374749680079591 -0.00047497760382209699 0 0.0013829700188183072 -0.00052824078042999041 0 0.0014517426913574177 -0.00057701836294069182 0 0.0017277336936185933 -0.00056637093765696538 0 0.0014517426913574177 -0.00057701836294069182 0 0.0013508176041713267 -0.00060960605773206604 0 0.0017374749680079591 -0.00047497760382209699 0 0.0017277336936185933 -0.00056637093765696538 0 0.0014517426913574177 -0.00057701836294069182 0 0.0017374749680079591 -0.00047497760382209699 0 0.0017277336936185933 -0.00056637093765696538 0 0.002012036516787879 -0.00045768893398726929 0 0.0017277336936185933 -0.00056637093765696538 0 0.0020350499884592178 -0.0005681175164631094 0 0.002012036516787879 -0.00045768893398726929 0 0.0017277336936185933 -0.00056637093765696538 0 0.0020350499884592178 -0.0005681175164631094 0 0.0016058392673704456 -0.00058545941215052831 0 0.0017277336936185933 -0.00056637093765696538 0 0.0016058392673704456 -0.00058545941215052831 0 0.0013508176041713267 -0.00060960605773206604 0 0.0020350499884592178 -0.0005681175164631094 0 0.0016058392673704456 -0.00058545941215052831 0 0.0019848321891922571 -0.00058881745099742229 0 0.0015414092803992113 -0.00058051095965825402 0 0.0016058392673704456 -0.00058545941215052831 0 0.0019848321891922571 -0.00058881745099742229 0 0.0016693107710189471 -0.00077120791536127006 0 0.0019848321891922571 -0.00058881745099742229 0 0.0025798084898721206 -0.00065772008519862592 0 0.0020350499884592178 -0.0005681175164631094 0 0.0019848321891922571 -0.00058881745099742229 0 0.0025798084898721206 -0.00065772008519862592 0 0.0033062045319262176 -0.00025838404257105086 0 0.0027817780910238889 -0.0001591229689625649 0 0.003322478127156768 0.000204743046329889 0 0.0033062045319262176 -0.00025838404257105086 0 0.0025798084898721206 -0.00065772008519862592 0 0.0027817780910238889 -0.0001591229689625649 0 0.0027817780910238889 -0.0001591229689625649 0 0.0023498380351587543 -0.00040157333790097804 0 0.0025342516634490695 -4.2979491371264955e-05 0 0.0025798084898721206 -0.00065772008519862592 0 0.0027817780910238889 -0.0001591229689625649 0 0.0023498380351587543 -0.00040157333790097804 0 0.0020350499884592178 -0.0005681175164631094 0 0.0025798084898721206 -0.00065772008519862592 0 0.0023498380351587543 -0.00040157333790097804 0 0.0020350499884592178 -0.0005681175164631094 0 0.0023498380351587543 -0.00040157333790097804 0 0.002012036516787879 -0.00045768893398726929 0 0.002012036516787879 -0.00045768893398726929 0 0.0022083706642395074 -0.00030434282372032175 0 0.0019901163363900323 -0.00035512138791177531 0 0.0023498380351587543 -0.00040157333790097804 0 0.002012036516787879 -0.00045768893398726929 0 0.0022083706642395074 -0.00030434282372032175 0 0.0023498380351587543 -0.00040157333790097804 0 0.0022083706642395074 -0.00030434282372032175 0 0.0025342516634490695 -4.2979491371264955e-05 0 0.0022083706642395074 -0.00030434282372032175 0 0.0021091921338650182 -0.00021421679561735974 0 0.0025342516634490695 -4.2979491371264955e-05 0 0.0021294677207265317 -8.115326750197489e-05 0 0.0021091921338650182 -0.00021421679561735974 0 0.0022839137661874649 -5.6723864241854562e-06 0 0.0021091921338650182 -0.00021421679561735974 0 0.0022839137661874649 -5.6723864241854562e-06 0 0.0025342516634490695 -4.2979491371264955e-05 0 0.0019059934815292422 -0.00028282351986369726 0 0.0017374749680079591 -0.00047497760382209699 0 0.0019901163363900323 -0.00035512138791177531 0 0.0019059934815292422 -0.00028282351986369726 0 0.0021091921338650182 -0.00021421679561735974 0 0.0019901163363900323 -0.00035512138791177531 0 0.0022083706642395074 -0.00030434282372032175 0 0.0021091921338650182 -0.00021421679561735974 0 0.0019901163363900323 -0.00035512138791177531 0 0.0020668318404929169 0.00016480397399676376 0 0.0026784016598245678 0.00035943691854647372 0 0.0027637109081446553 0.0010155661480850137 0 0.0035406698009237971 0.00072099369804340353 0 0.0044988835235947582 0.0017528221594822647 0 0.0022839137661874649 -5.6723864241854562e-06 0 0.0025342516634490695 -4.2979491371264955e-05 0 0.0026784016598245678 0.00035943691854647372 0 0.0020668318404929169 0.00016480397399676376 0 0.0022839137661874649 -5.6723864241854562e-06 0 0.0026784016598245678 0.00035943691854647372 0 0.0025342516634490695 -4.2979491371264955e-05 0 0.0031071812406578635 0.00047616319942380997 0 0.0030046782499042403 0.0002150269741747293 0 0.0025342516634490695 -4.2979491371264955e-05 0 0.0031071812406578635 0.00047616319942380997 0 0.0026784016598245678 0.00035943691854647372 0 0.0031071812406578635 0.00047616319942380997 0 0.0026784016598245678 0.00035943691854647372 0 0.0034176837327322429 0.00087202834944139071 0 0.0031071812406578635 0.00047616319942380997 0 0.0030046782499042403 0.0002150269741747293 0 0.0034877099176112481 0.00055933017278479681 0 0.0031071812406578635 0.00047616319942380997 0 0.0034877099176112481 0.00055933017278479681 0 0.0038480624834356745 0.00099676726788963947 0 0.0030046782499042403 0.0002150269741747293 0 0.003322478127156768 0.000204743046329889 0 0.0034877099176112481 0.00055933017278479681 0 0.0027817780910238889 -0.0001591229689625649 0 0.0025342516634490695 -4.2979491371264955e-05 0 0.0030046782499042403 0.0002150269741747293 0 0.0027817780910238889 -0.0001591229689625649 0 0.0030046782499042403 0.0002150269741747293 0 0.003322478127156768 0.000204743046329889 0 0.003322478127156768 0.000204743046329889 0 0.0036640730454627615 0.00049558097151847333 0 0.0034877099176112481 0.00055933017278479681 0 0.0033062045319262176 -0.00025838404257105086 0 0.003322478127156768 0.000204743046329889 0 0.0036584480822976135 0.00017621716240062913 0 0.003322478127156768 0.000204743046329889 0 0.0036640730454627615 0.00049558097151847333 0 0.0036584480822976135 0.00017621716240062913 0 0.0034877099176112481 0.00055933017278479681 0 0.0039118010302952155 0.00091129923318974753 0 0.0038480624834356745 0.00099676726788963947 0 0.0036640730454627615 0.00049558097151847333 0 0.0034877099176112481 0.00055933017278479681 0 0.0039118010302952155 0.00091129923318974753 0 0.0039118010302952155 0.00091129923318974753 0 0.0042326324852077759 0.0012438737265313615 0 0.004084658038821902 0.0011638051170957482 0 0.0039118010302952155 0.00091129923318974753 0 0.0042326324852077759 0.0012438737265313615 0 0.0038480624834356745 0.00099676726788963947 0 0.0060928070747767018 -0.0006779836295088957 0 0.0058305780138682385 -0.00029014990805836832 0 0.0042326324852077759 0.0012438737265313615 0 0.004084658038821902 0.0011638051170957482 0 0.0043605506037402509 0.00093939719629881891 0 0.0042326324852077759 0.0012438737265313615 0 0.004830297664073782 0.0015131200869366839 0 0.0038480624834356745 0.00099676726788963947 0 0.0042326324852077759 0.0012438737265313615 0 0.004830297664073782 0.0015131200869366839 0 0.0043605506037402509 0.00093939719629881891 0 0.004830297664073782 0.0015131200869366839 0 0.0038480624834356745 0.00099676726788963947 0 0.0034176837327322429 0.00087202834944139071 0 0.0031071812406578635 0.00047616319942380997 0 0.0038480624834356745 0.00099676726788963947 0 0.0034176837327322429 0.00087202834944139071 0 0.0026784016598245678 0.00035943691854647372 0 0.0034176837327322429 0.00087202834944139071 0 0.0027637109081446553 0.0010155661480850137 0 0.004830297664073782 0.0015131200869366839 0 0.0034176837327322429 0.00087202834944139071 0 0.0027637109081446553 0.0010155661480850137 0 0.004830297664073782 0.0015131200869366839 0 0.0063613204627392681 0.002203532398507574 0 0.0062465218321004299 0.0026985735870415787 0 0.004830297664073782 0.0015131200869366839 0 0.0063360723658900291 0.001504497510913774 0 0.0063613204627392681 0.002203532398507574 0 0.0047234531342280903 0.0015363851315259045 0 0.0044988835235947582 0.0017528221594822647 0 0.0071275535126910051 0.0017157210487991751 0 0.0063360723658900291 0.001504497510913774 0 0.0063613204627392681 0.002203532398507574 0 0.0063613204627392681 0.002203532398507574 0 0.0062465218321004299 0.0026985735870415787 0 0.0060044997086297651 0.0026698124595878419 0 0.0050397241774450202 0.0011587362514054215 0 0.0062465218321004299 0.0026985735870415787 0 0.0060044997086297651 0.0026698124595878419 0 0.0098333492064335976 -0.0032598207352601827 0 0.010166567902511798 -0.0030828010251865998 0 0.0099087913438725209 -0.0028158964097905539 0 0.0066393784889190836 -0.0022560336901673176 0 0.0099361250877850332 -0.0032005120723102602 0 0.0098333492064335976 -0.0032598207352601827 0 0.010166567902511798 -0.0030828010251865998 0 0.0099237301977660453 -0.0033691633348248888 0 0.010579685596436012 -0.0031653217404813984 0 0.010166567902511798 -0.0030828010251865998 0 0.0099237301977660453 -0.0033691633348248888 0 0.010579685596436012 -0.0031653217404813984 0 0.010166567902511798 -0.0030828010251865998 0 0.010570623920027106 -0.002764975996419301 0 3.2456254577538596e-06 -0.0014261846133109186 0 -6.4787257213044702e-05 -0.0015046026384654765 0 -6.3246491423446611e-05 -0.001510513334540071 0 3.2456254577538596e-06 -0.0014261846133109186 0 -6.3246491423446611e-05 -0.001510513334540071 0 -5.922575830107102e-05 -0.0015008993621229423 0 0.005905438047537577 -0.0023416756586503891 0 0.0044016290349754312 -0.0018885996345612724 0 -7.9521402812927734e-05 -0.0015185235928791257 0 -6.4787257213044702e-05 -0.0015046026384654765 0 -6.3246491423446611e-05 -0.001510513334540071 0 -7.0691579298469428e-05 -0.0015177394629428134 0 -7.9521402812927734e-05 -0.0015185235928791257 0 -6.3246491423446611e-05 -0.001510513334540071 0 -7.0691579298469428e-05 -0.0015177394629428134 0 -6.3246491423446611e-05 -0.001510513334540071 0 -4.4945241658257821e-05 -0.0015138414195731897 0 -6.3246491423446611e-05 -0.001510513334540071 0 -4.7991829779650219e-05 -0.0015153556039945656 0 -4.4945241658257821e-05 -0.0015138414195731897 0 0.0017592131922471953 -0.0005811647318970613 0 0.0044016290349754312 -0.0018885996345612724 0 0.0045823444923215667 0.00046807208837151425 0 0.0045638178552227212 0.00032031323839492269 0 0.0043943200296543946 0.00040784557704352234 0 0.0066393784889190836 -0.0022560336901673176 0 0.0042480107600487097 -0.001298336440260532 0 0.0066393784889190836 -0.0022560336901673176 0 0.0044016290349754312 -0.0018885996345612724 0 0.0052660605448290347 -0.0018210710437463302 0 0.0051092579405682985 -0.0016353939662173691 0 0.0052939950350589637 -0.001592225223518255 0 0.0044016290349754312 -0.0018885996345612724 0 0.0042480107600487097 -0.001298336440260532 0 0.0045730553553630874 -0.00043691781899699445 0 0.004660432465052735 0.00034098452703268514 0 0.004353362714390391 0.00027479086745430578 0 0.0039804901218510906 -0.00016104115599471327 0 0.004353362714390391 0.00027479086745430578 0 0.0039946177266610211 0.00024291363307352051 0 0.0041689294300064177 0.00041402298277817368 0 0.004353362714390391 0.00027479086745430578 0 0.0039946177266610211 0.00024291363307352051 0 0.0041689294300064177 0.00041402298277817368 0 0.004353362714390391 0.00027479086745430578 0 0.0043943200296543946 0.00040784557704352234 0 0.0042480107600487097 -0.001298336440260532 0 0.0046119617895747592 -0.00042606162353912201 0 0.0045638178552227212 0.00032031323839492269 0 0.004353362714390391 0.00027479086745430578 0 0.0043943200296543946 0.00040784557704352234 0 0.0039804901218510906 -0.00016104115599471327 0 0.0036584480822976135 0.00017621716240062913 0 0.0039946177266610211 0.00024291363307352051 0 0.0041689294300064177 0.00041402298277817368 0 0.0039946177266610211 0.00024291363307352051 0 0.0039920843399257741 0.00056251491236910167 0 0.0036584480822976135 0.00017621716240062913 0 0.0039946177266610211 0.00024291363307352051 0 0.0039920843399257741 0.00056251491236910167 0 0.0036640730454627615 0.00049558097151847333 0 0.0036584480822976135 0.00017621716240062913 0 0.0039920843399257741 0.00056251491236910167 0 0.0039118010302952155 0.00091129923318974753 0 0.0039920843399257741 0.00056251491236910167 0 0.0042278837269787792 0.00088756474361519251 0 0.0036640730454627615 0.00049558097151847333 0 0.0039118010302952155 0.00091129923318974753 0 0.0039920843399257741 0.00056251491236910167 0 0.0066393784889190836 -0.0022560336901673176 0 0.006584570143530746 -0.0011533854077560531 0 0.0045823444923215667 0.00046807208837151425 0 0.004284246891294064 0.00055911258193117887 0 0.0042278837269787792 0.00088756474361519251 0 0.009533889839678367 -0.0040556694561998457 0 0.0088831892208989776 -0.003298881304877458 0 0.009696954445722137 -0.0031981824526827619 0 0.0045823444923215667 0.00046807208837151425 0 0.0043943200296543946 0.00040784557704352234 0 0.004284246891294064 0.00055911258193117887 0 0.0041689294300064177 0.00041402298277817368 0 0.0043943200296543946 0.00040784557704352234 0 0.004284246891294064 0.00055911258193117887 0 0.0041689294300064177 0.00041402298277817368 0 0.0039920843399257741 0.00056251491236910167 0 0.004284246891294064 0.00055911258193117887 0 0.0039920843399257741 0.00056251491236910167 0 0.004284246891294064 0.00055911258193117887 0 0.0042278837269787792 0.00088756474361519251 0 0.0088831892208989776 -0.003298881304877458 0 0.0090386632078143566 -0.0024884183684912671 0 0.009696954445722137 -0.0031981824526827619 0 0.0088831892208989776 -0.003298881304877458 0 0.0081175949610694954 -0.0025012295959628106 0 0.0090386632078143566 -0.0024884183684912671 0 0.006584570143530746 -0.0011533854077560531 0 0.0060928070747767018 -0.0006779836295088957 0 0.0039118010302952155 0.00091129923318974753 0 0.0042278837269787792 0.00088756474361519251 0 0.004084658038821902 0.0011638051170957482 0 0.0081175949610694954 -0.0025012295959628106 0 0.0090386632078143566 -0.0024884183684912671 0 0.0084070295781613468 -0.0014893883439799237 0 0.0090386632078143566 -0.0024884183684912671 0 0.0099056334378485999 -0.0022557835625675367 0 0.009696954445722137 -0.0031981824526827619 0 0.0099056334378485999 -0.0022557835625675367 0 0.0099087913438725209 -0.0028158964097905539 0 0.010364329962026488 -0.0024613076684566939 0 0.0098921253171217645 -0.0022383776643355542 0 0.0099361250877850332 -0.0032005120723102602 0 0.0099087913438725209 -0.0028158964097905539 0 0.010570623920027106 -0.002764975996419301 0 0.010364329962026488 -0.0024613076684566939 0 0.010166567902511798 -0.0030828010251865998 0 0.0099087913438725209 -0.0028158964097905539 0 0.010570623920027106 -0.002764975996419301 0 0.010930687808838442 -0.0023261714600149052 0 0.010570623920027106 -0.002764975996419301 0 0.010364329962026488 -0.0024613076684566939 0 0.0099056334378485999 -0.0022557835625675367 0 0.010364329962026488 -0.0024613076684566939 0 0.010598161453414049 -0.0020558235409137808 0 0.010930687808838442 -0.0023261714600149052 0 0.010364329962026488 -0.0024613076684566939 0 0.010598161453414049 -0.0020558235409137808 0 0.0099056334378485999 -0.0022557835625675367 0 0.010598161453414049 -0.0020558235409137808 0 0.01053089747867279 -0.001392285583234714 0 0.010598161453414049 -0.0020558235409137808 0 0.01053089747867279 -0.001392285583234714 0 0.011431937027296975 -0.001691722206901606 0 0.01053089747867279 -0.001392285583234714 0 0.010229853843363034 -0.00042194696987039128 0 0.011193009512240743 -0.00083725850522591678 0 0.0094423021896773342 -0.0012345774721621205 0 0.0093550974806481772 -0.00024314844457614667 0 0.010229853843363034 -0.00042194696987039128 0 0.01053089747867279 -0.001392285583234714 0 0.0094423021896773342 -0.0012345774721621205 0 0.010229853843363034 -0.00042194696987039128 0 0.0099056334378485999 -0.0022557835625675367 0 0.01053089747867279 -0.001392285583234714 0 0.0094423021896773342 -0.0012345774721621205 0 0.0090386632078143566 -0.0024884183684912671 0 0.0099056334378485999 -0.0022557835625675367 0 0.0094423021896773342 -0.0012345774721621205 0 0.0090386632078143566 -0.0024884183684912671 0 0.0084070295781613468 -0.0014893883439799237 0 0.0094423021896773342 -0.0012345774721621205 0 0.0081175949610694954 -0.0025012295959628106 0 0.0084070295781613468 -0.0014893883439799237 0 0.0072207309331260294 -0.001611276652075894 0 0.0084070295781613468 -0.0014893883439799237 0 0.0084107174884262125 -0.00028838103058743546 0 0.0075565535535384691 -0.00065617124256549416 0 0.0094423021896773342 -0.0012345774721621205 0 0.0093550974806481772 -0.00024314844457614667 0 0.0084107174884262125 -0.00028838103058743546 0 0.0084070295781613468 -0.0014893883439799237 0 0.0094423021896773342 -0.0012345774721621205 0 0.0084107174884262125 -0.00028838103058743546 0 0.0093550974806481772 -0.00024314844457614667 0 0.0084107174884262125 -0.00028838103058743546 0 0.0094235898956715764 0.00041904798846755019 0 0.0084107174884262125 -0.00028838103058743546 0 0.0079507380225120067 0.00031942846687344547 0 0.0073044606356661868 3.9046520025096218e-05 0 0.0079507380225120067 0.00031942846687344547 0 0.0094235898956715764 0.00041904798846755019 0 0.0081395312182391578 0.00088727380898895422 0 0.0084107174884262125 -0.00028838103058743546 0 0.0079507380225120067 0.00031942846687344547 0 0.0094235898956715764 0.00041904798846755019 0 0.0094235898956715764 0.00041904798846755019 0 0.010667477124586291 0.00056796992628398515 0 0.010229853843363034 -0.00042194696987039128 0 0.010229853843363034 -0.00042194696987039128 0 0.011540150520427686 -7.0491376607826183e-05 0 0.011193009512240743 -0.00083725850522591678 0 0.010667477124586291 0.00056796992628398515 0 0.010229853843363034 -0.00042194696987039128 0 0.011540150520427686 -7.0491376607826183e-05 0 0.0093550974806481772 -0.00024314844457614667 0 0.0094235898956715764 0.00041904798846755019 0 0.010229853843363034 -0.00042194696987039128 0 0.0067823529590144141 0.0010171979063826268 0 0.0064576943160533432 0.00049228256485105344 0 0.0070137812633523288 0.00058288489911715192 0 0.0067823529590144141 0.0010171979063826268 0 0.0060482167005968595 0.00085886251750621622 0 0.0064576943160533432 0.00049228256485105344 0 0.0074344388634462275 0.0010748683786003983 0 0.0067823529590144141 0.0010171979063826268 0 0.0070137812633523288 0.00058288489911715192 0 0.0063360723658900291 0.001504497510913774 0 0.0067823529590144141 0.0010171979063826268 0 0.0060482167005968595 0.00085886251750621622 0 0.0071275535126910051 0.0017157210487991751 0 0.0063360723658900291 0.001504497510913774 0 0.0067823529590144141 0.0010171979063826268 0 0.004830297664073782 0.0015131200869366839 0 0.0060482167005968595 0.00085886251750621622 0 0.0060769212284158504 -1.1452175483180399e-06 0 0.004830297664073782 0.0015131200869366839 0 0.0063360723658900291 0.001504497510913774 0 0.0060482167005968595 0.00085886251750621622 0 0.0060482167005968595 0.00085886251750621622 0 0.0064576943160533432 0.00049228256485105344 0 0.0060769212284158504 -1.1452175483180399e-06 0 0.0064576943160533432 0.00049228256485105344 0 0.0060769212284158504 -1.1452175483180399e-06 0 0.0066321925594210697 0.00032465550275781203 0 0.0059749389445445033 -4.1890254444909892e-05 0 0.0058305780138682385 -0.00029014990805836832 0 0.004830297664073782 0.0015131200869366839 0 0.0060769212284158504 -1.1452175483180399e-06 0 0.0043605506037402509 0.00093939719629881891 0 0.0084070295781613468 -0.0014893883439799237 0 0.0072207309331260294 -0.001611276652075894 0 0.0075565535535384691 -0.00065617124256549416 0 0.0060769212284158504 -1.1452175483180399e-06 0 0.0075565535535384691 -0.00065617124256549416 0 0.0073044606356661868 3.9046520025096218e-05 0 0.0060769212284158504 -1.1452175483180399e-06 0 0.0072207309331260294 -0.001611276652075894 0 0.0075565535535384691 -0.00065617124256549416 0 0.0079507380225120067 0.00031942846687344547 0 0.0073044606356661868 3.9046520025096218e-05 0 0.0069266637695096301 0.00035270742478456403 0 0.0084107174884262125 -0.00028838103058743546 0 0.0075565535535384691 -0.00065617124256549416 0 0.0073044606356661868 3.9046520025096218e-05 0 0.0079507380225120067 0.00031942846687344547 0 0.0069266637695096301 0.00035270742478456403 0 0.0073225144034723601 0.00055053481562389176 0 0.0079507380225120067 0.00031942846687344547 0 0.0073225144034723601 0.00055053481562389176 0 0.0081395312182391578 0.00088727380898895422 0 0.0069266637695096301 0.00035270742478456403 0 0.0069700670449372049 0.00046937900882233324 0 0.0073225144034723601 0.00055053481562389176 0 0.0069266637695096301 0.00035270742478456403 0 0.0068867033796547097 0.00039853688960762255 0 0.0069700670449372049 0.00046937900882233324 0 0.0060769212284158504 -1.1452175483180399e-06 0 0.0069266637695096301 0.00035270742478456403 0 0.0066321925594210697 0.00032465550275781203 0 0.0060769212284158504 -1.1452175483180399e-06 0 0.0073044606356661868 3.9046520025096218e-05 0 0.0069266637695096301 0.00035270742478456403 0 0.0064576943160533432 0.00049228256485105344 0 0.0066321925594210697 0.00032465550275781203 0 0.0070137812633523288 0.00058288489911715192 0 0.0069266637695096301 0.00035270742478456403 0 0.0066321925594210697 0.00032465550275781203 0 0.0068867033796547097 0.00039853688960762255 0 0.0066321925594210697 0.00032465550275781203 0 0.0068867033796547097 0.00039853688960762255 0 0.0071741986063101311 0.00039281377401392473 0 0.0068867033796547097 0.00039853688960762255 0 0.0071741986063101311 0.00039281377401392473 0 0.0071214015564929718 0.00035708601574984127 0 0.0066321925594210697 0.00032465550275781203 0 0.0071741986063101311 0.00039281377401392473 0 0.0070137812633523288 0.00058288489911715192 0 0.0078270611569204677 0.00057307564990990881 0 0.0071741986063101311 0.00039281377401392473 0 0.0070137812633523288 0.00058288489911715192 0 0.0073702301805488755 -0.00013252020225802639 0 0.0076500487791417828 0.00016139162560852114 0 0.0071214015564929718 0.00035708601574984127 0 0.0080825276361444921 0.000240075192527346 0 0.0071741986063101311 0.00039281377401392473 0 0.0076500487791417828 0.00016139162560852114 0 0.0071741986063101311 0.00039281377401392473 0 0.0076500487791417828 0.00016139162560852114 0 0.0071214015564929718 0.00035708601574984127 0 0.0073702301805488755 -0.00013252020225802639 0 0.0071214015564929718 0.00035708601574984127 0 0.0070862403912729599 0.00035324337853114501 0 0.0071214015564929718 0.00035708601574984127 0 0.0070862403912729599 0.00035324337853114501 0 0.0069700670449372049 0.00046937900882233324 0 0.0068867033796547097 0.00039853688960762255 0 0.0071214015564929718 0.00035708601574984127 0 0.0069700670449372049 0.00046937900882233324 0 0.0081610385322414443 0.00042102552650046177 0 0.0074592742812293776 0.00082951233897948491 0 0.007620722256554904 0.00026309578148657405 0 0.0077647950485022418 0.00017527395709170592 0 0.0072351909349357727 0.00082079785275404387 0 0.0081610385322414443 0.00042102552650046177 0 0.0074592742812293776 0.00082951233897948491 0 0.0073787308139531809 0.0011114820411508527 0 0.0073702301805488755 -0.00013252020225802639 0 0.0070862403912729599 0.00035324337853114501 0 0.0069653548298668298 0.0005796720108396401 0 0.0064659829564951898 0.00060464282919629384 0 0.0098884790416181156 0.0016361638945521506 0 0.0074592742812293776 0.00082951233897948491 0 0.0076178869836885316 0.0013268786768347223 0 0.0077501253860234173 0.0017967949266374278 0 0.0074592742812293776 0.00082951233897948491 0 0.0073787308139531809 0.0011114820411508527 0 0.0076178869836885316 0.0013268786768347223 0 0.0070862403912729599 0.00035324337853114501 0 0.0069653548298668298 0.0005796720108396401 0 0.0069700670449372049 0.00046937900882233324 0 0.0069653548298668298 0.0005796720108396401 0 0.0069700670449372049 0.00046937900882233324 0 0.0073225144034723601 0.00055053481562389176 0 0.0072351909349357727 0.00082079785275404387 0 0.0080941781985470786 0.00084455276966280727 0 0.0069653548298668298 0.0005796720108396401 0 0.0073225144034723601 0.00055053481562389176 0 0.0081395312182391578 0.00088727380898895422 0 0.0073787308139531809 0.0011114820411508527 0 0.0078699210595620309 0.0012790219769220506 0 0.0081395312182391578 0.00088727380898895422 0 0.0078699210595620309 0.0012790219769220506 0 0.0078288581372298709 0.0017518057986581404 0 0.0085994568272068674 0.0016420592672639904 0 0.0073787308139531809 0.0011114820411508527 0 0.0078699210595620309 0.0012790219769220506 0 0.0076178869836885316 0.0013268786768347223 0 0.0078699210595620309 0.0012790219769220506 0 0.0076178869836885316 0.0013268786768347223 0 0.0078288581372298709 0.0017518057986581404 0 0.0076178869836885316 0.0013268786768347223 0 0.0078288581372298709 0.0017518057986581404 0 0.0077501253860234173 0.0017967949266374278 0 0.014476600589168461 0.0038951241479384165 0 0.014274196620837032 0.0037812137997883383 0 0.014684796033066161 0.0036347786514385793 0 0.014361893546658584 0.0040306099303492647 0 0.014415142528111938 0.0039416057906669754 0 0.014274196620837032 0.0037812137997883383 0 0.0096301306779875192 0.0018164706847352801 0 0.0098884790416181156 0.0016361638945521506 0 0.0066378665701563111 0.00041703991421034893 0 0.0068349976981755831 0.0001698053646211714 0 0.0071839167995650282 0.00029749473670599149 0 0.014361893546658584 0.0040306099303492647 0 0.014415142528111938 0.0039416057906669754 0 0.014465988244338668 0.0038965497101597331 0 0.0098884790416181156 0.0016361638945521506 0 0.01141888107285401 0.002487634556162317 0 0.011936751663049333 0.0024261741905267174 0 0.01141888107285401 0.002487634556162317 0 0.014415142528111938 0.0039416057906669754 0 0.014476600589168461 0.0038951241479384165 0 0.014274196620837032 0.0037812137997883383 0 0.022492039357595729 -0.0015291480573221277 0 0.02174258977709392 -0.0019101268784242947 0 0.021951050342186126 -0.0012086851299939732 0 0.0183444201173661 0.0010033098192001049 0 0.017097581622429095 0.00093608424077205963 0 0.014274196620837032 0.0037812137997883383 0 0.014254599490868609 0.0034751356826032637 0 0.014684796033066161 0.0036347786514385793 0 0.01805003689051235 0.0012250565367929349 0 0.018137751766107126 0.0012611531482084558 0 0.018481349515750114 0.00074659138059894191 0 0.017097581622429095 0.00093608424077205963 0 0.0202173159536056 -0.00061458990690429365 0 0.017097581622429095 0.00093608424077205963 0 0.011821869549097103 -6.0751335133534024e-05 0 0.007290398119142916 -0.00020238846813482383 0 0.0071839167995650282 0.00029749473670599149 0 0.007620722256554904 0.00026309578148657405 0 0.0074592742812293776 0.00082951233897948491 0 0.0066378665701563111 0.00041703991421034893 0 0.0071839167995650282 0.00029749473670599149 0 0.0068349976981755831 0.0001698053646211714 0 0.007290398119142916 -0.00020238846813482383 0 0.0071839167995650282 0.00029749473670599149 0 0.011766030632255269 0.0027750978126634719 0 0.014184083376772984 -0.00048479839742931704 0 0.015111426456868795 -0.00010233808651180443 0 0.01141888107285401 0.002487634556162317 0 0.011821869549097103 -6.0751335133534024e-05 0 0.01141888107285401 0.002487634556162317 0 0.017097581622429095 0.00093608424077205963 0 0.0074592742812293776 0.00082951233897948491 0 0.0071839167995650282 0.00029749473670599149 0 0.007620722256554904 0.00026309578148657405 0 0.0081610385322414443 0.00042102552650046177 0 0.007620722256554904 0.00026309578148657405 0 0.0079227650221958389 -3.0970162466220751e-05 0 0.007290398119142916 -0.00020238846813482383 0 0.007620722256554904 0.00026309578148657405 0 0.0079227650221958389 -3.0970162466220751e-05 0 0.011821869549097103 -6.0751335133534024e-05 0 0.0063057599199470779 -0.00049029314264865021 0 0.007334537943256004 -0.00032973848844643656 0 0.0080230220107024696 -0.00047368942309911944 0 0.0079943500717218185 -0.00095916884625595273 0 0.011821869549097103 -6.0751335133534024e-05 0 0.01390566470648614 -1.7757967264707132e-07 0 0.018137751766107126 0.0012611531482084558 0 0.018481349515750114 0.00074659138059894191 0 0.018735684635773964 0.00077113329644931824 0 0.007334537943256004 -0.00032973848844643656 0 0.0079227650221958389 -3.0970162466220751e-05 0 0.0080230220107024696 -0.00047368942309911944 0 0.0080230220107024696 -0.00047368942309911944 0 0.0084331227898930342 -0.00055490122155818858 0 0.0079943500717218185 -0.00095916884625595273 0 0.0080230220107024696 -0.00047368942309911944 0 0.0084331227898930342 -0.00055490122155818858 0 0.0082835438140202687 -0.00015085162627920051 0 0.0086824848944759732 -0.00026340099545251388 0 0.0081610385322414443 0.00042102552650046177 0 0.0082835438140202687 -0.00015085162627920051 0 0.0079227650221958389 -3.0970162466220751e-05 0 0.0080230220107024696 -0.00047368942309911944 0 0.0082835438140202687 -0.00015085162627920051 0 0.0081610385322414443 0.00042102552650046177 0 0.0079227650221958389 -3.0970162466220751e-05 0 0.0082835438140202687 -0.00015085162627920051 0 0.010125986759924571 0.001437971265086009 0 0.0097422112627220149 0.0020804916653376195 0 0.010766631471559563 0.0023416419148860616 0 0.010125986759924571 0.001437971265086009 0 0.011165996917441984 0.0015207224278417097 0 0.010766631471559563 0.0023416419148860616 0 0.011165996917441984 0.0015207224278417097 0 0.011608880914375059 0.0022172885728636649 0 0.012054666442544179 0.0017168516875102247 0 0.010667477124586291 0.00056796992628398515 0 0.011165996917441984 0.0015207224278417097 0 0.01161089748203758 0.00097658823794376541 0 0.010667477124586291 0.00056796992628398515 0 0.010125986759924571 0.001437971265086009 0 0.011165996917441984 0.0015207224278417097 0 0.0094235898956715764 0.00041904798846755019 0 0.010667477124586291 0.00056796992628398515 0 0.010125986759924571 0.001437971265086009 0 0.0094235898956715764 0.00041904798846755019 0 0.010125986759924571 0.001437971265086009 0 0.0091606957823182084 0.0010574306322861501 0 0.0094235898956715764 0.00041904798846755019 0 0.0091606957823182084 0.0010574306322861501 0 0.0081395312182391578 0.00088727380898895422 0 0.0091606957823182084 0.0010574306322861501 0 0.0081395312182391578 0.00088727380898895422 0 0.0085994568272068674 0.0016420592672639904 0 0.0078699210595620309 0.0012790219769220506 0 0.0081395312182391578 0.00088727380898895422 0 0.0085994568272068674 0.0016420592672639904 0 0.0091606957823182084 0.0010574306322861501 0 0.0085994568272068674 0.0016420592672639904 0 0.0097422112627220149 0.0020804916653376195 0 0.010125986759924571 0.001437971265086009 0 0.0091606957823182084 0.0010574306322861501 0 0.0097422112627220149 0.0020804916653376195 0 0.0097422112627220149 0.0020804916653376195 0 0.0089013414421585946 0.0025881542256629927 0 0.01034193481114079 0.0031438379388019542 0 0.01167925817656738 0.0034236389858584956 0 0.011760985485652596 0.0033756003728157955 0 0.0085994568272068674 0.0016420592672639904 0 0.0097422112627220149 0.0020804916653376195 0 0.0089013414421585946 0.0025881542256629927 0 0.0078288581372298709 0.0017518057986581404 0 0.0085994568272068674 0.0016420592672639904 0 0.0089013414421585946 0.0025881542256629927 0 0.0098884790416181156 0.0016361638945521506 0 0.01167925817656738 0.0034236389858584956 0 0.014361893546658584 0.0040306099303492647 0 0.014274196620837032 0.0037812137997883383 0 0.013872313453387668 0.0038793084871996948 0 0.0078288581372298709 0.0017518057986581404 0 0.0077460573177072075 0.0018653666189969338 0 0.0089013414421585946 0.0025881542256629927 0 0.014254599490868609 0.0034751356826032637 0 0.013953857132618021 0.0036027614298060804 0 0.013805434979906803 0.0032853595429748663 0 0.014274196620837032 0.0037812137997883383 0 0.013872313453387668 0.0038793084871996948 0 0.013953857132618021 0.0036027614298060804 0 0.014274196620837032 0.0037812137997883383 0 0.014254599490868609 0.0034751356826032637 0 0.013953857132618021 0.0036027614298060804 0 0.013872313453387668 0.0038793084871996948 0 0.013953857132618021 0.0036027614298060804 0 0.013511865472397267 0.0035778804238208667 0 0.013511865472397267 0.0035778804238208667 0 0.013739657667502968 0.0033042952315962596 0 0.013245285887173117 0.0034091791505386072 0 0.013872313453387668 0.0038793084871996948 0 0.013511865472397267 0.0035778804238208667 0 0.013302023581811295 0.0037650480833205245 0 0.013953857132618021 0.0036027614298060804 0 0.013511865472397267 0.0035778804238208667 0 0.013805434979906803 0.0032853595429748663 0 0.012520674779225581 0.0049650242615376919 0 0.019889665957082164 0.00034863764548219499 0 0.01034193481114079 0.0031438379388019542 0 0.010766631471559563 0.0023416419148860616 0 0.012403963520752457 0.0033492765986568159 0 0.013511865472397267 0.0035778804238208667 0 0.013302023581811295 0.0037650480833205245 0 0.013245285887173117 0.0034091791505386072 0 0.013302023581811295 0.0037650480833205245 0 0.012403963520752457 0.0033492765986568159 0 0.013245285887173117 0.0034091791505386072 0 0.0097422112627220149 0.0020804916653376195 0 0.01034193481114079 0.0031438379388019542 0 0.010766631471559563 0.0023416419148860616 0 0.010766631471559563 0.0023416419148860616 0 0.011608880914375059 0.0022172885728636649 0 0.012403963520752457 0.0033492765986568159 0 0.011165996917441984 0.0015207224278417097 0 0.010766631471559563 0.0023416419148860616 0 0.011608880914375059 0.0022172885728636649 0 0.011760985485652596 0.0033756003728157955 0 0.012344226867068106 0.0034060491531698977 0 0.012403963520752457 0.0033492765986568159 0 0.012810486123935082 0.0028164448751994285 0 0.01285138171435795 0.0032592726011143654 0 0.012403963520752457 0.0033492765986568159 0 0.012810486123935082 0.0028164448751994285 0 0.012338516563044992 0.0024403967528810215 0 0.012810486123935082 0.0028164448751994285 0 0.012798187315437082 0.001985970325327538 0 0.013314935469024446 0.0023510992052127241 0 0.012810486123935082 0.0028164448751994285 0 0.012798187315437082 0.001985970325327538 0 0.012338516563044992 0.0024403967528810215 0 0.012798187315437082 0.001985970325327538 0 0.012338516563044992 0.0024403967528810215 0 0.012054666442544179 0.0017168516875102247 0 0.011608880914375059 0.0022172885728636649 0 0.012338516563044992 0.0024403967528810215 0 0.012054666442544179 0.0017168516875102247 0 0.011608880914375059 0.0022172885728636649 0 0.012403963520752457 0.0033492765986568159 0 0.012338516563044992 0.0024403967528810215 0 0.023514230720237166 -0.0024551482841548445 0 0.023254848748409697 -0.0024806487496321188 0 0.023563446766193413 -0.0025765989071248364 0 0.020108863170677681 -0.00061969506027321141 0 0.024521854577330977 -0.0032018385833984296 0 0.022565602445849688 -0.0020054238625870405 0 0.023507491727812645 -0.0027894576857068064 0 0.023563446766193413 -0.0025765989071248364 0 0.020108863170677681 -0.00061969506027321141 0 0.018691142535914456 1.3465377625147317e-05 0 0.013558078667774663 0.0029142710883744319 0 0.013314935469024446 0.0023510992052127241 0 0.014058939338725046 0.002357192937569654 0 0.012810486123935082 0.0028164448751994285 0 0.013558078667774663 0.0029142710883744319 0 0.013314935469024446 0.0023510992052127241 0 0.012798187315437082 0.001985970325327538 0 0.013314935469024446 0.0023510992052127241 0 0.013459409767117956 0.001580876052483233 0 0.013314935469024446 0.0023510992052127241 0 0.013459409767117956 0.001580876052483233 0 0.014058939338725046 0.002357192937569654 0 0.012798187315437082 0.001985970325327538 0 0.013459409767117956 0.001580876052483233 0 0.012570247722728512 0.0011100871536949388 0 0.013459409767117956 0.001580876052483233 0 0.013114388856826349 0.00068427405545207166 0 0.012570247722728512 0.0011100871536949388 0 0.013114388856826349 0.00068427405545207166 0 0.012570247722728512 0.0011100871536949388 0 0.012573749144988107 0.00022417523670059103 0 0.013459409767117956 0.001580876052483233 0 0.013114388856826349 0.00068427405545207166 0 0.013727219520678183 0.00074513102981202384 0 0.011165996917441984 0.0015207224278417097 0 0.012054666442544179 0.0017168516875102247 0 0.01161089748203758 0.00097658823794376541 0 0.012798187315437082 0.001985970325327538 0 0.012054666442544179 0.0017168516875102247 0 0.012570247722728512 0.0011100871536949388 0 0.012570247722728512 0.0011100871536949388 0 0.01161089748203758 0.00097658823794376541 0 0.012031898327763475 0.00049729051187918656 0 0.012054666442544179 0.0017168516875102247 0 0.012570247722728512 0.0011100871536949388 0 0.01161089748203758 0.00097658823794376541 0 0.010667477124586291 0.00056796992628398515 0 0.01161089748203758 0.00097658823794376541 0 0.011540150520427686 -7.0491376607826183e-05 0 0.01161089748203758 0.00097658823794376541 0 0.011540150520427686 -7.0491376607826183e-05 0 0.012031898327763475 0.00049729051187918656 0 0.011540150520427686 -7.0491376607826183e-05 0 0.012573749144988107 0.00022417523670059103 0 0.012517014021156677 -0.00041105274528925942 0 0.011540150520427686 -7.0491376607826183e-05 0 0.012517014021156677 -0.00041105274528925942 0 0.011980837669035918 -0.0010030294340446625 0 0.011540150520427686 -7.0491376607826183e-05 0 0.012031898327763475 0.00049729051187918656 0 0.012573749144988107 0.00022417523670059103 0 0.012570247722728512 0.0011100871536949388 0 0.012031898327763475 0.00049729051187918656 0 0.012573749144988107 0.00022417523670059103 0 0.013114388856826349 0.00068427405545207166 0 0.012573749144988107 0.00022417523670059103 0 0.013187492186005302 -2.8958707870491715e-05 0 0.013114388856826349 0.00068427405545207166 0 0.013727219520678183 0.00074513102981202384 0 0.013187492186005302 -2.8958707870491715e-05 0 0.013727219520678183 0.00074513102981202384 0 0.013187492186005302 -2.8958707870491715e-05 0 0.013768618972979322 0.00012862789906895294 0 0.012573749144988107 0.00022417523670059103 0 0.013187492186005302 -2.8958707870491715e-05 0 0.012517014021156677 -0.00041105274528925942 0 0.013187492186005302 -2.8958707870491715e-05 0 0.012517014021156677 -0.00041105274528925942 0 0.01285565307528139 -0.00088881696554249769 0 0.012517014021156677 -0.00041105274528925942 0 0.01285565307528139 -0.00088881696554249769 0 0.011980837669035918 -0.0010030294340446625 0 0.013187492186005302 -2.8958707870491715e-05 0 0.01285565307528139 -0.00088881696554249769 0 0.013569580369292794 -0.00059608102311193396 0 0.01285565307528139 -0.00088881696554249769 0 0.013163075314873558 -0.0012985084909250765 0 0.013569580369292794 -0.00059608102311193396 0 0.01285565307528139 -0.00088881696554249769 0 0.013163075314873558 -0.0012985084909250765 0 0.012709538585344083 -0.0013833502651421452 0 0.01285565307528139 -0.00088881696554249769 0 0.012709538585344083 -0.0013833502651421452 0 0.012449903759797659 -0.0012406763260556387 0 0.01285565307528139 -0.00088881696554249769 0 0.012449903759797659 -0.0012406763260556387 0 0.011980837669035918 -0.0010030294340446625 0 0.012455019789629498 -0.001414416172343829 0 0.012709538585344083 -0.0013833502651421452 0 0.012449903759797659 -0.0012406763260556387 0 0.012198130138762264 -0.0021182826110296587 0 0.011431937027296975 -0.001691722206901606 0 0.011980837669035918 -0.0010030294340446625 0 0.01225077440247822 -0.0014625269675900715 0 0.012449903759797659 -0.0012406763260556387 0 0.011980837669035918 -0.0010030294340446625 0 0.012346127039860768 -0.0018092995243599436 0 0.011979547232974999 -0.0010312062836884438 0 0.01225077440247822 -0.0014625269675900715 0 0.012455019789629498 -0.001414416172343829 0 0.012449903759797659 -0.0012406763260556387 0 0.011592688038076358 -0.0022281189714375566 0 0.012198130138762264 -0.0021182826110296587 0 0.011431937027296975 -0.001691722206901606 0 0.01053089747867279 -0.001392285583234714 0 0.011431937027296975 -0.001691722206901606 0 0.011193009512240743 -0.00083725850522591678 0 0.011540150520427686 -7.0491376607826183e-05 0 0.011193009512240743 -0.00083725850522591678 0 0.011980837669035918 -0.0010030294340446625 0 0.011431937027296975 -0.001691722206901606 0 0.011193009512240743 -0.00083725850522591678 0 0.011980837669035918 -0.0010030294340446625 0 0.013790661141846752 -0.00044678209087128067 0 0.014072164267756367 -1.6273106245431816e-05 0 0.013891793990019979 -0.000150543165837384 0 0.014032410162376815 -0.00010006935307967699 0 0.014086317705403403 2.8534710682485746e-05 0 0.013891793990019979 -0.000150543165837384 0 0.013570755947453756 -0.00016979848933094567 0 0.014086317705403403 2.8534710682485746e-05 0 0.013891793990019979 -0.000150543165837384 0 0.014032410162376815 -0.00010006935307967699 0 0.013972685702575293 -0.00026587816426728862 0 0.014032410162376815 -0.00010006935307967699 0 0.013972685702575293 -0.00026587816426728862 0 0.014031988954378545 -0.00017347087788464156 0 0.014127276779744855 -0.00050088949689790739 0 0.013797047454803342 -0.00059152167838587679 0 0.013972685702575293 -0.00026587816426728862 0 0.013972685702575293 -0.00026587816426728862 0 0.013989967131575807 -0.00021529325761001646 0 0.014031988954378545 -0.00017347087788464156 0 0.013979590584880087 -0.00020810863599657206 0 0.013972685702575293 -0.00026587816426728862 0 0.013989967131575807 -0.00021529325761001646 0 0.010227179501751303 -0.00095349676977231573 0 0.013981679423317206 -0.00098040480213530418 0 0.013503146925631896 -0.00061360525948178396 0 0.013751054247113479 -0.000345195103833125 0 0.013570755947453756 -0.00016979848933094567 0 0.013891793990019979 -0.000150543165837384 0 0.013751054247113479 -0.000345195103833125 0 0.013570755947453756 -0.00016979848933094567 0 0.013797047454803342 -0.00059152167838587679 0 0.013972685702575293 -0.00026587816426728862 0 0.013751054247113479 -0.000345195103833125 0 0.013891793990019979 -0.000150543165837384 0 0.013972685702575293 -0.00026587816426728862 0 0.013751054247113479 -0.000345195103833125 0 0.013131522422930933 -0.00063639464929309475 0 0.013503146925631896 -0.00061360525948178396 0 0.013570755947453756 -0.00016979848933094567 0 0.013621615813929599 -0.0011049996963949631 0 0.013790661141846752 -0.00044678209087128067 0 0.013713298566552786 -0.0015498037206355157 0 0.013569580369292794 -0.00059608102311193396 0 0.014106629244094913 -0.00067419627819977372 0 0.013713298566552786 -0.0015498037206355157 0 0.013163075314873558 -0.0012985084909250765 0 0.013569580369292794 -0.00059608102311193396 0 0.013569580369292794 -0.00059608102311193396 0 0.014106629244094913 -0.00067419627819977372 0 0.013960164730641491 -0.00014938367614632949 0 0.013960164730641491 -0.00014938367614632949 0 0.013768618972979322 0.00012862789906895294 0 0.014042378647846493 0.00019103327433458615 0 0.014106629244094913 -0.00067419627819977372 0 0.013960164730641491 -0.00014938367614632949 0 0.014086317705403403 2.8534710682485746e-05 0 0.013569580369292794 -0.00059608102311193396 0 0.013960164730641491 -0.00014938367614632949 0 0.013768618972979322 0.00012862789906895294 0 0.013187492186005302 -2.8958707870491715e-05 0 0.013569580369292794 -0.00059608102311193396 0 0.013768618972979322 0.00012862789906895294 0 0.013768618972979322 0.00012862789906895294 0 0.014042378647846493 0.00019103327433458615 0 0.013916305878221525 0.00061172258537332423 0 0.013506283504642395 -0.0011802452895164075 0 0.013164008604214881 -0.0014407637385499064 0 0.014042378647846493 0.00019103327433458615 0 0.014157623819002253 7.7240011825431475e-05 0 0.014109234782985206 0.00048480447194414558 0 0.014042378647846493 0.00019103327433458615 0 0.014086317705403403 2.8534710682485746e-05 0 0.014157623819002253 7.7240011825431475e-05 0 0.013960164730641491 -0.00014938367614632949 0 0.014042378647846493 0.00019103327433458615 0 0.014086317705403403 2.8534710682485746e-05 0 0.014032410162376815 -0.00010006935307967699 0 0.014089724714495046 -2.7284987163740866e-05 0 0.014081186611476584 -0.00011501975629974269 0 0.014089724714495046 -2.7284987163740866e-05 0 0.014157623819002253 7.7240011825431475e-05 0 0.014081186611476584 -0.00011501975629974269 0 0.014032410162376815 -0.00010006935307967699 0 0.014086317705403403 2.8534710682485746e-05 0 0.014089724714495046 -2.7284987163740866e-05 0 0.014086317705403403 2.8534710682485746e-05 0 0.014089724714495046 -2.7284987163740866e-05 0 0.014157623819002253 7.7240011825431475e-05 0 0.013291333371506156 -0.0034507474331303884 0 0.012424335909875949 -0.0043694233101017532 0 0.0118296909527329 -0.0032736298825363787 0 0.012351825921458096 -0.0025113633660412533 0 0.013291333371506156 -0.0034507474331303884 0 0.0118296909527329 -0.0032736298825363787 0 0.013291333371506156 -0.0034507474331303884 0 0.012424335909875949 -0.0043694233101017532 0 0.014205387651085368 -0.0043301622448092608 0 0.013727219520678183 0.00074513102981202384 0 0.013768618972979322 0.00012862789906895294 0 0.013916305878221525 0.00061172258537332423 0 0.014042378647846493 0.00019103327433458615 0 0.014109234782985206 0.00048480447194414558 0 0.013916305878221525 0.00061172258537332423 0 0.014109234782985206 0.00048480447194414558 0 0.013916305878221525 0.00061172258537332423 0 0.013923116148195263 0.0007748652118297289 0 0.013164008604214881 -0.0014407637385499064 0 0.017031431753035269 -0.0012638403369623868 0 0.013727219520678183 0.00074513102981202384 0 0.013916305878221525 0.00061172258537332423 0 0.013923116148195263 0.0007748652118297289 0 0.013459409767117956 0.001580876052483233 0 0.013727219520678183 0.00074513102981202384 0 0.014659852661700045 0.0016637001385846771 0 0.013109257122927494 0.0013970748560457888 0 0.017031431753035269 -0.0012638403369623868 0 0.013459409767117956 0.001580876052483233 0 0.014659852661700045 0.0016637001385846771 0 0.014058939338725046 0.002357192937569654 0 0.023833605242315099 -0.003098550173324673 0 0.023507491727812645 -0.0027894576857068064 0 0.023884437039176809 -0.0027553488485929194 0 0.017031431753035269 -0.0012638403369623868 0 0.018691142535914456 1.3465377625147317e-05 0 0.023833605242315099 -0.003098550173324673 0 0.023884437039176809 -0.0027553488485929194 0 0.024310872080570332 -0.002622396174492162 0 0.017031431753035269 -0.0012638403369623868 0 0.019032826103121802 -0.0045174029406143297 0 0.023884437039176809 -0.0027553488485929194 0 0.02395536344339437 -0.0024653135014970867 0 0.024310872080570332 -0.002622396174492162 0 0.02395536344339437 -0.0024653135014970867 0 0.024310872080570332 -0.002622396174492162 0 0.024122194538174893 -0.0023008745748568141 0 0.023507491727812645 -0.0027894576857068064 0 0.023884437039176809 -0.0027553488485929194 0 0.023731046280179253 -0.0025924749670450577 0 0.023884437039176809 -0.0027553488485929194 0 0.02395536344339437 -0.0024653135014970867 0 0.023731046280179253 -0.0025924749670450577 0 0.02395536344339437 -0.0024653135014970867 0 0.023711313280269368 -0.0024620141000048735 0 0.023837757912002506 -0.0023047758533185927 0 0.02395536344339437 -0.0024653135014970867 0 0.023731046280179253 -0.0025924749670450577 0 0.023711313280269368 -0.0024620141000048735 0 0.023514230720237166 -0.0024551482841548445 0 0.023711313280269368 -0.0024620141000048735 0 0.023638043078350289 -0.0023469920464258341 0 0.023514230720237166 -0.0024551482841548445 0 0.023711313280269368 -0.0024620141000048735 0 0.023563446766193413 -0.0025765989071248364 0 0.023731046280179253 -0.0025924749670450577 0 0.023711313280269368 -0.0024620141000048735 0 0.023563446766193413 -0.0025765989071248364 0 0.023507491727812645 -0.0027894576857068064 0 0.023731046280179253 -0.0025924749670450577 0 0.023563446766193413 -0.0025765989071248364 0 0.013396111648008645 -0.0053122084012252532 0 0.012651296154073292 -0.0062364009506733938 0 0.011874518344852668 -0.0054016931668859737 0 0.012424335909875949 -0.0043694233101017532 0 0.013396111648008645 -0.0053122084012252532 0 0.011874518344852668 -0.0054016931668859737 0 0.012424335909875949 -0.0043694233101017532 0 0.014205387651085368 -0.0043301622448092608 0 0.013396111648008645 -0.0053122084012252532 0 0.019032826103121802 -0.0045174029406143297 0 0.018620942091940682 -0.0031023005540630169 0 0.018620942091940682 -0.0031023005540630169 0 0.017915120446635385 -0.0032248033965625489 0 0.024600941212777328 -0.0020353797919815566 0 0.024566302285764875 -0.0019830392451557445 0 0.024518650645107051 -0.0020302112621356739 0 0.024518650645107051 -0.0020302112621356739 0 0.024554190432364863 -0.0019726865618568015 0 0.024563303367888915 -0.0019551657082190195 0 0.024566302285764875 -0.0019830392451557445 0 0.024518650645107051 -0.0020302112621356739 0 0.024563303367888915 -0.0019551657082190195 0 0.024600941212777328 -0.0020353797919815566 0 0.024554507670009058 -0.0019116912008971302 0 0.024528486162168781 -0.001849033403559214 0 0.024600941212777328 -0.0020353797919815566 0 0.024566302285764875 -0.0019830392451557445 0 0.024554507670009058 -0.0019116912008971302 0 0.018620942091940682 -0.0031023005540630169 0 0.020549663028471974 -0.0017242061109658785 0 0.024566302285764875 -0.0019830392451557445 0 0.024554507670009058 -0.0019116912008971302 0 0.024563303367888915 -0.0019551657082190195 0 0.024554507670009058 -0.0019116912008971302 0 0.024528486162168781 -0.001849033403559214 0 0.024529546505494649 -0.0019259168298033809 0 0.024632886148008078 -0.0016774347128988337 0 0.024528486162168781 -0.001849033403559214 0 0.024340610614126134 -0.001793605310725502 0 0.024632886148008078 -0.0016774347128988337 0 0.024340610614126134 -0.001793605310725502 0 0.024017833238614884 -0.0015216289935198551 0 0.024310872080570332 -0.002622396174492162 0 0.024600941212777328 -0.0020353797919815566 0 0.024465576746751087 -0.0021289772127585605 0 0.024310872080570332 -0.002622396174492162 0 0.024465576746751087 -0.0021289772127585605 0 0.024307501416903892 -0.0021668833345565904 0 0.024465576746751087 -0.0021289772127585605 0 0.024518650645107051 -0.0020302112621356739 0 0.024504063670347805 -0.0020212336365609727 0 0.024600941212777328 -0.0020353797919815566 0 0.024465576746751087 -0.0021289772127585605 0 0.024518650645107051 -0.0020302112621356739 0 0.024465576746751087 -0.0021289772127585605 0 0.024402023333256549 -0.0020644046672526595 0 0.024504063670347805 -0.0020212336365609727 0 0.024465576746751087 -0.0021289772127585605 0 0.024402023333256549 -0.0020644046672526595 0 0.024307501416903892 -0.0021668833345565904 0 0.024402023333256549 -0.0020644046672526595 0 0.024514448839143381 -0.0019951834920285713 0 0.024459128392040709 -0.0019956841887087563 0 0.024402023333256549 -0.0020644046672526595 0 0.024514448839143381 -0.0019951834920285713 0 0.024504063670347805 -0.0020212336365609727 0 0.024550539985651616 -0.0019842704119381232 0 0.024586223739845758 -0.0019686469751661207 0 0.024562658665666766 -0.0019783658821745818 0 0.024514448839143381 -0.0019951834920285713 0 0.024504063670347805 -0.0020212336365609727 0 0.024562658665666766 -0.0019783658821745818 0 0.024550539985651616 -0.0019842704119381232 0 0.024504063670347805 -0.0020212336365609727 0 0.024562658665666766 -0.0019783658821745818 0 0.024518650645107051 -0.0020302112621356739 0 0.024550539985651616 -0.0019842704119381232 0 0.024504063670347805 -0.0020212336365609727 0 0.024518650645107051 -0.0020302112621356739 0 0.024550539985651616 -0.0019842704119381232 0 0.024557531170516896 -0.0019752550487883423 0 0.024518650645107051 -0.0020302112621356739 0 0.024557531170516896 -0.0019752550487883423 0 0.024554190432364863 -0.0019726865618568015 0 0.024550539985651616 -0.0019842704119381232 0 0.024557531170516896 -0.0019752550487883423 0 0.024570615713557443 -0.0019695028624862939 0 0.024550539985651616 -0.0019842704119381232 0 0.024570615713557443 -0.0019695028624862939 0 0.024586223739845758 -0.0019686469751661207 0 0.024586223739845758 -0.0019686469751661207 0 0.024622297562181449 -0.0019614249066152332 0 0.024598897686744715 -0.0019785682329070092 0 0.024622297562181449 -0.0019614249066152332 0 0.024598897686744715 -0.0019785682329070092 0 0.024645841258403984 -0.0019719018494892726 0 0.024622297562181449 -0.0019614249066152332 0 0.024645841258403984 -0.0019719018494892726 0 0.024679026638190025 -0.001947964128521124 0 0.024620910269698128 -0.0019545538402794653 0 0.024679026638190025 -0.001947964128521124 0 0.024632634432469845 -0.00194028617735187 0 0.024622297562181449 -0.0019614249066152332 0 0.024620910269698128 -0.0019545538402794653 0 0.024679026638190025 -0.001947964128521124 0 0.024622297562181449 -0.0019614249066152332 0 0.024620910269698128 -0.0019545538402794653 0 0.024575762051383194 -0.001969556436413208 0 0.024622297562181449 -0.0019614249066152332 0 0.024562658665666766 -0.0019783658821745818 0 0.024575762051383194 -0.001969556436413208 0 0.024586223739845758 -0.0019686469751661207 0 0.024622297562181449 -0.0019614249066152332 0 0.024562658665666766 -0.0019783658821745818 0 0.024514448839143381 -0.0019951834920285713 0 0.024575762051383194 -0.001969556436413208 0 0.024551308689824237 -0.0019648003432708315 0 0.024514448839143381 -0.0019951834920285713 0 0.024562658665666766 -0.0019783658821745818 0 0.024575762051383194 -0.001969556436413208 0 0.024620910269698128 -0.0019545538402794653 0 0.024575762051383194 -0.001969556436413208 0 0.024551308689824237 -0.0019648003432708315 0 0.024620910269698128 -0.0019545538402794653 0 0.024551308689824237 -0.0019648003432708315 0 0.024632634432469845 -0.00194028617735187 0 0.024551308689824237 -0.0019648003432708315 0 0.024632634432469845 -0.00194028617735187 0 0.024504485894989457 -0.0019445749036723112 0 0.024551308689824237 -0.0019648003432708315 0 0.024459128392040709 -0.0019956841887087563 0 0.024504485894989457 -0.0019445749036723112 0 0.024514448839143381 -0.0019951834920285713 0 0.024551308689824237 -0.0019648003432708315 0 0.024459128392040709 -0.0019956841887087563 0 0.024386065568544908 -0.0019199743166341586 0 0.024529546505494649 -0.0019259168298033809 0 0.02449696605688674 -0.0019679343909340058 0 0.024386065568544908 -0.0019199743166341586 0 0.02449696605688674 -0.0019679343909340058 0 0.024308961614365271 -0.0020279060422402702 0 0.024386065568544908 -0.0019199743166341586 0 0.024308961614365271 -0.0020279060422402702 0 0.024179976156525847 -0.0019086518856058453 0 0.024340610614126134 -0.001793605310725502 0 0.024386065568544908 -0.0019199743166341586 0 0.024179976156525847 -0.0019086518856058453 0 0.024528486162168781 -0.001849033403559214 0 0.024340610614126134 -0.001793605310725502 0 0.024386065568544908 -0.0019199743166341586 0 0.024528486162168781 -0.001849033403559214 0 0.024386065568544908 -0.0019199743166341586 0 0.024529546505494649 -0.0019259168298033809 0 0.024529546505494649 -0.0019259168298033809 0 0.024563303367888915 -0.0019551657082190195 0 0.024555877206365085 -0.0019536312085213191 0 0.024554507670009058 -0.0019116912008971302 0 0.024529546505494649 -0.0019259168298033809 0 0.024563303367888915 -0.0019551657082190195 0 0.024554190432364863 -0.0019726865618568015 0 0.024563303367888915 -0.0019551657082190195 0 0.024555877206365085 -0.0019536312085213191 0 0.024557531170516896 -0.0019752550487883423 0 0.024554190432364863 -0.0019726865618568015 0 0.024555877206365085 -0.0019536312085213191 0 0.024570615713557443 -0.0019695028624862939 0 0.024555877206365085 -0.0019536312085213191 0 0.024566058850357793 -0.0019683763447717294 0 0.024557531170516896 -0.0019752550487883423 0 0.024570615713557443 -0.0019695028624862939 0 0.024555877206365085 -0.0019536312085213191 0 0.024529546505494649 -0.0019259168298033809 0 0.024555877206365085 -0.0019536312085213191 0 0.02449696605688674 -0.0019679343909340058 0 0.024555877206365085 -0.0019536312085213191 0 0.02449696605688674 -0.0019679343909340058 0 0.024566058850357793 -0.0019683763447717294 0 0.02449696605688674 -0.0019679343909340058 0 0.024566058850357793 -0.0019683763447717294 0 0.02451232384918443 -0.0020104567983393082 0 0.024570615713557443 -0.0019695028624862939 0 0.024586223739845758 -0.0019686469751661207 0 0.024566058850357793 -0.0019683763447717294 0 0.024586223739845758 -0.0019686469751661207 0 0.024566058850357793 -0.0019683763447717294 0 0.024598897686744715 -0.0019785682329070092 0 0.024566058850357793 -0.0019683763447717294 0 0.024598897686744715 -0.0019785682329070092 0 0.02451232384918443 -0.0020104567983393082 0 0.024598897686744715 -0.0019785682329070092 0 0.02451232384918443 -0.0020104567983393082 0 0.024576654825231116 -0.0020177510781809599 0 0.02451232384918443 -0.0020104567983393082 0 0.024308961614365271 -0.0020279060422402702 0 0.024397405934040516 -0.0021131071727710886 0 0.02449696605688674 -0.0019679343909340058 0 0.02451232384918443 -0.0020104567983393082 0 0.024308961614365271 -0.0020279060422402702 0 0.024555370133044041 -0.0020843637452000706 0 0.02514345279349264 -0.0018402872872386969 0 0.024310502268660026 -0.0022937575730194218 0 0.02451232384918443 -0.0020104567983393082 0 0.024397405934040516 -0.0021131071727710886 0 0.024576654825231116 -0.0020177510781809599 0 0.024308961614365271 -0.0020279060422402702 0 0.024397405934040516 -0.0021131071727710886 0 0.024224756806049103 -0.0022878507345204763 0 0.025149788889773497 -0.0018814104941953104 0 0.026570734600541296 -0.0018977748847627024 0 0.024397405934040516 -0.0021131071727710886 0 0.02439629425873235 -0.0021432201831347777 0 0.024555370133044041 -0.0020843637452000706 0 0.024397405934040516 -0.0021131071727710886 0 0.02439629425873235 -0.0021432201831347777 0 0.024280059234267782 -0.0021386446207872561 0 0.02439629425873235 -0.0021432201831347777 0 0.024555370133044041 -0.0020843637452000706 0 0.024310502268660026 -0.0022937575730194218 0 0.024555370133044041 -0.0020843637452000706 0 0.024576654825231116 -0.0020177510781809599 0 0.024694673853376863 -0.0019671191508432587 0 0.024397405934040516 -0.0021131071727710886 0 0.024555370133044041 -0.0020843637452000706 0 0.024576654825231116 -0.0020177510781809599 0 0.024598897686744715 -0.0019785682329070092 0 0.024576654825231116 -0.0020177510781809599 0 0.024645841258403984 -0.0019719018494892726 0 0.024576654825231116 -0.0020177510781809599 0 0.024645841258403984 -0.0019719018494892726 0 0.024694673853376863 -0.0019671191508432587 0 0.024645841258403984 -0.0019719018494892726 0 0.024679026638190025 -0.001947964128521124 0 0.024694673853376863 -0.0019671191508432587 0 0.024555370133044041 -0.0020843637452000706 0 0.024694673853376863 -0.0019671191508432587 0 0.024836252598235839 -0.0019126899556495029 0 0.024555370133044041 -0.0020843637452000706 0 0.02514345279349264 -0.0018402872872386969 0 0.024836252598235839 -0.0019126899556495029 0 0.024679026638190025 -0.001947964128521124 0 0.024741524458437591 -0.0019309862036729387 0 0.024694673853376863 -0.0019671191508432587 0 0.024679026638190025 -0.001947964128521124 0 0.024741524458437591 -0.0019309862036729387 0 0.024632634432469845 -0.00194028617735187 0 0.024741524458437591 -0.0019309862036729387 0 0.024694673853376863 -0.0019671191508432587 0 0.024836252598235839 -0.0019126899556495029 0 0.024611055423750191 -0.0019191786228409523 0 0.024551735001074552 -0.0018883604043825192 0 0.024504485894989457 -0.0019445749036723112 0 0.024611055423750191 -0.0019191786228409523 0 0.024632634432469845 -0.00194028617735187 0 0.024504485894989457 -0.0019445749036723112 0 0.024611055423750191 -0.0019191786228409523 0 0.024632634432469845 -0.00194028617735187 0 0.024712872629615166 -0.0019066202060407016 0 0.024741524458437591 -0.0019309862036729387 0 0.024632634432469845 -0.00194028617735187 0 0.024712872629615166 -0.0019066202060407016 0 0.024741524458437591 -0.0019309862036729387 0 0.024712872629615166 -0.0019066202060407016 0 0.024836252598235839 -0.0019126899556495029 0 0.024611055423750191 -0.0019191786228409523 0 0.024682661334439613 -0.0018803792034358922 0 0.024551735001074552 -0.0018883604043825192 0 0.024611055423750191 -0.0019191786228409523 0 0.024712872629615166 -0.0019066202060407016 0 0.024682661334439613 -0.0018803792034358922 0 0.024712872629615166 -0.0019066202060407016 0 0.024682661334439613 -0.0018803792034358922 0 0.024826979254410568 -0.0018715756504282721 0 0.024826979254410568 -0.0018715756504282721 0 0.024662671423981545 -0.0017520060525925425 0 0.024571059208298142 -0.0017973475438869933 0 0.024682661334439613 -0.0018803792034358922 0 0.024826979254410568 -0.0018715756504282721 0 0.024571059208298142 -0.0017973475438869933 0 0.024712872629615166 -0.0019066202060407016 0 0.024826979254410568 -0.0018715756504282721 0 0.024836252598235839 -0.0019126899556495029 0 0.024826979254410568 -0.0018715756504282721 0 0.02514345279349264 -0.0018402872872386969 0 0.024836252598235839 -0.0019126899556495029 0 0.024826979254410568 -0.0018715756504282721 0 0.02514345279349264 -0.0018402872872386969 0 0.024662671423981545 -0.0017520060525925425 0 0.027739571413660104 -0.00059821767413063723 0 0.026437843929672362 -0.00089260259668549652 0 0.028080168141734731 -0.000317207201739852 0 0.027873915694380875 -0.00061413270741380145 0 0.028305541421111895 -0.00029549324103432279 0 0.02514345279349264 -0.0018402872872386969 0 0.027873915694380875 -0.00061413270741380145 0 0.024490324084538353 -0.0014484572141570692 0 0.02514345279349264 -0.0018402872872386969 0 0.024490324084538353 -0.0014484572141570692 0 0.024662671423981545 -0.0017520060525925425 0 0.028080168141734731 -0.000317207201739852 0 0.028287062746303524 -0.00022215652371301441 0 0.028305541421111895 -0.00029549324103432279 0 0.028080168141734731 -0.000317207201739852 0 0.028287062746303524 -0.00022215652371301441 0 0.028295203271208543 -0.0002758188332782558 0 0.028080168141734731 -0.000317207201739852 0 0.027873915694380875 -0.00061413270741380145 0 0.02791251910375039 -0.0002407746529670326 0 0.02514345279349264 -0.0018402872872386969 0 0.027873915694380875 -0.00061413270741380145 0 0.02883268044018987 -0.0017590225264007234 0 0.027873915694380875 -0.00061413270741380145 0 0.027747832443396618 -3.9922967023109864e-05 0 0.02883268044018987 -0.0017590225264007234 0 0.028847803255497385 -0.00063131496990651145 0 0.028757048946714745 -0.000416348632382277 0 0.028751873530138923 -0.00056648051875930771 0 0.027873915694380875 -0.00061413270741380145 0 0.027747832443396618 -3.9922967023109864e-05 0 0.02791251910375039 -0.0002407746529670326 0 0.028627349907723067 -0.00029354953087963798 0 0.026570734600541296 -0.0018977748847627024 0 0.028651896981549921 -0.00046386273890192023 0 0.028328552134656609 -0.00016170585231548858 0 0.028841914851546576 -0.00070866527312462549 0 0.028282009236795871 -0.00018254122016577858 0 0.027295962570335584 -0.00048634788747604614 0 0.028328552134656609 -0.00016170585231548858 0 0.027604325160987972 -0.00040175278139125933 0 0.02612169612803119 -0.00019072784935493577 0 0.028764541351582226 -0.00060340223197698944 0 0.028651896981549921 -0.00046386273890192023 0 0.028841914851546576 -0.00070866527312462549 0 0.028764541351582226 -0.00060340223197698944 0 0.028651896981549921 -0.00046386273890192023 0 0.028696554288600344 -0.0005027299643304904 0 0.028305541421111895 -0.00029549324103432279 0 0.027604325160987972 -0.00040175278139125933 0 0.026930080331739943 -0.00082826964983389304 0 0.028328552134656609 -0.00016170585231548858 0 0.028287062746303524 -0.00022215652371301441 0 0.028295203271208543 -0.0002758188332782558 0 0.028328552134656609 -0.00016170585231548858 0 0.028287062746303524 -0.00022215652371301441 0 0.028027230021653447 -0.00029156960537589908 0 0.028027230021653447 -0.00029156960537589908 0 0.028305541421111895 -0.00029549324103432279 0 0.027604325160987972 -0.00040175278139125933 0 0.028287062746303524 -0.00022215652371301441 0 0.028027230021653447 -0.00029156960537589908 0 0.028305541421111895 -0.00029549324103432279 0 0.028328552134656609 -0.00016170585231548858 0 0.028027230021653447 -0.00029156960537589908 0 0.027604325160987972 -0.00040175278139125933 0 0.024241244639477778 -0.0017162563318248636 0 0.024333611423542446 -0.0016370153100033094 0 0.023886812356868733 -0.0015825546653359189 0 0.026437843929672362 -0.00089260259668549652 0 0.025380224162715154 -0.0011876003029832234 0 0.024490324084538353 -0.0014484572141570692 0 0.024333611423542446 -0.0016370153100033094 0 0.023886812356868733 -0.0015825546653359189 0 0.024241244639477778 -0.0017162563318248636 0 0.024333611423542446 -0.0016370153100033094 0 0.024571059208298142 -0.0017973475438869933 0 0.024490324084538353 -0.0014484572141570692 0 0.024662671423981545 -0.0017520060525925425 0 0.024333611423542446 -0.0016370153100033094 0 0.024662671423981545 -0.0017520060525925425 0 0.024333611423542446 -0.0016370153100033094 0 0.024571059208298142 -0.0017973475438869933 0 0.024241244639477778 -0.0017162563318248636 0 0.024571059208298142 -0.0017973475438869933 0 0.024367538354975189 -0.0018573981104895714 0 0.024682661334439613 -0.0018803792034358922 0 0.024571059208298142 -0.0017973475438869933 0 0.024551735001074552 -0.0018883604043825192 0 0.024571059208298142 -0.0017973475438869933 0 0.024551735001074552 -0.0018883604043825192 0 0.024367538354975189 -0.0018573981104895714 0 0.024551735001074552 -0.0018883604043825192 0 0.024367538354975189 -0.0018573981104895714 0 0.024504485894989457 -0.0019445749036723112 0 0.024241244639477778 -0.0017162563318248636 0 0.024367538354975189 -0.0018573981104895714 0 0.024097059404637466 -0.0017769422800921889 0 0.024367538354975189 -0.0018573981104895714 0 0.024097059404637466 -0.0017769422800921889 0 0.024184611548401024 -0.0018984095879295796 0 0.024097059404637466 -0.0017769422800921889 0 0.023881938311738026 -0.0017747773671211266 0 0.023886812356868733 -0.0015825546653359189 0 0.027604325160987972 -0.00040175278139125933 0 0.026930080331739943 -0.00082826964983389304 0 0.02612169612803119 -0.00019072784935493577 0 0.024097059404637466 -0.0017769422800921889 0 0.023881938311738026 -0.0017747773671211266 0 0.023982282712290852 -0.0018993882540906662 0 0.024241244639477778 -0.0017162563318248636 0 0.024097059404637466 -0.0017769422800921889 0 0.023886812356868733 -0.0015825546653359189 0 0.023881938311738026 -0.0017747773671211266 0 0.023886812356868733 -0.0015825546653359189 0 0.023644520282566521 -0.0017487271116068911 0 0.023786010974979795 -0.0018753768557958177 0 0.023644520282566521 -0.0017487271116068911 0 0.023564048070000534 -0.0020174396027783773 0 0.023881938311738026 -0.0017747773671211266 0 0.023786010974979795 -0.0018753768557958177 0 0.023644520282566521 -0.0017487271116068911 0 0.023786010974979795 -0.0018753768557958177 0 0.023982282712290852 -0.0018993882540906662 0 0.023799979207376917 -0.0020100335783683576 0 0.023881938311738026 -0.0017747773671211266 0 0.023786010974979795 -0.0018753768557958177 0 0.023982282712290852 -0.0018993882540906662 0 0.023799979207376917 -0.0020100335783683576 0 0.02373874468066749 -0.0021798077865876632 0 0.023957160461044825 -0.002139160472839552 0 0.023982282712290852 -0.0018993882540906662 0 0.023962505872927416 -0.0020193085788800199 0 0.023799979207376917 -0.0020100335783683576 0 0.023982282712290852 -0.0018993882540906662 0 0.023962505872927416 -0.0020193085788800199 0 0.024129260490569061 -0.0020107015594950169 0 0.023962505872927416 -0.0020193085788800199 0 0.024129260490569061 -0.0020107015594950169 0 0.023957160461044825 -0.002139160472839552 0 0.023962505872927416 -0.0020193085788800199 0 0.023799979207376917 -0.0020100335783683576 0 0.023957160461044825 -0.002139160472839552 0 0.023799979207376917 -0.0020100335783683576 0 0.02373874468066749 -0.0021798077865876632 0 0.023564048070000534 -0.0020174396027783773 0 0.023786010974979795 -0.0018753768557958177 0 0.023799979207376917 -0.0020100335783683576 0 0.023564048070000534 -0.0020174396027783773 0 0.0243415911707008 -0.0019391091445613755 0 0.024129260490569061 -0.0020107015594950169 0 0.024326754226618098 -0.0020187055752778301 0 0.024504485894989457 -0.0019445749036723112 0 0.0243415911707008 -0.0019391091445613755 0 0.024326754226618098 -0.0020187055752778301 0 0.024459128392040709 -0.0019956841887087563 0 0.024504485894989457 -0.0019445749036723112 0 0.024326754226618098 -0.0020187055752778301 0 0.024367538354975189 -0.0018573981104895714 0 0.024504485894989457 -0.0019445749036723112 0 0.0243415911707008 -0.0019391091445613755 0 0.0243415911707008 -0.0019391091445613755 0 0.024184611548401024 -0.0018984095879295796 0 0.024129260490569061 -0.0020107015594950169 0 0.024367538354975189 -0.0018573981104895714 0 0.0243415911707008 -0.0019391091445613755 0 0.024184611548401024 -0.0018984095879295796 0 0.024097059404637466 -0.0017769422800921889 0 0.023982282712290852 -0.0018993882540906662 0 0.024184611548401024 -0.0018984095879295796 0 0.023982282712290852 -0.0018993882540906662 0 0.024184611548401024 -0.0018984095879295796 0 0.024129260490569061 -0.0020107015594950169 0 0.024129260490569061 -0.0020107015594950169 0 0.024189770547651066 -0.0021325518819955459 0 0.023957160461044825 -0.002139160472839552 0 0.024129260490569061 -0.0020107015594950169 0 0.024326754226618098 -0.0020187055752778301 0 0.024189770547651066 -0.0021325518819955459 0 0.024402023333256549 -0.0020644046672526595 0 0.024326754226618098 -0.0020187055752778301 0 0.024189770547651066 -0.0021325518819955459 0 0.024402023333256549 -0.0020644046672526595 0 0.024459128392040709 -0.0019956841887087563 0 0.024326754226618098 -0.0020187055752778301 0 0.024310872080570332 -0.002622396174492162 0 0.024307501416903892 -0.0021668833345565904 0 0.024122194538174893 -0.0023008745748568141 0 0.024402023333256549 -0.0020644046672526595 0 0.024307501416903892 -0.0021668833345565904 0 0.024189770547651066 -0.0021325518819955459 0 0.024307501416903892 -0.0021668833345565904 0 0.024189770547651066 -0.0021325518819955459 0 0.024122194538174893 -0.0023008745748568141 0 0.024189770547651066 -0.0021325518819955459 0 0.024122194538174893 -0.0023008745748568141 0 0.024012668847881998 -0.0022667543921972388 0 0.024189770547651066 -0.0021325518819955459 0 0.024012668847881998 -0.0022667543921972388 0 0.023957160461044825 -0.002139160472839552 0 0.02395536344339437 -0.0024653135014970867 0 0.024122194538174893 -0.0023008745748568141 0 0.024012668847881998 -0.0022667543921972388 0 0.02373874468066749 -0.0021798077865876632 0 0.023638043078350289 -0.0023469920464258341 0 0.023566571662029964 -0.0022251138559897755 0 0.02373874468066749 -0.0021798077865876632 0 0.023566571662029964 -0.0022251138559897755 0 0.023564048070000534 -0.0020174396027783773 0 0.024012668847881998 -0.0022667543921972388 0 0.023957160461044825 -0.002139160472839552 0 0.023837757912002506 -0.0023047758533185927 0 0.02373874468066749 -0.0021798077865876632 0 0.023957160461044825 -0.002139160472839552 0 0.023837757912002506 -0.0023047758533185927 0 0.02395536344339437 -0.0024653135014970867 0 0.024012668847881998 -0.0022667543921972388 0 0.023837757912002506 -0.0023047758533185927 0 0.023711313280269368 -0.0024620141000048735 0 0.023837757912002506 -0.0023047758533185927 0 0.023638043078350289 -0.0023469920464258341 0 0.02373874468066749 -0.0021798077865876632 0 0.023837757912002506 -0.0023047758533185927 0 0.023638043078350289 -0.0023469920464258341 0 0.023514230720237166 -0.0024551482841548445 0 0.023254848748409697 -0.0024806487496321188 0 0.023437593424489023 -0.0023439562455675714 0 0.023514230720237166 -0.0024551482841548445 0 0.023638043078350289 -0.0023469920464258341 0 0.023437593424489023 -0.0023439562455675714 0 0.023638043078350289 -0.0023469920464258341 0 0.023437593424489023 -0.0023439562455675714 0 0.023566571662029964 -0.0022251138559897755 0 0.023566571662029964 -0.0022251138559897755 0 0.023402005000348943 -0.002211617290315087 0 0.023564048070000534 -0.0020174396027783773 0 0.023437593424489023 -0.0023439562455675714 0 0.023566571662029964 -0.0022251138559897755 0 0.023402005000348943 -0.002211617290315087 0 0.023402005000348943 -0.002211617290315087 0 0.023242939714984118 -0.0022831654065907005 0 0.023198134974592763 -0.0020792886623436225 0 0.023437593424489023 -0.0023439562455675714 0 0.023402005000348943 -0.002211617290315087 0 0.023242939714984118 -0.0022831654065907005 0 0.023254848748409697 -0.0024806487496321188 0 0.023437593424489023 -0.0023439562455675714 0 0.023242939714984118 -0.0022831654065907005 0 0.020108863170677681 -0.00061969506027321141 0 0.016317341125527181 0.0013218616723103939 0 0.012810486123935082 0.0028164448751994285 0 0.013558078667774663 0.0029142710883744319 0 0.013088422434348646 0.00327876793916595 0 0.023254848748409697 -0.0024806487496321188 0 0.023242939714984118 -0.0022831654065907005 0 0.022857692784576968 -0.002270721750770914 0 0.020108863170677681 -0.00061969506027321141 0 0.022743538987485126 -0.0024094800509820839 0 0.021813220790201416 -0.0016605999248679186 0 0.022085425268063296 -0.0020039848646739508 0 0.022249887334585997 -0.0020440068489477295 0 0.023242939714984118 -0.0022831654065907005 0 0.022857692784576968 -0.002270721750770914 0 0.023198134974592763 -0.0020792886623436225 0 0.022857692784576968 -0.002270721750770914 0 0.022773774811584054 -0.0020064051496996708 0 0.023198134974592763 -0.0020792886623436225 0 0.022773774811584054 -0.0020064051496996708 0 0.023046083307361406 -0.0018550693326498272 0 0.023198134974592763 -0.0020792886623436225 0 0.022477179676435796 -0.0016935545310747802 0 0.023902171863631458 -0.0014606676266433814 0 0.022648423936998872 -0.0017609928574647479 0 0.022335314712664818 -0.0016607463368399928 0 0.023254353758470857 -0.0015705391165260351 0 0.022743538987485126 -0.0024094800509820839 0 0.022178254265418258 -0.0017470999480599285 0 0.022857692784576968 -0.002270721750770914 0 0.022773774811584054 -0.0020064051496996708 0 0.022275724919117793 -0.0018037264150647084 0 0.022773774811584054 -0.0020064051496996708 0 0.022648423936998872 -0.0017609928574647479 0 0.023046083307361406 -0.0018550693326498272 0 0.022773774811584054 -0.0020064051496996708 0 0.022648423936998872 -0.0017609928574647479 0 0.022464130411099511 -0.0017581786594228906 0 0.022648423936998872 -0.0017609928574647479 0 0.023046083307361406 -0.0018550693326498272 0 0.023254353758470857 -0.0015705391165260351 0 0.023046083307361406 -0.0018550693326498272 0 0.023353722200140592 -0.0018519389963918293 0 0.023254353758470857 -0.0015705391165260351 0 0.023353722200140592 -0.0018519389963918293 0 0.023644520282566521 -0.0017487271116068911 0 0.023254353758470857 -0.0015705391165260351 0 0.023353722200140592 -0.0018519389963918293 0 0.023644520282566521 -0.0017487271116068911 0 0.023564048070000534 -0.0020174396027783773 0 0.023046083307361406 -0.0018550693326498272 0 0.023353722200140592 -0.0018519389963918293 0 0.023198134974592763 -0.0020792886623436225 0 0.023402005000348943 -0.002211617290315087 0 0.023564048070000534 -0.0020174396027783773 0 0.023198134974592763 -0.0020792886623436225 0 0.023353722200140592 -0.0018519389963918293 0 0.023564048070000534 -0.0020174396027783773 0 0.023198134974592763 -0.0020792886623436225 0 0.012403963520752457 0.0033492765986568159 0 0.01285138171435795 0.0032592726011143654 0 0.013173015313437616 0.003386756133982228 0 0.012810486123935082 0.0028164448751994285 0 0.01285138171435795 0.0032592726011143654 0 0.013088422434348646 0.00327876793916595 0 0.01285138171435795 0.0032592726011143654 0 0.013088422434348646 0.00327876793916595 0 0.013173015313437616 0.003386756133982228 0 0.022085425268063296 -0.0020039848646739508 0 0.022249887334585997 -0.0020440068489477295 0 0.022275724919117793 -0.0018037264150647084 0 0.022275724919117793 -0.0018037264150647084 0 0.022335314712664818 -0.0016607463368399928 0 0.021106740335539116 -0.001685443092353656 0 0.016317341125527181 0.0013218616723103939 0 0.021607851325462668 -0.00063309182616782384 0 0.022335314712664818 -0.0016607463368399928 0 0.021106740335539116 -0.001685443092353656 0 0.023150290741445846 -0.00092358545392842565 0 0.022249887334585997 -0.0020440068489477295 0 0.022275724919117793 -0.0018037264150647084 0 0.021106740335539116 -0.001685443092353656 0 0.021607851325462668 -0.00063309182616782384 0 0.026378201172400785 -0.0012778866151251544 0 0.022773774811584054 -0.0020064051496996708 0 0.022275724919117793 -0.0018037264150647084 0 0.022464130411099511 -0.0017581786594228906 0 0.022648423936998872 -0.0017609928574647479 0 0.022464130411099511 -0.0017581786594228906 0 0.022335314712664818 -0.0016607463368399928 0 0.022275724919117793 -0.0018037264150647084 0 0.022464130411099511 -0.0017581786594228906 0 0.022335314712664818 -0.0016607463368399928 0 0.027705637066504994 -0.0020902549000491278 0 0.027547634118700755 -0.0013792657663471541 0 0.028055701892555313 -0.0013944300882152371 0 0.027705637066504994 -0.0020902549000491278 0 0.027547634118700755 -0.0013792657663471541 0 0.026854082306082085 -0.0018343487444687342 0 0.027705637066504994 -0.0020902549000491278 0 0.028055701892555313 -0.0013944300882152371 0 0.02851074574456822 -0.001399073737692737 0 0.028055701892555313 -0.0013944300882152371 0 0.028358075984526391 -0.0010023585604184682 0 0.02851074574456822 -0.001399073737692737 0 0.028358075984526391 -0.0010023585604184682 0 0.028565812816695013 -0.00070660760473820726 0 0.028197578935493441 -0.00073008000673406733 0 0.028358075984526391 -0.0010023585604184682 0 0.027989305414888647 -0.0010802615187670646 0 0.028197578935493441 -0.00073008000673406733 0 0.028055701892555313 -0.0013944300882152371 0 0.028358075984526391 -0.0010023585604184682 0 0.027989305414888647 -0.0010802615187670646 0 0.027989305414888647 -0.0010802615187670646 0 0.027728790836640142 -0.00099015622173041014 0 0.028197578935493441 -0.00073008000673406733 0 0.027547634118700755 -0.0013792657663471541 0 0.028055701892555313 -0.0013944300882152371 0 0.027989305414888647 -0.0010802615187670646 0 0.027547634118700755 -0.0013792657663471541 0 0.027989305414888647 -0.0010802615187670646 0 0.027728790836640142 -0.00099015622173041014 0 0.02851074574456822 -0.001399073737692737 0 0.028646430545445981 -0.00092534988914034306 0 0.028841914851546576 -0.00070866527312462549 0 0.02458088864235838 -0.0013733203266885856 0 0.023150290741445846 -0.00092358545392842565 0 0.02612169612803119 -0.00019072784935493577 0 0.023886812356868733 -0.0015825546653359189 0 0.023644520282566521 -0.0017487271116068911 0 0.023254353758470857 -0.0015705391165260351 0 0.026930080331739943 -0.00082826964983389304 0 0.02458088864235838 -0.0013733203266885856 0 0.02612169612803119 -0.00019072784935493577 0 0.025380224162715154 -0.0011876003029832234 0 0.023902171863631458 -0.0014606676266433814 0 0.026378201172400785 -0.0012778866151251544 0 0.027295962570335584 -0.00048634788747604614 0 0.028358075984526391 -0.0010023585604184682 0 0.02851074574456822 -0.001399073737692737 0 0.028646430545445981 -0.00092534988914034306 0 0.022335314712664818 -0.0016607463368399928 0 0.02458088864235838 -0.0013733203266885856 0 0.023150290741445846 -0.00092358545392842565 0 0.028358075984526391 -0.0010023585604184682 0 0.028646430545445981 -0.00092534988914034306 0 0.028565812816695013 -0.00070660760473820726 0 0.028646430545445981 -0.00092534988914034306 0 0.028723857749943214 -0.00067075769210401962 0 0.028565812816695013 -0.00070660760473820726 0 0.028646430545445981 -0.00092534988914034306 0 0.028841914851546576 -0.00070866527312462549 0 0.02875674114336095 -0.00071951678916243106 0 0.028646430545445981 -0.00092534988914034306 0 0.028723857749943214 -0.00067075769210401962 0 0.02875674114336095 -0.00071951678916243106 0 0.028764541351582226 -0.00060340223197698944 0 0.028841914851546576 -0.00070866527312462549 0 0.02875674114336095 -0.00071951678916243106 0 0.028764541351582226 -0.00060340223197698944 0 0.028723857749943214 -0.00067075769210401962 0 0.02875674114336095 -0.00071951678916243106 0 0.028723857749943214 -0.00067075769210401962 0 0.028699444904408039 -0.0005472836186427505 0 0.028755530419237244 -0.00056143696863433302 0 0.028764541351582226 -0.00060340223197698944 0 0.028723857749943214 -0.00067075769210401962 0 0.028755530419237244 -0.00056143696863433302 0 0.028699444904408039 -0.0005472836186427505 0 0.028755530419237244 -0.00056143696863433302 0 0.028767710345740351 -0.00050853244069585623 0 0.028723857749943214 -0.00067075769210401962 0 0.028699444904408039 -0.0005472836186427505 0 0.028565812816695013 -0.00070660760473820726 0 0.028699444904408039 -0.0005472836186427505 0 0.028565812816695013 -0.00070660760473820726 0 0.028494167548141165 -0.00052950829408201475 0 0.028699444904408039 -0.0005472836186427505 0 0.02860503267916923 -0.00038058848419780545 0 0.028751804561375653 -0.000409241855617878 0 0.028699444904408039 -0.0005472836186427505 0 0.02860503267916923 -0.00038058848419780545 0 0.028494167548141165 -0.00052950829408201475 0 0.028699444904408039 -0.0005472836186427505 0 0.028751804561375653 -0.000409241855617878 0 0.028767710345740351 -0.00050853244069585623 0 0.027728790836640142 -0.00099015622173041014 0 0.028197578935493441 -0.00073008000673406733 0 0.02779668795502489 -0.00066411647098151656 0 0.028565812816695013 -0.00070660760473820726 0 0.028494167548141165 -0.00052950829408201475 0 0.028197578935493441 -0.00073008000673406733 0 0.028494167548141165 -0.00052950829408201475 0 0.028197578935493441 -0.00073008000673406733 0 0.028350857023856289 -0.00032056554898943538 0 0.02860503267916923 -0.00038058848419780545 0 0.028494167548141165 -0.00052950829408201475 0 0.028350857023856289 -0.00032056554898943538 0 0.028197578935493441 -0.00073008000673406733 0 0.028350857023856289 -0.00032056554898943538 0 0.02779668795502489 -0.00066411647098151656 0 0.028350857023856289 -0.00032056554898943538 0 0.028500651289943658 -5.7614979987670495e-05 0 0.028274401253922641 -0.00015518626445785359 0 0.028350857023856289 -0.00032056554898943538 0 0.028583878134304415 -0.00016657862042976905 0 0.028500651289943658 -5.7614979987670495e-05 0 0.02860503267916923 -0.00038058848419780545 0 0.028350857023856289 -0.00032056554898943538 0 0.028583878134304415 -0.00016657862042976905 0 0.028583878134304415 -0.00016657862042976905 0 0.028500651289943658 -5.7614979987670495e-05 0 0.028648771308223891 1.016619412481366e-05 0 0.028500651289943658 -5.7614979987670495e-05 0 0.028547249298672694 5.2176595175927379e-05 0 0.028653326938711619 8.7300807138260275e-05 0 0.028500651289943658 -5.7614979987670495e-05 0 0.028274401253922641 -0.00015518626445785359 0 0.028547249298672694 5.2176595175927379e-05 0 0.028751804561375653 -0.000409241855617878 0 0.028831159232966877 -0.00028358886761838603 0 0.028827059266075577 -0.00044306635373571633 0 0.028751804561375653 -0.000409241855617878 0 0.028697703895615767 -0.00026361182506008039 0 0.028831159232966877 -0.00028358886761838603 0 0.02860503267916923 -0.00038058848419780545 0 0.028583878134304415 -0.00016657862042976905 0 0.028697703895615767 -0.00026361182506008039 0 0.02860503267916923 -0.00038058848419780545 0 0.028751804561375653 -0.000409241855617878 0 0.028697703895615767 -0.00026361182506008039 0 0.028583878134304415 -0.00016657862042976905 0 0.028697703895615767 -0.00026361182506008039 0 0.028716732148118367 -8.5434822064971375e-05 0 0.028583878134304415 -0.00016657862042976905 0 0.028716732148118367 -8.5434822064971375e-05 0 0.028648771308223891 1.016619412481366e-05 0 0.028697703895615767 -0.00026361182506008039 0 0.028716732148118367 -8.5434822064971375e-05 0 0.028831159232966877 -0.00028358886761838603 0 0.028850358888349407 -0.00027359769126143887 0 0.028810198525149683 6.9729295772272714e-06 0 0.028716732148118367 -8.5434822064971375e-05 0 0.028831159232966877 -0.00028358886761838603 0 0.02883987604329678 2.5208957647768342e-05 0 0.028831159232966877 -0.00028358886761838603 0 0.028941753622289037 -0.00030140748392847385 0 0.029042923428258153 -0.00011348349712050472 0 0.028941753622289037 -0.00030140748392847385 0 0.028827059266075577 -0.00044306635373571633 0 0.028917207694221334 -0.00040535801041815194 0 0.028831159232966877 -0.00028358886761838603 0 0.028941753622289037 -0.00030140748392847385 0 0.028827059266075577 -0.00044306635373571633 0 0.028827059266075577 -0.00044306635373571633 0 0.028805275574479705 -0.00051695464709674579 0 0.028917207694221334 -0.00040535801041815194 0 0.028805275574479705 -0.00051695464709674579 0 0.028935884159436175 -0.00046324815871385514 0 0.028723730010846979 -0.00061378232696390484 0 0.028805275574479705 -0.00051695464709674579 0 0.028917207694221334 -0.00040535801041815194 0 0.028935884159436175 -0.00046324815871385514 0 0.028917207694221334 -0.00040535801041815194 0 0.029089012906509379 -0.00027085395903917939 0 0.028935884159436175 -0.00046324815871385514 0 0.028941753622289037 -0.00030140748392847385 0 0.029089012906509379 -0.00027085395903917939 0 0.029042923428258153 -0.00011348349712050472 0 0.028941753622289037 -0.00030140748392847385 0 0.028917207694221334 -0.00040535801041815194 0 0.029089012906509379 -0.00027085395903917939 0 0.029089012906509379 -0.00027085395903917939 0 0.029168456083509639 -0.00033723797352624925 0 0.029313554468357161 -0.00013766212805236031 0 0.029089012906509379 -0.00027085395903917939 0 0.029168456083509639 -0.00033723797352624925 0 0.028935884159436175 -0.00046324815871385514 0 0.029168456083509639 -0.00033723797352624925 0 0.029264103528385797 -0.00029683899380085688 0 0.029240684293588868 -0.00022034395679996959 0 0.029168456083509639 -0.00033723797352624925 0 0.029264103528385797 -0.00029683899380085688 0 0.028906799521951975 -0.00056570005607367666 0 0.028835328322910043 -0.00068665629449619491 0 0.028822605925919582 -0.00065789436556099479 0 0.028839379406484223 -0.00063030086307343518 0 0.028983179386844138 -0.00052405759797570343 0 0.028951010354990536 -0.00052753430448486004 0 0.028835328322910043 -0.00068665629449619491 0 0.028822605925919582 -0.00065789436556099479 0 0.02881941790857306 -0.00067430712764722641 0 0.028835328322910043 -0.00068665629449619491 0 0.028839379406484223 -0.00063030086307343518 0 0.028906799521951975 -0.00056570005607367666 0 0.028822605925919582 -0.00065789436556099479 0 0.028839379406484223 -0.00063030086307343518 0 0.028818494162951239 -0.0006441832248279786 0 0.028839379406484223 -0.00063030086307343518 0 0.028906799521951975 -0.00056570005607367666 0 0.028820601158664551 -0.00062725432815953887 0 0.028839379406484223 -0.00063030086307343518 0 0.028820601158664551 -0.00062725432815953887 0 0.028818494162951239 -0.0006441832248279786 0 0.029168456083509639 -0.00033723797352624925 0 0.028935884159436175 -0.00046324815871385514 0 0.028906799521951975 -0.00056570005607367666 0 0.028935884159436175 -0.00046324815871385514 0 0.028906799521951975 -0.00056570005607367666 0 0.028723730010846979 -0.00061378232696390484 0 0.028723730010846979 -0.00061378232696390484 0 0.02883642781035296 -0.00062627100907086273 0 0.028847803255497385 -0.00063131496990651145 0 0.028906799521951975 -0.00056570005607367666 0 0.028723730010846979 -0.00061378232696390484 0 0.02883642781035296 -0.00062627100907086273 0 0.028906799521951975 -0.00056570005607367666 0 0.028820601158664551 -0.00062725432815953887 0 0.02883642781035296 -0.00062627100907086273 0 0.028820601158664551 -0.00062725432815953887 0 0.02883642781035296 -0.00062627100907086273 0 0.028791949979824615 -0.00065564769551256668 0 0.02883642781035296 -0.00062627100907086273 0 0.028791949979824615 -0.00065564769551256668 0 0.028847803255497385 -0.00063131496990651145 0 0.028791949979824615 -0.00065564769551256668 0 0.028847803255497385 -0.00063131496990651145 0 0.028751873530138923 -0.00056648051875930771 0 0.028565740975458234 -0.00056405721495515857 0 0.028627349907723067 -0.00029354953087963798 0 0.028723730010846979 -0.00061378232696390484 0 0.027747832443396618 -3.9922967023109864e-05 0 0.028174789852655289 -0.00024035500362335713 0 0.028723730010846979 -0.00061378232696390484 0 0.028475237270113935 -0.00040589527934217621 0 0.028174789852655289 -0.00024035500362335713 0 0.028080168141734731 -0.000317207201739852 0 0.02791251910375039 -0.0002407746529670326 0 0.028174789852655289 -0.00024035500362335713 0 0.027747832443396618 -3.9922967023109864e-05 0 0.02791251910375039 -0.0002407746529670326 0 0.028174789852655289 -0.00024035500362335713 0 0.028080168141734731 -0.000317207201739852 0 0.028295203271208543 -0.0002758188332782558 0 0.028174789852655289 -0.00024035500362335713 0 0.028475237270113935 -0.00040589527934217621 0 0.028295203271208543 -0.0002758188332782558 0 0.028174789852655289 -0.00024035500362335713 0 0.028328552134656609 -0.00016170585231548858 0 0.028295203271208543 -0.0002758188332782558 0 0.02859382110032643 -0.00044413999227767 0 0.028475237270113935 -0.00040589527934217621 0 0.028295203271208543 -0.0002758188332782558 0 0.02859382110032643 -0.00044413999227767 0 0.028475237270113935 -0.00040589527934217621 0 0.02859382110032643 -0.00044413999227767 0 0.028672685411181165 -0.0005136388161760114 0 0.028651896981549921 -0.00046386273890192023 0 0.028328552134656609 -0.00016170585231548858 0 0.02859382110032643 -0.00044413999227767 0 0.028651896981549921 -0.00046386273890192023 0 0.02859382110032643 -0.00044413999227767 0 0.028696554288600344 -0.0005027299643304904 0 0.02859382110032643 -0.00044413999227767 0 0.028696554288600344 -0.0005027299643304904 0 0.028728307086027555 -0.00051252478900225317 0 0.028764541351582226 -0.00060340223197698944 0 0.028696554288600344 -0.0005027299643304904 0 0.028755530419237244 -0.00056143696863433302 0 0.028696554288600344 -0.0005027299643304904 0 0.028755530419237244 -0.00056143696863433302 0 0.028728307086027555 -0.00051252478900225317 0 0.028755530419237244 -0.00056143696863433302 0 0.028728307086027555 -0.00051252478900225317 0 0.028767710345740351 -0.00050853244069585623 0 0.02859382110032643 -0.00044413999227767 0 0.028728307086027555 -0.00051252478900225317 0 0.028746014142107614 -0.00051542692219821962 0 0.028728307086027555 -0.00051252478900225317 0 0.028746014142107614 -0.00051542692219821962 0 0.028767710345740351 -0.00050853244069585623 0 0.028751804561375653 -0.000409241855617878 0 0.028827059266075577 -0.00044306635373571633 0 0.028767710345740351 -0.00050853244069585623 0 0.028827059266075577 -0.00044306635373571633 0 0.028746014142107614 -0.00051542692219821962 0 0.028767710345740351 -0.00050853244069585623 0 0.028827059266075577 -0.00044306635373571633 0 0.028805275574479705 -0.00051695464709674579 0 0.028746014142107614 -0.00051542692219821962 0 0.028805275574479705 -0.00051695464709674579 0 0.028746014142107614 -0.00051542692219821962 0 0.028672685411181165 -0.0005136388161760114 0 0.028805275574479705 -0.00051695464709674579 0 0.028723730010846979 -0.00061378232696390484 0 0.028672685411181165 -0.0005136388161760114 0 0.028723730010846979 -0.00061378232696390484 0 0.028475237270113935 -0.00040589527934217621 0 0.028672685411181165 -0.0005136388161760114 0 0.02859382110032643 -0.00044413999227767 0 0.028746014142107614 -0.00051542692219821962 0 0.028672685411181165 -0.0005136388161760114 0 0.019594115791767716 0.00098104205810614262 0 0.019622417902615527 0.0015609642162672359 0 0.020716545519877075 0.00063679162124646806 0 0.018829385142968186 0.00106591494069116 0 0.019594115791767716 0.00098104205810614262 0 0.019622417902615527 0.0015609642162672359 0 0.018829385142968186 0.00106591494069116 0 0.019594115791767716 0.00098104205810614262 0 0.019040278482971046 0.00084115785512445783 0 0.021341518010956417 0.00058069351935467859 0 0.022259267305210315 0.00038429697092273632 0 0.021993889296830715 -0.00013343831627152285 0 0.02074525690455041 0.0013265233313542871 0 0.021322884221483391 0.00018539368649020036 0 0.021341518010956417 0.00058069351935467859 0 0.022259267305210315 0.00038429697092273632 0 0.021867571430881451 0.0012737722389791948 0 0.019594115791767716 0.00098104205810614262 0 0.020716545519877075 0.00063679162124646806 0 0.019872556958078515 0.00056056243609925449 0 0.020716545519877075 0.00063679162124646806 0 0.019872556958078515 0.00056056243609925449 0 0.020073150245499102 -0.00030939896700288874 0 0.019076709551333264 0.00075926085875188535 0 0.019361321180997603 0.00026933985516602871 0 0.019872556958078515 0.00056056243609925449 0 0.019040278482971046 0.00084115785512445783 0 0.020073150245499102 -0.00030939896700288874 0 0.019594115791767716 0.00098104205810614262 0 0.019872556958078515 0.00056056243609925449 0 0.019040278482971046 0.00084115785512445783 0 0.018884299011517312 0.00054155985644857043 0 0.018847384329889132 0.00056955648852097945 0 0.018735684635773964 0.00077113329644931824 0 0.018884299011517312 0.00054155985644857043 0 0.019040278482971046 0.00084115785512445783 0 0.018847384329889132 0.00056955648852097945 0 0.0085644523601382354 -0.0011697542623710475 0 0.0084331227898930342 -0.00055490122155818858 0 0.0079943500717218185 -0.00095916884625595273 0 0.0085644523601382354 -0.0011697542623710475 0 0.0085894174564157145 -0.0015468272899427141 0 0.0079943500717218185 -0.00095916884625595273 0 0.011371390400753943 -0.0013045355322254108 0 0.01390566470648614 -1.7757967264707132e-07 0 0.018847384329889132 0.00056955648852097945 0 0.018481349515750114 0.00074659138059894191 0 0.018735684635773964 0.00077113329644931824 0 0.020073150245499102 -0.00030939896700288874 0 0.021100802236485094 -0.0012609109661677286 0 0.020934870997647719 -0.00039569800994904218 0 0.020716545519877075 0.00063679162124646806 0 0.020073150245499102 -0.00030939896700288874 0 0.020934870997647719 -0.00039569800994904218 0 0.019361321180997603 0.00026933985516602871 0 0.0202173159536056 -0.00061458990690429365 0 0.021100802236485094 -0.0012609109661677286 0 0.020934870997647719 -0.00039569800994904218 0 0.021858811443389099 -0.00054133655895868772 0 0.021858811443389099 -0.00054133655895868772 0 0.022196695401091059 -0.000656681566684258 0 0.022157368606291316 -0.00015327760004493142 0 0.020716545519877075 0.00063679162124646806 0 0.020934870997647719 -0.00039569800994904218 0 0.021858811443389099 -0.00054133655895868772 0 0.021322884221483391 0.00018539368649020036 0 0.021866775229004036 -0.00049378202964694691 0 0.02174258977709392 -0.0019101268784242947 0 0.021100802236485094 -0.0012609109661677286 0 0.021951050342186126 -0.0012086851299939732 0 0.021100802236485094 -0.0012609109661677286 0 0.021858811443389099 -0.00054133655895868772 0 0.021951050342186126 -0.0012086851299939732 0 0.021858811443389099 -0.00054133655895868772 0 0.021951050342186126 -0.0012086851299939732 0 0.022196695401091059 -0.000656681566684258 0 0.022492039357595729 -0.0015291480573221277 0 0.021951050342186126 -0.0012086851299939732 0 0.022383425196665339 -0.0010490201217939104 0 0.021951050342186126 -0.0012086851299939732 0 0.022383425196665339 -0.0010490201217939104 0 0.022196695401091059 -0.000656681566684258 0 0.022196695401091059 -0.000656681566684258 0 0.022157368606291316 -0.00015327760004493142 0 0.022561180602835938 -0.00061273506758513421 0 0.022383425196665339 -0.0010490201217939104 0 0.022196695401091059 -0.000656681566684258 0 0.022561180602835938 -0.00061273506758513421 0 0.022840695486053535 -0.00038619611838700007 0 0.024907375134400143 -0.0019491859178924651 0 0.023897026030888471 -0.0010354886219329741 0 0.025350098798202308 -0.00027795558030853092 0 0.025301939891797732 -0.0012590221239718539 0 0.023897026030888471 -0.0010354886219329741 0 0.025301939891797732 -0.0012590221239718539 0 0.025524927305147695 -0.0021032992626538569 0 0.022259267305210315 0.00038429697092273632 0 0.021993889296830715 -0.00013343831627152285 0 0.022157368606291316 -0.00015327760004493142 0 0.021993889296830715 -0.00013343831627152285 0 0.021858811443389099 -0.00054133655895868772 0 0.022157368606291316 -0.00015327760004493142 0 0.022337657659190421 0.00026010582103634319 0 0.022840695486053535 -0.00038619611838700007 0 0.022259267305210315 0.00038429697092273632 0 0.023897026030888471 -0.0010354886219329741 0 0.023710196263855898 0.00027841660640059941 0 0.025587501461761954 -0.00080547051951791282 0 0.026726782617682472 0.0005720498942854528 0 0.023710196263855898 0.00027841660640059941 0 0.025350098798202308 -0.00027795558030853092 0 0.024427594081197632 0.0013246545018977627 0 0.023897026030888471 -0.0010354886219329741 0 0.023710196263855898 0.00027841660640059941 0 0.025350098798202308 -0.00027795558030853092 0 0.026173447603783713 -0.0013491726601739308 0 0.026556653264403825 -0.0010021932008812905 0 0.025873752268699524 -0.00068711370283641975 0 0.026173447603783713 -0.0013491726601739308 0 0.026556653264403825 -0.0010021932008812905 0 0.02641877380577979 -0.0014489085622807988 0 0.026556653264403825 -0.0010021932008812905 0 0.026808527038596611 -0.0011199803084494071 0 0.02641877380577979 -0.0014489085622807988 0 0.026808527038596611 -0.0011199803084494071 0 0.02641877380577979 -0.0014489085622807988 0 0.026684501379486185 -0.0014797978721658334 0 0.02641877380577979 -0.0014489085622807988 0 0.026410757963162498 -0.0016936303351458358 0 0.026102627323743504 -0.0017775406422037821 0 0.02641877380577979 -0.0014489085622807988 0 0.026684501379486185 -0.0014797978721658334 0 0.026410757963162498 -0.0016936303351458358 0 0.026684501379486185 -0.0014797978721658334 0 0.026410757963162498 -0.0016936303351458358 0 0.026518551151916071 -0.0018573676196554933 0 0.026173447603783713 -0.0013491726601739308 0 0.02641877380577979 -0.0014489085622807988 0 0.026102627323743504 -0.0017775406422037821 0 0.025587501461761954 -0.00080547051951791282 0 0.026143582312398484 -0.0017433022958980647 0 0.025350098798202308 -0.00027795558030853092 0 0.025301939891797732 -0.0012590221239718539 0 0.026102627323743504 -0.0017775406422037821 0 0.026102627323743504 -0.0017775406422037821 0 0.025524927305147695 -0.0021032992626538569 0 0.02631570332180742 -0.0020325683963862994 0 0.025301939891797732 -0.0012590221239718539 0 0.026102627323743504 -0.0017775406422037821 0 0.025524927305147695 -0.0021032992626538569 0 0.0183444201173661 0.0010033098192001049 0 0.019889665957082164 0.00034863764548219499 0 0.022383425196665339 -0.0010490201217939104 0 0.022561180602835938 -0.00061273506758513421 0 0.023141476451804234 -0.0012171305491688164 0 0.024907375134400143 -0.0019491859178924651 0 0.019889665957082164 0.00034863764548219499 0 0.022492039357595729 -0.0015291480573221277 0 0.022383425196665339 -0.0010490201217939104 0 0.023141476451804234 -0.0012171305491688164 0 0.025524927305147695 -0.0021032992626538569 0 0.026245960373546411 -0.00233342696485898 0 0.02631570332180742 -0.0020325683963862994 0 0.026245960373546411 -0.00233342696485898 0 0.02631570332180742 -0.0020325683963862994 0 0.026497586950359867 -0.0019872052523668298 0 0.026410757963162498 -0.0016936303351458358 0 0.026102627323743504 -0.0017775406422037821 0 0.02631570332180742 -0.0020325683963862994 0 0.026410757963162498 -0.0016936303351458358 0 0.02631570332180742 -0.0020325683963862994 0 0.026518551151916071 -0.0018573676196554933 0 0.026497586950359867 -0.0019872052523668298 0 0.026854082306082085 -0.0018343487444687342 0 0.026717384727212794 -0.0017652888941811857 0 0.02631570332180742 -0.0020325683963862994 0 0.026518551151916071 -0.0018573676196554933 0 0.026497586950359867 -0.0019872052523668298 0 0.026518551151916071 -0.0018573676196554933 0 0.026497586950359867 -0.0019872052523668298 0 0.026717384727212794 -0.0017652888941811857 0 0.019889665957082164 0.00034863764548219499 0 0.019479653219431948 0.00076772850183640866 0 0.013739657667502968 0.0033042952315962596 0 0.013192575780383457 0.0032342419730146546 0 0.013245285887173117 0.0034091791505386072 0 0.012403963520752457 0.0033492765986568159 0 0.013173015313437616 0.003386756133982228 0 0.013192575780383457 0.0032342419730146546 0 0.012403963520752457 0.0033492765986568159 0 0.013192575780383457 0.0032342419730146546 0 0.013245285887173117 0.0034091791505386072 0 0.021607851325462668 -0.00063309182616782384 0 0.028452385947181892 -0.0027472597582342069 0 0.021607851325462668 -0.00063309182616782384 0 0.019479653219431948 0.00076772850183640866 0 0.025879571657456208 -0.00198624721917455 0 0.026497586950359867 -0.0019872052523668298 0 0.026854082306082085 -0.0018343487444687342 0 0.027547634118700755 -0.0013792657663471541 0 0.026854082306082085 -0.0018343487444687342 0 0.027155559585977228 -0.0011930893894699912 0 0.026684501379486185 -0.0014797978721658334 0 0.026518551151916071 -0.0018573676196554933 0 0.026717384727212794 -0.0017652888941811857 0 0.026684501379486185 -0.0014797978721658334 0 0.026717384727212794 -0.0017652888941811857 0 0.027155559585977228 -0.0011930893894699912 0 0.026854082306082085 -0.0018343487444687342 0 0.026717384727212794 -0.0017652888941811857 0 0.027155559585977228 -0.0011930893894699912 0 0.026808527038596611 -0.0011199803084494071 0 0.027155559585977228 -0.0011930893894699912 0 0.027116198360264777 -0.00078230574684696921 0 0.026808527038596611 -0.0011199803084494071 0 0.026684501379486185 -0.0014797978721658334 0 0.027155559585977228 -0.0011930893894699912 0 0.027547634118700755 -0.0013792657663471541 0 0.027728790836640142 -0.00099015622173041014 0 0.027155559585977228 -0.0011930893894699912 0 0.027728790836640142 -0.00099015622173041014 0 0.027155559585977228 -0.0011930893894699912 0 0.02779668795502489 -0.00066411647098151656 0 0.027155559585977228 -0.0011930893894699912 0 0.02779668795502489 -0.00066411647098151656 0 0.027116198360264777 -0.00078230574684696921 0 0.02779668795502489 -0.00066411647098151656 0 0.027116198360264777 -0.00078230574684696921 0 0.027854297287541376 -0.0003909155470742896 0 0.027116198360264777 -0.00078230574684696921 0 0.027854297287541376 -0.0003909155470742896 0 0.027640458113537054 -0.00033987967332643629 0 0.028350857023856289 -0.00032056554898943538 0 0.02779668795502489 -0.00066411647098151656 0 0.027854297287541376 -0.0003909155470742896 0 0.027854297287541376 -0.0003909155470742896 0 0.028274401253922641 -0.00015518626445785359 0 0.028128650451776198 -0.00011733146692155957 0 0.028350857023856289 -0.00032056554898943538 0 0.027854297287541376 -0.0003909155470742896 0 0.028274401253922641 -0.00015518626445785359 0 0.028547249298672694 5.2176595175927379e-05 0 0.028128650451776198 -0.00011733146692155957 0 0.028540802249063642 0.00017125303578508177 0 0.028274401253922641 -0.00015518626445785359 0 0.028547249298672694 5.2176595175927379e-05 0 0.028128650451776198 -0.00011733146692155957 0 0.028128650451776198 -0.00011733146692155957 0 0.027640458113537054 -0.00033987967332643629 0 0.027911015386065444 -1.1569821209591037e-05 0 0.028128650451776198 -0.00011733146692155957 0 0.027911015386065444 -1.1569821209591037e-05 0 0.028540802249063642 0.00017125303578508177 0 0.027854297287541376 -0.0003909155470742896 0 0.028128650451776198 -0.00011733146692155957 0 0.027640458113537054 -0.00033987967332643629 0 0.027403028139880395 -0.00036588994196286913 0 0.027594652677389041 4.546965379899729e-05 0 0.027194938376407456 -0.00033906142936781781 0 0.027306218631675129 8.9870405852646255e-05 0 0.027007805304254017 -0.00021706580899845445 0 0.027194938376407456 -0.00033906142936781781 0 0.027007805304254017 -0.00021706580899845445 0 0.026808871325630538 -0.00044352158526044677 0 0.027306218631675129 8.9870405852646255e-05 0 0.026875541839178518 -5.4773777126369094e-05 0 0.027040078816578304 0.00032375867076327446 0 0.026875541839178518 -5.4773777126369094e-05 0 0.026785765432203328 0.00019325845325120789 0 0.027040078816578304 0.00032375867076327446 0 0.027306218631675129 8.9870405852646255e-05 0 0.026875541839178518 -5.4773777126369094e-05 0 0.027007805304254017 -0.00021706580899845445 0 0.026875541839178518 -5.4773777126369094e-05 0 0.027007805304254017 -0.00021706580899845445 0 0.026740954607926352 -0.00026998098261837199 0 0.027007805304254017 -0.00021706580899845445 0 0.026740954607926352 -0.00026998098261837199 0 0.026808871325630538 -0.00044352158526044677 0 0.026648201759399935 -0.00059145022153852384 0 0.026808871325630538 -0.00044352158526044677 0 0.026643644657385324 -0.0004911011777365132 0 0.026648201759399935 -0.00059145022153852384 0 0.026808871325630538 -0.00044352158526044677 0 0.026639121144486164 -0.00072921060401724008 0 0.026740954607926352 -0.00026998098261837199 0 0.026808871325630538 -0.00044352158526044677 0 0.026643644657385324 -0.0004911011777365132 0 0.027188218916390023 -0.00077192825934943013 0 0.027403028139880395 -0.00036588994196286913 0 0.027116198360264777 -0.00078230574684696921 0 0.026808871325630538 -0.00044352158526044677 0 0.026639121144486164 -0.00072921060401724008 0 0.027116198360264777 -0.00078230574684696921 0 0.027194938376407456 -0.00033906142936781781 0 0.026808871325630538 -0.00044352158526044677 0 0.026556653264403825 -0.0010021932008812905 0 0.027116198360264777 -0.00078230574684696921 0 0.026639121144486164 -0.00072921060401724008 0 0.026556653264403825 -0.0010021932008812905 0 0.026808527038596611 -0.0011199803084494071 0 0.027116198360264777 -0.00078230574684696921 0 0.026556653264403825 -0.0010021932008812905 0 0.026639121144486164 -0.00072921060401724008 0 0.026486273005425866 -0.00077779115039337419 0 0.026463295051904704 -0.0011762329083567589 0 0.026726782617682472 0.0005720498942854528 0 0.026648201759399935 -0.00059145022153852384 0 0.026639121144486164 -0.00072921060401724008 0 0.026536410146966605 -0.00067626277199353752 0 0.026536410146966605 -0.00067626277199353752 0 0.026486273005425866 -0.00077779115039337419 0 0.026295132108201814 -0.00031794407477004813 0 0.026639121144486164 -0.00072921060401724008 0 0.026536410146966605 -0.00067626277199353752 0 0.026486273005425866 -0.00077779115039337419 0 0.023710196263855898 0.00027841660640059941 0 0.024427594081197632 0.0013246545018977627 0 0.022834628329489102 0.0018363191509870439 0 0.022259267305210315 0.00038429697092273632 0 0.023710196263855898 0.00027841660640059941 0 0.022834628329489102 0.0018363191509870439 0 0.026726782617682472 0.0005720498942854528 0 0.026481217596321091 0.0019464858142326838 0 0.030100118439693371 0.0019422405673049559 0 0.030002244393133988 0.0019651310758877416 0 0.030067023793834181 0.0019816623925888264 0 0.030067023793834181 0.0019816623925888264 0 0.029957509179691245 0.0021185044711258534 0 0.030111276218665654 0.0021486150436411632 0 0.029836220153375056 0.0021234249678964345 0 0.029350095107122571 0.0013466367516151007 0 0.030002244393133988 0.0019651310758877416 0 0.030067023793834181 0.0019816623925888264 0 0.029957509179691245 0.0021185044711258534 0 0.029957509179691245 0.0021185044711258534 0 0.030111276218665654 0.0021486150436411632 0 0.029931302544968241 0.0022954996421605373 0 0.026550607870186035 -0.00058985071008840393 0 0.026431063049580768 -0.00041767659924884766 0 0.026536410146966605 -0.00067626277199353752 0 0.026643644657385324 -0.0004911011777365132 0 0.026544439594601829 -0.00036562554347254394 0 0.030100118439693371 0.0019422405673049559 0 0.030067023793834181 0.0019816623925888264 0 0.030062089643179361 0.0020151625282563861 0 0.026726782617682472 0.0005720498942854528 0 0.029350095107122571 0.0013466367516151007 0 0.026536410146966605 -0.00067626277199353752 0 0.026295132108201814 -0.00031794407477004813 0 0.02648317048372275 -0.00016346457064577208 0 0.026648201759399935 -0.00059145022153852384 0 0.026536410146966605 -0.00067626277199353752 0 0.026643644657385324 -0.0004911011777365132 0 0.026740954607926352 -0.00026998098261837199 0 0.026544439594601829 -0.00036562554347254394 0 0.02654005889407339 -8.4352826885456182e-06 0 0.026431063049580768 -0.00041767659924884766 0 0.02826905149465014 0.0013225449888305441 0 0.026295132108201814 -0.00031794407477004813 0 0.02648317048372275 -0.00016346457064577208 0 0.026359600062210383 0.0004099366249965014 0 0.026740954607926352 -0.00026998098261837199 0 0.026643644657385324 -0.0004911011777365132 0 0.026544439594601829 -0.00036562554347254394 0 0.026875541839178518 -5.4773777126369094e-05 0 0.026740954607926352 -0.00026998098261837199 0 0.02654005889407339 -8.4352826885456182e-06 0 0.026875541839178518 -5.4773777126369094e-05 0 0.02654005889407339 -8.4352826885456182e-06 0 0.026785765432203328 0.00019325845325120789 0 0.030219904324343298 0.002699608374979972 0 0.030338819593089993 0.0025900926228183624 0 0.030202571998814477 0.0028224599884955561 0 0.02826905149465014 0.0013225449888305441 0 0.030307346061523421 0.0027478992173852234 0 0.030219904324343298 0.002699608374979972 0 0.030338819593089993 0.0025900926228183624 0 0.030056395163331577 0.0025414494814432601 0 0.029350095107122571 0.0013466367516151007 0 0.02826905149465014 0.0013225449888305441 0 0.029350095107122571 0.0013466367516151007 0 0.030229777540633426 0.0027328183929766579 0 0.030296825221226693 0.001982620471056731 0 0.030338819593089993 0.0025900926228183624 0 0.030056395163331577 0.0025414494814432601 0 0.030111276218665654 0.0021486150436411632 0 0.030056395163331577 0.0025414494814432601 0 0.029931302544968241 0.0022954996421605373 0 0.029816810245026738 0.0024041008097189761 0 0.029723872004638951 0.0025711801947490816 0 0.029664743299462545 0.0023000291287122187 0 0.029804195974086258 0.0022380234633266652 0 0.029931302544968241 0.0022954996421605373 0 0.029816810245026738 0.0024041008097189761 0 0.029804195974086258 0.0022380234633266652 0 0.029816810245026738 0.0024041008097189761 0 0.029664743299462545 0.0023000291287122187 0 0.030056395163331577 0.0025414494814432601 0 0.029931302544968241 0.0022954996421605373 0 0.029816810245026738 0.0024041008097189761 0 0.030056395163331577 0.0025414494814432601 0 0.029816810245026738 0.0024041008097189761 0 0.029723872004638951 0.0025711801947490816 0 0.030219904324343298 0.002699608374979972 0 0.030056395163331577 0.0025414494814432601 0 0.029723872004638951 0.0025711801947490816 0 0.03082182548046963 0.0032892393151816601 0 0.030149311338261982 0.0027858036788269897 0 0.030219904324343298 0.002699608374979972 0 0.029723872004638951 0.0025711801947490816 0 0.030271814684650806 0.0028475085800399248 0 0.032424113880249197 0.0035517774484980368 0 0.031923888148941315 0.0039616741030598594 0 0.031866825281999224 0.0030788835011323866 0 0.031278646847049535 0.0037422927309461473 0 0.031923888148941315 0.0039616741030598594 0 0.031866825281999224 0.0030788835011323866 0 0.029060166647196902 0.0031530123666985532 0 0.03082182548046963 0.0032892393151816601 0 0.029427803564448036 0.0022810429470642535 0 0.029723872004638951 0.0025711801947490816 0 0.029664743299462545 0.0023000291287122187 0 0.032187791781250703 0.0045610863828471557 0 0.031278646847049535 0.0037422927309461473 0 0.031923888148941315 0.0039616741030598594 0 0.029060166647196902 0.0031530123666985532 0 0.029853598820042619 0.0018385952720854002 0 0.029427803564448036 0.0022810429470642535 0 0.029664743299462545 0.0023000291287122187 0 0.029746287837922474 0.0020870498823644221 0 0.029040127881039938 0.0023565388142186864 0 0.029525850089864556 0.0021122167191244857 0 0.029746287837922474 0.0020870498823644221 0 0.029040127881039938 0.0023565388142186864 0 0.02896719410694544 0.0022901558554287316 0 0.029525850089864556 0.0021122167191244857 0 0.020435990133292153 0.0016966687720588994 0 0.020541236128414412 0.0025881543525852397 0 0.021625188507068741 0.0021643641797238367 0 0.024806790890672944 0.0016733398176729845 0 0.02552870605314737 0.0022082350945593272 0 0.020435990133292153 0.0016966687720588994 0 0.021625188507068741 0.0021643641797238367 0 0.021259541091069891 0.0014549105602523812 0 0.030002244393133988 0.0019651310758877416 0 0.029525850089864556 0.0021122167191244857 0 0.029746287837922474 0.0020870498823644221 0 0.029804195974086258 0.0022380234633266652 0 0.029664743299462545 0.0023000291287122187 0 0.029746287837922474 0.0020870498823644221 0 0.026481217596321091 0.0019464858142326838 0 0.02552870605314737 0.0022082350945593272 0 0.029957509179691245 0.0021185044711258534 0 0.029804195974086258 0.0022380234633266652 0 0.029746287837922474 0.0020870498823644221 0 0.029957509179691245 0.0021185044711258534 0 0.029804195974086258 0.0022380234633266652 0 0.029931302544968241 0.0022954996421605373 0 0.030002244393133988 0.0019651310758877416 0 0.029957509179691245 0.0021185044711258534 0 0.029746287837922474 0.0020870498823644221 0 0.022259267305210315 0.00038429697092273632 0 0.022834628329489102 0.0018363191509870439 0 0.021867571430881451 0.0012737722389791948 0 0.022834628329489102 0.0018363191509870439 0 0.021625188507068741 0.0021643641797238367 0 0.021867571430881451 0.0012737722389791948 0 0.021341518010956417 0.00058069351935467859 0 0.021867571430881451 0.0012737722389791948 0 0.021259541091069891 0.0014549105602523812 0 0.020435990133292153 0.0016966687720588994 0 0.021341518010956417 0.00058069351935467859 0 0.021259541091069891 0.0014549105602523812 0 0.017020158839448667 -0.00022627102323533171 0 0.02074525690455041 0.0013265233313542871 0 0.021625188507068741 0.0021643641797238367 0 0.021867571430881451 0.0012737722389791948 0 0.021259541091069891 0.0014549105602523812 0 0.033387366141174803 0.0012195827819810007 0 0.032672412304512205 0.0010384177366918263 0 0.033154056768098759 0.00065632829068556391 0 0.033387366141174803 0.0012195827819810007 0 0.032672412304512205 0.0010384177366918263 0 0.032990523514269614 0.0018740282998482751 0 0.031067482760187948 0.0012161116000992825 0 0.030732762607865814 0.0015943087183341832 0 0.03054124603377871 0.00087029653461370314 0 0.030732762607865814 0.0015943087183341832 0 0.031381406144222877 0.0018715097194651163 0 0.03086307913144435 0.002115646898971273 0 0.031067482760187948 0.0012161116000992825 0 0.030732762607865814 0.0015943087183341832 0 0.031381406144222877 0.0018715097194651163 0 0.030732762607865814 0.0015943087183341832 0 0.03086307913144435 0.002115646898971273 0 0.030465431930580621 0.0020720206859838369 0 0.033071961333100336 0.0011572580259111289 0 0.032164714519542913 0.0018124281942325131 0 0.031774465481884506 0.0011109916923063821 0 0.032164714519542913 0.0018124281942325131 0 0.032164714519542913 0.0018124281942325131 0 0.032205141664100267 0.0021386486352403759 0 0.032164714519542913 0.0018124281942325131 0 0.030848726127880768 0.0027198255422260609 0 0.031908929683207556 0.0014331434406317119 0 0.031757631933681946 0.0024121341410613499 0 0.032243724101178997 0.0022911393598111437 0 0.031908929683207556 0.0014331434406317119 0 0.031757631933681946 0.0024121341410613499 0 0.030989982517983541 0.0027827019491156527 0 0.031278646847049535 0.0037422927309461473 0 0.031866825281999224 0.0030788835011323866 0 0.030989982517983541 0.0027827019491156527 0 0.031757631933681946 0.0024121341410613499 0 0.031866825281999224 0.0030788835011323866 0 0.030989982517983541 0.0027827019491156527 0 0.031757631933681946 0.0024121341410613499 0 0.032243724101178997 0.0022911393598111437 0 0.031866825281999224 0.0030788835011323866 0 0.031278646847049535 0.0037422927309461473 0 0.030989982517983541 0.0027827019491156527 0 0.030271814684650806 0.0028475085800399248 0 0.030989982517983541 0.0027827019491156527 0 0.030579136380532574 0.0025050818224727775 0 0.030271814684650806 0.0028475085800399248 0 0.031381406144222877 0.0018715097194651163 0 0.030989982517983541 0.0027827019491156527 0 0.03086307913144435 0.002115646898971273 0 0.030989982517983541 0.0027827019491156527 0 0.030579136380532574 0.0025050818224727775 0 0.03086307913144435 0.002115646898971273 0 0.030579136380532574 0.0025050818224727775 0 0.03086307913144435 0.002115646898971273 0 0.030465431930580621 0.0020720206859838369 0 0.030465431930580621 0.0020720206859838369 0 0.030280612100326881 0.0024272233276167944 0 0.030168414955618898 0.0022553836304936578 0 0.030579136380532574 0.0025050818224727775 0 0.030465431930580621 0.0020720206859838369 0 0.030202571998814477 0.0028224599884955561 0 0.030437616216100485 0.0020785316371636554 0 0.030307346061523421 0.0027478992173852234 0 0.030168025129920402 0.0027219374435840499 0 0.030280612100326881 0.0024272233276167944 0 0.030168414955618898 0.0022553836304936578 0 0.030579136380532574 0.0025050818224727775 0 0.030202571998814477 0.0028224599884955561 0 0.030271814684650806 0.0028475085800399248 0 0.02826905149465014 0.0013225449888305441 0 0.028428517665127176 0.001397417328949523 0 0.030219904324343298 0.002699608374979972 0 0.030202571998814477 0.0028224599884955561 0 0.030271814684650806 0.0028475085800399248 0 0.02654005889407339 -8.4352826885456182e-06 0 0.026785765432203328 0.00019325845325120789 0 0.026679786765563009 0.00052986509297483933 0 0.026785765432203328 0.00019325845325120789 0 0.026679786765563009 0.00052986509297483933 0 0.027040078816578304 0.00032375867076327446 0 0.026679786765563009 0.00052986509297483933 0 0.02713712311480454 0.0007971561367534247 0 0.027040078816578304 0.00032375867076327446 0 0.026679786765563009 0.00052986509297483933 0 0.026840115056928734 0.0011268652402030596 0 0.02713712311480454 0.0007971561367534247 0 0.028428517665127176 0.001397417328949523 0 0.028553669615133004 0.0012985943846011152 0 0.026840115056928734 0.0011268652402030596 0 0.027236015623849565 0.0013173389126267681 0 0.02713712311480454 0.0007971561367534247 0 0.030732762607865814 0.0015943087183341832 0 0.030465431930580621 0.0020720206859838369 0 0.030155260888865686 0.0015226378780100328 0 0.030465431930580621 0.0020720206859838369 0 0.030168414955618898 0.0022553836304936578 0 0.030155260888865686 0.0015226378780100328 0 0.030732762607865814 0.0015943087183341832 0 0.030155260888865686 0.0015226378780100328 0 0.03054124603377871 0.00087029653461370314 0 0.028553669615133004 0.0012985943846011152 0 0.028181499349304816 0.0013268128098585449 0 0.026840115056928734 0.0011268652402030596 0 0.027236015623849565 0.0013173389126267681 0 0.027006632398741445 0.0016916747225832341 0 0.027236015623849565 0.0013173389126267681 0 0.027607959614542724 0.0010793295806320647 0 0.027598606140028657 0.0014866198309283574 0 0.027607959614542724 0.0010793295806320647 0 0.027982070089713207 0.0013146046844671458 0 0.027598606140028657 0.0014866198309283574 0 0.027601797385044695 0.00106672396570391 0 0.027623194255162176 0.00058735541175818356 0 0.027607959614542724 0.0010793295806320647 0 0.02781364574263423 0.0005825225696720601 0 0.02820263421791348 0.00078241585006709696 0 0.027607959614542724 0.0010793295806320647 0 0.02713712311480454 0.0007971561367534247 0 0.027441332221171118 0.0005497600681371468 0 0.027236015623849565 0.0013173389126267681 0 0.027607959614542724 0.0010793295806320647 0 0.02713712311480454 0.0007971561367534247 0 0.02713712311480454 0.0007971561367534247 0 0.027040078816578304 0.00032375867076327446 0 0.027441332221171118 0.0005497600681371468 0 0.027594652677389041 4.546965379899729e-05 0 0.027623194255162176 0.00058735541175818356 0 0.027306218631675129 8.9870405852646255e-05 0 0.027040078816578304 0.00032375867076327446 0 0.027441332221171118 0.0005497600681371468 0 0.029276090239366254 0.00034214636886712954 0 0.028683842168974179 0.00011571673151427133 0 0.02781364574263423 0.0005825225696720601 0 0.02820263421791348 0.00078241585006709696 0 0.028540802249063642 0.00017125303578508177 0 0.027911015386065444 -1.1569821209591037e-05 0 0.02781364574263423 0.0005825225696720601 0 0.028540802249063642 0.00017125303578508177 0 0.030308547404512269 0.00012539574997481973 0 0.028540802249063642 0.00017125303578508177 0 0.028904355530252768 0.00014310325328045149 0 0.028547249298672694 5.2176595175927379e-05 0 0.028904355530252768 0.00014310325328045149 0 0.028653326938711619 8.7300807138260275e-05 0 0.028547249298672694 5.2176595175927379e-05 0 0.028540802249063642 0.00017125303578508177 0 0.028904355530252768 0.00014310325328045149 0 0.028904355530252768 0.00014310325328045149 0 0.028717849042307928 0.00011856483014035903 0 0.028721307908625843 9.0214223448120671e-05 0 0.030308547404512269 0.00012539574997481973 0 0.028904355530252768 0.00014310325328045149 0 0.0306617027917119 0.00013757718482697792 0 0.029052160435234044 0.00025175383554241061 0 0.02968239212739119 0.00019517631315290942 0 0.030308547404512269 0.00012539574997481973 0 0.0306617027917119 0.00013757718482697792 0 0.031367293014330992 0.00027043826754097501 0 0.030308547404512269 0.00012539574997481973 0 0.031680381481199199 0.00030214492880990216 0 0.031367293014330992 0.00027043826754097501 0 0.027607959614542724 0.0010793295806320647 0 0.02820263421791348 0.00078241585006709696 0 0.027982070089713207 0.0013146046844671458 0 0.029276090239366254 0.00034214636886712954 0 0.029569403145891557 0.00083487237966123513 0 0.031680381481199199 0.00030214492880990216 0 0.031367293014330992 0.00027043826754097501 0 0.032121796293737327 0.00044593826587646743 0 0.028717849042307928 0.00011856483014035903 0 0.02866315389003446 0.00036971746251873835 0 0.028753362378861134 0.00023063220597586777 0 0.0306617027917119 0.00013757718482697792 0 0.031367293014330992 0.00027043826754097501 0 0.032140457045662964 0.00046484593870166205 0 0.031367293014330992 0.00027043826754097501 0 0.032140457045662964 0.00046484593870166205 0 0.032121796293737327 0.00044593826587646743 0 0.02968239212739119 0.00019517631315290942 0 0.030246891795471239 0.00060852001928667467 0 0.030246891795471239 0.00060852001928667467 0 0.032251485733452656 0.00011943112855729314 0 0.032140457045662964 0.00046484593870166205 0 0.032998723962145732 0.0006430061891418658 0 0.03324329271059738 0.00061433053166839047 0 0.02866315389003446 0.00036971746251873835 0 0.028688367578291532 0.00071082692172850116 0 0.028758933939462515 0.00051177571471033476 0 0.032140457045662964 0.00046484593870166205 0 0.032692306128515911 0.00072274412107063907 0 0.032998723962145732 0.0006430061891418658 0 0.032140457045662964 0.00046484593870166205 0 0.032121796293737327 0.00044593826587646743 0 0.032692306128515911 0.00072274412107063907 0 0.031680381481199199 0.00030214492880990216 0 0.032121796293737327 0.00044593826587646743 0 0.032359449918377199 0.00084798780238184198 0 0.032121796293737327 0.00044593826587646743 0 0.032692306128515911 0.00072274412107063907 0 0.032359449918377199 0.00084798780238184198 0 0.029569403145891557 0.00083487237966123513 0 0.032166893278541296 0.0010928822031882805 0 0.032692306128515911 0.00072274412107063907 0 0.033312182533442369 0.00058605145231343755 0 0.032998723962145732 0.0006430061891418658 0 0.032692306128515911 0.00072274412107063907 0 0.033312182533442369 0.00058605145231343755 0 0.033839586839998916 0.00067724208847561745 0 0.033839586839998916 0.00067724208847561745 0 0.03363857183920934 0.00046473900609402821 0 0.034075712426758192 0.00028746512128220378 0 0.033312182533442369 0.00058605145231343755 0 0.03339723020535295 0.00052377336597121986 0 0.032998723962145732 0.0006430061891418658 0 0.03303413797111885 0.00062596431823784408 0 0.032166893278541296 0.0010928822031882805 0 0.033312182533442369 0.00058605145231343755 0 0.033839586839998916 0.00067724208847561745 0 0.03363857183920934 0.00046473900609402821 0 0.03363857183920934 0.00046473900609402821 0 0.03339723020535295 0.00052377336597121986 0 0.033795717363324256 0.0003395848263743248 0 0.033312182533442369 0.00058605145231343755 0 0.03363857183920934 0.00046473900609402821 0 0.03339723020535295 0.00052377336597121986 0 0.033295806005201531 0.0005496963202004778 0 0.03339723020535295 0.00052377336597121986 0 0.033795717363324256 0.0003395848263743248 0 0.033234278795659912 0.00058282760411616492 0 0.033295806005201531 0.0005496963202004778 0 0.03324329271059738 0.00061433053166839047 0 0.032411804112442807 0.00011887693179019317 0 0.032251485733452656 0.00011943112855729314 0 0.033234278795659912 0.00058282760411616492 0 0.033295806005201531 0.0005496963202004778 0 0.03339723020535295 0.00052377336597121986 0 0.033234278795659912 0.00058282760411616492 0 0.03339723020535295 0.00052377336597121986 0 0.032998723962145732 0.0006430061891418658 0 0.033234278795659912 0.00058282760411616492 0 0.032998723962145732 0.0006430061891418658 0 0.03324329271059738 0.00061433053166839047 0 0.033295806005201531 0.0005496963202004778 0 0.033795717363324256 0.0003395848263743248 0 0.034110046588206919 0.0001264216027895525 0 0.034982669623644998 2.7662051115521758e-05 0 0.034996866881445758 1.2822725953333439e-05 0 0.034993468597914031 1.9632938967470103e-05 0 0.032251485733452656 0.00011943112855729314 0 0.034589774223306009 0.00018164937237685085 0 0.033295806005201531 0.0005496963202004778 0 0.033247998906164741 0.00055720028056143454 0 0.034110046588206919 0.0001264216027895525 0 0.034110046588206919 0.0001264216027895525 0 0.034517194655737785 4.9757415283302488e-05 0 0.034134779100820634 0.00018429200124849397 0 0.033795717363324256 0.0003395848263743248 0 0.034110046588206919 0.0001264216027895525 0 0.034134779100820634 0.00018429200124849397 0 0.034110046588206919 0.0001264216027895525 0 0.034998767541260543 -1.7290280382838508e-08 0 0.034517194655737785 4.9757415283302488e-05 0 0.034996866881445758 1.2822725953333439e-05 0 0.034999997042292154 -2.5102952521618047e-09 0 0.034996198192758017 2.7881102262585781e-06 0 0.034589774223306009 0.00018164937237685085 0 0.034999752640796251 1.3157898310223961e-07 0 0.034998767541260543 -1.7290280382838508e-08 0 0.034999548731980773 -5.2640767562628126e-08 0 0.034517194655737785 4.9757415283302488e-05 0 0.034999548731980773 -5.2640767562628126e-08 0 0.034517194655737785 4.9757415283302488e-05 0 0.034800096947186963 3.9228172607576152e-05 0 0.033839586839998916 0.00067724208847561745 0 0.034075712426758192 0.00028746512128220378 0 0.034800096947186963 3.9228172607576152e-05 0 0.034517194655737785 4.9757415283302488e-05 0 0.034075712426758192 0.00028746512128220378 0 0.034800096947186963 3.9228172607576152e-05 0 0.034517194655737785 4.9757415283302488e-05 0 0.034134779100820634 0.00018429200124849397 0 0.034075712426758192 0.00028746512128220378 0 0.03363857183920934 0.00046473900609402821 0 0.033795717363324256 0.0003395848263743248 0 0.034075712426758192 0.00028746512128220378 0 0.033795717363324256 0.0003395848263743248 0 0.034134779100820634 0.00018429200124849397 0 0.034075712426758192 0.00028746512128220378 0 0.034686364562783095 0.00033476748527776635 0 0.034800096947186963 3.9228172607576152e-05 0 0.034915479707646385 0.00020331917105427538 0 0.032166893278541296 0.0010928822031882805 0 0.035357062044700072 -0.00030142511781948254 0 0.034999548731980773 -5.2640767562628126e-08 0 0.034800096947186963 3.9228172607576152e-05 0 0.034999909207385375 1.8501716806245107e-09 0 0.034999909207385375 1.8501716806245107e-09 0 0.034974266712070726 5.4093522644091951e-05 0 0.035000100178951277 4.0417962123150232e-08 0 0.034800096947186963 3.9228172607576152e-05 0 0.034999909207385375 1.8501716806245107e-09 0 0.034974266712070726 5.4093522644091951e-05 0 0.034974266712070726 5.4093522644091951e-05 0 0.034915479707646385 0.00020331917105427538 0 0.035024561117488091 8.9841753993883045e-05 0 0.034800096947186963 3.9228172607576152e-05 0 0.034974266712070726 5.4093522644091951e-05 0 0.034915479707646385 0.00020331917105427538 0 0.027458704186131042 0.0019848996184542618 0 0.027556524891957326 0.0017298675464464844 0 0.027317360395551302 0.0016454582620447006 0 0.027458704186131042 0.0019848996184542618 0 0.027317360395551302 0.0016454582620447006 0 0.027006632398741445 0.0016916747225832341 0 0.032166893278541296 0.0010928822031882805 0 0.030891351876361346 0.0012478447967532052 0 0.027884083143104921 0.0017981096045968769 0 0.027458704186131042 0.0019848996184542618 0 0.027556524891957326 0.0017298675464464844 0 0.027982070089713207 0.0013146046844671458 0 0.027884083143104921 0.0017981096045968769 0 0.027598606140028657 0.0014866198309283574 0 0.027884083143104921 0.0017981096045968769 0 0.027556524891957326 0.0017298675464464844 0 0.027598606140028657 0.0014866198309283574 0 0.027236015623849565 0.0013173389126267681 0 0.027598606140028657 0.0014866198309283574 0 0.027317360395551302 0.0016454582620447006 0 0.027556524891957326 0.0017298675464464844 0 0.027598606140028657 0.0014866198309283574 0 0.027317360395551302 0.0016454582620447006 0 0.027236015623849565 0.0013173389126267681 0 0.027317360395551302 0.0016454582620447006 0 0.027006632398741445 0.0016916747225832341 0 0.03054124603377871 0.00087029653461370314 0 0.030210378847512764 0.00069950882697404615 0 0.03082240498892206 0.00061056328820096629 0 0.030155260888865686 0.0015226378780100328 0 0.030177262094003891 0.00077527492122329768 0 0.03054124603377871 0.00087029653461370314 0 0.030177262094003891 0.00077527492122329768 0 0.03054124603377871 0.00087029653461370314 0 0.030210378847512764 0.00069950882697404615 0 0.030651604979706672 0.00042153303917061123 0 0.030210378847512764 0.00069950882697404615 0 0.031307524810374875 0.0005545943295945893 0 0.030651604979706672 0.00042153303917061123 0 0.030488853617502146 0.00011264658136270233 0 0.030210378847512764 0.00069950882697404615 0 0.029709586668429436 0.00077262858249979658 0 0.032414422719708062 0.00042561262568303047 0 0.030651604979706672 0.00042153303917061123 0 0.030833311682990177 0.00025365046705680779 0 0.031307524810374875 0.0005545943295945893 0 0.030833311682990177 0.00025365046705680779 0 0.030488853617502146 0.00011264658136270233 0 0.031036328910199751 -0.00011326261169846582 0 0.030651604979706672 0.00042153303917061123 0 0.030833311682990177 0.00025365046705680779 0 0.030488853617502146 0.00011264658136270233 0 0.027458704186131042 0.0019848996184542618 0 0.027006632398741445 0.0016916747225832341 0 0.027117552914956079 0.0021521029652465194 0 0.030488853617502146 0.00011264658136270233 0 0.030210378847512764 0.00069950882697404615 0 0.030184525333416552 -0.00042447088034089451 0 0.030177262094003891 0.00077527492122329768 0 0.030210378847512764 0.00069950882697404615 0 0.030184525333416552 -0.00042447088034089451 0 0.028181499349304816 0.0013268128098585449 0 0.031624108571548182 0.00036284135607294097 0 0.030891351876361346 0.0012478447967532052 0 0.031624108571548182 0.00036284135607294097 0 0.031624108571548182 0.00036284135607294097 0 0.035000493760601589 -1.558172410989339e-07 0 0.034974266712070726 5.4093522644091951e-05 0 0.035024561117488091 8.9841753993883045e-05 0 0.035000100178951277 4.0417962123150232e-08 0 0.034967190693868826 9.2256499043184912e-06 0 0.034999969579563202 -1.0508168047593054e-09 0 0.034984807358558891 2.9969439028097426e-06 0 0.0349998365797883 4.4319020314516962e-07 0 0.033887666629669959 -0.00038435431508997641 0 0.034999969579563202 -1.0508168047593054e-09 0 0.034999987777289694 1.5290643208987871e-09 0 0.034984807358558891 2.9969439028097426e-06 0 0.033887666629669959 -0.00038435431508997641 0 0.032987464927544542 -9.3328164660924406e-05 0 0.030794141548206286 -0.00074925816227490731 0 0.030622952461249894 -0.00031234428061129011 0 0.031036328910199751 -0.00011326261169846582 0 0.031624108571548182 0.00036284135607294097 0 0.033887666629669959 -0.00038435431508997641 0 0.030184525333416552 -0.00042447088034089451 0 0.030794141548206286 -0.00074925816227490731 0 0.030622952461249894 -0.00031234428061129011 0 0.030488853617502146 0.00011264658136270233 0 0.030184525333416552 -0.00042447088034089451 0 0.030622952461249894 -0.00031234428061129011 0 0.030488853617502146 0.00011264658136270233 0 0.030622952461249894 -0.00031234428061129011 0 0.031036328910199751 -0.00011326261169846582 0 0.034956978883307385 -5.7886017563013177e-07 0 0.034973468882187941 -4.3166866366009554e-06 0 0.03497988690644676 -4.4714531257069189e-06 0 0.034956978883307385 -5.7886017563013177e-07 0 0.03497988690644676 -4.4714531257069189e-06 0 0.034951546213535481 2.4483189807589582e-06 0 0.034951214594808412 -1.2349713111752481e-05 0 0.034956978883307385 -5.7886017563013177e-07 0 0.034973468882187941 -4.3166866366009554e-06 0 0.033887666629669959 -0.00038435431508997641 0 0.035001190374915954 -2.1303273506014026e-07 0 0.034999988521106799 -4.0271858463056914e-09 0 0.034995735894270477 -2.0584009762102033e-06 0 0.034999996549865582 3.3077673216111412e-10 0 0.034973468882187941 -4.3166866366009554e-06 0 0.034999915063770766 -3.9702549036756995e-08 0 0.03497988690644676 -4.4714531257069189e-06 0 0.034951214594808412 -1.2349713111752481e-05 0 0.034973468882187941 -4.3166866366009554e-06 0 0.034999915063770766 -3.9702549036756995e-08 0 0.035000006911279566 7.3948956543248039e-09 0 0.034999915063770766 -3.9702549036756995e-08 0 0.03497988690644676 -4.4714531257069189e-06 0 0.033265901391396367 5.2130253933643207e-05 0 0.032351255245852285 0.00020282353761291448 0 0.033154056768098759 0.00065632829068556391 0 0.034970506591862349 -1.2973088984469093e-05 0 0.03497988690644676 -4.4714531257069189e-06 0 0.034951546213535481 2.4483189807589582e-06 0 0.034417040797553332 -4.3365132986939836e-05 0 0.032414422719708062 0.00042561262568303047 0 0.030833311682990177 0.00025365046705680779 0 0.031036328910199751 -0.00011326261169846582 0 0.031307524810374875 0.0005545943295945893 0 0.032987464927544542 -9.3328164660924406e-05 0 0.032414422719708062 0.00042561262568303047 0 0.031774465481884506 0.0011109916923063821 0 0.032414422719708062 0.00042561262568303047 0 0.031067482760187948 0.0012161116000992825 0 0.03054124603377871 0.00087029653461370314 0 0.03082240498892206 0.00061056328820096629 0 0.032672412304512205 0.0010384177366918263 0 0.032351255245852285 0.00020282353761291448 0 0.033154056768098759 0.00065632829068556391 0 0.029579075673094084 0.00045273277234259956 0 0.029370453805054243 0.00036437548349938078 0 0.029450385180849026 0.00028151602759959898 0 0.029579075673094084 0.00045273277234259956 0 0.029690242856650666 0.00049499139041192964 0 0.029450385180849026 0.00028151602759959898 0 0.029579075673094084 0.00045273277234259956 0 0.029370453805054243 0.00036437548349938078 0 0.029560839643834186 0.00052321912313026532 0 0.029370453805054243 0.00036437548349938078 0 0.029219898651516762 0.00019989111169242416 0 0.029303056795063415 0.00035584918717604684 0 0.029370453805054243 0.00036437548349938078 0 0.029560839643834186 0.00052321912313026532 0 0.029384358591287241 0.00044895839217882051 0 0.029560839643834186 0.00052321912313026532 0 0.029384358591287241 0.00044895839217882051 0 0.029405626097710334 0.0005953931039290527 0 0.029560839643834186 0.00052321912313026532 0 0.029405626097710334 0.0005953931039290527 0 0.029554933849320422 0.00063479750234650694 0 0.029560839643834186 0.00052321912313026532 0 0.029800995057339477 0.00061002942977103299 0 0.029817844332151087 0.0006500347942111341 0 0.029560839643834186 0.00052321912313026532 0 0.029817844332151087 0.0006500347942111341 0 0.029554933849320422 0.00063479750234650694 0 0.029579075673094084 0.00045273277234259956 0 0.029560839643834186 0.00052321912313026532 0 0.029800995057339477 0.00061002942977103299 0 0.029800995057339477 0.00061002942977103299 0 0.029840287091233007 0.00069751119800035282 0 0.029690242856650666 0.00049499139041192964 0 0.029579075673094084 0.00045273277234259956 0 0.029800995057339477 0.00061002942977103299 0 0.029690242856650666 0.00049499139041192964 0 0.029840287091233007 0.00069751119800035282 0 0.029830359789274882 0.00062123242277505898 0 0.02973969915850996 0.0007375238599985019 0 0.029840287091233007 0.00069751119800035282 0 0.029830359789274882 0.00062123242277505898 0 0.029690242856650666 0.00049499139041192964 0 0.029830359789274882 0.00062123242277505898 0 0.02973969915850996 0.0007375238599985019 0 0.029998034434953753 0.00067885908625837043 0 0.029899824340680628 0.00056371654492150562 0 0.029960993562961981 0.0004846816078407313 0 0.029998034434953753 0.00067885908625837043 0 0.029830359789274882 0.00062123242277505898 0 0.029899824340680628 0.00056371654492150562 0 0.029998034434953753 0.00067885908625837043 0 0.029830359789274882 0.00062123242277505898 0 0.029899824340680628 0.00056371654492150562 0 0.029797381711946024 0.00045576406191228237 0 0.029853636831600326 -7.2726208198025925e-05 0 0.029791321358974974 -0.00033549317239815421 0 0.029924848719400314 -0.00010555399455244814 0 0.029960993562961981 0.0004846816078407313 0 0.029797381711946024 0.00045576406191228237 0 0.029886744601944817 0.00023218144917200659 0 0.029893336533565983 0.00022300323742491772 0 0.029437856417014414 -0.00022628862114319455 0 0.029899824340680628 0.00056371654492150562 0 0.029960993562961981 0.0004846816078407313 0 0.029797381711946024 0.00045576406191228237 0 0.029437856417014414 -0.00022628862114319455 0 0.029363389946796419 -0.00038390726512079588 0 0.029830359789274882 0.00062123242277505898 0 0.029797381711946024 0.00045576406191228237 0 0.029690242856650666 0.00049499139041192964 0 0.029690242856650666 0.00049499139041192964 0 0.029620830573987778 0.00027615567062338906 0 0.029450385180849026 0.00028151602759959898 0 0.029797381711946024 0.00045576406191228237 0 0.029690242856650666 0.00049499139041192964 0 0.029620830573987778 0.00027615567062338906 0 0.029620830573987778 0.00027615567062338906 0 0.029515917333748545 8.1796176387549804e-05 0 0.029886744601944817 0.00023218144917200659 0 0.029620830573987778 0.00027615567062338906 0 0.029515917333748545 8.1796176387549804e-05 0 0.029450385180849026 0.00028151602759959898 0 0.029797381711946024 0.00045576406191228237 0 0.029620830573987778 0.00027615567062338906 0 0.029886744601944817 0.00023218144917200659 0 0.029515917333748545 8.1796176387549804e-05 0 0.029886744601944817 0.00023218144917200659 0 0.029653153689624845 -5.6074527524368601e-05 0 0.029437856417014414 -0.00022628862114319455 0 0.029462285868946385 -7.2333731673967575e-05 0 0.028983179386844138 -0.00052405759797570343 0 0.029437856417014414 -0.00022628862114319455 0 0.029264103528385797 -0.00029683899380085688 0 0.02930572208559511 -0.00010493704496222038 0 0.029240684293588868 -0.00022034395679996959 0 0.028835328322910043 -0.00068665629449619491 0 0.028812119147852276 -0.00064504162049432232 0 0.028824159731606916 -0.00066871803359650275 0 0.028835328322910043 -0.00068665629449619491 0 0.028824159731606916 -0.00066871803359650275 0 0.02881941790857306 -0.00067430712764722641 0 0.029168456083509639 -0.00033723797352624925 0 0.029653153689624845 -5.6074527524368601e-05 0 0.029313554468357161 -0.00013766212805236031 0 0.029224522139946543 -0.00033022516210984613 0 0.029462285868946385 -7.2333731673967575e-05 0 0.029515917333748545 8.1796176387549804e-05 0 0.029313554468357161 -0.00013766212805236031 0 0.029271961269938092 -2.3867153532964429e-05 0 0.029515917333748545 8.1796176387549804e-05 0 0.029653153689624845 -5.6074527524368601e-05 0 0.029313554468357161 -0.00013766212805236031 0 0.029089012906509379 -0.00027085395903917939 0 0.029271961269938092 -2.3867153532964429e-05 0 0.029042923428258153 -0.00011348349712050472 0 0.029089012906509379 -0.00027085395903917939 0 0.029313554468357161 -0.00013766212805236031 0 0.029271961269938092 -2.3867153532964429e-05 0 0.029271961269938092 -2.3867153532964429e-05 0 0.029450385180849026 0.00028151602759959898 0 0.029219898651516762 0.00019989111169242416 0 0.029515917333748545 8.1796176387549804e-05 0 0.029271961269938092 -2.3867153532964429e-05 0 0.029450385180849026 0.00028151602759959898 0 0.029370453805054243 0.00036437548349938078 0 0.029450385180849026 0.00028151602759959898 0 0.029219898651516762 0.00019989111169242416 0 0.029219898651516762 0.00019989111169242416 0 0.029042923428258153 -0.00011348349712050472 0 0.028859302384139255 -3.511536991622129e-05 0 0.028831159232966877 -0.00028358886761838603 0 0.029042923428258153 -0.00011348349712050472 0 0.028859302384139255 -3.511536991622129e-05 0 0.029271961269938092 -2.3867153532964429e-05 0 0.029219898651516762 0.00019989111169242416 0 0.029042923428258153 -0.00011348349712050472 0 0.028716732148118367 -8.5434822064971375e-05 0 0.02883987604329678 2.5208957647768342e-05 0 0.028745644802020826 6.7324243722985026e-05 0 0.028716732148118367 -8.5434822064971375e-05 0 0.028745644802020826 6.7324243722985026e-05 0 0.028648771308223891 1.016619412481366e-05 0 0.028745644802020826 6.7324243722985026e-05 0 0.028821819120811963 0.00014845511382568873 0 0.028765364175203288 0.00013221349586288301 0 0.028810198525149683 6.9729295772272714e-06 0 0.029077738661990038 0.00027569816301980117 0 0.02883987604329678 2.5208957647768342e-05 0 0.028745644802020826 6.7324243722985026e-05 0 0.028821819120811963 0.00014845511382568873 0 0.029219898651516762 0.00019989111169242416 0 0.028859302384139255 -3.511536991622129e-05 0 0.028778819769524427 0.00048931409566213026 0 0.029199458928775623 0.00025856897397980754 0 0.029077738661990038 0.00027569816301980117 0 0.028500651289943658 -5.7614979987670495e-05 0 0.028653326938711619 8.7300807138260275e-05 0 0.028648771308223891 1.016619412481366e-05 0 0.028904355530252768 0.00014310325328045149 0 0.028653326938711619 8.7300807138260275e-05 0 0.028721307908625843 9.0214223448120671e-05 0 0.028653326938711619 8.7300807138260275e-05 0 0.028707809109622989 8.7080562808528094e-05 0 0.028721307908625843 9.0214223448120671e-05 0 0.028653326938711619 8.7300807138260275e-05 0 0.028648771308223891 1.016619412481366e-05 0 0.028707809109622989 8.7080562808528094e-05 0 0.028745644802020826 6.7324243722985026e-05 0 0.028648771308223891 1.016619412481366e-05 0 0.028707809109622989 8.7080562808528094e-05 0 0.028707809109622989 8.7080562808528094e-05 0 0.02875339245530785 0.00014195417584442769 0 0.028765364175203288 0.00013221349586288301 0 0.028745644802020826 6.7324243722985026e-05 0 0.028707809109622989 8.7080562808528094e-05 0 0.028765364175203288 0.00013221349586288301 0 0.028707809109622989 8.7080562808528094e-05 0 0.028721307908625843 9.0214223448120671e-05 0 0.02875339245530785 0.00014195417584442769 0 0.028717849042307928 0.00011856483014035903 0 0.028721307908625843 9.0214223448120671e-05 0 0.02875339245530785 0.00014195417584442769 0 0.028717849042307928 0.00011856483014035903 0 0.02875339245530785 0.00014195417584442769 0 0.028753362378861134 0.00023063220597586777 0 0.02875339245530785 0.00014195417584442769 0 0.028783203137879212 0.00023166882190667074 0 0.028753362378861134 0.00023063220597586777 0 0.02875339245530785 0.00014195417584442769 0 0.02880291842252914 0.00019687027667333344 0 0.028765364175203288 0.00013221349586288301 0 0.02875339245530785 0.00014195417584442769 0 0.02880291842252914 0.00019687027667333344 0 0.028783203137879212 0.00023166882190667074 0 0.028963176055455803 0.00024457588074624375 0 0.028800944867315603 0.0004041482628439093 0 0.02880291842252914 0.00019687027667333344 0 0.028783203137879212 0.00023166882190667074 0 0.028815285006069235 0.00040131994030873379 0 0.029111245740475546 0.00031946468331336698 0 0.028815285006069235 0.00040131994030873379 0 0.028982996314159785 0.00049952255694316993 0 0.028783203137879212 0.00023166882190667074 0 0.028753362378861134 0.00023063220597586777 0 0.028815285006069235 0.00040131994030873379 0 0.02866315389003446 0.00036971746251873835 0 0.028753362378861134 0.00023063220597586777 0 0.028815285006069235 0.00040131994030873379 0 0.029370453805054243 0.00036437548349938078 0 0.029303056795063415 0.00035584918717604684 0 0.029384358591287241 0.00044895839217882051 0 0.029077738661990038 0.00027569816301980117 0 0.029329315073558657 0.00041905604621642192 0 0.029303056795063415 0.00035584918717604684 0 0.02929951749745675 0.0004984921119301223 0 0.029384358591287241 0.00044895839217882051 0 0.028963176055455803 0.00024457588074624375 0 0.029077738661990038 0.00027569816301980117 0 0.029111245740475546 0.00031946468331336698 0 0.029389479980199449 0.00014294540247135402 0 0.029353579735671369 0.00035782687350552263 0 0.02880291842252914 0.00019687027667333344 0 0.028821819120811963 0.00014845511382568873 0 0.028765364175203288 0.00013221349586288301 0 0.029222203774253736 0.00046070842773171907 0 0.029353579735671369 0.00035782687350552263 0 0.029296860853004099 0.00063475397377390217 0 0.029111245740475546 0.00031946468331336698 0 0.029222203774253736 0.00046070842773171907 0 0.029353579735671369 0.00035782687350552263 0 0.029111245740475546 0.00031946468331336698 0 0.029222203774253736 0.00046070842773171907 0 0.029133777857959002 0.00053529909294019909 0 0.029329315073558657 0.00041905604621642192 0 0.029298367163715172 0.00061291888040797325 0 0.02929951749745675 0.0004984921119301223 0 0.029405626097710334 0.0005953931039290527 0 0.029296860853004099 0.00063475397377390217 0 0.02929951749745675 0.0004984921119301223 0 0.029384358591287241 0.00044895839217882051 0 0.029405626097710334 0.0005953931039290527 0 0.029405626097710334 0.0005953931039290527 0 0.029296860853004099 0.00063475397377390217 0 0.029455791384129348 0.00081267543213959809 0 0.029296860853004099 0.00063475397377390217 0 0.029249315627702673 0.00069181532099262812 0 0.029455791384129348 0.00081267543213959809 0 0.032132167782809667 0.00047450390184407699 0 0.031715532519063894 0.0008105207189717643 0 0.029222203774253736 0.00046070842773171907 0 0.029296860853004099 0.00063475397377390217 0 0.029133777857959002 0.00053529909294019909 0 0.029296860853004099 0.00063475397377390217 0 0.029249315627702673 0.00069181532099262812 0 0.029133777857959002 0.00053529909294019909 0 0.03501772416734017 0.00018401755085447238 0 0.034768616559164967 -2.2338801929625378e-05 0 0.034985839741670376 2.5783087073105088e-05 0 0.03501772416734017 0.00018401755085447238 0 0.03459942798302975 0.00021135880689490788 0 0.03410943280379803 0.00096213737541912456 0 0.034768616559164967 -2.2338801929625378e-05 0 0.03459942798302975 0.00021135880689490788 0 0.034354316699657203 -0.00022605013108149198 0 0.03459942798302975 0.00021135880689490788 0 0.034354316699657203 -0.00022605013108149198 0 0.03410943280379803 0.00096213737541912456 0 0.03501772416734017 0.00018401755085447238 0 0.034768616559164967 -2.2338801929625378e-05 0 0.03459942798302975 0.00021135880689490788 0 0.028758933939462515 0.00051177571471033476 0 0.028815285006069235 0.00040131994030873379 0 0.028873599853879044 0.00056468085583134559 0 0.02866315389003446 0.00036971746251873835 0 0.028758933939462515 0.00051177571471033476 0 0.028815285006069235 0.00040131994030873379 0 0.028815285006069235 0.00040131994030873379 0 0.028873599853879044 0.00056468085583134559 0 0.028982996314159785 0.00049952255694316993 0 0.028873599853879044 0.00056468085583134559 0 0.028982996314159785 0.00049952255694316993 0 0.028975245043416229 0.00067869862945308258 0 0.029249315627702673 0.00069181532099262812 0 0.029133777857959002 0.00053529909294019909 0 0.028975245043416229 0.00067869862945308258 0 0.028982996314159785 0.00049952255694316993 0 0.029133777857959002 0.00053529909294019909 0 0.028975245043416229 0.00067869862945308258 0 0.029111245740475546 0.00031946468331336698 0 0.028982996314159785 0.00049952255694316993 0 0.029133777857959002 0.00053529909294019909 0 0.034989468638289674 4.6663761056119157e-05 0 0.034993468597914031 1.9632938967470103e-05 0 0.034985839741670376 2.5783087073105088e-05 0 0.032132167782809667 0.00047450390184407699 0 0.031893774855973459 0.00039983741742353427 0 0.03501772416734017 0.00018401755085447238 0 0.034989468638289674 4.6663761056119157e-05 0 0.034985839741670376 2.5783087073105088e-05 0 0.034982669623644998 2.7662051115521758e-05 0 0.034989468638289674 4.6663761056119157e-05 0 0.034993468597914031 1.9632938967470103e-05 0 0.028688367578291532 0.00071082692172850116 0 0.028873599853879044 0.00056468085583134559 0 0.028975245043416229 0.00067869862945308258 0 0.028688367578291532 0.00071082692172850116 0 0.028758933939462515 0.00051177571471033476 0 0.028873599853879044 0.00056468085583134559 0 0.032251485733452656 0.00011943112855729314 0 0.031893774855973459 0.00039983741742353427 0 0.034996866881445758 1.2822725953333439e-05 0 0.034993468597914031 1.9632938967470103e-05 0 0.034996198192758017 2.7881102262585781e-06 0 0.034993468597914031 1.9632938967470103e-05 0 0.034980197143444872 -1.5657742372544144e-05 0 0.034996198192758017 2.7881102262585781e-06 0 0.034993468597914031 1.9632938967470103e-05 0 0.034985839741670376 2.5783087073105088e-05 0 0.034980197143444872 -1.5657742372544144e-05 0 0.034999996983095118 1.6343072664955449e-08 0 0.034980197143444872 -1.5657742372544144e-05 0 0.034996198192758017 2.7881102262585781e-06 0 0.034999996983095118 1.6343072664955449e-08 0 0.034980197143444872 -1.5657742372544144e-05 0 0.034999855161754898 -1.1314679169703566e-07 0 0.034999997042292154 -2.5102952521618047e-09 0 0.034999996983095118 1.6343072664955449e-08 0 0.034996198192758017 2.7881102262585781e-06 0 0.034768616559164967 -2.2338801929625378e-05 0 0.034735289899953711 -0.00010037763263146701 0 0.034891510984347993 -4.4439854700074901e-05 0 0.034768616559164967 -2.2338801929625378e-05 0 0.034735289899953711 -0.00010037763263146701 0 0.034354316699657203 -0.00022605013108149198 0 0.034768616559164967 -2.2338801929625378e-05 0 0.034985839741670376 2.5783087073105088e-05 0 0.034891510984347993 -4.4439854700074901e-05 0 0.034985839741670376 2.5783087073105088e-05 0 0.034980197143444872 -1.5657742372544144e-05 0 0.034891510984347993 -4.4439854700074901e-05 0 0.034980197143444872 -1.5657742372544144e-05 0 0.034891510984347993 -4.4439854700074901e-05 0 0.034999855161754898 -1.1314679169703566e-07 0 0.034735289899953711 -0.00010037763263146701 0 0.034891510984347993 -4.4439854700074901e-05 0 0.034999855161754898 -1.1314679169703566e-07 0 0.034735289899953711 -0.00010037763263146701 0 0.034999855161754898 -1.1314679169703566e-07 0 0.034999606696590517 -5.2364567237075744e-08 0 0.034735289899953711 -0.00010037763263146701 0 0.034999606696590517 -5.2364567237075744e-08 0 0.034763498613801062 -0.00010873466640760239 0 0.034999606696590517 -5.2364567237075744e-08 0 0.034999928208978903 5.305240837427045e-08 0 0.034763498613801062 -0.00010873466640760239 0 0.034999928208978903 5.305240837427045e-08 0 0.034763498613801062 -0.00010873466640760239 0 0.034990810290248857 -3.0856338545806702e-05 0 0.034775217018924595 -0.00012880725586470544 0 0.034565542215813122 -0.0001572544506845755 0 0.034763498613801062 -0.00010873466640760239 0 0.034642910928168555 -0.00012985159683361861 0 0.034355948202559244 -0.00026836303491609246 0 0.034735289899953711 -0.00010037763263146701 0 0.034763498613801062 -0.00010873466640760239 0 0.034354316699657203 -0.00022605013108149198 0 0.034106701965459001 -0.00023472318745487453 0 0.032611284772391849 0.00013509577523638621 0 0.034354316699657203 -0.00022605013108149198 0 0.030491819691847551 0.00023443791127175469 0 0.03410943280379803 0.00096213737541912456 0 0.034354316699657203 -0.00022605013108149198 0 0.034642910928168555 -0.00012985159683361861 0 0.03464728396415221 -7.9982521054169071e-05 0 0.034763498613801062 -0.00010873466640760239 0 0.034354316699657203 -0.00022605013108149198 0 0.034642910928168555 -0.00012985159683361861 0 0.034642910928168555 -0.00012985159683361861 0 0.03464728396415221 -7.9982521054169071e-05 0 0.034355948202559244 -0.00026836303491609246 0 0.030491819691847551 0.00023443791127175469 0 0.03021920493625161 0.00081976290704426221 0 0.02973969915850996 0.0007375238599985019 0 0.029800995057339477 0.00061002942977103299 0 0.029840287091233007 0.00069751119800035282 0 0.03021920493625161 0.00081976290704426221 0 0.029800995057339477 0.00061002942977103299 0 0.03021920493625161 0.00081976290704426221 0 0.029817844332151087 0.0006500347942111341 0 0.030419868459226056 0.00087318782954240491 0 0.031715532519063894 0.0008105207189717643 0 0.030491819691847551 0.00023443791127175469 0 0.03021920493625161 0.00081976290704426221 0 0.03410943280379803 0.00096213737541912456 0 0.03021920493625161 0.00081976290704426221 0 0.029817844332151087 0.0006500347942111341 0 0.029455791384129348 0.00081267543213959809 0 0.029405626097710334 0.0005953931039290527 0 0.029554933849320422 0.00063479750234650694 0 0.029455791384129348 0.00081267543213959809 0 0.029817844332151087 0.0006500347942111341 0 0.029554933849320422 0.00063479750234650694 0 0.029455791384129348 0.00081267543213959809 0 0.033958563901623641 6.5703812794442297e-05 0 0.033614020692577254 0.00026797238134664843 0 0.033662801535355197 0.00051097427463394089 0 0.033958563901623641 6.5703812794442297e-05 0 0.034236190201301107 0.00022403388967341957 0 0.033662801535355197 0.00051097427463394089 0 0.032056403361364942 0.00047627203975555282 0 0.031429329868727089 0.00029088776097925388 0 0.033958563901623641 6.5703812794442297e-05 0 0.033654945322018973 5.8158442291328983e-05 0 0.033614020692577254 0.00026797238134664843 0 0.033958563901623641 6.5703812794442297e-05 0 0.034236190201301107 0.00022403388967341957 0 0.034410755928511561 -5.0530604445588063e-05 0 0.032611284772391849 0.00013509577523638621 0 0.032056403361364942 0.00047627203975555282 0 0.029840287091233007 0.00069751119800035282 0 0.03021920493625161 0.00081976290704426221 0 0.02973969915850996 0.0007375238599985019 0 0.03464728396415221 -7.9982521054169071e-05 0 0.034236190201301107 0.00022403388967341957 0 0.034410755928511561 -5.0530604445588063e-05 0 0.03464728396415221 -7.9982521054169071e-05 0 0.034410755928511561 -5.0530604445588063e-05 0 0.034355948202559244 -0.00026836303491609246 0 0.033958563901623641 6.5703812794442297e-05 0 0.034410755928511561 -5.0530604445588063e-05 0 0.034355948202559244 -0.00026836303491609246 0 0.034565542215813122 -0.0001572544506845755 0 0.034664133656490688 -0.00011307727939671498 0 0.033958563901623641 6.5703812794442297e-05 0 0.034355948202559244 -0.00026836303491609246 0 0.033636675662685564 -0.00017216077970114914 0 0.033958563901623641 6.5703812794442297e-05 0 0.033636675662685564 -0.00017216077970114914 0 0.033654945322018973 5.8158442291328983e-05 0 0.03497027582616586 -9.8364409704047607e-05 0 0.034993443523345144 -4.7917317896246648e-05 0 0.034983996731735259 -3.6269647435001018e-05 0 0.03497027582616586 -9.8364409704047607e-05 0 0.034993443523345144 -4.7917317896246648e-05 0 0.034990810290248857 -3.0856338545806702e-05 0 0.034763498613801062 -0.00010873466640760239 0 0.03497027582616586 -9.8364409704047607e-05 0 0.034990810290248857 -3.0856338545806702e-05 0 0.034999928208978903 5.305240837427045e-08 0 0.034990810290248857 -3.0856338545806702e-05 0 0.035000030399461847 -1.2031115331300435e-07 0 0.034993443523345144 -4.7917317896246648e-05 0 0.034990810290248857 -3.0856338545806702e-05 0 0.035000030399461847 -1.2031115331300435e-07 0 0.035000022347621805 -2.9107183788108808e-08 0 0.034969506454967839 -9.2601924424714596e-06 0 0.035000000460920833 1.5822914908508243e-11 0 0.034999999147529048 -4.7517902075289293e-11 0 0.034999739454956755 -3.1289123872919365e-08 0 0.034993443523345144 -4.7917317896246648e-05 0 0.035000030399461847 -1.2031115331300435e-07 0 0.034981994197772072 -5.5133732175926613e-05 0 0.035000001620210948 -3.9876547090776279e-09 0 0.034969506454967839 -9.2601924424714596e-06 0 0.035000001998597229 9.1891423605090446e-10 0 0.034999993790619861 -7.8286788251972343e-10 0 0.034997318381972835 1.4069082298153464e-06 0 0.034999993790619861 -7.8286788251972343e-10 0 0.034997318381972835 1.4069082298153464e-06 0 0.034985963383151214 -1.915104643744808e-06 0 0.034969506454967839 -9.2601924424714596e-06 0 0.03490720524340004 -1.4016116049281719e-05 0 0.034997318381972835 1.4069082298153464e-06 0 0.034980762931163721 6.8431850383214474e-06 0 0.034985963383151214 -1.915104643744808e-06 0 0.034981994197772072 -5.5133732175926613e-05 0 0.034955794484432472 -3.3768359552363048e-05 0 0.034916386517263011 -1.8029533157994858e-05 0 0.034890161647419239 2.9721121673673448e-05 0 0.034916622683371604 8.0727844207094941e-07 0 0.034916386517263011 -1.8029533157994858e-05 0 0.034969506454967839 -9.2601924424714596e-06 0 0.034942012595150618 1.1752357146592801e-05 0 0.034890161647419239 2.9721121673673448e-05 0 0.034913745082352093 1.4225452525764258e-05 0 0.034916622683371604 8.0727844207094941e-07 0 0.034981994197772072 -5.5133732175926613e-05 0 0.034980945145942438 -4.4432768815629944e-05 0 0.034955794484432472 -3.3768359552363048e-05 0 0.034993443523345144 -4.7917317896246648e-05 0 0.034980945145942438 -4.4432768815629944e-05 0 0.034983996731735259 -3.6269647435001018e-05 0 0.034993443523345144 -4.7917317896246648e-05 0 0.034981994197772072 -5.5133732175926613e-05 0 0.034980945145942438 -4.4432768815629944e-05 0 0.034993527951054933 -2.1534657970526936e-06 0 0.034994386447168117 5.5912964447835838e-10 0 0.034999986356388353 -1.2742781485930847e-10 0 0.034993527951054933 -2.1534657970526936e-06 0 0.034995879785034135 -4.8653107676051794e-07 0 0.034999986356388353 -1.2742781485930847e-10 0 0.034999993790619861 -7.8286788251972343e-10 0 0.03499432915606708 -2.7422029521657733e-08 0 0.034985963383151214 -1.915104643744808e-06 0 0.03495058472241535 -4.3182394904405142e-06 0 0.034985963383151214 -1.915104643744808e-06 0 0.034961597266824379 2.5525177428470153e-07 0 0.03495058472241535 -4.3182394904405142e-06 0 0.03499432915606708 -2.7422029521657733e-08 0 0.034985963383151214 -1.915104643744808e-06 0 0.035101200705418494 -0.00013808927119856335 0 0.034994261597507119 1.4207355858924103e-07 0 0.03495058472241535 -4.3182394904405142e-06 0 0.034961597266824379 2.5525177428470153e-07 0 0.034937552810541332 2.6292992155922338e-06 0 0.034980762931163721 6.8431850383214474e-06 0 0.034985963383151214 -1.915104643744808e-06 0 0.034961597266824379 2.5525177428470153e-07 0 0.034942012595150618 1.1752357146592801e-05 0 0.034944210344208172 3.4220020172483903e-06 0 0.034913745082352093 1.4225452525764258e-05 0 0.034937552810541332 2.6292992155922338e-06 0 0.034916622683371604 8.0727844207094941e-07 0 0.034980762931163721 6.8431850383214474e-06 0 0.034961597266824379 2.5525177428470153e-07 0 0.034937552810541332 2.6292992155922338e-06 0 0.03495058472241535 -4.3182394904405142e-06 0 0.034921078590134269 2.2944823413181185e-06 0 0.034937552810541332 2.6292992155922338e-06 0 0.034993527951054933 -2.1534657970526936e-06 0 0.034986050537015485 -3.048781028321644e-06 0 0.034995879785034135 -4.8653107676051794e-07 0 0.035101200705418494 -0.00013808927119856335 0 0.033281926665898201 9.914997644600311e-05 0 0.02901421769928093 -0.00050760403616484351 0 0.028971008390944793 -0.00053545931714762604 0 0.028965943480028865 -0.00052263647277647621 0 0.02901421769928093 -0.00050760403616484351 0 0.028971008390944793 -0.00053545931714762604 0 0.028975322965557885 -0.00054745033066666061 0 0.033281926665898201 9.914997644600311e-05 0 0.031705453680165599 -0.00039407561754151003 0 0.034921078590134269 2.2944823413181185e-06 0 0.034928306857913267 -4.0980329583461975e-06 0 0.034937552810541332 2.6292992155922338e-06 0 0.028971008390944793 -0.00053545931714762604 0 0.028965943480028865 -0.00052263647277647621 0 0.028952196341693704 -0.00054361543872930354 0 0.028965943480028865 -0.00052263647277647621 0 0.028934441217320285 -0.00054622487538786484 0 0.028932032619288322 -0.00054436829896926291 0 0.031705453680165599 -0.00039407561754151003 0 0.032185249425241487 -0.00025523964712073318 0 0.034928306857913267 -4.0980329583461975e-06 0 0.034921807540536441 -1.0036449599203057e-05 0 0.034909848181958483 -1.2099819599106916e-05 0 0.028965943480028865 -0.00052263647277647621 0 0.028934441217320285 -0.00054622487538786484 0 0.028942681593954342 -0.00054609153113625354 0 0.028965943480028865 -0.00052263647277647621 0 0.028942681593954342 -0.00054609153113625354 0 0.028952196341693704 -0.00054361543872930354 0 0.034928306857913267 -4.0980329583461975e-06 0 0.034937552810541332 2.6292992155922338e-06 0 0.034921807540536441 -1.0036449599203057e-05 0 0.034921807540536441 -1.0036449599203057e-05 0 0.034916622683371604 8.0727844207094941e-07 0 0.034916386517263011 -1.8029533157994858e-05 0 0.034937552810541332 2.6292992155922338e-06 0 0.034921807540536441 -1.0036449599203057e-05 0 0.034916622683371604 8.0727844207094941e-07 0 0.034921807540536441 -1.0036449599203057e-05 0 0.034916386517263011 -1.8029533157994858e-05 0 0.034909848181958483 -1.2099819599106916e-05 0 0.028934441217320285 -0.00054622487538786484 0 0.028919947080236066 -0.0005491507940610336 0 0.028923747432317966 -0.00055368114699559602 0 0.031320250206525131 -9.2114567985870907e-05 0 0.032185249425241487 -0.00025523964712073318 0 0.028934441217320285 -0.00054622487538786484 0 0.028930370395169519 -0.00055295920975330609 0 0.028942681593954342 -0.00054609153113625354 0 0.028930370395169519 -0.00055295920975330609 0 0.028932090607861092 -0.00055559697759699988 0 0.028942681593954342 -0.00054609153113625354 0 0.028934441217320285 -0.00054622487538786484 0 0.028930370395169519 -0.00055295920975330609 0 0.028923747432317966 -0.00055368114699559602 0 0.028930370395169519 -0.00055295920975330609 0 0.028923747432317966 -0.00055368114699559602 0 0.028924134827126982 -0.00055543414747714665 0 0.028930370395169519 -0.00055295920975330609 0 0.028924456197472984 -0.00055743864286928845 0 0.028924134827126982 -0.00055543414747714665 0 0.028930370395169519 -0.00055295920975330609 0 0.028924456197472984 -0.00055743864286928845 0 0.028932090607861092 -0.00055559697759699988 0 0.028924456197472984 -0.00055743864286928845 0 0.028922430658484141 -0.00056193332512921113 0 0.028932090607861092 -0.00055559697759699988 0 0.028924456197472984 -0.00055743864286928845 0 0.028922430658484141 -0.00056193332512921113 0 0.028921066461793103 -0.00055677600903398866 0 0.028922430658484141 -0.00056193332512921113 0 0.028932090607861092 -0.00055559697759699988 0 0.028935021696927507 -0.00056049131920086408 0 0.028932090607861092 -0.00055559697759699988 0 0.028935021696927507 -0.00056049131920086408 0 0.028942339937691536 -0.0005520124699994912 0 0.028935021696927507 -0.00056049131920086408 0 0.028948313001782161 -0.00056571086100217773 0 0.028924863539492297 -0.00057181441870668859 0 0.028922430658484141 -0.00056193332512921113 0 0.028935021696927507 -0.00056049131920086408 0 0.028924863539492297 -0.00057181441870668859 0 0.028935021696927507 -0.00056049131920086408 0 0.028942339937691536 -0.0005520124699994912 0 0.028950324934983184 -0.00055361561574455629 0 0.028942339937691536 -0.0005520124699994912 0 0.028952196341693704 -0.00054361543872930354 0 0.028950324934983184 -0.00055361561574455629 0 0.028932090607861092 -0.00055559697759699988 0 0.028942339937691536 -0.0005520124699994912 0 0.028942681593954342 -0.00054609153113625354 0 0.028942339937691536 -0.0005520124699994912 0 0.028942681593954342 -0.00054609153113625354 0 0.028952196341693704 -0.00054361543872930354 0 0.028971008390944793 -0.00053545931714762604 0 0.028952196341693704 -0.00054361543872930354 0 0.028950324934983184 -0.00055361561574455629 0 0.028971008390944793 -0.00053545931714762604 0 0.028950324934983184 -0.00055361561574455629 0 0.028975322965557885 -0.00054745033066666061 0 0.028935021696927507 -0.00056049131920086408 0 0.028950324934983184 -0.00055361561574455629 0 0.028948313001782161 -0.00056571086100217773 0 0.028950324934983184 -0.00055361561574455629 0 0.028948313001782161 -0.00056571086100217773 0 0.028975322965557885 -0.00054745033066666061 0 0.028948313001782161 -0.00056571086100217773 0 0.028975322965557885 -0.00054745033066666061 0 0.028973163384639899 -0.00056191416117283566 0 0.033636675662685564 -0.00017216077970114914 0 0.032837730297635474 4.3838905823396498e-05 0 0.03343080876700831 4.7160281693298905e-05 0 0.033636675662685564 -0.00017216077970114914 0 0.03343080876700831 4.7160281693298905e-05 0 0.033654945322018973 5.8158442291328983e-05 0 0.034980945145942438 -4.4432768815629944e-05 0 0.034983996731735259 -3.6269647435001018e-05 0 0.034955794484432472 -3.3768359552363048e-05 0 0.034983996731735259 -3.6269647435001018e-05 0 0.034955794484432472 -3.3768359552363048e-05 0 0.034909848181958483 -1.2099819599106916e-05 0 0.034664133656490688 -0.00011307727939671498 0 0.032185249425241487 -0.00025523964712073318 0 0.034955794484432472 -3.3768359552363048e-05 0 0.034916386517263011 -1.8029533157994858e-05 0 0.034909848181958483 -1.2099819599106916e-05 0 0.033245863658283151 0.00015387185244500912 0 0.032837730297635474 4.3838905823396498e-05 0 0.033259348738345879 0.00029526350108563938 0 0.032185249425241487 -0.00025523964712073318 0 0.030991380989619198 -0.00022412262400525867 0 0.033245863658283151 0.00015387185244500912 0 0.032837730297635474 4.3838905823396498e-05 0 0.03343080876700831 4.7160281693298905e-05 0 0.028919947080236066 -0.0005491507940610336 0 0.028930155038717587 -0.00055719798181942995 0 0.028969866658111489 -0.00058056219732834341 0 0.028919947080236066 -0.0005491507940610336 0 0.028930155038717587 -0.00055719798181942995 0 0.028923747432317966 -0.00055368114699559602 0 0.028930155038717587 -0.00055719798181942995 0 0.028923747432317966 -0.00055368114699559602 0 0.02892475686412075 -0.0005554106431321775 0 0.028923747432317966 -0.00055368114699559602 0 0.028924134827126982 -0.00055543414747714665 0 0.02892475686412075 -0.0005554106431321775 0 0.028924456197472984 -0.00055743864286928845 0 0.028924134827126982 -0.00055543414747714665 0 0.028921066461793103 -0.00055677600903398866 0 0.028924134827126982 -0.00055543414747714665 0 0.02892475686412075 -0.0005554106431321775 0 0.028921066461793103 -0.00055677600903398866 0 0.028930155038717587 -0.00055719798181942995 0 0.0289249303925906 -0.000554889183844701 0 0.028930579712076642 -0.00055308222642618617 0 0.0289249303925906 -0.000554889183844701 0 0.028920711854186064 -0.00055424809781348574 0 0.028930579712076642 -0.00055308222642618617 0 0.02892475686412075 -0.0005554106431321775 0 0.0289249303925906 -0.000554889183844701 0 0.028921066461793103 -0.00055677600903398866 0 0.028930155038717587 -0.00055719798181942995 0 0.02892475686412075 -0.0005554106431321775 0 0.0289249303925906 -0.000554889183844701 0 0.028920711854186064 -0.00055424809781348574 0 0.028921066461793103 -0.00055677600903398866 0 0.028913905950668478 -0.00056305870807654246 0 0.0289249303925906 -0.000554889183844701 0 0.028920711854186064 -0.00055424809781348574 0 0.028921066461793103 -0.00055677600903398866 0 0.028922430658484141 -0.00056193332512921113 0 0.028921066461793103 -0.00055677600903398866 0 0.028913905950668478 -0.00056305870807654246 0 0.028930155038717587 -0.00055719798181942995 0 0.028969866658111489 -0.00058056219732834341 0 0.028930579712076642 -0.00055308222642618617 0 0.028969866658111489 -0.00058056219732834341 0 0.028929694187829796 -0.00054390230758816823 0 0.028930579712076642 -0.00055308222642618617 0 0.028929694187829796 -0.00054390230758816823 0 0.028930579712076642 -0.00055308222642618617 0 0.028924197008499807 -0.00055110384191998734 0 0.028920711854186064 -0.00055424809781348574 0 0.028924197008499807 -0.00055110384191998734 0 0.028913478155946845 -0.00055659183074455328 0 0.028920711854186064 -0.00055424809781348574 0 0.028930579712076642 -0.00055308222642618617 0 0.028924197008499807 -0.00055110384191998734 0 0.028929694187829796 -0.00054390230758816823 0 0.028924197008499807 -0.00055110384191998734 0 0.028913478155946845 -0.00055659183074455328 0 0.033259348738345879 0.00029526350108563938 0 0.03344963712362551 0.00022447127623823575 0 0.033656750084999118 0.00052181240064367522 0 0.030991380989619198 -0.00022412262400525867 0 0.031429329868727089 0.00029088776097925388 0 0.028969866658111489 -0.00058056219732834341 0 0.028929694187829796 -0.00054390230758816823 0 0.029147966306338539 -0.00012660005544900331 0 0.033245863658283151 0.00015387185244500912 0 0.03344963712362551 0.00022447127623823575 0 0.03343080876700831 4.7160281693298905e-05 0 0.033245863658283151 0.00015387185244500912 0 0.033259348738345879 0.00029526350108563938 0 0.03344963712362551 0.00022447127623823575 0 0.03344963712362551 0.00022447127623823575 0 0.03343080876700831 4.7160281693298905e-05 0 0.033654945322018973 5.8158442291328983e-05 0 0.03344963712362551 0.00022447127623823575 0 0.033654945322018973 5.8158442291328983e-05 0 0.033614020692577254 0.00026797238134664843 0 0.032678770835537385 0.0005701207817009193 0 0.031429329868727089 0.00029088776097925388 0 0.03344963712362551 0.00022447127623823575 0 0.033614020692577254 0.00026797238134664843 0 0.033656750084999118 0.00052181240064367522 0 0.029853636831600326 -7.2726208198025925e-05 0 0.02991567383802126 0.00018840946811579938 0 0.030054591115739691 0.00012363036571177662 0 0.031429329868727089 0.00029088776097925388 0 0.029184780192440994 -0.00020809923889196426 0 0.029893336533565983 0.00022300323742491772 0 0.031429329868727089 0.00029088776097925388 0 0.028969866658111489 -0.00058056219732834341 0 0.029522158756364186 -0.00028440387402886211 0 0.029147966306338539 -0.00012660005544900331 0 0.028933861338466919 -0.00055363661738011517 0 0.029184780192440994 -0.00020809923889196426 0 0.028852658346162241 -0.00055897527434226231 0 0.028854549614904249 -0.00058981621039548647 0 0.028888250284413688 -0.00057492146302408462 0 0.028852658346162241 -0.00055897527434226231 0 0.02882649099386694 -0.00061046177362797361 0 0.028854549614904249 -0.00058981621039548647 0 0.029184780192440994 -0.00020809923889196426 0 0.029363389946796419 -0.00038390726512079588 0 0.029853636831600326 -7.2726208198025925e-05 0 0.030054591115739691 0.00012363036571177662 0 0.029924848719400314 -0.00010555399455244814 0 0.02882649099386694 -0.00061046177362797361 0 0.028854549614904249 -0.00058981621039548647 0 0.028856870898549037 -0.00061015516837121554 0 0.02882649099386694 -0.00061046177362797361 0 0.028856870898549037 -0.00061015516837121554 0 0.02884149146011511 -0.00064070067233907072 0 0.028863831703460803 -0.00062169288784078567 0 0.028886283377266054 -0.00059983938823482343 0 0.028873520505469551 -0.00062426082717157599 0 0.028863831703460803 -0.00062169288784078567 0 0.028856870898549037 -0.00061015516837121554 0 0.02884149146011511 -0.00064070067233907072 0 0.028863831703460803 -0.00062169288784078567 0 0.028856870898549037 -0.00061015516837121554 0 0.028886283377266054 -0.00059983938823482343 0 0.028856870898549037 -0.00061015516837121554 0 0.028886283377266054 -0.00059983938823482343 0 0.028888250284413688 -0.00057492146302408462 0 0.028854549614904249 -0.00058981621039548647 0 0.028856870898549037 -0.00061015516837121554 0 0.028888250284413688 -0.00057492146302408462 0 0.028886283377266054 -0.00059983938823482343 0 0.028902657851389159 -0.00057529497446730227 0 0.028888250284413688 -0.00057492146302408462 0 0.028902657851389159 -0.00057529497446730227 0 0.028888250284413688 -0.00057492146302408462 0 0.028906522030017041 -0.00056374786522651518 0 0.029184780192440994 -0.00020809923889196426 0 0.028967469153480304 -0.00037456992016679812 0 0.028929694187829796 -0.00054390230758816823 0 0.02888852078727543 -0.00056699033775324374 0 0.028913478155946845 -0.00055659183074455328 0 0.02888852078727543 -0.00056699033775324374 0 0.028888250284413688 -0.00057492146302408462 0 0.028899599831895127 -0.0005655174843849142 0 0.02888852078727543 -0.00056699033775324374 0 0.028899599831895127 -0.0005655174843849142 0 0.028913478155946845 -0.00055659183074455328 0 0.028888250284413688 -0.00057492146302408462 0 0.028899599831895127 -0.0005655174843849142 0 0.028906522030017041 -0.00056374786522651518 0 0.028899599831895127 -0.0005655174843849142 0 0.028906522030017041 -0.00056374786522651518 0 0.028913478155946845 -0.00055659183074455328 0 0.028920711854186064 -0.00055424809781348574 0 0.028906522030017041 -0.00056374786522651518 0 0.028913478155946845 -0.00055659183074455328 0 0.028902657851389159 -0.00057529497446730227 0 0.028913905950668478 -0.00056305870807654246 0 0.028912597823134597 -0.00057182750554601294 0 0.028902657851389159 -0.00057529497446730227 0 0.028906522030017041 -0.00056374786522651518 0 0.028913905950668478 -0.00056305870807654246 0 0.028920711854186064 -0.00055424809781348574 0 0.028906522030017041 -0.00056374786522651518 0 0.028913905950668478 -0.00056305870807654246 0 0.028922430658484141 -0.00056193332512921113 0 0.028913905950668478 -0.00056305870807654246 0 0.028912597823134597 -0.00057182750554601294 0 0.028912597823134597 -0.00057182750554601294 0 0.028924863539492297 -0.00057181441870668859 0 0.028907076318522736 -0.00058573504287966454 0 0.028922430658484141 -0.00056193332512921113 0 0.028912597823134597 -0.00057182750554601294 0 0.028924863539492297 -0.00057181441870668859 0 0.028907076318522736 -0.00058573504287966454 0 0.028926496139071136 -0.0005849272251735268 0 0.028897424067143615 -0.00060571670515607 0 0.028924863539492297 -0.00057181441870668859 0 0.028907076318522736 -0.00058573504287966454 0 0.028926496139071136 -0.0005849272251735268 0 0.028902657851389159 -0.00057529497446730227 0 0.028912597823134597 -0.00057182750554601294 0 0.028907076318522736 -0.00058573504287966454 0 0.028886283377266054 -0.00059983938823482343 0 0.028902657851389159 -0.00057529497446730227 0 0.028907076318522736 -0.00058573504287966454 0 0.028948313001782161 -0.00056571086100217773 0 0.028926496139071136 -0.0005849272251735268 0 0.028958974765790391 -0.0005822519293688488 0 0.028926496139071136 -0.0005849272251735268 0 0.028911593357913171 -0.0006074105928832983 0 0.028958974765790391 -0.0005822519293688488 0 0.028948313001782161 -0.00056571086100217773 0 0.028924863539492297 -0.00057181441870668859 0 0.028926496139071136 -0.0005849272251735268 0 0.028911593357913171 -0.0006074105928832983 0 0.028884878032200453 -0.00062365017759158966 0 0.028880364210302063 -0.00063713828749958066 0 0.028911593357913171 -0.0006074105928832983 0 0.028880364210302063 -0.00063713828749958066 0 0.028918411602643714 -0.00061588434722668276 0 0.028926496139071136 -0.0005849272251735268 0 0.028911593357913171 -0.0006074105928832983 0 0.028897424067143615 -0.00060571670515607 0 0.028886283377266054 -0.00059983938823482343 0 0.028907076318522736 -0.00058573504287966454 0 0.028897424067143615 -0.00060571670515607 0 0.028911593357913171 -0.0006074105928832983 0 0.028897424067143615 -0.00060571670515607 0 0.028884878032200453 -0.00062365017759158966 0 0.028897424067143615 -0.00060571670515607 0 0.028873520505469551 -0.00062426082717157599 0 0.028884878032200453 -0.00062365017759158966 0 0.028886283377266054 -0.00059983938823482343 0 0.028897424067143615 -0.00060571670515607 0 0.028873520505469551 -0.00062426082717157599 0 0.028873520505469551 -0.00062426082717157599 0 0.028884878032200453 -0.00062365017759158966 0 0.028861519721416169 -0.00064276227232794769 0 0.028873520505469551 -0.00062426082717157599 0 0.028861519721416169 -0.00064276227232794769 0 0.028856698251036778 -0.00063703362912681625 0 0.028884878032200453 -0.00062365017759158966 0 0.028861519721416169 -0.00064276227232794769 0 0.028880364210302063 -0.00063713828749958066 0 0.028861519721416169 -0.00064276227232794769 0 0.028880364210302063 -0.00063713828749958066 0 0.028842270454612316 -0.00066197113261540978 0 0.028880364210302063 -0.00063713828749958066 0 0.028893279503990565 -0.00064112087922807317 0 0.028918411602643714 -0.00061588434722668276 0 0.028880364210302063 -0.00063713828749958066 0 0.02885851181667071 -0.0006609430180844816 0 0.028893279503990565 -0.00064112087922807317 0 0.02885851181667071 -0.0006609430180844816 0 0.028864058430228115 -0.00067133445154543005 0 0.028893279503990565 -0.00064112087922807317 0 0.028880364210302063 -0.00063713828749958066 0 0.02885851181667071 -0.0006609430180844816 0 0.028842270454612316 -0.00066197113261540978 0 0.02885851181667071 -0.0006609430180844816 0 0.028826881495067978 -0.00067700055644041987 0 0.028839904263684237 -0.00067898541444663847 0 0.02885851181667071 -0.0006609430180844816 0 0.028864058430228115 -0.00067133445154543005 0 0.028839904263684237 -0.00067898541444663847 0 0.028842270454612316 -0.00066197113261540978 0 0.028828444934768199 -0.00066691835210606302 0 0.028842286938328632 -0.00065393209777132053 0 0.028861519721416169 -0.00064276227232794769 0 0.028842270454612316 -0.00066197113261540978 0 0.028842286938328632 -0.00065393209777132053 0 0.028842270454612316 -0.00066197113261540978 0 0.028820908097205489 -0.00067442053790929578 0 0.028826881495067978 -0.00067700055644041987 0 0.02885851181667071 -0.0006609430180844816 0 0.028842270454612316 -0.00066197113261540978 0 0.028826881495067978 -0.00067700055644041987 0 0.028842270454612316 -0.00066197113261540978 0 0.028828444934768199 -0.00066691835210606302 0 0.028820908097205489 -0.00067442053790929578 0 0.028828444934768199 -0.00066691835210606302 0 0.02882474035498157 -0.00066727247389827566 0 0.028810034487961399 -0.00067671062137999842 0 0.028828444934768199 -0.00066691835210606302 0 0.02882474035498157 -0.00066727247389827566 0 0.028842286938328632 -0.00065393209777132053 0 0.02882474035498157 -0.00066727247389827566 0 0.028811058293108954 -0.00067361540998631055 0 0.02881941790857306 -0.00067430712764722641 0 0.028824159731606916 -0.00066871803359650275 0 0.02882474035498157 -0.00066727247389827566 0 0.02881941790857306 -0.00067430712764722641 0 0.028824159731606916 -0.00066871803359650275 0 0.02882474035498157 -0.00066727247389827566 0 0.028827794146247039 -0.00065634552065598384 0 0.028812119147852276 -0.00064504162049432232 0 0.028827794146247039 -0.00065634552065598384 0 0.02884149146011511 -0.00064070067233907072 0 0.02882474035498157 -0.00066727247389827566 0 0.028827794146247039 -0.00065634552065598384 0 0.02884149146011511 -0.00064070067233907072 0 0.028812119147852276 -0.00064504162049432232 0 0.02882649099386694 -0.00061046177362797361 0 0.02884149146011511 -0.00064070067233907072 0 0.028812119147852276 -0.00064504162049432232 0 0.028824159731606916 -0.00066871803359650275 0 0.028827794146247039 -0.00065634552065598384 0 0.02882474035498157 -0.00066727247389827566 0 0.02884149146011511 -0.00064070067233907072 0 0.028842286938328632 -0.00065393209777132053 0 0.028863831703460803 -0.00062169288784078567 0 0.02884149146011511 -0.00064070067233907072 0 0.028856698251036778 -0.00063703362912681625 0 0.028863831703460803 -0.00062169288784078567 0 0.028873520505469551 -0.00062426082717157599 0 0.028856698251036778 -0.00063703362912681625 0 0.028861519721416169 -0.00064276227232794769 0 0.028856698251036778 -0.00063703362912681625 0 0.028842286938328632 -0.00065393209777132053 0 0.02884149146011511 -0.00064070067233907072 0 0.028856698251036778 -0.00063703362912681625 0 0.028842286938328632 -0.00065393209777132053 0 0.028943913846159693 -0.00063715010420660988 0 0.028941723190299716 -0.0006119911539477933 0 0.028996936617975394 -0.00060610859950143391 0 0.028973888146221004 -0.00064937562395775471 0 0.028943913846159693 -0.00063715010420660988 0 0.028996936617975394 -0.00060610859950143391 0 0.034687213075194741 0.00068953192633998135 0 0.034873371140126411 0.00040118266477431912 0 0.034697921215419515 0.00043051910694432582 0 0.029040770669115819 -0.00064624270529498463 0 0.028973888146221004 -0.00064937562395775471 0 0.028996936617975394 -0.00060610859950143391 0 0.031844157698645556 0.0002491214767441152 0 0.031941173083408519 -0.00014076544604309872 0 0.02899477798181661 -0.00053212351264249759 0 0.028979027508277192 -0.00064503246574824382 0 0.028890655783798236 -0.00063927365709831737 0 0.029040770669115819 -0.00064624270529498463 0 0.028973888146221004 -0.00064937562395775471 0 0.028966818024773893 -0.00069538088974575537 0 0.031844157698645556 0.0002491214767441152 0 0.028512562942469101 -0.00098721501459655254 0 0.028973888146221004 -0.00064937562395775471 0 0.028900479405839726 -0.00068319305630391164 0 0.028943913846159693 -0.00063715010420660988 0 0.028973888146221004 -0.00064937562395775471 0 0.028900479405839726 -0.00068319305630391164 0 0.028966818024773893 -0.00069538088974575537 0 0.028900479405839726 -0.00068319305630391164 0 0.028899135842660958 -0.00065535188157829136 0 0.028943913846159693 -0.00063715010420660988 0 0.028900479405839726 -0.00068319305630391164 0 0.028899135842660958 -0.00065535188157829136 0 0.028858772902061951 -0.0006938987099858406 0 0.028899135842660958 -0.00065535188157829136 0 0.028864058430228115 -0.00067133445154543005 0 0.028893279503990565 -0.00064112087922807317 0 0.028899135842660958 -0.00065535188157829136 0 0.028864058430228115 -0.00067133445154543005 0 0.028858772902061951 -0.0006938987099858406 0 0.028899135842660958 -0.00065535188157829136 0 0.028893279503990565 -0.00064112087922807317 0 0.028941723190299716 -0.0006119911539477933 0 0.028893279503990565 -0.00064112087922807317 0 0.028941723190299716 -0.0006119911539477933 0 0.028918411602643714 -0.00061588434722668276 0 0.028899135842660958 -0.00065535188157829136 0 0.028943913846159693 -0.00063715010420660988 0 0.028941723190299716 -0.0006119911539477933 0 0.028911593357913171 -0.0006074105928832983 0 0.028918411602643714 -0.00061588434722668276 0 0.028958974765790391 -0.0005822519293688488 0 0.028941723190299716 -0.0006119911539477933 0 0.028918411602643714 -0.00061588434722668276 0 0.028958974765790391 -0.0005822519293688488 0 0.028948313001782161 -0.00056571086100217773 0 0.028958974765790391 -0.0005822519293688488 0 0.028973163384639899 -0.00056191416117283566 0 0.028941723190299716 -0.0006119911539477933 0 0.028958974765790391 -0.0005822519293688488 0 0.028992687547021542 -0.00058210126725175373 0 0.028958974765790391 -0.0005822519293688488 0 0.028992687547021542 -0.00058210126725175373 0 0.029002023880996534 -0.00055184698718308879 0 0.034942214030324416 0.0001475073168363381 0 0.034863983531933915 0.00014244938049930744 0 0.034873371140126411 0.00040118266477431912 0 0.028941723190299716 -0.0006119911539477933 0 0.028992687547021542 -0.00058210126725175373 0 0.028996936617975394 -0.00060610859950143391 0 0.031987936118168213 -0.00021161828585506212 0 0.031941173083408519 -0.00014076544604309872 0 0.034873371140126411 0.00040118266477431912 0 0.034766057341648129 0.00022250227288230651 0 0.034697921215419515 0.00043051910694432582 0 0.034863983531933915 0.00014244938049930744 0 0.034873371140126411 0.00040118266477431912 0 0.034766057341648129 0.00022250227288230651 0 0.034766057341648129 0.00022250227288230651 0 0.034822013584498185 5.091599645215066e-05 0 0.034695679725173331 9.8627466343888611e-05 0 0.034863983531933915 0.00014244938049930744 0 0.034766057341648129 0.00022250227288230651 0 0.034822013584498185 5.091599645215066e-05 0 0.034863983531933915 0.00014244938049930744 0 0.034822013584498185 5.091599645215066e-05 0 0.034898758423444712 2.3672381299642105e-05 0 0.034822013584498185 5.091599645215066e-05 0 0.034729034170122033 2.2213724841791402e-05 0 0.034836855878785343 -1.683640021135184e-06 0 0.034822013584498185 5.091599645215066e-05 0 0.034898758423444712 2.3672381299642105e-05 0 0.034836855878785343 -1.683640021135184e-06 0 0.034942214030324416 0.0001475073168363381 0 0.034863983531933915 0.00014244938049930744 0 0.034898758423444712 2.3672381299642105e-05 0 0.034898758423444712 2.3672381299642105e-05 0 0.034916458195217291 -1.0857505434526895e-05 0 0.034836855878785343 -1.683640021135184e-06 0 0.034898758423444712 2.3672381299642105e-05 0 0.034939155700374085 4.1577267163419316e-05 0 0.034930757194633934 -7.4544018109308966e-06 0 0.034935851952450754 1.704115949945276e-05 0 0.034939155700374085 4.1577267163419316e-05 0 0.034930757194633934 -7.4544018109308966e-06 0 0.028975322965557885 -0.00054745033066666061 0 0.029002023880996534 -0.00055184698718308879 0 0.028973163384639899 -0.00056191416117283566 0 0.028958974765790391 -0.0005822519293688488 0 0.029002023880996534 -0.00055184698718308879 0 0.028973163384639899 -0.00056191416117283566 0 0.031987936118168213 -0.00021161828585506212 0 0.031790436525644339 -0.00024787584140009711 0 0.034942214030324416 0.0001475073168363381 0 0.034898758423444712 2.3672381299642105e-05 0 0.034939155700374085 4.1577267163419316e-05 0 0.02901421769928093 -0.00050760403616484351 0 0.028975322965557885 -0.00054745033066666061 0 0.029002023880996534 -0.00055184698718308879 0 0.033281926665898201 9.914997644600311e-05 0 0.031790436525644339 -0.00024787584140009711 0 0.033281926665898201 9.914997644600311e-05 0 0.035290579369750455 4.1827942819933593e-05 0 0.034986050537015485 -3.048781028321644e-06 0 0.034999497132466147 -8.0841702255493954e-07 0 0.034995879785034135 -4.8653107676051794e-07 0 0.034999497132466147 -8.0841702255493954e-07 0 0.034999999974472007 4.8829069030671728e-10 0 0.034995879785034135 -4.8653107676051794e-07 0 0.034999999974472007 4.8829069030671728e-10 0 0.034995879785034135 -4.8653107676051794e-07 0 0.034999986356388353 -1.2742781485930847e-10 0 0.034898758423444712 2.3672381299642105e-05 0 0.034930757194633934 -7.4544018109308966e-06 0 0.034916458195217291 -1.0857505434526895e-05 0 0.034930757194633934 -7.4544018109308966e-06 0 0.034916458195217291 -1.0857505434526895e-05 0 0.03499971429616848 -3.2143117273346474e-09 0 0.035290579369750455 4.1827942819933593e-05 0 0.034999493111053236 -2.0510301240951271e-07 0 0.034999497132466147 -8.0841702255493954e-07 0 0.034999999974472007 4.8829069030671728e-10 0 0.03500000238260758 -3.3851734583368633e-11 0 0.034916458195217291 -1.0857505434526895e-05 0 0.03499971429616848 -3.2143117273346474e-09 0 0.034953667697518231 -8.5143088404661424e-06 0 0.03499971429616848 -3.2143117273346474e-09 0 0.034953667697518231 -8.5143088404661424e-06 0 0.034999973379025537 -2.0064516531429546e-08 0 0.034953667697518231 -8.5143088404661424e-06 0 0.034898556088389619 -1.2912052127562745e-05 0 0.034999973379025537 -2.0064516531429546e-08 0 0.034916458195217291 -1.0857505434526895e-05 0 0.034953667697518231 -8.5143088404661424e-06 0 0.034898556088389619 -1.2912052127562745e-05 0 0.034916458195217291 -1.0857505434526895e-05 0 0.034898556088389619 -1.2912052127562745e-05 0 0.034836855878785343 -1.683640021135184e-06 0 0.034836104068568137 -5.3787954918494408e-05 0 0.034920563233247021 -3.603305772551233e-05 0 0.034845738058211305 -0.00010344751228129051 0 0.034999803147810961 1.6120986133482471e-08 0 0.034999942527176135 -1.4908232792164249e-08 0 0.034920563233247021 -3.603305772551233e-05 0 0.034866801901009027 -4.0478263987483757e-05 0 0.034999941349611617 -1.3880248944208917e-08 0 0.034836104068568137 -5.3787954918494408e-05 0 0.034999803147810961 1.6120986133482471e-08 0 0.034920563233247021 -3.603305772551233e-05 0 0.034999942527176135 -1.4908232792164249e-08 0 0.034981460890754365 -2.4727378238657821e-05 0 0.034920563233247021 -3.603305772551233e-05 0 0.034999942527176135 -1.4908232792164249e-08 0 0.034981460890754365 -2.4727378238657821e-05 0 0.034999992541784139 -7.5825559366849058e-09 0 0.034981460890754365 -2.4727378238657821e-05 0 0.034999992541784139 -7.5825559366849058e-09 0 0.035024910551260439 -3.088300931128368e-05 0 0.035000313429281525 -1.336047512934406e-07 0 0.034289538623313451 -0.00035568929972667877 0 0.034981460890754365 -2.4727378238657821e-05 0 0.034974660811214919 -8.7896919403956152e-05 0 0.035024910551260439 -3.088300931128368e-05 0 0.033982945247079697 -0.00077908440462268094 0 0.034289538623313451 -0.00035568929972667877 0 0.034981460890754365 -2.4727378238657821e-05 0 0.034974660811214919 -8.7896919403956152e-05 0 0.034920563233247021 -3.603305772551233e-05 0 0.034974660811214919 -8.7896919403956152e-05 0 0.034920563233247021 -3.603305772551233e-05 0 0.034845738058211305 -0.00010344751228129051 0 0.033982945247079697 -0.00077908440462268094 0 0.034314583396958261 -0.00044175012250546961 0 0.034974660811214919 -8.7896919403956152e-05 0 0.034845738058211305 -0.00010344751228129051 0 0.034818504464190159 -0.00018220493053714706 0 0.033174947430240985 -0.0012635943592876025 0 0.033757556829640926 -0.00080455930707420107 0 0.033114373810142976 -0.00073472457836915289 0 0.033174947430240985 -0.0012635943592876025 0 0.033114373810142976 -0.00073472457836915289 0 0.032667859552626938 -0.0011357997979114637 0 0.033114373810142976 -0.00073472457836915289 0 0.032492967256689903 -0.00057023849301214265 0 0.03294493649293153 -0.00017752116678432928 0 0.033114373810142976 -0.00073472457836915289 0 0.033670647934190369 -0.00014666779099608044 0 0.03294493649293153 -0.00017752116678432928 0 0.033757556829640926 -0.00080455930707420107 0 0.03407295360589279 -0.00017152928073751474 0 0.033670647934190369 -0.00014666779099608044 0 0.033757556829640926 -0.00080455930707420107 0 0.033114373810142976 -0.00073472457836915289 0 0.033670647934190369 -0.00014666779099608044 0 0.034512980202724211 -0.00011650689874824865 0 0.034673626201651236 -0.00019311119540093677 0 0.034550360614107073 1.8602554535593831e-05 0 0.034718355661426073 -8.5302173418746408e-05 0 0.034591218198484285 1.4512755027983454e-05 0 0.034314583396958261 -0.00044175012250546961 0 0.03451319482939489 -0.00015443365868433108 0 0.033757556829640926 -0.00080455930707420107 0 0.03407295360589279 -0.00017152928073751474 0 0.034512980202724211 -0.00011650689874824865 0 0.034818504464190159 -0.00018220493053714706 0 0.034512980202724211 -0.00011650689874824865 0 0.034673626201651236 -0.00019311119540093677 0 0.034729034170122033 2.2213724841791402e-05 0 0.034836855878785343 -1.683640021135184e-06 0 0.03477696031020968 1.0653855758327618e-06 0 0.034729034170122033 2.2213724841791402e-05 0 0.03477696031020968 1.0653855758327618e-06 0 0.034550360614107073 1.8602554535593831e-05 0 0.034822013584498185 5.091599645215066e-05 0 0.034729034170122033 2.2213724841791402e-05 0 0.034695679725173331 9.8627466343888611e-05 0 0.034898556088389619 -1.2912052127562745e-05 0 0.034836855878785343 -1.683640021135184e-06 0 0.03477696031020968 1.0653855758327618e-06 0 0.034866801901009027 -4.0478263987483757e-05 0 0.034718355661426073 -8.5302173418746408e-05 0 0.034845738058211305 -0.00010344751228129051 0 0.034818504464190159 -0.00018220493053714706 0 0.034673626201651236 -0.00019311119540093677 0 0.034836104068568137 -5.3787954918494408e-05 0 0.034845738058211305 -0.00010344751228129051 0 0.034673626201651236 -0.00019311119540093677 0 0.034781301611377512 5.0235776009981957e-05 0 0.034036155931467763 0.00017899225483541259 0 0.033463329829612184 -0.00055001706575836683 0 0.034820391683620167 -8.1884532749378484e-05 0 0.034036810222760505 0.00011499118448320814 0 0.03492516018495375 1.7663560083920947e-05 0 0.034781301611377512 5.0235776009981957e-05 0 0.034989864983483686 -2.1404184686956081e-05 0 0.03492516018495375 1.7663560083920947e-05 0 0.034999825048843088 6.0233720830700043e-10 0 0.034999949879273164 4.0720476408703948e-08 0 0.03492516018495375 1.7663560083920947e-05 0 0.034978233875310086 7.1548514462656466e-06 0 0.034999825048843088 6.0233720830700043e-10 0 0.034978233875310086 7.1548514462656466e-06 0 0.034999825048843088 6.0233720830700043e-10 0 0.035000173803356724 -5.8605405119111634e-08 0 0.034978233875310086 7.1548514462656466e-06 0 0.034781301611377512 5.0235776009981957e-05 0 0.035098253490565876 0.00015635816464224821 0 0.03492516018495375 1.7663560083920947e-05 0 0.034978233875310086 7.1548514462656466e-06 0 0.034781301611377512 5.0235776009981957e-05 0 0.034978233875310086 7.1548514462656466e-06 0 0.035093614017053847 2.9101187856373681e-05 0 0.035098253490565876 0.00015635816464224821 0 0.034978233875310086 7.1548514462656466e-06 0 0.035000173803356724 -5.8605405119111634e-08 0 0.035093614017053847 2.9101187856373681e-05 0 0.034999993077692408 -1.2971243789709044e-09 0 0.034999997143915967 -2.0954459421461788e-09 0 0.034996937801883218 -2.3136182421861131e-06 0 0.035000612252270011 5.5671680931529339e-07 0 0.034289538623313451 -0.00035568929972667877 0 0.032697409031890057 -0.001718118367000056 0 0.032667859552626938 -0.0011357997979114637 0 0.032083644324119844 -0.0011390893234310871 0 0.033174947430240985 -0.0012635943592876025 0 0.032697409031890057 -0.001718118367000056 0 0.032667859552626938 -0.0011357997979114637 0 0.034289538623313451 -0.00035568929972667877 0 0.033698495451227814 -0.00044302800077665255 0 0.032667859552626938 -0.0011357997979114637 0 0.032492967256689903 -0.00057023849301214265 0 0.032083644324119844 -0.0011390893234310871 0 0.033114373810142976 -0.00073472457836915289 0 0.032667859552626938 -0.0011357997979114637 0 0.032492967256689903 -0.00057023849301214265 0 0.032492967256689903 -0.00057023849301214265 0 0.032258636150245178 -0.0002347949909209406 0 0.032435462014181279 -2.9232654291426449e-06 0 0.032492967256689903 -0.00057023849301214265 0 0.032435462014181279 -2.9232654291426449e-06 0 0.03294493649293153 -0.00017752116678432928 0 0.032492967256689903 -0.00057023849301214265 0 0.032038785445867274 -0.00047260508203027306 0 0.032258636150245178 -0.0002347949909209406 0 0.032038785445867274 -0.00047260508203027306 0 0.032258636150245178 -0.0002347949909209406 0 0.032103096667517358 5.8122486682165119e-05 0 0.032492967256689903 -0.00057023849301214265 0 0.032038785445867274 -0.00047260508203027306 0 0.032083644324119844 -0.0011390893234310871 0 0.032038785445867274 -0.00047260508203027306 0 0.032083644324119844 -0.0011390893234310871 0 0.031489000251145365 -0.00055651801553697512 0 0.033698495451227814 -0.00044302800077665255 0 0.031937139983325993 -0.00073306883170607155 0 0.034781301611377512 5.0235776009981957e-05 0 0.035098253490565876 0.00015635816464224821 0 0.034616642220001194 0.00043156807811009588 0 0.035098253490565876 0.00015635816464224821 0 0.034727171665513722 0.00085155156797140166 0 0.034616642220001194 0.00043156807811009588 0 0.031937139983325993 -0.00073306883170607155 0 0.031132625759039145 -0.00070771912315505342 0 0.032038785445867274 -0.00047260508203027306 0 0.031489000251145365 -0.00055651801553697512 0 0.032103096667517358 5.8122486682165119e-05 0 0.034727171665513722 0.00085155156797140166 0 0.034433618416532023 0.00082137489208144955 0 0.034350161695990575 0.0010481342805060303 0 0.034727171665513722 0.00085155156797140166 0 0.034433618416532023 0.00082137489208144955 0 0.03452455519870342 0.00068559606964666714 0 0.03003422542965406 -0.0017703220785903781 0 0.029670410693466844 -0.0014226317599809889 0 0.030151134090960655 -0.0013161496467844391 0 0.034433618416532023 0.00082137489208144955 0 0.034350161695990575 0.0010481342805060303 0 0.034199844073857455 0.00089942826959461656 0 0.034727171665513722 0.00085155156797140166 0 0.034350161695990575 0.0010481342805060303 0 0.034148087619353347 0.0015804109607841937 0 0.031937139983325993 -0.00073306883170607155 0 0.030539831539638733 0.00024445249133718175 0 0.034350161695990575 0.0010481342805060303 0 0.034108813008591594 0.0012753197914202002 0 0.034148087619353347 0.0015804109607841937 0 0.033985866696691833 0.0014609911724225591 0 0.034108813008591594 0.0012753197914202002 0 0.034148087619353347 0.0015804109607841937 0 0.033985866696691833 0.0014609911724225591 0 0.034171634927151577 0.0016173246657245023 0 0.033712945802863215 0.0016578800886498314 0 0.031862477205196534 0.0011015868508492612 0 0.030539831539638733 0.00024445249133718175 0 0.034350161695990575 0.0010481342805060303 0 0.034108813008591594 0.0012753197914202002 0 0.034111921598106769 0.0010872846404059882 0 0.034108813008591594 0.0012753197914202002 0 0.033936977638336571 0.0012048691106309184 0 0.034111921598106769 0.0010872846404059882 0 0.033985866696691833 0.0014609911724225591 0 0.034108813008591594 0.0012753197914202002 0 0.033936977638336571 0.0012048691106309184 0 0.033936977638336571 0.0012048691106309184 0 0.034111921598106769 0.0010872846404059882 0 0.033979164381007447 0.00097047879808169566 0 0.034111921598106769 0.0010872846404059882 0 0.033979164381007447 0.00097047879808169566 0 0.034199844073857455 0.00089942826959461656 0 0.034350161695990575 0.0010481342805060303 0 0.034111921598106769 0.0010872846404059882 0 0.034199844073857455 0.00089942826959461656 0 0.034199844073857455 0.00089942826959461656 0 0.034015516382470766 0.00077108173933017495 0 0.034302160757210029 0.00068090374879280202 0 0.034433618416532023 0.00082137489208144955 0 0.034199844073857455 0.00089942826959461656 0 0.034302160757210029 0.00068090374879280202 0 0.033979164381007447 0.00097047879808169566 0 0.034199844073857455 0.00089942826959461656 0 0.034015516382470766 0.00077108173933017495 0 0.034026156566799616 0.0005071552278655434 0 0.034302160757210029 0.00068090374879280202 0 0.034616642220001194 0.00043156807811009588 0 0.034015516382470766 0.00077108173933017495 0 0.034026156566799616 0.0005071552278655434 0 0.034302160757210029 0.00068090374879280202 0 0.034433618416532023 0.00082137489208144955 0 0.034302160757210029 0.00068090374879280202 0 0.03452455519870342 0.00068559606964666714 0 0.034302160757210029 0.00068090374879280202 0 0.03452455519870342 0.00068559606964666714 0 0.034616642220001194 0.00043156807811009588 0 0.034727171665513722 0.00085155156797140166 0 0.03452455519870342 0.00068559606964666714 0 0.034616642220001194 0.00043156807811009588 0 0.034781301611377512 5.0235776009981957e-05 0 0.034616642220001194 0.00043156807811009588 0 0.034036155931467763 0.00017899225483541259 0 0.034026156566799616 0.0005071552278655434 0 0.034616642220001194 0.00043156807811009588 0 0.034036155931467763 0.00017899225483541259 0 0.02186843244049478 0.00059888271071240398 0 0.025899491939969103 -0.00057425229576918597 0 0.019299021009002243 0.00023470674177965726 0 0.019610508940586347 0.00048684184595368184 0 0.019241588504268561 0.00050954248497724151 0 0.019299021009002243 0.00023470674177965726 0 0.019697386432273929 2.5512962050295496e-05 0 0.019610508940586347 0.00048684184595368184 0 0.030539831539638733 0.00024445249133718175 0 0.025899491939969103 -0.00057425229576918597 0 0.029670410693466844 -0.0014226317599809889 0 0.030102265672537779 -0.0010677844267785864 0 0.030151134090960655 -0.0013161496467844391 0 0.026284358623695214 0.0007372947044725583 0 0.026438201327561736 0.00010338024120335213 0 0.02698182022895098 0.00056523881211211814 0 0.03003422542965406 -0.0017703220785903781 0 0.030151134090960655 -0.0013161496467844391 0 0.030609045300567468 -0.0011920299742645499 0 0.030151134090960655 -0.0013161496467844391 0 0.030380434523098538 -0.0011327718621568052 0 0.030609045300567468 -0.0011920299742645499 0 0.025899491939969103 -0.00057425229576918597 0 0.030535436019469561 -0.001352817088814043 0 0.030102265672537779 -0.0010677844267785864 0 0.030151134090960655 -0.0013161496467844391 0 0.030380434523098538 -0.0011327718621568052 0 0.019697386432273929 2.5512962050295496e-05 0 0.020371525888829421 0.00035416071394488055 0 0.019610508940586347 0.00048684184595368184 0 0.025899491939969103 -0.00057425229576918597 0 0.025308526072752795 -0.00013850905232827091 0 0.03000865766480099 -0.001047716573573175 0 0.030380434523098538 -0.0011327718621568052 0 0.03088088534072209 -0.0004374311813305426 0 0.030380434523098538 -0.0011327718621568052 0 0.030609045300567468 -0.0011920299742645499 0 0.03088088534072209 -0.0004374311813305426 0 0.030609045300567468 -0.0011920299742645499 0 0.031362116227991017 -0.00049109944514626701 0 0.03088088534072209 -0.0004374311813305426 0 0.031132625759039145 -0.00070771912315505342 0 0.03196626181190497 -5.5000305736557987e-05 0 0.032258636150245178 -0.0002347949909209406 0 0.032103096667517358 5.8122486682165119e-05 0 0.032435462014181279 -2.9232654291426449e-06 0 0.03262481187902725 0.00026785121269916898 0 0.032435462014181279 -2.9232654291426449e-06 0 0.03294493649293153 -0.00017752116678432928 0 0.032103096667517358 5.8122486682165119e-05 0 0.032435462014181279 -2.9232654291426449e-06 0 0.032513672331795099 0.00030490597416678929 0 0.03262481187902725 0.00026785121269916898 0 0.032435462014181279 -2.9232654291426449e-06 0 0.032513672331795099 0.00030490597416678929 0 0.025308526072752795 -0.00013850905232827091 0 0.027223286263617967 0.00066754552135008124 0 0.0206965513018336 0.0010554343219021847 0 0.020371525888829421 0.00035416071394488055 0 0.021380350755459788 0.00097723880448284911 0 0.031362116227991017 -0.00049109944514626701 0 0.03088088534072209 -0.0004374311813305426 0 0.031718571645540802 -6.719452802643713e-05 0 0.0206965513018336 0.0010554343219021847 0 0.020111293517305194 0.0012581107248707676 0 0.021203904604366376 0.0015576897984796373 0 0.019318058358582628 0.00089769781144965804 0 0.01859445017341365 0.00080967874199650415 0 0.0206965513018336 0.0010554343219021847 0 0.021380350755459788 0.00097723880448284911 0 0.021203904604366376 0.0015576897984796373 0 0.0206965513018336 0.0010554343219021847 0 0.020111293517305194 0.0012581107248707676 0 0.020128004524101874 0.00077224880267320764 0 0.020128004524101874 0.00077224880267320764 0 0.020371525888829421 0.00035416071394488055 0 0.019610508940586347 0.00048684184595368184 0 0.0206965513018336 0.0010554343219021847 0 0.020128004524101874 0.00077224880267320764 0 0.020371525888829421 0.00035416071394488055 0 0.020128004524101874 0.00077224880267320764 0 0.019610508940586347 0.00048684184595368184 0 0.019714585264344268 0.00082508804719543883 0 0.019610508940586347 0.00048684184595368184 0 0.019714585264344268 0.00082508804719543883 0 0.019193523934263917 0.00082068502510821838 0 0.018082671441232479 0.00051772985886013739 0 0.019193523934263917 0.00082068502510821838 0 0.018573308444775911 0.00037521364705000581 0 0.019318058358582628 0.00089769781144965804 0 0.019112903550804888 0.00082767820464574229 0 0.020111293517305194 0.0012581107248707676 0 0.019714585264344268 0.00082508804719543883 0 0.019193523934263917 0.00082068502510821838 0 0.020111293517305194 0.0012581107248707676 0 0.020128004524101874 0.00077224880267320764 0 0.019714585264344268 0.00082508804719543883 0 0.019193523934263917 0.00082068502510821838 0 0.019016252583050539 0.00030789780271332654 0 0.01918280366133697 0.0007304265632184794 0 0.019610508940586347 0.00048684184595368184 0 0.019193523934263917 0.00082068502510821838 0 0.019241588504268561 0.00050954248497724151 0 0.034080101731931475 0.00037873196501015598 0 0.033991757231496597 0.00089170548799760079 0 0.034340818085478737 0.00090967297463726102 0 0.033942904352965236 0.0002479265052888401 0 0.034846574806458891 0.0010048071761710332 0 0.034407559957065577 0.00028537585713026811 0 0.034080101731931475 0.00037873196501015598 0 0.034519082721872596 0.00053633440790450625 0 0.034697921215419515 0.00043051910694432582 0 0.034616313187639039 0.00027631730365266344 0 0.034519082721872596 0.00053633440790450625 0 0.034407559957065577 0.00028537585713026811 0 0.034616313187639039 0.00027631730365266344 0 0.034519082721872596 0.00053633440790450625 0 0.034766057341648129 0.00022250227288230651 0 0.034697921215419515 0.00043051910694432582 0 0.034616313187639039 0.00027631730365266344 0 0.034407559957065577 0.00028537585713026811 0 0.034616313187639039 0.00027631730365266344 0 0.034550360614107073 1.8602554535593831e-05 0 0.034616313187639039 0.00027631730365266344 0 0.034695679725173331 9.8627466343888611e-05 0 0.034550360614107073 1.8602554535593831e-05 0 0.034766057341648129 0.00022250227288230651 0 0.034616313187639039 0.00027631730365266344 0 0.034695679725173331 9.8627466343888611e-05 0 0.034729034170122033 2.2213724841791402e-05 0 0.034695679725173331 9.8627466343888611e-05 0 0.034550360614107073 1.8602554535593831e-05 0 0.034512980202724211 -0.00011650689874824865 0 0.034550360614107073 1.8602554535593831e-05 0 0.034234929788988233 6.8421519114423906e-05 0 0.034407559957065577 0.00028537585713026811 0 0.034550360614107073 1.8602554535593831e-05 0 0.034234929788988233 6.8421519114423906e-05 0 0.034407559957065577 0.00028537585713026811 0 0.034080101731931475 0.00037873196501015598 0 0.034234929788988233 6.8421519114423906e-05 0 0.03407295360589279 -0.00017152928073751474 0 0.034512980202724211 -0.00011650689874824865 0 0.034234929788988233 6.8421519114423906e-05 0 0.03407295360589279 -0.00017152928073751474 0 0.034234929788988233 6.8421519114423906e-05 0 0.033670647934190369 -0.00014666779099608044 0 0.034080101731931475 0.00037873196501015598 0 0.034234929788988233 6.8421519114423906e-05 0 0.033670647934190369 -0.00014666779099608044 0 0.034080101731931475 0.00037873196501015598 0 0.033670647934190369 -0.00014666779099608044 0 0.033397272506996922 0.00032972508218472594 0 0.03262481187902725 0.00026785121269916898 0 0.03294493649293153 -0.00017752116678432928 0 0.033397272506996922 0.00032972508218472594 0 0.033670647934190369 -0.00014666779099608044 0 0.03294493649293153 -0.00017752116678432928 0 0.033397272506996922 0.00032972508218472594 0 0.03262481187902725 0.00026785121269916898 0 0.033397272506996922 0.00032972508218472594 0 0.03346320281289409 0.00093246020528026249 0 0.03262481187902725 0.00026785121269916898 0 0.032513672331795099 0.00030490597416678929 0 0.032008628320872715 0.00023301989459288379 0 0.032615275760895082 0.00030538743187033058 0 0.032679492750579152 0.00049984828830615207 0 0.034080101731931475 0.00037873196501015598 0 0.03346320281289409 0.00093246020528026249 0 0.033991757231496597 0.00089170548799760079 0 0.034080101731931475 0.00037873196501015598 0 0.033397272506996922 0.00032972508218472594 0 0.03346320281289409 0.00093246020528026249 0 0.03346320281289409 0.00093246020528026249 0 0.034013030667832705 0.001272182051586036 0 0.033991757231496597 0.00089170548799760079 0 0.032008628320872715 0.00023301989459288379 0 0.031840760318743881 -6.2845911075399814e-05 0 0.03171974467344324 3.1417498267834525e-05 0 0.032679492750579152 0.00049984828830615207 0 0.033109333125937841 0.00084149552605443248 0 0.03196626181190497 -5.5000305736557987e-05 0 0.031898872920944794 -7.8831533913296554e-05 0 0.032513672331795099 0.00030490597416678929 0 0.032008628320872715 0.00023301989459288379 0 0.031892060232183737 -7.3896379356744936e-05 0 0.031362116227991017 -0.00049109944514626701 0 0.031892060232183737 -7.3896379356744936e-05 0 0.031718571645540802 -6.719452802643713e-05 0 0.031892060232183737 -7.3896379356744936e-05 0 0.031718571645540802 -6.719452802643713e-05 0 0.031872514744579597 -0.00012039185743050031 0 0.021380350755459788 0.00097723880448284911 0 0.022487935016635461 0.0018061429907824033 0 0.021203904604366376 0.0015576897984796373 0 0.027223286263617967 0.00066754552135008124 0 0.023861202956280032 0.00054060452084995429 0 0.031892060232183737 -7.3896379356744936e-05 0 0.031840760318743881 -6.2845911075399814e-05 0 0.031872514744579597 -0.00012039185743050031 0 0.032008628320872715 0.00023301989459288379 0 0.031892060232183737 -7.3896379356744936e-05 0 0.031840760318743881 -6.2845911075399814e-05 0 0.031840760318743881 -6.2845911075399814e-05 0 0.03172521302846245 -7.4369071836879387e-05 0 0.03171974467344324 3.1417498267834525e-05 0 0.031840760318743881 -6.2845911075399814e-05 0 0.03172521302846245 -7.4369071836879387e-05 0 0.031786899235543405 -0.0001269064019882386 0 0.034013030667832705 0.001272182051586036 0 0.034315613605043448 0.0012486033121841384 0 0.034330348846788032 0.0015401827065012598 0 0.03172521302846245 -7.4369071836879387e-05 0 0.03171974467344324 3.1417498267834525e-05 0 0.03146882421360421 -0.00015895621915442532 0 0.033109333125937841 0.00084149552605443248 0 0.031542991969818829 -1.8825909946573044e-05 0 0.034013030667832705 0.001272182051586036 0 0.034340818085478737 0.00090967297463726102 0 0.034315613605043448 0.0012486033121841384 0 0.034013030667832705 0.001272182051586036 0 0.033991757231496597 0.00089170548799760079 0 0.034340818085478737 0.00090967297463726102 0 0.031844157698645556 0.0002491214767441152 0 0.034846574806458891 0.0010048071761710332 0 0.034687213075194741 0.00068953192633998135 0 0.034697921215419515 0.00043051910694432582 0 0.034519082721872596 0.00053633440790450625 0 0.03456417435348464 0.0012422913690372565 0 0.034340818085478737 0.00090967297463726102 0 0.034315613605043448 0.0012486033121841384 0 0.031844157698645556 0.0002491214767441152 0 0.031542991969818829 -1.8825909946573044e-05 0 0.03456417435348464 0.0012422913690372565 0 0.034315613605043448 0.0012486033121841384 0 0.034330348846788032 0.0015401827065012598 0 0.02899477798181661 -0.00053212351264249759 0 0.029058709481822747 -0.00064149112722833811 0 0.028979027508277192 -0.00064503246574824382 0 0.029058709481822747 -0.00064149112722833811 0 0.029023495835671806 -0.00066869515535693887 0 0.028979027508277192 -0.00064503246574824382 0 0.031542991969818829 -1.8825909946573044e-05 0 0.030151318012451734 -0.00088648742471718908 0 0.029040935131985763 -0.00065201764717000038 0 0.029031994982837692 -0.00068830325626599413 0 0.029069311023467409 -0.00071650283525898052 0 0.029040935131985763 -0.00065201764717000038 0 0.029031994982837692 -0.00068830325626599413 0 0.029023495835671806 -0.00066869515535693887 0 0.029031994982837692 -0.00068830325626599413 0 0.029023495835671806 -0.00066869515535693887 0 0.029010719009948682 -0.00069260937300295975 0 0.029031994982837692 -0.00068830325626599413 0 0.029010719009948682 -0.00069260937300295975 0 0.029016421342872255 -0.00071426706430628587 0 0.02898542582630332 -0.00068279659022721102 0 0.029023495835671806 -0.00066869515535693887 0 0.028979027508277192 -0.00064503246574824382 0 0.02898542582630332 -0.00068279659022721102 0 0.029023495835671806 -0.00066869515535693887 0 0.029010719009948682 -0.00069260937300295975 0 0.02898542582630332 -0.00068279659022721102 0 0.029010719009948682 -0.00069260937300295975 0 0.028988396388150369 -0.00071334599800683754 0 0.029016421342872255 -0.00071426706430628587 0 0.028974363399953847 -0.00076191491655738103 0 0.029069311023467409 -0.00071650283525898052 0 0.028988396388150369 -0.00071334599800683754 0 0.029016421342872255 -0.00071426706430628587 0 0.028974363399953847 -0.00076191491655738103 0 0.027128696849620101 -0.0013990352022116199 0 0.02700734440346015 -0.0013396699577153928 0 0.028988396388150369 -0.00071334599800683754 0 0.028974363399953847 -0.00076191491655738103 0 0.028952279492064484 -0.00072936634611667835 0 0.025344412535450951 -0.0019761892108641167 0 0.024579866956413576 -0.0023198658993159099 0 0.025140693325824668 -0.001727260513040917 0 0.024989239068236409 -0.0015491029864362303 0 0.0244824221391205 -0.0021475308893320194 0 0.029010719009948682 -0.00069260937300295975 0 0.028988396388150369 -0.00071334599800683754 0 0.029016421342872255 -0.00071426706430628587 0 0.029031994982837692 -0.00068830325626599413 0 0.029016421342872255 -0.00071426706430628587 0 0.029069311023467409 -0.00071650283525898052 0 0.023219046349974404 -0.0024235781386099785 0 0.02277179835638507 -0.0033990534588943981 0 0.024339404093426963 -0.0021417204676841793 0 0.024579866956413576 -0.0023198658993159099 0 0.024533049093210618 -0.0022563944396845493 0 0.025140693325824668 -0.001727260513040917 0 0.022251462835690246 -0.002714012504625152 0 0.023219046349974404 -0.0024235781386099785 0 0.02277179835638507 -0.0033990534588943981 0 0.02700734440346015 -0.0013396699577153928 0 0.024989239068236409 -0.0015491029864362303 0 0.021214902617211519 -0.0011146016200125511 0 0.023794784027598961 -0.0005018974802080715 0 0.025181261553098942 -0.00084595879295487793 0 0.025269211525331275 -0.00096514417194176836 0 0.025749661403313182 -0.00056064865938522672 0 0.023371944268862441 -0.0013464035171025818 0 0.023461238667865297 -0.00054944452808887911 0 0.023573145649006436 -0.00049452517352575952 0 0.024989239068236409 -0.0015491029864362303 0 0.025492760719599782 -0.00041930873735046055 0 0.023371944268862441 -0.0013464035171025818 0 0.023044852062970061 -0.00089502396584090281 0 0.023461238667865297 -0.00054944452808887911 0 0.02700734440346015 -0.0013396699577153928 0 0.025492760719599782 -0.00041930873735046055 0 0.021214902617211519 -0.0011146016200125511 0 0.024989239068236409 -0.0015491029864362303 0 0.03172521302846245 -7.4369071836879387e-05 0 0.03146882421360421 -0.00015895621915442532 0 0.031673709134755368 -0.00015477600038472168 0 0.031579875917525257 -0.00035989788879494273 0 0.031696774973321039 -0.00030812923753755487 0 0.031638795659772428 -0.00028198995369429982 0 0.031696774973321039 -0.00030812923753755487 0 0.031723977697510612 -0.00029566820319660143 0 0.031720471211321918 -0.00025293370183620379 0 0.025492760719599782 -0.00041930873735046055 0 0.023794784027598961 -0.0005018974802080715 0 0.031696774973321039 -0.00030812923753755487 0 0.031638795659772428 -0.00028198995369429982 0 0.031679788662761527 -0.00024450479921037349 0 0.031638795659772428 -0.00028198995369429982 0 0.031679788662761527 -0.00024450479921037349 0 0.031600009126325261 -0.0002153737004254681 0 0.031696774973321039 -0.00030812923753755487 0 0.031679788662761527 -0.00024450479921037349 0 0.031720471211321918 -0.00025293370183620379 0 0.031679788662761527 -0.00024450479921037349 0 0.031720471211321918 -0.00025293370183620379 0 0.031756619150974018 -0.00021119953757917477 0 0.031542991969818829 -1.8825909946573044e-05 0 0.02700734440346015 -0.0013396699577153928 0 0.03146882421360421 -0.00015895621915442532 0 0.031579875917525257 -0.00035989788879494273 0 0.031600009126325261 -0.0002153737004254681 0 0.031579875917525257 -0.00035989788879494273 0 0.031638795659772428 -0.00028198995369429982 0 0.031600009126325261 -0.0002153737004254681 0 0.03146882421360421 -0.00015895621915442532 0 0.031600009126325261 -0.0002153737004254681 0 0.031673709134755368 -0.00015477600038472168 0 0.031673709134755368 -0.00015477600038472168 0 0.031786899235543405 -0.0001269064019882386 0 0.031756619150974018 -0.00021119953757917477 0 0.031679788662761527 -0.00024450479921037349 0 0.031673709134755368 -0.00015477600038472168 0 0.031756619150974018 -0.00021119953757917477 0 0.031679788662761527 -0.00024450479921037349 0 0.031600009126325261 -0.0002153737004254681 0 0.031673709134755368 -0.00015477600038472168 0 0.03172521302846245 -7.4369071836879387e-05 0 0.031673709134755368 -0.00015477600038472168 0 0.031786899235543405 -0.0001269064019882386 0 0.031840760318743881 -6.2845911075399814e-05 0 0.031786899235543405 -0.0001269064019882386 0 0.031872514744579597 -0.00012039185743050031 0 0.027765345106364785 0.00020295017698354037 0 0.026876210776269477 -0.00014079705179459548 0 0.031786899235543405 -0.0001269064019882386 0 0.031764066091738777 -0.00018016685668645178 0 0.031872514744579597 -0.00012039185743050031 0 0.026876210776269477 -0.00014079705179459548 0 0.023861202956280032 0.00054060452084995429 0 0.017536343581868927 -1.7029762942303259e-05 0 0.017534378001208228 -6.2887088159353593e-05 0 0.017554667582573569 -9.0460660653021125e-05 0 0.017534378001208228 -6.2887088159353593e-05 0 0.0175273616063105 -5.1180589961896882e-05 0 0.017523444587471168 -9.5183903511643459e-05 0 0.017516096398487783 -5.8787792872606903e-05 0 0.0175273616063105 -5.1180589961896882e-05 0 0.017523444587471168 -9.5183903511643459e-05 0 0.023794784027598961 -0.0005018974802080715 0 0.022921801439054534 -0.00076987967388600928 0 0.031723977697510612 -0.00029566820319660143 0 0.031720471211321918 -0.00025293370183620379 0 0.031756619150974018 -0.00021119953757917477 0 0.023794784027598961 -0.0005018974802080715 0 0.023861202956280032 0.00054060452084995429 0 0.017526157463024206 -5.8584665511474346e-05 0 0.017536343581868927 -1.7029762942303259e-05 0 0.0175273616063105 -5.1180589961896882e-05 0 0.0243755280420354 0.00019743826609980886 0 0.024438072578355514 0.00047896209915457744 0 0.02475567682323174 0.00055298963717842779 0 0.023794784027598961 -0.0005018974802080715 0 0.026876210776269477 -0.00014079705179459548 0 0.017536343581868927 -1.7029762942303259e-05 0 0.017534378001208228 -6.2887088159353593e-05 0 0.0175273616063105 -5.1180589961896882e-05 0 0.017536343581868927 -1.7029762942303259e-05 0 0.017607053528748279 -4.5650434164509261e-05 0 0.017554667582573569 -9.0460660653021125e-05 0 0.017536343581868927 -1.7029762942303259e-05 0 0.017607053528748279 -4.5650434164509261e-05 0 0.017621367723901264 0.00012091731476871941 0 0.023861202956280032 0.00054060452084995429 0 0.01859445017341365 0.00080967874199650415 0 0.017607053528748279 -4.5650434164509261e-05 0 0.017610374641502766 -0.00015915271525808496 0 0.017714086111646047 -0.00015603097692258708 0 0.017607053528748279 -4.5650434164509261e-05 0 0.017610374641502766 -0.00015915271525808496 0 0.017554667582573569 -9.0460660653021125e-05 0 0.017610374641502766 -0.00015915271525808496 0 0.017554667582573569 -9.0460660653021125e-05 0 0.01754492120471687 -0.00020332469697846226 0 0.017488639984638701 -0.00014274998524237356 0 0.017516096398487783 -5.8787792872606903e-05 0 0.017523444587471168 -9.5183903511643459e-05 0 0.017534378001208228 -6.2887088159353593e-05 0 0.017523444587471168 -9.5183903511643459e-05 0 0.017554667582573569 -9.0460660653021125e-05 0 0.017523444587471168 -9.5183903511643459e-05 0 0.017554667582573569 -9.0460660653021125e-05 0 0.017524088500480435 -0.00015129892367372232 0 0.017554667582573569 -9.0460660653021125e-05 0 0.017524088500480435 -0.00015129892367372232 0 0.01754492120471687 -0.00020332469697846226 0 0.017488639984638701 -0.00014274998524237356 0 0.017524088500480435 -0.00015129892367372232 0 0.01751714318304955 -0.00020827239546735902 0 0.017488639984638701 -0.00014274998524237356 0 0.017523444587471168 -9.5183903511643459e-05 0 0.017524088500480435 -0.00015129892367372232 0 0.021214902617211519 -0.0011146016200125511 0 0.017778965639795738 -0.00022434529682165811 0 0.017778965639795738 -0.00022434529682165811 0 0.017514021035152691 -0.00026427492357192651 0 0.017451566091266992 -0.00026604207412142707 0 0.01754492120471687 -0.00020332469697846226 0 0.017532218803553885 -0.00027846515538951488 0 0.017524088500480435 -0.00015129892367372232 0 0.01751714318304955 -0.00020827239546735902 0 0.01754492120471687 -0.00020332469697846226 0 0.017483162538285735 -0.00030649455161846037 0 0.017451566091266992 -0.00026604207412142707 0 0.017532218803553885 -0.00027846515538951488 0 0.017678315472437599 -0.0002022218699138493 0 0.017778965639795738 -0.00022434529682165811 0 0.017483162538285735 -0.00030649455161846037 0 0.017532218803553885 -0.00027846515538951488 0 0.017509979086198984 -0.00035694651741296601 0 0.017483162538285735 -0.00030649455161846037 0 0.017458527004659861 -0.00032848428142190621 0 0.017475728931551349 -0.00029676660231112313 0 0.017610374641502766 -0.00015915271525808496 0 0.017593940830678393 -0.00024462798967426016 0 0.01766642567717552 -0.0002204108907047688 0 0.017593940830678393 -0.00024462798967426016 0 0.01766642567717552 -0.0002204108907047688 0 0.017645504910897249 -0.00030030842673917899 0 0.017610374641502766 -0.00015915271525808496 0 0.017593940830678393 -0.00024462798967426016 0 0.01754492120471687 -0.00020332469697846226 0 0.017593940830678393 -0.00024462798967426016 0 0.01754492120471687 -0.00020332469697846226 0 0.017532218803553885 -0.00027846515538951488 0 0.017561922230992066 -0.00031411656000763664 0 0.017532218803553885 -0.00027846515538951488 0 0.017509979086198984 -0.00035694651741296601 0 0.017593940830678393 -0.00024462798967426016 0 0.017561922230992066 -0.00031411656000763664 0 0.017532218803553885 -0.00027846515538951488 0 0.017593940830678393 -0.00024462798967426016 0 0.017561922230992066 -0.00031411656000763664 0 0.017645504910897249 -0.00030030842673917899 0 0.017561922230992066 -0.00031411656000763664 0 0.017509979086198984 -0.00035694651741296601 0 0.017546500070581027 -0.00044060284071919788 0 0.017509979086198984 -0.00035694651741296601 0 0.017482103978960988 -0.00038962757620548228 0 0.017546500070581027 -0.00044060284071919788 0 0.017561922230992066 -0.00031411656000763664 0 0.017645504910897249 -0.00030030842673917899 0 0.017546500070581027 -0.00044060284071919788 0 0.017243744413092225 -0.00037053029830308047 0 0.01757285088570416 -0.00044741560448449452 0 0.017469488563784417 -0.00035248021404072141 0 0.017482103978960988 -0.00038962757620548228 0 0.017420838569762107 -0.00037550743043117982 0 0.017483162538285735 -0.00030649455161846037 0 0.017458527004659861 -0.00032848428142190621 0 0.017469488563784417 -0.00035248021404072141 0 0.017483162538285735 -0.00030649455161846037 0 0.017469488563784417 -0.00035248021404072141 0 0.017509979086198984 -0.00035694651741296601 0 0.017469488563784417 -0.00035248021404072141 0 0.017509979086198984 -0.00035694651741296601 0 0.017482103978960988 -0.00038962757620548228 0 0.017243744413092225 -0.00037053029830308047 0 0.017629634168491528 -0.0017535234511804069 0 0.019320382424521894 -0.0020257293251279072 0 0.018856805545436724 -0.0019610749851135287 0 0.019403854603275858 -0.0016660471187852168 0 0.017211921383199897 -0.00044029111787946242 0 0.016966133625003533 -0.00043546997167924294 0 0.017087604623705992 -0.0006080238527908018 0 0.017458527004659861 -0.00032848428142190621 0 0.017469488563784417 -0.00035248021404072141 0 0.017420838569762107 -0.00037550743043117982 0 0.017458527004659861 -0.00032848428142190621 0 0.017420838569762107 -0.00037550743043117982 0 0.017432173544922245 -0.00033287024636437592 0 0.017629634168491528 -0.0017535234511804069 0 0.020243126411271472 -0.00066548430430527709 0 0.01645136628480804 -0.0045544628607985579 0 0.016499889693818541 -0.0042528654967377323 0 0.016828594429872636 -0.004428571063527305 0 0.024239023470777717 6.5533331957868201e-05 0 0.023515529683371044 -0.0014346162888705775 0 0.022664007661046058 -0.00076072998630677922 0 0.017629634168491528 -0.0017535234511804069 0 0.019438726123799054 -0.0028486146134372183 0 0.016138159796994404 -0.0044881625908569246 0 0.01645136628480804 -0.0045544628607985579 0 0.016323259384572349 -0.004351408191482351 0 0.024239023470777717 6.5533331957868201e-05 0 0.024771254392370608 -0.0010220145010770337 0 0.025995737253224623 -0.00083226906537096164 0 0.019438726123799054 -0.0028486146134372183 0 0.020243126411271472 -0.00066548430430527709 0 0.01645136628480804 -0.0045544628607985579 0 0.016499889693818541 -0.0042528654967377323 0 0.016323259384572349 -0.004351408191482351 0 0.024239023470777717 6.5533331957868201e-05 0 0.023515529683371044 -0.0014346162888705775 0 0.024771254392370608 -0.0010220145010770337 0 0.025344412535450951 -0.0019761892108641167 0 0.025140693325824668 -0.001727260513040917 0 0.025823859919737863 -0.0014793147706513106 0 0.023515529683371044 -0.0014346162888705775 0 0.024771254392370608 -0.0010220145010770337 0 0.024339404093426963 -0.0021417204676841793 0 0.023219046349974404 -0.0024235781386099785 0 0.023515529683371044 -0.0014346162888705775 0 0.024339404093426963 -0.0021417204676841793 0 0.022251462835690246 -0.002714012504625152 0 0.023219046349974404 -0.0024235781386099785 0 0.023515529683371044 -0.0014346162888705775 0 0.021214902617211519 -0.0011146016200125511 0 0.020243126411271472 -0.00066548430430527709 0 0.019929137019502892 -0.0011905254329735674 0 0.019498041772145366 -0.00062186332459086217 0 0.020124176988793444 -0.00030114196511158992 0 0.022251462835690246 -0.002714012504625152 0 0.023515529683371044 -0.0014346162888705775 0 0.022664007661046058 -0.00076072998630677922 0 0.017778965639795738 -0.00022434529682165811 0 0.020243126411271472 -0.00066548430430527709 0 0.017458527004659861 -0.00032848428142190621 0 0.017475728931551349 -0.00029676660231112313 0 0.017432173544922245 -0.00033287024636437592 0 0.017803573087743368 -0.00031492221250796791 0 0.017896287527520222 -0.00024144739791783228 0 0.017842096755412012 -0.00033330109288577355 0 0.017803573087743368 -0.00031492221250796791 0 0.017859373385320027 -0.00026581520976624086 0 0.017720415705982866 -0.00026928659654116123 0 0.017803573087743368 -0.00031492221250796791 0 0.017859373385320027 -0.00026581520976624086 0 0.017896287527520222 -0.00024144739791783228 0 0.019193523934263917 0.00082068502510821838 0 0.019016252583050539 0.00030789780271332654 0 0.018573308444775911 0.00037521364705000581 0 0.018391071040329551 3.2937959716791369e-05 0 0.018438859141861719 0.00017312154885884275 0 0.019016252583050539 0.00030789780271332654 0 0.018573308444775911 0.00037521364705000581 0 0.018024654929484664 -4.7286913740332752e-06 0 0.018391071040329551 3.2937959716791369e-05 0 0.018023227065290557 3.5354896401337511e-06 0 0.018082671441232479 0.00051772985886013739 0 0.018573308444775911 0.00037521364705000581 0 0.018024654929484664 -4.7286913740332752e-06 0 0.017859373385320027 -0.00026581520976624086 0 0.017896287527520222 -0.00024144739791783228 0 0.018024654929484664 -4.7286913740332752e-06 0 0.017896287527520222 -0.00024144739791783228 0 0.01784429953176523 -0.00018533330376346545 0 0.017822137627565085 -0.00029352909464680938 0 0.017896287527520222 -0.00024144739791783228 0 0.01784429953176523 -0.00018533330376346545 0 0.018024654929484664 -4.7286913740332752e-06 0 0.018082671441232479 0.00051772985886013739 0 0.018024654929484664 -4.7286913740332752e-06 0 0.017781400052404445 -2.2782459096968185e-05 0 0.01784429953176523 -0.00018533330376346545 0 0.018024654929484664 -4.7286913740332752e-06 0 0.017781400052404445 -2.2782459096968185e-05 0 0.018082671441232479 0.00051772985886013739 0 0.017781400052404445 -2.2782459096968185e-05 0 0.017621367723901264 0.00012091731476871941 0 0.017607053528748279 -4.5650434164509261e-05 0 0.017781400052404445 -2.2782459096968185e-05 0 0.017621367723901264 0.00012091731476871941 0 0.017607053528748279 -4.5650434164509261e-05 0 0.017781400052404445 -2.2782459096968185e-05 0 0.017714086111646047 -0.00015603097692258708 0 0.01784429953176523 -0.00018533330376346545 0 0.017781400052404445 -2.2782459096968185e-05 0 0.017714086111646047 -0.00015603097692258708 0 0.01784429953176523 -0.00018533330376346545 0 0.017714086111646047 -0.00015603097692258708 0 0.017745793897800177 -0.00025817968229115769 0 0.017610374641502766 -0.00015915271525808496 0 0.017714086111646047 -0.00015603097692258708 0 0.01766642567717552 -0.0002204108907047688 0 0.01766642567717552 -0.0002204108907047688 0 0.017745793897800177 -0.00025817968229115769 0 0.017645504910897249 -0.00030030842673917899 0 0.017714086111646047 -0.00015603097692258708 0 0.01766642567717552 -0.0002204108907047688 0 0.017745793897800177 -0.00025817968229115769 0 0.017745793897800177 -0.00025817968229115769 0 0.017645504910897249 -0.00030030842673917899 0 0.017727392822812861 -0.00034925171499339291 0 0.017645504910897249 -0.00030030842673917899 0 0.017727392822812861 -0.00034925171499339291 0 0.017546500070581027 -0.00044060284071919788 0 0.017730008612912612 -0.0004421967813003887 0 0.017727392822812861 -0.00034925171499339291 0 0.017546500070581027 -0.00044060284071919788 0 0.017727392822812861 -0.00034925171499339291 0 0.017805755422853217 -0.00038242430170383338 0 0.017822137627565085 -0.00029352909464680938 0 0.017730008612912612 -0.0004421967813003887 0 0.017805755422853217 -0.00038242430170383338 0 0.017803883656945182 -0.00045389846051226975 0 0.017730008612912612 -0.0004421967813003887 0 0.017727392822812861 -0.00034925171499339291 0 0.017805755422853217 -0.00038242430170383338 0 0.017805755422853217 -0.00038242430170383338 0 0.017838904147923017 -0.00040581829037607758 0 0.017803883656945182 -0.00045389846051226975 0 0.017805755422853217 -0.00038242430170383338 0 0.017822137627565085 -0.00029352909464680938 0 0.017848995359101869 -0.0003423511353268261 0 0.017745793897800177 -0.00025817968229115769 0 0.017727392822812861 -0.00034925171499339291 0 0.017822137627565085 -0.00029352909464680938 0 0.01784429953176523 -0.00018533330376346545 0 0.017745793897800177 -0.00025817968229115769 0 0.017822137627565085 -0.00029352909464680938 0 0.017896287527520222 -0.00024144739791783228 0 0.017848995359101869 -0.0003423511353268261 0 0.017842096755412012 -0.00033330109288577355 0 0.017896287527520222 -0.00024144739791783228 0 0.017822137627565085 -0.00029352909464680938 0 0.017848995359101869 -0.0003423511353268261 0 0.017848995359101869 -0.0003423511353268261 0 0.01783984521327461 -0.00038787443022639045 0 0.017842096755412012 -0.00033330109288577355 0 0.017805755422853217 -0.00038242430170383338 0 0.017848995359101869 -0.0003423511353268261 0 0.017838904147923017 -0.00040581829037607758 0 0.017838904147923017 -0.00040581829037607758 0 0.01783984521327461 -0.00038787443022639045 0 0.017842094832264777 -0.00042294266119746992 0 0.017848995359101869 -0.0003423511353268261 0 0.017838904147923017 -0.00040581829037607758 0 0.01783984521327461 -0.00038787443022639045 0 0.01783984521327461 -0.00038787443022639045 0 0.017823420169530355 -0.00042908306355573649 0 0.017842094832264777 -0.00042294266119746992 0 0.01783984521327461 -0.00038787443022639045 0 0.017823420169530355 -0.00042908306355573649 0 0.017803984914827722 -0.00039782772259206085 0 0.01783984521327461 -0.00038787443022639045 0 0.017842096755412012 -0.00033330109288577355 0 0.017803984914827722 -0.00039782772259206085 0 0.017803573087743368 -0.00031492221250796791 0 0.017842096755412012 -0.00033330109288577355 0 0.017803984914827722 -0.00039782772259206085 0 0.015923195281683598 -0.0014931238651512075 0 0.015911053123645744 -0.0016011892752454703 0 0.016014669373328905 -0.0014953776225917882 0 0.015923195281683598 -0.0014931238651512075 0 0.015818345956003271 -0.0014859471277462099 0 0.015911053123645744 -0.0016011892752454703 0 0.017158671442011719 -0.00093147075919308502 0 0.016509746449724933 -0.0011678308154273219 0 0.015923195281683598 -0.0014931238651512075 0 0.015950228251247832 -0.0013886120946674156 0 0.015818345956003271 -0.0014859471277462099 0 0.015923195281683598 -0.0014931238651512075 0 0.015950228251247832 -0.0013886120946674156 0 0.016014669373328905 -0.0014953776225917882 0 0.017823420169530355 -0.00042908306355573649 0 0.017841619748564207 -0.00042316663543036094 0 0.017842094832264777 -0.00042294266119746992 0 0.017841619748564207 -0.00042316663543036094 0 0.017842094832264777 -0.00042294266119746992 0 0.017837903881846112 -0.00044312808802208153 0 0.017841619748564207 -0.00042316663543036094 0 0.017837903881846112 -0.00044312808802208153 0 0.017823895033338314 -0.0004947712563040307 0 0.017158671442011719 -0.00093147075919308502 0 0.017610951955343453 -0.0006463955406531399 0 0.017838904147923017 -0.00040581829037607758 0 0.017842094832264777 -0.00042294266119746992 0 0.017837903881846112 -0.00044312808802208153 0 0.017838904147923017 -0.00040581829037607758 0 0.017837903881846112 -0.00044312808802208153 0 0.017803883656945182 -0.00045389846051226975 0 0.017837903881846112 -0.00044312808802208153 0 0.017823895033338314 -0.0004947712563040307 0 0.017803883656945182 -0.00045389846051226975 0 0.017255127772453541 -0.00085559105780873257 0 0.017229512246971321 -0.00083592506172319389 0 0.017255899703772115 -0.00083700556673604464 0 0.017191901329216847 -0.00086172706086558759 0 0.017255127772453541 -0.00085559105780873257 0 0.017229512246971321 -0.00083592506172319389 0 0.016509746449724933 -0.0011678308154273219 0 0.016049923093304764 -0.0014679816208619961 0 0.017229512246971321 -0.00083592506172319389 0 0.017255899703772115 -0.00083700556673604464 0 0.017259611589069843 -0.00082295253271682915 0 0.017255127772453541 -0.00085559105780873257 0 0.017276764937545264 -0.0008349171111256997 0 0.017289396768733256 -0.00082741212530720268 0 0.017255899703772115 -0.00083700556673604464 0 0.017276764937545264 -0.0008349171111256997 0 0.017259611589069843 -0.00082295253271682915 0 0.017255127772453541 -0.00085559105780873257 0 0.017255899703772115 -0.00083700556673604464 0 0.017276764937545264 -0.0008349171111256997 0 0.017823895033338314 -0.0004947712563040307 0 0.017803883656945182 -0.00045389846051226975 0 0.01768093904766331 -0.00061303695706575116 0 0.017730008612912612 -0.0004421967813003887 0 0.017803883656945182 -0.00045389846051226975 0 0.01768093904766331 -0.00061303695706575116 0 0.017610951955343453 -0.0006463955406531399 0 0.017450522427439424 -0.0007209036848290979 0 0.017730008612912612 -0.0004421967813003887 0 0.01768093904766331 -0.00061303695706575116 0 0.017546500070581027 -0.00044060284071919788 0 0.017286454002700055 -0.00083278497211506926 0 0.017286934840235732 -0.00083411112805180138 0 0.017260923140695685 -0.00086705575527286881 0 0.017276764937545264 -0.0008349171111256997 0 0.017289396768733256 -0.00082741212530720268 0 0.017286454002700055 -0.00083278497211506926 0 0.017276764937545264 -0.0008349171111256997 0 0.017286454002700055 -0.00083278497211506926 0 0.017286934840235732 -0.00083411112805180138 0 0.015319369262101118 -0.0023819465264268338 0 0.016064502707303526 -0.0019616937018423594 0 0.017175320257613935 -0.00083337379572541285 0 0.017081885677364197 -0.00076276925046428565 0 0.017267870996206761 -0.00086349764198736319 0 0.017078874601702879 -0.00091430173832609358 0 0.017175320257613935 -0.00083337379572541285 0 0.017260923140695685 -0.00086705575527286881 0 0.017325304074747919 -0.00090649294677116684 0 0.017196022853593767 -0.00086730545050389934 0 0.017078874601702879 -0.00091430173832609358 0 0.017108496623953657 -0.00084009896772720648 0 0.017175320257613935 -0.00083337379572541285 0 0.017078874601702879 -0.00091430173832609358 0 0.017058721947263301 -0.00079681948721358148 0 0.017108496623953657 -0.00084009896772720648 0 0.017078874601702879 -0.00091430173832609358 0 0.017037187276854458 -0.00078378732013188171 0 0.017058721947263301 -0.00079681948721358148 0 0.017058721947263301 -0.00079681948721358148 0 0.017107594108362729 -0.00080811019075161374 0 0.017108496623953657 -0.00084009896772720648 0 0.015615941642765016 -0.0020837650208341539 0 0.015700864615059439 -0.002065997614700393 0 0.015615941642765016 -0.0020837650208341539 0 0.015319369262101118 -0.0023819465264268338 0 0.017058721947263301 -0.00079681948721358148 0 0.017107594108362729 -0.00080811019075161374 0 0.017081885677364197 -0.00076276925046428565 0 0.017037480438115701 -0.00078520874084400899 0 0.017058721947263301 -0.00079681948721358148 0 0.017081885677364197 -0.00076276925046428565 0 0.017107594108362729 -0.00080811019075161374 0 0.017175320257613935 -0.00083337379572541285 0 0.017081885677364197 -0.00076276925046428565 0 0.017107594108362729 -0.00080811019075161374 0 0.017108496623953657 -0.00084009896772720648 0 0.017175320257613935 -0.00083337379572541285 0 0.01456668324811816 -0.0027725806829597918 0 0.014345077995953031 -0.0029297490476647651 0 0.014748394902964484 -0.0028833163968097772 0 0.01456668324811816 -0.0027725806829597918 0 0.014404995098467276 -0.0027375641296869245 0 0.014364579861054095 -0.0028984949498975228 0 0.014363053573464705 -0.0029488260089245441 0 0.015319369262101118 -0.0023819465264268338 0 0.01456668324811816 -0.0027725806829597918 0 0.014404995098467276 -0.0027375641296869245 0 0.014455072332002246 -0.0024888592074660018 0 0.014309842824608857 -0.0026206313497341019 0 0.014404995098467276 -0.0027375641296869245 0 0.014455072332002246 -0.0024888592074660018 0 0.014309842824608857 -0.0026206313497341019 0 0.014273615933818408 -0.0027506332592143194 0 0.014191919687767502 -0.0026366151092409133 0 0.014309842824608857 -0.0026206313497341019 0 0.014404995098467276 -0.0027375641296869245 0 0.014273615933818408 -0.0027506332592143194 0 0.014404995098467276 -0.0027375641296869245 0 0.014273615933818408 -0.0027506332592143194 0 0.014364579861054095 -0.0028984949498975228 0 0.015290290934730492 -0.0025866917417053385 0 0.015463385088144131 -0.0024650017404091958 0 0.014723229790842085 -0.0022205081953693261 0 0.015615941642765016 -0.0020837650208341539 0 0.01453624468489851 -0.0024863957660908437 0 0.015319369262101118 -0.0023819465264268338 0 0.01453624468489851 -0.0024863957660908437 0 0.014273615933818408 -0.0027506332592143194 0 0.014364579861054095 -0.0028984949498975228 0 0.014122477396954349 -0.0028112611390292311 0 0.014122477396954349 -0.0028112611390292311 0 0.013774322768080778 -0.0025694158513557726 0 0.014036173224591129 -0.0025412888677318261 0 0.014122477396954349 -0.0028112611390292311 0 0.014191919687767502 -0.0026366151092409133 0 0.014036173224591129 -0.0025412888677318261 0 0.014273615933818408 -0.0027506332592143194 0 0.014122477396954349 -0.0028112611390292311 0 0.014191919687767502 -0.0026366151092409133 0 0.017276764937545264 -0.0008349171111256997 0 0.017286934840235732 -0.00083411112805180138 0 0.017259611589069843 -0.00082295253271682915 0 0.014540911781738842 -0.0025734991371093377 0 0.014512838150159621 -0.0026928647257632356 0 0.014438531403587057 -0.0026324480792953723 0 0.017078874601702879 -0.00091430173832609358 0 0.017037187276854458 -0.00078378732013188171 0 0.016853197451407061 -0.00090533585572546006 0 0.017325304074747919 -0.00090649294677116684 0 0.016049923093304764 -0.0014679816208619961 0 0.015615941642765016 -0.0020837650208341539 0 0.016049923093304764 -0.0014679816208619961 0 0.014625303910074505 -0.0026191262614264376 0 0.014540911781738842 -0.0025734991371093377 0 0.014512838150159621 -0.0026928647257632356 0 0.014512838150159621 -0.0026928647257632356 0 0.014438531403587057 -0.0026324480792953723 0 0.014317913354814559 -0.0026685318465908573 0 0.015818345956003271 -0.0014859471277462099 0 0.015693873134154844 -0.0015750282869515142 0 0.015911053123645744 -0.0016011892752454703 0 0.016049923093304764 -0.0014679816208619961 0 0.014515602909588707 -0.002233775379908418 0 0.014438531403587057 -0.0026324480792953723 0 0.014396910406319101 -0.0025834417275959593 0 0.014317913354814559 -0.0026685318465908573 0 0.014290734763552018 -0.0027006282996057869 0 0.014515602909588707 -0.002233775379908418 0 0.014540911781738842 -0.0025734991371093377 0 0.014438531403587057 -0.0026324480792953723 0 0.014396910406319101 -0.0025834417275959593 0 0.014560223806356073 -0.0026341211548704785 0 0.014489165188047442 -0.0026170788412577168 0 0.014504080749446417 -0.0025996580157010229 0 0.01453624468489851 -0.0024863957660908437 0 0.014119958640316965 -0.0026054536293912095 0 0.01453624468489851 -0.0024863957660908437 0 0.014434163534939771 -0.0026012790649048096 0 0.014540911781738842 -0.0025734991371093377 0 0.014358957257707021 -0.0025564713651723943 0 0.014396910406319101 -0.0025834417275959593 0 0.014358957257707021 -0.0025564713651723943 0 0.014396910406319101 -0.0025834417275959593 0 0.014351013478090464 -0.0025697107109816739 0 0.014489165188047442 -0.0026170788412577168 0 0.014434508734258642 -0.0025915609408430243 0 0.014504080749446417 -0.0025996580157010229 0 0.014396910406319101 -0.0025834417275959593 0 0.01434690974186264 -0.0025846500066430841 0 0.014351013478090464 -0.0025697107109816739 0 0.014396910406319101 -0.0025834417275959593 0 0.01434690974186264 -0.0025846500066430841 0 0.014325828250378684 -0.0026086467956667318 0 0.014434163534939771 -0.0026012790649048096 0 0.014355939191310686 -0.0025861856969845473 0 0.014358957257707021 -0.0025564713651723943 0 0.014351824856611848 -0.0025733570064587611 0 0.014353613694444295 -0.0025940190565728201 0 0.01434690974186264 -0.0025846500066430841 0 0.014341577667560954 -0.0025784682364021357 0 0.014351013478090464 -0.0025697107109816739 0 0.01434690974186264 -0.0025846500066430841 0 0.014341577667560954 -0.0025784682364021357 0 0.014325389739479381 -0.002583928266174167 0 0.014358957257707021 -0.0025564713651723943 0 0.014351013478090464 -0.0025697107109816739 0 0.014351824856611848 -0.0025733570064587611 0 0.014341577667560954 -0.0025784682364021357 0 0.014351824856611848 -0.0025733570064587611 0 0.014336835678741841 -0.0025851369067364694 0 0.014341577667560954 -0.0025784682364021357 0 0.014351013478090464 -0.0025697107109816739 0 0.014351824856611848 -0.0025733570064587611 0 0.014351824856611848 -0.0025733570064587611 0 0.014345113092287327 -0.0025932142532921277 0 0.014353613694444295 -0.0025940190565728201 0 0.014351824856611848 -0.0025733570064587611 0 0.014340544492254784 -0.0025913145125722645 0 0.014345113092287327 -0.0025932142532921277 0 0.014351824856611848 -0.0025733570064587611 0 0.014340544492254784 -0.0025913145125722645 0 0.014336835678741841 -0.0025851369067364694 0 0.014340544492254784 -0.0025913145125722645 0 0.014336835678741841 -0.0025851369067364694 0 0.014323832227734415 -0.0025980422913648997 0 0.014323832227734415 -0.0025980422913648997 0 0.014325389739479381 -0.002583928266174167 0 0.014298848093116696 -0.0025800978893373619 0 0.014336835678741841 -0.0025851369067364694 0 0.014323832227734415 -0.0025980422913648997 0 0.014325389739479381 -0.002583928266174167 0 0.014341577667560954 -0.0025784682364021357 0 0.014336835678741841 -0.0025851369067364694 0 0.014325389739479381 -0.002583928266174167 0 0.014515602909588707 -0.002233775379908418 0 0.014132326357008422 -0.0024183782582906043 0 0.014325389739479381 -0.002583928266174167 0 0.014325828250378684 -0.0026086467956667318 0 0.014298848093116696 -0.0025800978893373619 0 0.01434690974186264 -0.0025846500066430841 0 0.014325389739479381 -0.002583928266174167 0 0.014325828250378684 -0.0026086467956667318 0 0.014515602909588707 -0.002233775379908418 0 0.014881240793844905 -0.001660293354462859 0 0.016051592659115391 -0.0027816934247399485 0 0.01621252063796412 -0.0020578659319742867 0 0.01708173728000115 -0.00076472597279502992 0 0.016888545922690595 -0.00086696547881979049 0 0.017132099299248499 -0.00090267841752131144 0 0.016051592659115391 -0.0027816934247399485 0 0.016557374436178423 -0.0024325325983326901 0 0.01708173728000115 -0.00076472597279502992 0 0.016888545922690595 -0.00086696547881979049 0 0.016923802062305333 -0.00065921480179043069 0 0.016281079564439811 -0.0037020545354825816 0 0.016429026598163952 -0.003962619044412803 0 0.01620275773462506 -0.0041077289364207696 0 0.015802662403969193 -0.0035028101269122237 0 0.016093686048112382 -0.0033386665695323515 0 0.016298696416353911 -0.0036717439411094038 0 0.016051592659115391 -0.0027816934247399485 0 0.0165547724200675 -0.0037664485063515912 0 0.016281079564439811 -0.0037020545354825816 0 0.016429026598163952 -0.003962619044412803 0 0.016673655313611625 -0.0038316805700740948 0 0.016429026598163952 -0.003962619044412803 0 0.016499889693818541 -0.0042528654967377323 0 0.016818119363338081 -0.0040884599625798075 0 0.016429026598163952 -0.003962619044412803 0 0.016499889693818541 -0.0042528654967377323 0 0.01620275773462506 -0.0041077289364207696 0 0.016499889693818541 -0.0042528654967377323 0 0.016323259384572349 -0.004351408191482351 0 0.01620275773462506 -0.0041077289364207696 0 0.016966133625003533 -0.00043546997167924294 0 0.016923802062305333 -0.00065921480179043069 0 0.017087604623705992 -0.0006080238527908018 0 0.017629634168491528 -0.0017535234511804069 0 0.016557374436178423 -0.0024325325983326901 0 0.016138159796994404 -0.0044881625908569246 0 0.016323259384572349 -0.004351408191482351 0 0.01620275773462506 -0.0041077289364207696 0 0.01708173728000115 -0.00076472597279502992 0 0.016923802062305333 -0.00065921480179043069 0 0.017087604623705992 -0.0006080238527908018 0 0.017211921383199897 -0.00044029111787946242 0 0.017087604623705992 -0.0006080238527908018 0 0.01726775812130658 -0.0007379374558052948 0 0.01708173728000115 -0.00076472597279502992 0 0.017087604623705992 -0.0006080238527908018 0 0.01726775812130658 -0.0007379374558052948 0 0.017211921383199897 -0.00044029111787946242 0 0.017546500070581027 -0.00044060284071919788 0 0.01726775812130658 -0.0007379374558052948 0 0.01768093904766331 -0.00061303695706575116 0 0.017546500070581027 -0.00044060284071919788 0 0.01726775812130658 -0.0007379374558052948 0 0.01726775812130658 -0.0007379374558052948 0 0.017229850627780645 -0.00084156784097254897 0 0.017260923140695685 -0.00086705575527286881 0 0.017286454002700055 -0.00083278497211506926 0 0.01726775812130658 -0.0007379374558052948 0 0.017260923140695685 -0.00086705575527286881 0 0.017450522427439424 -0.0007209036848290979 0 0.017279824633652841 -0.00073497283718973688 0 0.017289396768733256 -0.00082741212530720268 0 0.017286454002700055 -0.00083278497211506926 0 0.01726775812130658 -0.0007379374558052948 0 0.01708173728000115 -0.00076472597279502992 0 0.01726775812130658 -0.0007379374558052948 0 0.017229850627780645 -0.00084156784097254897 0 0.01708173728000115 -0.00076472597279502992 0 0.017229850627780645 -0.00084156784097254897 0 0.017132099299248499 -0.00090267841752131144 0 0.015261565472483394 -0.003285659632168102 0 0.015068360519830858 -0.0029740301816523645 0 0.015478390733799438 -0.0029984853269086746 0 0.015261565472483394 -0.003285659632168102 0 0.015068360519830858 -0.0029740301816523645 0 0.014786055864136441 -0.0030976767211218291 0 0.01621252063796412 -0.0020578659319742867 0 0.016064502707303526 -0.0019616937018423594 0 0.017229850627780645 -0.00084156784097254897 0 0.017132099299248499 -0.00090267841752131144 0 0.017267870996206761 -0.00086349764198736319 0 0.014345077995953031 -0.0029297490476647651 0 0.014786055864136441 -0.0030976767211218291 0 0.014748394902964484 -0.0028833163968097772 0 0.017175320257613935 -0.00083337379572541285 0 0.017260923140695685 -0.00086705575527286881 0 0.017267870996206761 -0.00086349764198736319 0 0.017229850627780645 -0.00084156784097254897 0 0.017260923140695685 -0.00086705575527286881 0 0.017267870996206761 -0.00086349764198736319 0 0.015068360519830858 -0.0029740301816523645 0 0.014786055864136441 -0.0030976767211218291 0 0.014748394902964484 -0.0028833163968097772 0 0.015068360519830858 -0.0029740301816523645 0 0.014748394902964484 -0.0028833163968097772 0 0.014937584743199837 -0.0027145760543596737 0 0.014748394902964484 -0.0028833163968097772 0 0.014937584743199837 -0.0027145760543596737 0 0.014723630007890788 -0.0025922237794115447 0 0.01456668324811816 -0.0027725806829597918 0 0.014748394902964484 -0.0028833163968097772 0 0.014723630007890788 -0.0025922237794115447 0 0.01456668324811816 -0.0027725806829597918 0 0.014723630007890788 -0.0025922237794115447 0 0.014455072332002246 -0.0024888592074660018 0 0.015068360519830858 -0.0029740301816523645 0 0.015248158596470955 -0.0026057781453102564 0 0.015478390733799438 -0.0029984853269086746 0 0.015068360519830858 -0.0029740301816523645 0 0.015248158596470955 -0.0026057781453102564 0 0.014937584743199837 -0.0027145760543596737 0 0.015248158596470955 -0.0026057781453102564 0 0.015651116710545063 -0.0026571931586249799 0 0.015478390733799438 -0.0029984853269086746 0 0.015651116710545063 -0.0026571931586249799 0 0.015478390733799438 -0.0029984853269086746 0 0.015890437868249577 -0.0030358985368299425 0 0.015781494240590093 -0.0034690159603947544 0 0.015478390733799438 -0.0029984853269086746 0 0.015890437868249577 -0.0030358985368299425 0 0.015781494240590093 -0.0034690159603947544 0 0.015261565472483394 -0.003285659632168102 0 0.015478390733799438 -0.0029984853269086746 0 0.015802662403969193 -0.0035028101269122237 0 0.016093686048112382 -0.0033386665695323515 0 0.015890437868249577 -0.0030358985368299425 0 0.016051592659115391 -0.0027816934247399485 0 0.015828574452401298 -0.0033226139597698112 0 0.016093686048112382 -0.0033386665695323515 0 0.015890437868249577 -0.0030358985368299425 0 0.016399392919095011 -0.0031480760099846577 0 0.015890437868249577 -0.0030358985368299425 0 0.016011667861342411 -0.0026390707690410143 0 0.016358563536933546 -0.0028123984638970859 0 0.015651116710545063 -0.0026571931586249799 0 0.015890437868249577 -0.0030358985368299425 0 0.016011667861342411 -0.0026390707690410143 0 0.016011667861342411 -0.0026390707690410143 0 0.016358563536933546 -0.0028123984638970859 0 0.01633709964256105 -0.0024705382685405457 0 0.016358563536933546 -0.0028123984638970859 0 0.016691556553700963 -0.0026559004708349015 0 0.01633709964256105 -0.0024705382685405457 0 0.016358563536933546 -0.0028123984638970859 0 0.016691556553700963 -0.0026559004708349015 0 0.016755713228627848 -0.0030076663405641784 0 0.016691556553700963 -0.0026559004708349015 0 0.016998424917287199 -0.0028215516070326549 0 0.016984801485803336 -0.002506424296274999 0 0.016691556553700963 -0.0026559004708349015 0 0.016998424917287199 -0.0028215516070326549 0 0.016755713228627848 -0.0030076663405641784 0 0.017067119823335787 -0.0031581054682036278 0 0.016872793362121611 -0.0033567799933178666 0 0.017328188546519765 -0.0035283657795338475 0 0.017067119823335787 -0.0031581054682036278 0 0.016755713228627848 -0.0030076663405641784 0 0.016872793362121611 -0.0033567799933178666 0 0.016998424917287199 -0.0028215516070326549 0 0.017067119823335787 -0.0031581054682036278 0 0.016755713228627848 -0.0030076663405641784 0 0.015890437868249577 -0.0030358985368299425 0 0.016358563536933546 -0.0028123984638970859 0 0.016399392919095011 -0.0031480760099846577 0 0.016755713228627848 -0.0030076663405641784 0 0.016399392919095011 -0.0031480760099846577 0 0.016872793362121611 -0.0033567799933178666 0 0.016093686048112382 -0.0033386665695323515 0 0.016399392919095011 -0.0031480760099846577 0 0.016298696416353911 -0.0036717439411094038 0 0.016358563536933546 -0.0028123984638970859 0 0.016755713228627848 -0.0030076663405641784 0 0.016399392919095011 -0.0031480760099846577 0 0.016429026598163952 -0.003962619044412803 0 0.016673655313611625 -0.0038316805700740948 0 0.016818119363338081 -0.0040884599625798075 0 0.016673655313611625 -0.0038316805700740948 0 0.017124623509228495 -0.0039328445790857815 0 0.016818119363338081 -0.0040884599625798075 0 0.016399392919095011 -0.0031480760099846577 0 0.016298696416353911 -0.0036717439411094038 0 0.016872793362121611 -0.0033567799933178666 0 0.016298696416353911 -0.0036717439411094038 0 0.016872793362121611 -0.0033567799933178666 0 0.017124623509228495 -0.0039328445790857815 0 0.0165547724200675 -0.0037664485063515912 0 0.017031620213236058 -0.0039123791989299286 0 0.016872793362121611 -0.0033567799933178666 0 0.017817101183615174 -0.0039156987474239331 0 0.018545646644326622 -0.0031652328710269572 0 0.016975931054066983 -0.0033410963241658972 0 0.017921001907619416 -0.0033619873366470829 0 0.016872793362121611 -0.0033567799933178666 0 0.017817101183615174 -0.0039156987474239331 0 0.017124623509228495 -0.0039328445790857815 0 0.017590593419901913 -0.0042185689713392198 0 0.016261405665512044 -0.0049024121509192537 0 0.017124623509228495 -0.0039328445790857815 0 0.017440668299384988 -0.0042980095733206273 0 0.016818119363338081 -0.0040884599625798075 0 0.017440668299384988 -0.0042980095733206273 0 0.016807428795530058 -0.0048030785401553689 0 0.01728018781442733 -0.0048525374987352351 0 0.017817101183615174 -0.0039156987474239331 0 0.017440668299384988 -0.0042980095733206273 0 0.018092708190918211 -0.004529219516026332 0 0.017817101183615174 -0.0039156987474239331 0 0.017124623509228495 -0.0039328445790857815 0 0.017440668299384988 -0.0042980095733206273 0 0.017440668299384988 -0.0042980095733206273 0 0.01728018781442733 -0.0048525374987352351 0 0.01780644901378195 -0.0049658462021512943 0 0.017440668299384988 -0.0042980095733206273 0 0.018092708190918211 -0.004529219516026332 0 0.01780644901378195 -0.0049658462021512943 0 0.017440668299384988 -0.0042980095733206273 0 0.016828594429872636 -0.004428571063527305 0 0.016818119363338081 -0.0040884599625798075 0 0.016499889693818541 -0.0042528654967377323 0 0.016828594429872636 -0.004428571063527305 0 0.016818119363338081 -0.0040884599625798075 0 0.018956973105642805 -0.0042839066801947327 0 0.020221318179825361 -0.0032054594971342621 0 0.020060736717409006 -0.0046069499356880938 0 0.018956973105642805 -0.0042839066801947327 0 0.018092708190918211 -0.004529219516026332 0 0.018522039007823909 -0.0050526595965866197 0 0.017817101183615174 -0.0039156987474239331 0 0.018956973105642805 -0.0042839066801947327 0 0.018092708190918211 -0.004529219516026332 0 0.017817101183615174 -0.0039156987474239331 0 0.018956973105642805 -0.0042839066801947327 0 0.018545646644326622 -0.0031652328710269572 0 0.018956973105642805 -0.0042839066801947327 0 0.018545646644326622 -0.0031652328710269572 0 0.020221318179825361 -0.0032054594971342621 0 0.017921001907619416 -0.0033619873366470829 0 0.019294400300768167 -0.0034721287064494702 0 0.017328188546519765 -0.0035283657795338475 0 0.01787085681027074 -0.0032630337608563226 0 0.018120195808782207 -0.0037505893713793807 0 0.017328188546519765 -0.0035283657795338475 0 0.01787085681027074 -0.0032630337608563226 0 0.017465281814122657 -0.0029820291798460046 0 0.01787085681027074 -0.0032630337608563226 0 0.017465281814122657 -0.0029820291798460046 0 0.017932174512267064 -0.0028334319522088864 0 0.016998424917287199 -0.0028215516070326549 0 0.017067119823335787 -0.0031581054682036278 0 0.017465281814122657 -0.0029820291798460046 0 0.017067119823335787 -0.0031581054682036278 0 0.017328188546519765 -0.0035283657795338475 0 0.017465281814122657 -0.0029820291798460046 0 0.017465281814122657 -0.0029820291798460046 0 0.017266314875943902 -0.0025998713354502549 0 0.017676776449330685 -0.0025007501736632261 0 0.016998424917287199 -0.0028215516070326549 0 0.017465281814122657 -0.0029820291798460046 0 0.017266314875943902 -0.0025998713354502549 0 0.016998424917287199 -0.0028215516070326549 0 0.017266314875943902 -0.0025998713354502549 0 0.016984801485803336 -0.002506424296274999 0 0.017932174512267064 -0.0028334319522088864 0 0.017676776449330685 -0.0025007501736632261 0 0.01807899061797754 -0.0023218692659803838 0 0.017465281814122657 -0.0029820291798460046 0 0.017932174512267064 -0.0028334319522088864 0 0.017676776449330685 -0.0025007501736632261 0 0.017932174512267064 -0.0028334319522088864 0 0.018623708075587313 -0.0030662030657622845 0 0.01807899061797754 -0.0023218692659803838 0 0.018597733603379529 -0.0030346162613739181 0 0.017950730348532441 -0.0021123521179567529 0 0.018691619571935072 -0.0022163980964383118 0 0.018623708075587313 -0.0030662030657622845 0 0.017867902027820372 -0.0019213727386106596 0 0.018691619571935072 -0.0022163980964383118 0 0.018623708075587313 -0.0030662030657622845 0 0.019242903948278021 -0.0028574824712926145 0 0.018691619571935072 -0.0022163980964383118 0 0.019174542079908194 -0.0022066462240216038 0 0.019242903948278021 -0.0028574824712926145 0 0.019242903948278021 -0.0028574824712926145 0 0.019028746139167666 -0.003409784751799047 0 0.019526442829243675 -0.0031762066308892319 0 0.018623708075587313 -0.0030662030657622845 0 0.019242903948278021 -0.0028574824712926145 0 0.019028746139167666 -0.003409784751799047 0 0.01787085681027074 -0.0032630337608563226 0 0.018623708075587313 -0.0030662030657622845 0 0.018120195808782207 -0.0037505893713793807 0 0.018623708075587313 -0.0030662030657622845 0 0.019028746139167666 -0.003409784751799047 0 0.018120195808782207 -0.0037505893713793807 0 0.01787085681027074 -0.0032630337608563226 0 0.017932174512267064 -0.0028334319522088864 0 0.018623708075587313 -0.0030662030657622845 0 0.024017833238614884 -0.0015216289935198551 0 0.023233156998618564 -0.0014850346872500562 0 0.023894603647450295 -0.00076450397444822744 0 0.024632886148008078 -0.0016774347128988337 0 0.024017833238614884 -0.0015216289935198551 0 0.023894603647450295 -0.00076450397444822744 0 0.024017833238614884 -0.0015216289935198551 0 0.023233156998618564 -0.0014850346872500562 0 0.023810809025709687 -0.0020206623112721364 0 0.024340610614126134 -0.001793605310725502 0 0.024017833238614884 -0.0015216289935198551 0 0.024179976156525847 -0.0019086518856058453 0 0.020223389242112755 -0.0024637565993808966 0 0.021947466015327512 -0.0025079626245447192 0 0.020223389242112755 -0.0024637565993808966 0 0.019951299379706366 -0.0027712752195938931 0 0.019242903948278021 -0.0028574824712926145 0 0.019713905534914426 -0.0024130418387459168 0 0.019893973494972718 -0.0029468186412161556 0 0.019174542079908194 -0.0022066462240216038 0 0.019242903948278021 -0.0028574824712926145 0 0.019713905534914426 -0.0024130418387459168 0 0.019720549998250299 -0.0023978580443632549 0 0.019893973494972718 -0.0029468186412161556 0 0.02017625524539737 -0.0031283109978345247 0 0.019242903948278021 -0.0028574824712926145 0 0.019526442829243675 -0.0031762066308892319 0 0.019893973494972718 -0.0029468186412161556 0 0.019028746139167666 -0.003409784751799047 0 0.019526442829243675 -0.0031762066308892319 0 0.019680523648635918 -0.0035664436226626774 0 0.01986366226150485 -0.0032782796421283312 0 0.020147895733029782 -0.0035871311140427877 0 0.019680523648635918 -0.0035664436226626774 0 0.019526442829243675 -0.0031762066308892319 0 0.01986366226150485 -0.0032782796421283312 0 0.019680523648635918 -0.0035664436226626774 0 0.01986366226150485 -0.0032782796421283312 0 0.019893973494972718 -0.0029468186412161556 0 0.02017625524539737 -0.0031283109978345247 0 0.019526442829243675 -0.0031762066308892319 0 0.01986366226150485 -0.0032782796421283312 0 0.019893973494972718 -0.0029468186412161556 0 0.021947466015327512 -0.0025079626245447192 0 0.024144631085372403 -0.0026645532992514288 0 0.02017625524539737 -0.0031283109978345247 0 0.020662814589492883 -0.0038718026534453848 0 0.020147895733029782 -0.0035871311140427877 0 0.024308961614365271 -0.0020279060422402702 0 0.023810809025709687 -0.0020206623112721364 0 0.024224756806049103 -0.0022878507345204763 0 0.01986366226150485 -0.0032782796421283312 0 0.02017625524539737 -0.0031283109978345247 0 0.020147895733029782 -0.0035871311140427877 0 0.024308961614365271 -0.0020279060422402702 0 0.023810809025709687 -0.0020206623112721364 0 0.024179976156525847 -0.0019086518856058453 0 0.024017833238614884 -0.0015216289935198551 0 0.023810809025709687 -0.0020206623112721364 0 0.024179976156525847 -0.0019086518856058453 0 0.026570734600541296 -0.0018977748847627024 0 0.024433928860952761 -0.0024132915126495644 0 0.025322566722313682 -0.002254567352673376 0 0.025082064591887127 -0.0018516522241038896 0 0.024635074237946513 -0.0021881851040389923 0 0.028757048946714745 -0.000416348632382277 0 0.028659878291892184 -0.00038891054267467615 0 0.02870558109581588 -0.00047668926739548746 0 0.024144631085372403 -0.0026645532992514288 0 0.024433928860952761 -0.0024132915126495644 0 0.02439629425873235 -0.0021432201831347777 0 0.024310502268660026 -0.0022937575730194218 0 0.024280059234267782 -0.0021386446207872561 0 0.026570734600541296 -0.0018977748847627024 0 0.024144631085372403 -0.0026645532992514288 0 0.024417160874794442 -0.0022919919579299157 0 0.024144631085372403 -0.0026645532992514288 0 0.020147895733029782 -0.0035871311140427877 0 0.020360827747389829 -0.0040993835627452756 0 0.019680523648635918 -0.0035664436226626774 0 0.020662814589492883 -0.0038718026534453848 0 0.020147895733029782 -0.0035871311140427877 0 0.020360827747389829 -0.0040993835627452756 0 0.020360827747389829 -0.0040993835627452756 0 0.019680523648635918 -0.0035664436226626774 0 0.019154547339732125 -0.0039531552214401985 0 0.024433928860952761 -0.0024132915126495644 0 0.020050677948321882 -0.0037453569147234828 0 0.02368928032776256 -0.0034516616585460115 0 0.022165724860959853 -0.004597650719283467 0 0.021939999847294656 -0.0033059931912205291 0 0.024433928860952761 -0.0024132915126495644 0 0.025284566711861092 -0.0026443857511734307 0 0.028659878291892184 -0.00038891054267467615 0 0.02835321217155205 -0.00053233595077137265 0 0.02864975024082813 -0.00053323268994267051 0 0.028757048946714745 -0.000416348632382277 0 0.028751873530138923 -0.00056648051875930771 0 0.02870558109581588 -0.00047668926739548746 0 0.028659878291892184 -0.00038891054267467615 0 0.02864975024082813 -0.00053323268994267051 0 0.02870558109581588 -0.00047668926739548746 0 0.02864975024082813 -0.00053323268994267051 0 0.028751873530138923 -0.00056648051875930771 0 0.02870558109581588 -0.00047668926739548746 0 0.020221318179825361 -0.0032054594971342621 0 0.021939999847294656 -0.0033059931912205291 0 0.021008942503512266 -0.0042851885901921318 0 0.019294400300768167 -0.0034721287064494702 0 0.020050677948321882 -0.0037453569147234828 0 0.019028746139167666 -0.003409784751799047 0 0.018120195808782207 -0.0037505893713793807 0 0.019154547339732125 -0.0039531552214401985 0 0.019028746139167666 -0.003409784751799047 0 0.019680523648635918 -0.0035664436226626774 0 0.019154547339732125 -0.0039531552214401985 0 0.022165724860959853 -0.004597650719283467 0 0.021939999847294656 -0.0033059931912205291 0 0.021008942503512266 -0.0042851885901921318 0 0.020221318179825361 -0.0032054594971342621 0 0.020060736717409006 -0.0046069499356880938 0 0.021008942503512266 -0.0042851885901921318 0 0.025697707004161192 -0.0022020518189128468 0 0.022789987155549026 -0.003119578689328923 0 0.020060736717409006 -0.0046069499356880938 0 0.02068245935433977 -0.0056818020063663802 0 0.019564801447930099 -0.0057120910655014756 0 0.020060736717409006 -0.0046069499356880938 0 0.021008942503512266 -0.0042851885901921318 0 0.02068245935433977 -0.0056818020063663802 0 0.028189846411372479 -0.00049589732040099504 0 0.027883056640878989 -0.00072665494194785205 0 0.027349944485173278 -0.00054534514850015871 0 0.025697707004161192 -0.0022020518189128468 0 0.029034493238284803 -0.00060204641736446641 0 0.022165724860959853 -0.004597650719283467 0 0.021008942503512266 -0.0042851885901921318 0 0.02068245935433977 -0.0056818020063663802 0 0.02835321217155205 -0.00053233595077137265 0 0.027837569971645132 -0.00085903158651732473 0 0.028325653163186804 -0.00081939706390246603 0 0.025284566711861092 -0.0026443857511734307 0 0.025697707004161192 -0.0022020518189128468 0 0.028206592366214121 -0.00049755932058719477 0 0.028823490712160338 -0.00061356081612049906 0 0.028678858050319382 -0.00075214836072898467 0 0.028823490712160338 -0.00061356081612049906 0 0.028678858050319382 -0.00075214836072898467 0 0.028782558874575002 -0.00069095567293728742 0 0.028678858050319382 -0.00075214836072898467 0 0.028782558874575002 -0.00069095567293728742 0 0.028761201272051128 -0.00070696969663191123 0 0.028678858050319382 -0.00075214836072898467 0 0.02876728315937865 -0.00070999172537116709 0 0.028761201272051128 -0.00070696969663191123 0 0.028678858050319382 -0.00075214836072898467 0 0.028773075942159915 -0.00073275888191720953 0 0.028828523419329528 -0.00076903977744994525 0 0.028678858050319382 -0.00075214836072898467 0 0.027883056640878989 -0.00072665494194785205 0 0.027687148631551382 -0.00075844960530858636 0 0.028462483682164582 -0.00075748901040899146 0 0.028706729330125177 -0.0006976528664709333 0 0.028206592366214121 -0.00049755932058719477 0 0.028678858050319382 -0.00075214836072898467 0 0.027883056640878989 -0.00072665494194785205 0 0.028773075942159915 -0.00073275888191720953 0 0.028797326951113252 -0.00072022770703890164 0 0.02876728315937865 -0.00070999172537116709 0 0.028678858050319382 -0.00075214836072898467 0 0.028773075942159915 -0.00073275888191720953 0 0.02876728315937865 -0.00070999172537116709 0 0.028813734166356207 -0.00073476598390178184 0 0.028797326951113252 -0.00072022770703890164 0 0.028821969148670537 -0.00072594534685933539 0 0.028773075942159915 -0.00073275888191720953 0 0.028813734166356207 -0.00073476598390178184 0 0.028828523419329528 -0.00076903977744994525 0 0.028773075942159915 -0.00073275888191720953 0 0.028813734166356207 -0.00073476598390178184 0 0.028797326951113252 -0.00072022770703890164 0 0.025697707004161192 -0.0022020518189128468 0 0.027783887340602314 -0.00070266267526451678 0 0.02864975024082813 -0.00053323268994267051 0 0.028751873530138923 -0.00056648051875930771 0 0.02873565916907999 -0.00068704937214698447 0 0.028791949979824615 -0.00065564769551256668 0 0.028751873530138923 -0.00056648051875930771 0 0.02873565916907999 -0.00068704937214698447 0 0.028791949979824615 -0.00065564769551256668 0 0.02873565916907999 -0.00068704937214698447 0 0.02877655811755768 -0.00066171155272496144 0 0.029034493238284803 -0.00060204641736446641 0 0.028531663764600042 -0.00071279957504632974 0 0.02835321217155205 -0.00053233595077137265 0 0.02864975024082813 -0.00053323268994267051 0 0.02873565916907999 -0.00068704937214698447 0 0.02835321217155205 -0.00053233595077137265 0 0.028325653163186804 -0.00081939706390246603 0 0.02873565916907999 -0.00068704937214698447 0 0.028823490712160338 -0.00061356081612049906 0 0.02873565916907999 -0.00068704937214698447 0 0.02877655811755768 -0.00066171155272496144 0 0.028823490712160338 -0.00061356081612049906 0 0.028782558874575002 -0.00069095567293728742 0 0.02877655811755768 -0.00066171155272496144 0 0.028782558874575002 -0.00069095567293728742 0 0.028782093088871773 -0.0006788632232047658 0 0.02877655811755768 -0.00066171155272496144 0 0.028782558874575002 -0.00069095567293728742 0 0.028782093088871773 -0.0006788632232047658 0 0.028761201272051128 -0.00070696969663191123 0 0.028782093088871773 -0.0006788632232047658 0 0.02877655811755768 -0.00066171155272496144 0 0.028795853480966714 -0.00066064396081019544 0 0.028820601158664551 -0.00062725432815953887 0 0.028791949979824615 -0.00065564769551256668 0 0.02877655811755768 -0.00066171155272496144 0 0.028820601158664551 -0.00062725432815953887 0 0.02877655811755768 -0.00066171155272496144 0 0.028795853480966714 -0.00066064396081019544 0 0.028818494162951239 -0.0006441832248279786 0 0.028795853480966714 -0.00066064396081019544 0 0.028808941716588474 -0.00066566164977616376 0 0.028822605925919582 -0.00065789436556099479 0 0.028818494162951239 -0.0006441832248279786 0 0.028808941716588474 -0.00066566164977616376 0 0.028820601158664551 -0.00062725432815953887 0 0.028818494162951239 -0.0006441832248279786 0 0.028795853480966714 -0.00066064396081019544 0 0.028795853480966714 -0.00066064396081019544 0 0.028798645769831415 -0.00067581746610577745 0 0.028808941716588474 -0.00066566164977616376 0 0.028795853480966714 -0.00066064396081019544 0 0.028798645769831415 -0.00067581746610577745 0 0.028788458220180436 -0.00067945435350744306 0 0.028782093088871773 -0.0006788632232047658 0 0.028795853480966714 -0.00066064396081019544 0 0.028788458220180436 -0.00067945435350744306 0 0.028782093088871773 -0.0006788632232047658 0 0.028788458220180436 -0.00067945435350744306 0 0.028761201272051128 -0.00070696969663191123 0 0.028788458220180436 -0.00067945435350744306 0 0.02878728001336427 -0.00068742889842135231 0 0.028761201272051128 -0.00070696969663191123 0 0.028798645769831415 -0.00067581746610577745 0 0.028788458220180436 -0.00067945435350744306 0 0.02878728001336427 -0.00068742889842135231 0 0.028798645769831415 -0.00067581746610577745 0 0.02878728001336427 -0.00068742889842135231 0 0.028810034487961399 -0.00067671062137999842 0 0.028828444934768199 -0.00066691835210606302 0 0.028810034487961399 -0.00067671062137999842 0 0.028820908097205489 -0.00067442053790929578 0 0.02882474035498157 -0.00066727247389827566 0 0.028810034487961399 -0.00067671062137999842 0 0.028811058293108954 -0.00067361540998631055 0 0.028798645769831415 -0.00067581746610577745 0 0.028810034487961399 -0.00067671062137999842 0 0.028811058293108954 -0.00067361540998631055 0 0.028798645769831415 -0.00067581746610577745 0 0.028808941716588474 -0.00066566164977616376 0 0.028811058293108954 -0.00067361540998631055 0 0.028808941716588474 -0.00066566164977616376 0 0.028811058293108954 -0.00067361540998631055 0 0.02881941790857306 -0.00067430712764722641 0 0.028822605925919582 -0.00065789436556099479 0 0.028808941716588474 -0.00066566164977616376 0 0.02881941790857306 -0.00067430712764722641 0 0.028808865723665915 -0.00070516137373969625 0 0.028786127326609241 -0.00069743105935817331 0 0.028817003405403545 -0.00068900450620486818 0 0.028808865723665915 -0.00070516137373969625 0 0.028797326951113252 -0.00072022770703890164 0 0.028821969148670537 -0.00072594534685933539 0 0.028808865723665915 -0.00070516137373969625 0 0.02876728315937865 -0.00070999172537116709 0 0.028786127326609241 -0.00069743105935817331 0 0.028808865723665915 -0.00070516137373969625 0 0.028797326951113252 -0.00072022770703890164 0 0.02876728315937865 -0.00070999172537116709 0 0.02876728315937865 -0.00070999172537116709 0 0.028761201272051128 -0.00070696969663191123 0 0.028786127326609241 -0.00069743105935817331 0 0.02878728001336427 -0.00068742889842135231 0 0.028761201272051128 -0.00070696969663191123 0 0.028786127326609241 -0.00069743105935817331 0 0.02878728001336427 -0.00068742889842135231 0 0.028786127326609241 -0.00069743105935817331 0 0.028800881067185743 -0.00068660827752290549 0 0.028800881067185743 -0.00068660827752290549 0 0.028826881495067978 -0.00067700055644041987 0 0.028817003405403545 -0.00068900450620486818 0 0.028786127326609241 -0.00069743105935817331 0 0.028800881067185743 -0.00068660827752290549 0 0.028817003405403545 -0.00068900450620486818 0 0.02878728001336427 -0.00068742889842135231 0 0.028810034487961399 -0.00067671062137999842 0 0.028800881067185743 -0.00068660827752290549 0 0.028810034487961399 -0.00067671062137999842 0 0.028800881067185743 -0.00068660827752290549 0 0.028820908097205489 -0.00067442053790929578 0 0.028800881067185743 -0.00068660827752290549 0 0.028820908097205489 -0.00067442053790929578 0 0.028826881495067978 -0.00067700055644041987 0 0.028826881495067978 -0.00067700055644041987 0 0.028817003405403545 -0.00068900450620486818 0 0.028839904263684237 -0.00067898541444663847 0 0.028808865723665915 -0.00070516137373969625 0 0.028817003405403545 -0.00068900450620486818 0 0.028839206359709033 -0.00069294612569707162 0 0.028817003405403545 -0.00068900450620486818 0 0.028839904263684237 -0.00067898541444663847 0 0.028839206359709033 -0.00069294612569707162 0 0.028864058430228115 -0.00067133445154543005 0 0.028839904263684237 -0.00067898541444663847 0 0.028839206359709033 -0.00069294612569707162 0 0.028864058430228115 -0.00067133445154543005 0 0.028858772902061951 -0.0006938987099858406 0 0.028839206359709033 -0.00069294612569707162 0 0.028858772902061951 -0.0006938987099858406 0 0.028834595477923445 -0.0007145957701898978 0 0.028841447022569567 -0.00072154736866739957 0 0.028858772902061951 -0.0006938987099858406 0 0.028839206359709033 -0.00069294612569707162 0 0.028834595477923445 -0.0007145957701898978 0 0.028808865723665915 -0.00070516137373969625 0 0.028839206359709033 -0.00069294612569707162 0 0.028834595477923445 -0.0007145957701898978 0 0.028834595477923445 -0.0007145957701898978 0 0.028825589993842941 -0.00074109516190202119 0 0.028841447022569567 -0.00072154736866739957 0 0.028834595477923445 -0.0007145957701898978 0 0.028825589993842941 -0.00074109516190202119 0 0.028821969148670537 -0.00072594534685933539 0 0.028808865723665915 -0.00070516137373969625 0 0.028834595477923445 -0.0007145957701898978 0 0.028821969148670537 -0.00072594534685933539 0 0.028825589993842941 -0.00074109516190202119 0 0.028793266203210578 -0.00074813348072896326 0 0.028841447022569567 -0.00072154736866739957 0 0.028793266203210578 -0.00074813348072896326 0 0.028841447022569567 -0.00072154736866739957 0 0.028851691529812228 -0.00072193080727260041 0 0.028900479405839726 -0.00068319305630391164 0 0.028841447022569567 -0.00072154736866739957 0 0.028851691529812228 -0.00072193080727260041 0 0.028900479405839726 -0.00068319305630391164 0 0.028858772902061951 -0.0006938987099858406 0 0.028841447022569567 -0.00072154736866739957 0 0.028900479405839726 -0.00068319305630391164 0 0.028966818024773893 -0.00069538088974575537 0 0.028851691529812228 -0.00072193080727260041 0 0.028512562942469101 -0.00098721501459655254 0 0.029006833681848383 -0.00057632715145610532 0 0.028890655783798236 -0.00063927365709831737 0 0.028851691529812228 -0.00072193080727260041 0 0.028881731927137291 -0.00070972941690031015 0 0.028979027508277192 -0.00064503246574824382 0 0.028890655783798236 -0.00063927365709831737 0 0.028937068184061058 -0.00069668222397748999 0 0.028890655783798236 -0.00063927365709831737 0 0.028937068184061058 -0.00069668222397748999 0 0.028881731927137291 -0.00070972941690031015 0 0.02898542582630332 -0.00068279659022721102 0 0.028988396388150369 -0.00071334599800683754 0 0.028937068184061058 -0.00069668222397748999 0 0.02898542582630332 -0.00068279659022721102 0 0.028979027508277192 -0.00064503246574824382 0 0.028937068184061058 -0.00069668222397748999 0 0.028974363399953847 -0.00076191491655738103 0 0.028911405523874532 -0.00074496172949990735 0 0.028875802324771001 -0.00079781508855299122 0 0.028988396388150369 -0.00071334599800683754 0 0.028937068184061058 -0.00069668222397748999 0 0.028952279492064484 -0.00072936634611667835 0 0.028937068184061058 -0.00069668222397748999 0 0.028952279492064484 -0.00072936634611667835 0 0.028911405523874532 -0.00074496172949990735 0 0.028937068184061058 -0.00069668222397748999 0 0.028911405523874532 -0.00074496172949990735 0 0.028881731927137291 -0.00070972941690031015 0 0.028974363399953847 -0.00076191491655738103 0 0.028952279492064484 -0.00072936634611667835 0 0.028911405523874532 -0.00074496172949990735 0 0.028911405523874532 -0.00074496172949990735 0 0.028881731927137291 -0.00070972941690031015 0 0.028837347363755352 -0.00073982471144173835 0 0.028851691529812228 -0.00072193080727260041 0 0.028881731927137291 -0.00070972941690031015 0 0.028837347363755352 -0.00073982471144173835 0 0.028911405523874532 -0.00074496172949990735 0 0.028837347363755352 -0.00073982471144173835 0 0.028875802324771001 -0.00079781508855299122 0 0.028793266203210578 -0.00074813348072896326 0 0.028851691529812228 -0.00072193080727260041 0 0.028837347363755352 -0.00073982471144173835 0 0.028754049527301803 -0.00076199666179837427 0 0.028875802324771001 -0.00079781508855299122 0 0.028592216896176848 -0.00075428780215867192 0 0.028793266203210578 -0.00074813348072896326 0 0.028837347363755352 -0.00073982471144173835 0 0.028754049527301803 -0.00076199666179837427 0 0.027778484839899694 -0.0011380244113643261 0 0.028534000097049844 -0.00078333291374787183 0 0.026592908278343361 -0.0015426773927173019 0 0.026819407014585982 -0.00063542020231151502 0 0.028592216896176848 -0.00075428780215867192 0 0.028837347363755352 -0.00073982471144173835 0 0.028754049527301803 -0.00076199666179837427 0 0.028875802324771001 -0.00079781508855299122 0 0.026592908278343361 -0.0015426773927173019 0 0.026819407014585982 -0.00063542020231151502 0 0.026430290305286049 -0.0010014538354048692 0 0.027128696849620101 -0.0013990352022116199 0 0.027778484839899694 -0.0011380244113643261 0 0.025344412535450951 -0.0019761892108641167 0 0.026592908278343361 -0.0015426773927173019 0 0.025823859919737863 -0.0014793147706513106 0 0.024771254392370608 -0.0010220145010770337 0 0.024339404093426963 -0.0021417204676841793 0 0.025995737253224623 -0.00083226906537096164 0 0.025140693325824668 -0.001727260513040917 0 0.025823859919737863 -0.0014793147706513106 0 0.025995737253224623 -0.00083226906537096164 0 0.0244824221391205 -0.0021475308893320194 0 0.026013086072483659 -0.00083464784708193237 0 0.026592908278343361 -0.0015426773927173019 0 0.025823859919737863 -0.0014793147706513106 0 0.02620398382372088 -0.0012146594431261804 0 0.026430290305286049 -0.0010014538354048692 0 0.025995737253224623 -0.00083226906537096164 0 0.0266143711879341 -0.00033832632455214846 0 0.025823859919737863 -0.0014793147706513106 0 0.02620398382372088 -0.0012146594431261804 0 0.025995737253224623 -0.00083226906537096164 0 0.026592908278343361 -0.0015426773927173019 0 0.02620398382372088 -0.0012146594431261804 0 0.026430290305286049 -0.0010014538354048692 0 0.02620398382372088 -0.0012146594431261804 0 0.026430290305286049 -0.0010014538354048692 0 0.025995737253224623 -0.00083226906537096164 0 0.019438726123799054 -0.0028486146134372183 0 0.016261405665512044 -0.0049024121509192537 0 0.016224807612758584 -0.0050978087027891165 0 0.016807428795530058 -0.0048030785401553689 0 0.017132594673545123 -0.005336867893973328 0 0.024239023470777717 6.5533331957868201e-05 0 0.025995737253224623 -0.00083226906537096164 0 0.0266143711879341 -0.00033832632455214846 0 0.019438726123799054 -0.0028486146134372183 0 0.021608479074522992 -0.0029269938843548273 0 0.016807428795530058 -0.0048030785401553689 0 0.017132594673545123 -0.005336867893973328 0 0.01728018781442733 -0.0048525374987352351 0 0.028103768130583399 -0.00050503872944067916 0 0.025326806904600024 -0.0018119504330392458 0 0.021608479074522992 -0.0029269938843548273 0 0.025326806904600024 -0.0018119504330392458 0 0.026819407014585982 -0.00063542020231151502 0 0.0266143711879341 -0.00033832632455214846 0 0.027869184514531371 -0.00070920135605535752 0 0.017132594673545123 -0.005336867893973328 0 0.01780644901378195 -0.0049658462021512943 0 0.018489985355334113 -0.00570736650237629 0 0.026819407014585982 -0.00063542020231151502 0 0.026430290305286049 -0.0010014538354048692 0 0.0266143711879341 -0.00033832632455214846 0 0.017132594673545123 -0.005336867893973328 0 0.01728018781442733 -0.0048525374987352351 0 0.01780644901378195 -0.0049658462021512943 0 0.018092708190918211 -0.004529219516026332 0 0.01780644901378195 -0.0049658462021512943 0 0.018522039007823909 -0.0050526595965866197 0 0.01780644901378195 -0.0049658462021512943 0 0.018489985355334113 -0.00570736650237629 0 0.018522039007823909 -0.0050526595965866197 0 0.018489985355334113 -0.00570736650237629 0 0.018522039007823909 -0.0050526595965866197 0 0.019564801447930099 -0.0057120910655014756 0 0.018956973105642805 -0.0042839066801947327 0 0.020060736717409006 -0.0046069499356880938 0 0.019564801447930099 -0.0057120910655014756 0 0.018956973105642805 -0.0042839066801947327 0 0.018522039007823909 -0.0050526595965866197 0 0.019564801447930099 -0.0057120910655014756 0 0.025326806904600024 -0.0018119504330392458 0 0.022789987155549026 -0.003119578689328923 0 0.028863009788484547 -0.00062948165945323495 0 0.028838266757834158 -0.0007296431165968797 0 0.028828523419329528 -0.00076903977744994525 0 0.026385135796656099 -0.00063679880176344388 0 0.027349944485173278 -0.00054534514850015871 0 0.027687148631551382 -0.00075844960530858636 0 0.025326806904600024 -0.0018119504330392458 0 0.028706729330125177 -0.0006976528664709333 0 0.028838266757834158 -0.0007296431165968797 0 0.028828523419329528 -0.00076903977744994525 0 0.028830521640090114 -0.00073711748515068105 0 0.027883056640878989 -0.00072665494194785205 0 0.027349944485173278 -0.00054534514850015871 0 0.027687148631551382 -0.00075844960530858636 0 0.028813734166356207 -0.00073476598390178184 0 0.028828523419329528 -0.00076903977744994525 0 0.028830521640090114 -0.00073711748515068105 0 0.028825589993842941 -0.00074109516190202119 0 0.028821969148670537 -0.00072594534685933539 0 0.028830521640090114 -0.00073711748515068105 0 0.028813734166356207 -0.00073476598390178184 0 0.028821969148670537 -0.00072594534685933539 0 0.028830521640090114 -0.00073711748515068105 0 0.028825589993842941 -0.00074109516190202119 0 0.028838266757834158 -0.0007296431165968797 0 0.028830521640090114 -0.00073711748515068105 0 0.028825589993842941 -0.00074109516190202119 0 0.028838266757834158 -0.0007296431165968797 0 0.028786765947299078 -0.00075568311811479881 0 0.028825589993842941 -0.00074109516190202119 0 0.028793266203210578 -0.00074813348072896326 0 0.028786765947299078 -0.00075568311811479881 0 0.026819407014585982 -0.00063542020231151502 0 0.028863009788484547 -0.00062948165945323495 0 0.028592216896176848 -0.00075428780215867192 0 0.028793266203210578 -0.00074813348072896326 0 0.028786765947299078 -0.00075568311811479881 0 0.028727324351826469 -0.00076227429114834411 0 0.028793266203210578 -0.00074813348072896326 0 0.028754049527301803 -0.00076199666179837427 0 0.028727324351826469 -0.00076227429114834411 0 0.028786765947299078 -0.00075568311811479881 0 0.028727324351826469 -0.00076227429114834411 0 0.028777773795584539 -0.00074983864430697004 0 0.028754049527301803 -0.00076199666179837427 0 0.028727324351826469 -0.00076227429114834411 0 0.028592216896176848 -0.00075428780215867192 0 0.028727324351826469 -0.00076227429114834411 0 0.028592216896176848 -0.00075428780215867192 0 0.028777773795584539 -0.00074983864430697004 0 0.028863009788484547 -0.00062948165945323495 0 0.028592216896176848 -0.00075428780215867192 0 0.028777773795584539 -0.00074983864430697004 0 0.028838266757834158 -0.0007296431165968797 0 0.028786765947299078 -0.00075568311811479881 0 0.028777773795584539 -0.00074983864430697004 0 0.028863009788484547 -0.00062948165945323495 0 0.028838266757834158 -0.0007296431165968797 0 0.028777773795584539 -0.00074983864430697004 0 0.028508031415400013 -6.1053800492946519e-05 0 0.030818767060572388 -1.7859497927552678e-06 0 0.025519129076150462 2.9042036016889884e-06 0 0.028508031415400013 -6.1053800492946519e-05 0 0.028906532542287856 0.0007098592046194251 0 0.028559443387555696 0.00061395281106943098 0 0.028906532542287856 0.0007098592046194251 0 0.027875433340404279 0.0011413421388715118 0 0.028249360287379406 0.00064563484468947534 0 0.028906532542287856 0.0007098592046194251 0 0.028197743154646446 0.0017649509974332221 0 0.027875433340404279 0.0011413421388715118 0 0.029000169462036651 0.00072220861595083993 0 0.029148683235452975 0.00085276704508467627 0 0.028906532542287856 0.0007098592046194251 0 0.03012225309031704 4.4184971068677755e-05 0 0.029538806973415949 -0.00010197474422303157 0 0.028508031415400013 -6.1053800492946519e-05 0 0.028906532542287856 0.0007098592046194251 0 0.029538806973415949 -0.00010197474422303157 0 0.028508031415400013 -6.1053800492946519e-05 0 0.029538806973415949 -0.00010197474422303157 0 0.030342801620912886 -0.00021225220790502635 0 0.029538806973415949 -0.00010197474422303157 0 0.030338629569129857 -0.00032892155337247813 0 0.030342801620912886 -0.00021225220790502635 0 0.03012225309031704 4.4184971068677755e-05 0 0.029538806973415949 -0.00010197474422303157 0 0.030338629569129857 -0.00032892155337247813 0 0.03012225309031704 4.4184971068677755e-05 0 0.030338629569129857 -0.00032892155337247813 0 0.030573491748671577 -0.00026104458561200766 0 0.030338629569129857 -0.00032892155337247813 0 0.031003808486898467 -0.00029990667294558284 0 0.030733010716831762 -0.00034630708809267944 0 0.030338629569129857 -0.00032892155337247813 0 0.030733010716831762 -0.00034630708809267944 0 0.030580395782992435 -0.00036469291009082004 0 0.030338629569129857 -0.00032892155337247813 0 0.030342801620912886 -0.00021225220790502635 0 0.031003808486898467 -0.00029990667294558284 0 0.028508031415400013 -6.1053800492946519e-05 0 0.030342801620912886 -0.00021225220790502635 0 0.030818767060572388 -1.7859497927552678e-06 0 0.030342801620912886 -0.00021225220790502635 0 0.030818767060572388 -1.7859497927552678e-06 0 0.0322789447776623 -7.8832046921458831e-05 0 0.030818767060572388 -1.7859497927552678e-06 0 0.0322789447776623 -7.8832046921458831e-05 0 0.034998016026990736 6.268776174774946e-07 0 0.034998016026990736 6.268776174774946e-07 0 0.034265915048749609 0.00012642283968196348 0 0.034998162375894544 -1.3652220053641182e-07 0 0.0322789447776623 -7.8832046921458831e-05 0 0.034998016026990736 6.268776174774946e-07 0 0.034265915048749609 0.00012642283968196348 0 0.0322789447776623 -7.8832046921458831e-05 0 0.034265915048749609 0.00012642283968196348 0 0.032730389793221057 1.4456455237430874e-05 0 0.034998162375894544 -1.3652220053641182e-07 0 0.034922952935922236 0.00015137761361699111 0 0.034993941283512894 8.6462496769312128e-05 0 0.034998162375894544 -1.3652220053641182e-07 0 0.034922952935922236 0.00015137761361699111 0 0.034577482364451899 0.0002556440227505758 0 0.034265915048749609 0.00012642283968196348 0 0.034998162375894544 -1.3652220053641182e-07 0 0.034577482364451899 0.0002556440227505758 0 0.034008685076168353 0.00011344578773403369 0 0.033286001926612317 0.00029493712474434875 0 0.034265915048749609 0.00012642283968196348 0 0.034577482364451899 0.0002556440227505758 0 0.03491792133448525 0.00052071607667978097 0 0.034265915048749609 0.00012642283968196348 0 0.032730389793221057 1.4456455237430874e-05 0 0.031397074693727531 0.00016782022147428173 0 0.0345587104335731 0.00020781234509902429 0 0.035093824124673025 0.00051769955912722124 0 0.034577482364451899 0.0002556440227505758 0 0.03491792133448525 0.00052071607667978097 0 0.03499260732936485 0.00051284329536048338 0 0.034922952935922236 0.00015137761361699111 0 0.034577482364451899 0.0002556440227505758 0 0.034911667432536292 0.00032351099648072443 0 0.034922952935922236 0.00015137761361699111 0 0.034911667432536292 0.00032351099648072443 0 0.034989182708973478 0.00020239604075192465 0 0.031397074693727531 0.00016782022147428173 0 0.031057991392734428 -0.00022858987505172229 0 0.030577347899718922 -0.00026381254449463833 0 0.03491792133448525 0.00052071607667978097 0 0.03499260732936485 0.00051284329536048338 0 0.03507750645726835 0.00065478559660588488 0 0.030342801620912886 -0.00021225220790502635 0 0.0322789447776623 -7.8832046921458831e-05 0 0.031003808486898467 -0.00029990667294558284 0 0.031397074693727531 0.00016782022147428173 0 0.031762027663685556 -0.00014612887525842789 0 0.031057991392734428 -0.00022858987505172229 0 0.033286001926612317 0.00029493712474434875 0 0.032336455625012396 0.0001235499447707007 0 0.032730389793221057 1.4456455237430874e-05 0 0.031397074693727531 0.00016782022147428173 0 0.031762027663685556 -0.00014612887525842789 0 0.0322789447776623 -7.8832046921458831e-05 0 0.032730389793221057 1.4456455237430874e-05 0 0.031762027663685556 -0.00014612887525842789 0 0.0322789447776623 -7.8832046921458831e-05 0 0.031762027663685556 -0.00014612887525842789 0 0.031003808486898467 -0.00029990667294558284 0 0.031762027663685556 -0.00014612887525842789 0 0.031003808486898467 -0.00029990667294558284 0 0.031057991392734428 -0.00022858987505172229 0 0.031057991392734428 -0.00022858987505172229 0 0.030733010716831762 -0.00034630708809267944 0 0.030577347899718922 -0.00026381254449463833 0 0.031003808486898467 -0.00029990667294558284 0 0.031057991392734428 -0.00022858987505172229 0 0.030733010716831762 -0.00034630708809267944 0 0.032051012526597637 0.00069684517582228737 0 0.031266215348314676 0.0005243164812821652 0 0.031980809327301643 0.001082865553450853 0 0.032336455625012396 0.0001235499447707007 0 0.030490189983523791 -0.00043478184456976685 0 0.030733010716831762 -0.00034630708809267944 0 0.030577347899718922 -0.00026381254449463833 0 0.030580395782992435 -0.00036469291009082004 0 0.030619749988041157 -0.00046190777088786901 0 0.030676645367339366 -0.00040264345433490905 0 0.030580395782992435 -0.00036469291009082004 0 0.032336455625012396 0.0001235499447707007 0 0.029475460992364345 0.0010230728365105178 0 0.032336455625012396 0.0001235499447707007 0 0.03409337948406807 0.00024285917009138629 0 0.02757768476331398 0.0020896677028492804 0 0.027597915610897528 0.0021209352977730358 0 0.027556418585060753 0.0021111801691831634 0 0.032051012526597637 0.00069684517582228737 0 0.031266215348314676 0.0005243164812821652 0 0.031502187991251859 0.00015187798565693552 0 0.030967841333615263 0.0011015080734698181 0 0.029475460992364345 0.0010230728365105178 0 0.030967841333615263 0.0011015080734698181 0 0.03409337948406807 0.00024285917009138629 0 0.034812617827370808 -0.0011923223093257751 0 0.034886350176076303 -0.00082157916321500229 0 0.034507340718621132 -0.00075694539682416822 0 0.034886350176076303 -0.00082157916321500229 0 0.035122261494103073 -0.000292245185139291 0 0.034507340718621132 -0.00075694539682416822 0 0.034886350176076303 -0.00082157916321500229 0 0.035201269565674514 -0.0009231214052489125 0 0.035122261494103073 -0.000292245185139291 0 0.034812617827370808 -0.0011923223093257751 0 0.034886350176076303 -0.00082157916321500229 0 0.035201269565674514 -0.0009231214052489125 0 0.035093824124673025 0.00051769955912722124 0 0.03409337948406807 0.00024285917009138629 0 0.03499260732936485 0.00051284329536048338 0 0.03507750645726835 0.00065478559660588488 0 0.035087333640847332 0.00060293124359276436 0 0.03409337948406807 0.00024285917009138629 0 0.035187600528118868 -0.00017149970931592336 0 0.034911667432536292 0.00032351099648072443 0 0.035049505004531925 0.00041213563912866058 0 0.035009581574916869 0.00029195159911889451 0 0.035049505004531925 0.00041213563912866058 0 0.035009581574916869 0.00029195159911889451 0 0.035082394198550609 0.00019514020881221752 0 0.034998162375894544 -1.3652220053641182e-07 0 0.035001081792450713 2.0747559574127812e-07 0 0.034993941283512894 8.6462496769312128e-05 0 0.034911667432536292 0.00032351099648072443 0 0.035009581574916869 0.00029195159911889451 0 0.034989182708973478 0.00020239604075192465 0 0.034922952935922236 0.00015137761361699111 0 0.034989182708973478 0.00020239604075192465 0 0.034993941283512894 8.6462496769312128e-05 0 0.034989182708973478 0.00020239604075192465 0 0.035082394198550609 0.00019514020881221752 0 0.034993941283512894 8.6462496769312128e-05 0 0.035009581574916869 0.00029195159911889451 0 0.034989182708973478 0.00020239604075192465 0 0.035082394198550609 0.00019514020881221752 0 0.035122261494103073 -0.000292245185139291 0 0.034751187219042967 -3.9422485667395646e-05 0 0.034507340718621132 -0.00075694539682416822 0 0.035122261494103073 -0.000292245185139291 0 0.035000709396900948 4.4329027118351458e-08 0 0.034751187219042967 -3.9422485667395646e-05 0 0.035187600528118868 -0.00017149970931592336 0 0.034999989652056689 1.7459966449945897e-07 0 0.035082394198550609 0.00019514020881221752 0 0.035001081792450713 2.0747559574127812e-07 0 0.034993941283512894 8.6462496769312128e-05 0 0.034997878285739324 2.8463454553648541e-07 0 0.033776558727369177 -3.8515062674614067e-05 0 0.034998638164305124 -2.5707102262304674e-07 0 0.034997878285739324 2.8463454553648541e-07 0 0.034751187219042967 -3.9422485667395646e-05 0 0.033776558727369177 -3.8515062674614067e-05 0 0.035000709396900948 4.4329027118351458e-08 0 0.034997878285739324 2.8463454553648541e-07 0 0.034751187219042967 -3.9422485667395646e-05 0 0.033429955471618894 7.9691027819018065e-05 0 0.032638095954120566 0.00037722705515331431 0 0.034751187219042967 -3.9422485667395646e-05 0 0.033776558727369177 -3.8515062674614067e-05 0 0.034507340718621132 -0.00075694539682416822 0 0.033776558727369177 -3.8515062674614067e-05 0 0.032475585581836497 0.0010585264630630547 0 0.030349931516552676 0.0015139749937227252 0 0.033776558727369177 -3.8515062674614067e-05 0 0.032475585581836497 0.0010585264630630547 0 0.033900451381677993 0.00062647400806069471 0 0.032475585581836497 0.0010585264630630547 0 0.030349931516552676 0.0015139749937227252 0 0.031103652326726423 0.0023672288314957554 0 0.032475585581836497 0.0010585264630630547 0 0.031103652326726423 0.0023672288314957554 0 0.03270183652088636 0.0015440005127491116 0 0.031103652326726423 0.0023672288314957554 0 0.032091398458560967 0.0025243401004573485 0 0.03270183652088636 0.0015440005127491116 0 0.030967841333615263 0.0011015080734698181 0 0.032638095954120566 0.00037722705515331431 0 0.030349931516552676 0.0015139749937227252 0 0.030109056051541069 0.0028207084849153335 0 0.031103652326726423 0.0023672288314957554 0 0.029135004036319679 0.0030607606245288709 0 0.030349931516552676 0.0015139749937227252 0 0.030109056051541069 0.0028207084849153335 0 0.030109056051541069 0.0028207084849153335 0 0.029314232801977539 0.003865669222385874 0 0.029877500630775759 0.0035222142336020102 0 0.029135004036319679 0.0030607606245288709 0 0.030109056051541069 0.0028207084849153335 0 0.029877500630775759 0.0035222142336020102 0 0.030967841333615263 0.0011015080734698181 0 0.028447138646803531 0.0027151561471658561 0 0.031103652326726423 0.0023672288314957554 0 0.029314232801977539 0.003865669222385874 0 0.032091398458560967 0.0025243401004573485 0 0.030109056051541069 0.0028207084849153335 0 0.031103652326726423 0.0023672288314957554 0 0.029314232801977539 0.003865669222385874 0 0.029314232801977539 0.003865669222385874 0 0.027786450695287412 0.0024844343483177087 0 0.029877500630775759 0.0035222142336020102 0 0.027589153370478053 0.0032236657301078085 0 0.027786450695287412 0.0024844343483177087 0 0.02653334600116326 0.0024807931623325521 0 0.027589153370478053 0.0032236657301078085 0 0.029314232801977539 0.003865669222385874 0 0.027786450695287412 0.0024844343483177087 0 0.025783326168958984 0.0018023873377595685 0 0.026327409566920985 0.002486615008668733 0 0.027786450695287412 0.0024844343483177087 0 0.027513832278675994 0.0020424919034127483 0 0.027172048262316659 0.0015083154150835703 0 0.027786450695287412 0.0024844343483177087 0 0.027172048262316659 0.0015083154150835703 0 0.02653334600116326 0.0024807931623325521 0 0.027513832278675994 0.0020424919034127483 0 0.027552596570497821 0.0020607170045579947 0 0.027457313221323866 0.0017442383113141242 0 0.027786450695287412 0.0024844343483177087 0 0.027513832278675994 0.0020424919034127483 0 0.027592461472692502 0.0022323722973398184 0 0.027513832278675994 0.0020424919034127483 0 0.027592461472692502 0.0022323722973398184 0 0.027552596570497821 0.0020607170045579947 0 0.027592461472692502 0.0022323722973398184 0 0.027564280980911397 0.0021687754636073192 0 0.027552596570497821 0.0020607170045579947 0 0.027592461472692502 0.0022323722973398184 0 0.027597915610897528 0.0021209352977730358 0 0.027564280980911397 0.0021687754636073192 0 0.027786450695287412 0.0024844343483177087 0 0.027592461472692502 0.0022323722973398184 0 0.027597915610897528 0.0021209352977730358 0 0.028034380727281243 0.0025453165277817126 0 0.028447138646803531 0.0027151561471658561 0 0.027597915610897528 0.0021209352977730358 0 0.027556418585060753 0.0021111801691831634 0 0.027564280980911397 0.0021687754636073192 0 0.029475460992364345 0.0010230728365105178 0 0.027620556045223926 0.0019477215908029262 0 0.027675742390647178 0.0022935516193893692 0 0.027839235240293875 0.0021181831446077473 0 0.027645432658257436 0.0021298544593804053 0 0.027675742390647178 0.0022935516193893692 0 0.027564280980911397 0.0021687754636073192 0 0.027645432658257436 0.0021298544593804053 0 0.030676645367339366 -0.00040264345433490905 0 0.030580395782992435 -0.00036469291009082004 0 0.030573491748671577 -0.00026104458561200766 0 0.030338629569129857 -0.00032892155337247813 0 0.030580395782992435 -0.00036469291009082004 0 0.030573491748671577 -0.00026104458561200766 0 0.029475460992364345 0.0010230728365105178 0 0.029180101234160708 0.00092528873070571525 0 0.028197743154646446 0.0017649509974332221 0 0.027839235240293875 0.0021181831446077473 0 0.02771481782747091 0.0017079860328580595 0 0.029148683235452975 0.00085276704508467627 0 0.029180101234160708 0.00092528873070571525 0 0.027839235240293875 0.0021181831446077473 0 0.027638088943383463 0.0019647908002673217 0 0.02771481782747091 0.0017079860328580595 0 0.027552596570497821 0.0020607170045579947 0 0.027645432658257436 0.0021298544593804053 0 0.027638088943383463 0.0019647908002673217 0 0.027564280980911397 0.0021687754636073192 0 0.027552596570497821 0.0020607170045579947 0 0.027645432658257436 0.0021298544593804053 0 0.027839235240293875 0.0021181831446077473 0 0.027645432658257436 0.0021298544593804053 0 0.027638088943383463 0.0019647908002673217 0 0.027552596570497821 0.0020607170045579947 0 0.027638088943383463 0.0019647908002673217 0 0.027457313221323866 0.0017442383113141242 0 0.027457313221323866 0.0017442383113141242 0 0.02771481782747091 0.0017079860328580595 0 0.02719812860129037 0.001276877930779142 0 0.027638088943383463 0.0019647908002673217 0 0.027457313221323866 0.0017442383113141242 0 0.02771481782747091 0.0017079860328580595 0 0.028197743154646446 0.0017649509974332221 0 0.02771481782747091 0.0017079860328580595 0 0.027875433340404279 0.0011413421388715118 0 0.027875433340404279 0.0011413421388715118 0 0.02719812860129037 0.001276877930779142 0 0.027476732996000675 0.000852229411088015 0 0.02771481782747091 0.0017079860328580595 0 0.027875433340404279 0.0011413421388715118 0 0.02719812860129037 0.001276877930779142 0 0.02719812860129037 0.001276877930779142 0 0.027172048262316659 0.0015083154150835703 0 0.026771837410657993 0.0010419119652034204 0 0.025783326168958984 0.0018023873377595685 0 0.025314218031107158 0.0013012299521122442 0 0.02362037554861935 0.0014640518383591244 0 0.024369602796707877 0.0018848090817394927 0 0.024334408089536904 0.0019501558977819008 0 0.02362037554861935 0.0014640518383591244 0 0.024369602796707877 0.0018848090817394927 0 0.023738577279951583 0.0017610284926842178 0 0.024369602796707877 0.0018848090817394927 0 0.024334408089536904 0.0019501558977819008 0 0.02653334600116326 0.0024807931623325521 0 0.027513832278675994 0.0020424919034127483 0 0.027457313221323866 0.0017442383113141242 0 0.027172048262316659 0.0015083154150835703 0 0.027457313221323866 0.0017442383113141242 0 0.02719812860129037 0.001276877930779142 0 0.027172048262316659 0.0015083154150835703 0 0.02320328763397711 0.0020172058102635691 0 0.022023708464547233 0.0032607765785940775 0 0.024845081830576529 0.00258357762104406 0 0.02320328763397711 0.0020172058102635691 0 0.024334408089536904 0.0019501558977819008 0 0.024845081830576529 0.00258357762104406 0 0.02362037554861935 0.0014640518383591244 0 0.024334408089536904 0.0019501558977819008 0 0.023084906723426984 0.0013500636517075201 0 0.02320328763397711 0.0020172058102635691 0 0.024334408089536904 0.0019501558977819008 0 0.023084906723426984 0.0013500636517075201 0 0.02320328763397711 0.0020172058102635691 0 0.023084906723426984 0.0013500636517075201 0 0.02193745909135315 0.0014590871261416403 0 0.02193745909135315 0.0014590871261416403 0 0.020727474679544902 0.0018266347957425115 0 0.021893595537611766 0.0022089224678340617 0 0.019954172791039809 0.0012509136696275116 0 0.019362789643512332 0.00082971477091466842 0 0.020567936159064264 0.00074311207616599548 0 0.020097455294550565 0.0014842026597360271 0 0.020624863761650274 0.00073497672398489854 0 0.02193745909135315 0.0014590871261416403 0 0.020727474679544902 0.0018266347957425115 0 0.020567936159064264 0.00074311207616599548 0 0.020727474679544902 0.0018266347957425115 0 0.02112544072732641 0.0026883713296568896 0 0.020291105697017146 0.0032147945185231667 0 0.020097455294550565 0.0014842026597360271 0 0.022638596554146694 0.003082212638652995 0 0.020727474679544902 0.0018266347957425115 0 0.02112544072732641 0.0026883713296568896 0 0.021893595537611766 0.0022089224678340617 0 0.02320328763397711 0.0020172058102635691 0 0.02193745909135315 0.0014590871261416403 0 0.021893595537611766 0.0022089224678340617 0 0.02112544072732641 0.0026883713296568896 0 0.021893595537611766 0.0022089224678340617 0 0.022023708464547233 0.0032607765785940775 0 0.02320328763397711 0.0020172058102635691 0 0.021893595537611766 0.0022089224678340617 0 0.022023708464547233 0.0032607765785940775 0 0.024894937016002663 0.0028505623646432245 0 0.024862263423234734 0.0029608415862176531 0 0.024863207648409661 0.0028996674505869127 0 0.024894937016002663 0.0028505623646432245 0 0.024863207648409661 0.0028996674505869127 0 0.025090658682694278 0.0027589434332460751 0 0.02112544072732641 0.0026883713296568896 0 0.022023708464547233 0.0032607765785940775 0 0.020291105697017146 0.0032147945185231667 0 0.024894937016002663 0.0028505623646432245 0 0.024913579813953892 0.0029858609927387709 0 0.024862263423234734 0.0029608415862176531 0 0.024894937016002663 0.0028505623646432245 0 0.024913579813953892 0.0029858609927387709 0 0.024941568851613364 0.0030362481779233146 0 0.023486699550561315 0.0030110540485781081 0 0.022638596554146694 0.003082212638652995 0 0.024988205153474337 0.003331211515531595 0 0.025398023641574351 0.0030409484522300289 0 0.024862263423234734 0.0029608415862176531 0 0.024749887209306008 0.0030446378160648379 0 0.02498340004444774 0.0027705343837542214 0 0.024913579813953892 0.0029858609927387709 0 0.024966447034119335 0.0029437910293426124 0 0.025101492520735763 0.003018217131172854 0 0.024913579813953892 0.0029858609927387709 0 0.024966447034119335 0.0029437910293426124 0 0.024862263423234734 0.0029608415862176531 0 0.024966447034119335 0.0029437910293426124 0 0.024862263423234734 0.0029608415862176531 0 0.02498340004444774 0.0027705343837542214 0 0.024863207648409661 0.0028996674505869127 0 0.024749887209306008 0.0030446378160648379 0 0.025090658682694278 0.0027589434332460751 0 0.024862263423234734 0.0029608415862176531 0 0.024863207648409661 0.0028996674505869127 0 0.024749887209306008 0.0030446378160648379 0 0.025088031596443777 0.0036808813594018681 0 0.026085401947516171 0.0031600151167116989 0 0.025349375957906057 0.0039265282223506824 0 0.024988205153474337 0.003331211515531595 0 0.02604420471912948 0.0031710035235747646 0 0.024749887209306008 0.0030446378160648379 0 0.025090658682694278 0.0027589434332460751 0 0.026085401947516171 0.0031600151167116989 0 0.024894937016002663 0.0028505623646432245 0 0.025090658682694278 0.0027589434332460751 0 0.024845081830576529 0.00258357762104406 0 0.023486699550561315 0.0030110540485781081 0 0.024725773700566271 0.0026841744590639437 0 0.025090658682694278 0.0027589434332460751 0 0.024845081830576529 0.00258357762104406 0 0.025568970020049958 0.0027178018869503579 0 0.024334408089536904 0.0019501558977819008 0 0.024845081830576529 0.00258357762104406 0 0.02653334600116326 0.0024807931623325521 0 0.024845081830576529 0.00258357762104406 0 0.025568970020049958 0.0027178018869503579 0 0.02653334600116326 0.0024807931623325521 0 0.027589153370478053 0.0032236657301078085 0 0.029314232801977539 0.003865669222385874 0 0.025349375957906057 0.0039265282223506824 0 0.025568970020049958 0.0027178018869503579 0 0.02653334600116326 0.0024807931623325521 0 0.026085401947516171 0.0031600151167116989 0 0.029369641702357997 0.0038408476418994686 0 0.029657252661790805 0.0036061372432461916 0 0.027589153370478053 0.0032236657301078085 0 0.026085401947516171 0.0031600151167116989 0 0.025349375957906057 0.0039265282223506824 0 0.027589153370478053 0.0032236657301078085 0 0.02653334600116326 0.0024807931623325521 0 0.026085401947516171 0.0031600151167116989 0 0.025090658682694278 0.0027589434332460751 0 0.025568970020049958 0.0027178018869503579 0 0.026085401947516171 0.0031600151167116989 0 0.032091398458560967 0.0025243401004573485 0 0.033991224933231812 0.0033816825808452287 0 0.033741831123480691 0.0017593345358434623 0 0.029314232801977539 0.003865669222385874 0 0.032091398458560967 0.0025243401004573485 0 0.033991224933231812 0.0033816825808452287 0 0.033991224933231812 0.0033816825808452287 0 0.034682982409256893 0.0021572519449065157 0 0.035339425086484549 0.0024701163452289935 0 0.029657252661790805 0.0036061372432461916 0 0.030379775335792055 0.0030353863318537447 0 0.033991224933231812 0.0033816825808452287 0 0.034682982409256893 0.0021572519449065157 0 0.033741831123480691 0.0017593345358434623 0 0.034673335404685153 0.0012395975816885773 0 0.033741831123480691 0.0017593345358434623 0 0.033900451381677993 0.00062647400806069471 0 0.034682982409256893 0.0021572519449065157 0 0.034673335404685153 0.0012395975816885773 0 0.033741831123480691 0.0017593345358434623 0 0.032475585581836497 0.0010585264630630547 0 0.03270183652088636 0.0015440005127491116 0 0.033900451381677993 0.00062647400806069471 0 0.03270183652088636 0.0015440005127491116 0 0.033741831123480691 0.0017593345358434623 0 0.033900451381677993 0.00062647400806069471 0 0.032091398458560967 0.0025243401004573485 0 0.03270183652088636 0.0015440005127491116 0 0.033741831123480691 0.0017593345358434623 0 0.034673335404685153 0.0012395975816885773 0 0.033900451381677993 0.00062647400806069471 0 0.034842901924840818 0.00042863655369507485 0 0.034842901924840818 0.00042863655369507485 0 0.034998638164305124 -2.5707102262304674e-07 0 0.035000964509156608 3.3776797937684894e-07 0 0.033900451381677993 0.00062647400806069471 0 0.034842901924840818 0.00042863655369507485 0 0.034998638164305124 -2.5707102262304674e-07 0 0.033776558727369177 -3.8515062674614067e-05 0 0.033900451381677993 0.00062647400806069471 0 0.034998638164305124 -2.5707102262304674e-07 0 0.034999338841571553 -4.8766410552153585e-06 0 0.034991195322167733 -8.3523418232396581e-06 0 0.034931028235939708 -1.3097131394112498e-07 0 0.034999338841571553 -4.8766410552153585e-06 0 0.035000191125868767 -6.4297924449601369e-08 0 0.034999621513770535 1.1336931182371525e-07 0 0.034999338841571553 -4.8766410552153585e-06 0 0.035000191125868767 -6.4297924449601369e-08 0 0.034994821891867645 -4.6155038201503704e-06 0 0.034999338841571553 -4.8766410552153585e-06 0 0.034994821891867645 -4.6155038201503704e-06 0 0.034991195322167733 -8.3523418232396581e-06 0 0.034999338841571553 -4.8766410552153585e-06 0 0.034999621513770535 1.1336931182371525e-07 0 0.034931028235939708 -1.3097131394112498e-07 0 0.034842901924840818 0.00042863655369507485 0 0.035000964509156608 3.3776797937684894e-07 0 0.035475566525162053 0.00049030073600395347 0 0.035000104979660135 1.0270389806700044e-07 0 0.035240637516538768 0.00022427681135110084 0 0.034673335404685153 0.0012395975816885773 0 0.034842901924840818 0.00042863655369507485 0 0.035233633433017435 0.0010404652875060571 0 0.034842901924840818 0.00042863655369507485 0 0.035233633433017435 0.0010404652875060571 0 0.035475566525162053 0.00049030073600395347 0 0.035002463237236735 0.0011254091909508911 0 0.033633691042397322 0.00039045235179034762 0 0.035233633433017435 0.0010404652875060571 0 0.035475566525162053 0.00049030073600395347 0 0.035940300424938329 0.0013628732264913377 0 0.035240637516538768 0.00022427681135110084 0 0.035002463237236735 0.0011254091909508911 0 0.034994821891867645 -4.6155038201503704e-06 0 0.03499137914394225 1.6921418194305661e-05 0 0.034991195322167733 -8.3523418232396581e-06 0 0.035940300424938329 0.0013628732264913377 0 0.035258152244770996 0.0017884241585239544 0 0.035695305036841485 0.002038733814165548 0 0.035233633433017435 0.0010404652875060571 0 0.035940300424938329 0.0013628732264913377 0 0.035258152244770996 0.0017884241585239544 0 0.035732397710150389 0.0018275501164020343 0 0.035695305036841485 0.002038733814165548 0 0.035902600862733815 0.0021510066633131657 0 0.035002463237236735 0.0011254091909508911 0 0.03555152437579065 0.0019771552181854887 0 0.034673335404685153 0.0012395975816885773 0 0.035233633433017435 0.0010404652875060571 0 0.035258152244770996 0.0017884241585239544 0 0.034682982409256893 0.0021572519449065157 0 0.034673335404685153 0.0012395975816885773 0 0.035258152244770996 0.0017884241585239544 0 0.025088031596443777 0.0036808813594018681 0 0.025349375957906057 0.0039265282223506824 0 0.025271770821058765 0.0034286479623830842 0 0.034682982409256893 0.0021572519449065157 0 0.035258152244770996 0.0017884241585239544 0 0.035339425086484549 0.0024701163452289935 0 0.030379775335792055 0.0030353863318537447 0 0.030594522343526068 0.0021369959734671073 0 0.035339425086484549 0.0024701163452289935 0 0.035695305036841485 0.002038733814165548 0 0.035902600862733815 0.0021510066633131657 0 0.025088031596443777 0.0036808813594018681 0 0.025271770821058765 0.0034286479623830842 0 0.025837136978482604 0.0033062807242646352 0 0.025271770821058765 0.0034286479623830842 0 0.025837136978482604 0.0033062807242646352 0 0.026043996333580073 0.0030273455066413242 0 0.035258152244770996 0.0017884241585239544 0 0.035339425086484549 0.0024701163452289935 0 0.035695305036841485 0.002038733814165548 0 0.025837136978482604 0.0033062807242646352 0 0.025988692988018536 0.0030514097916137712 0 0.026256410531953416 0.0026771856678723107 0 0.025837136978482604 0.0033062807242646352 0 0.025988692988018536 0.0030514097916137712 0 0.026043996333580073 0.0030273455066413242 0 0.02498340004444774 0.0027705343837542214 0 0.025497622992895503 0.0027825579365223238 0 0.026256410531953416 0.0026771856678723107 0 0.032247432751427781 0.0011059126156361013 0 0.032316115600280242 0.0010953356048985566 0 0.032263610003868709 0.0010492474272557257 0 0.025398023641574351 0.0030409484522300289 0 0.026183605998922835 0.0027242116089715588 0 0.025988692988018536 0.0030514097916137712 0 0.02596510335507142 0.0030053514692968764 0 0.026260954647580159 0.0025743688834659784 0 0.029947491523225695 0.0019177783706175982 0 0.030594522343526068 0.0021369959734671073 0 0.025988692988018536 0.0030514097916137712 0 0.026256410531953416 0.0026771856678723107 0 0.026260954647580159 0.0025743688834659784 0 0.030594522343526068 0.0021369959734671073 0 0.028762845576175696 0.0019338025879576341 0 0.025497622992895503 0.0027825579365223238 0 0.026256410531953416 0.0026771856678723107 0 0.025944445631817383 0.002946376789307511 0 0.026256410531953416 0.0026771856678723107 0 0.026387089632501949 0.0027828422978341343 0 0.026260954647580159 0.0025743688834659784 0 0.026387089632501949 0.0027828422978341343 0 0.026244853715932284 0.0029279537901420842 0 0.026466334471544516 0.0030738737489297151 0 0.026256410531953416 0.0026771856678723107 0 0.026387089632501949 0.0027828422978341343 0 0.026244853715932284 0.0029279537901420842 0 0.026256410531953416 0.0026771856678723107 0 0.026244853715932284 0.0029279537901420842 0 0.025944445631817383 0.002946376789307511 0 0.032304310498658069 0.0010089107448176173 0 0.032375882614187751 0.00098525795562504417 0 0.032363598821544444 0.0010405716675722628 0 0.032316115600280242 0.0010953356048985566 0 0.032304310498658069 0.0010089107448176173 0 0.032363598821544444 0.0010405716675722628 0 0.032316115600280242 0.0010953356048985566 0 0.032263610003868709 0.0010492474272557257 0 0.032304310498658069 0.0010089107448176173 0 0.032227383578507858 0.0010254326106286873 0 0.032263610003868709 0.0010492474272557257 0 0.032304310498658069 0.0010089107448176173 0 0.035002463237236735 0.0011254091909508911 0 0.030594522343526068 0.0021369959734671073 0 0.032227383578507858 0.0010254326106286873 0 0.032247432751427781 0.0011059126156361013 0 0.032263610003868709 0.0010492474272557257 0 0.032227383578507858 0.0010254326106286873 0 0.032248138931368617 0.00095536730124363978 0 0.032304310498658069 0.0010089107448176173 0 0.032248138931368617 0.00095536730124363978 0 0.032304310498658069 0.0010089107448176173 0 0.032350379924059577 0.00092212419703664337 0 0.032304310498658069 0.0010089107448176173 0 0.032350379924059577 0.00092212419703664337 0 0.032375882614187751 0.00098525795562504417 0 0.034990777316865507 1.3455232404055104e-05 0 0.034999983615899344 -1.5400057729858218e-08 0 0.034930469920288552 7.7167516120956528e-09 0 0.03365477865388674 0.00048073553821095208 0 0.033381541917371658 0.00065918874623878767 0 0.033633691042397322 0.00039045235179034762 0 0.033381541917371658 0.00065918874623878767 0 0.032248138931368617 0.00095536730124363978 0 0.032350379924059577 0.00092212419703664337 0 0.032270597805419861 0.00089070550537095439 0 0.03492516018495375 1.7663560083920947e-05 0 0.034991313521860211 3.6246967924538987e-06 0 0.034999949879273164 4.0720476408703948e-08 0 0.03492516018495375 1.7663560083920947e-05 0 0.034991313521860211 3.6246967924538987e-06 0 0.034989864983483686 -2.1404184686956081e-05 0 0.034991313521860211 3.6246967924538987e-06 0 0.034995602460385106 4.3100408394208837e-06 0 0.034990181810722117 1.5896413426771078e-06 0 0.034602896230777287 -6.735810528549411e-05 0 0.034036810222760505 0.00011499118448320814 0 0.034991313521860211 3.6246967924538987e-06 0 0.034999949879273164 4.0720476408703948e-08 0 0.034995602460385106 4.3100408394208837e-06 0 0.034990777316865507 1.3455232404055104e-05 0 0.034995602460385106 4.3100408394208837e-06 0 0.034990181810722117 1.5896413426771078e-06 0 0.03365477865388674 0.00048073553821095208 0 0.034036810222760505 0.00011499118448320814 0 0.034999983615899344 -1.5400057729858218e-08 0 0.034999949879273164 4.0720476408703948e-08 0 0.034995602460385106 4.3100408394208837e-06 0 0.034990777316865507 1.3455232404055104e-05 0 0.034999983615899344 -1.5400057729858218e-08 0 0.034995602460385106 4.3100408394208837e-06 0 0.032375882614187751 0.00098525795562504417 0 0.032445046362661906 0.00094895134902086837 0 0.03242611345469195 0.00101582799822681 0 0.032350379924059577 0.00092212419703664337 0 0.032375882614187751 0.00098525795562504417 0 0.032445046362661906 0.00094895134902086837 0 0.034036810222760505 0.00011499118448320814 0 0.032871524973274238 0.00060280074702901722 0 0.034036155931467763 0.00017899225483541259 0 0.033463329829612184 -0.00055001706575836683 0 0.033356387091470104 0.00020523124691533741 0 0.034036155931467763 0.00017899225483541259 0 0.033356387091470104 0.00020523124691533741 0 0.03362705865985538 0.00055619001779740127 0 0.032871524973274238 0.00060280074702901722 0 0.031229317144649903 0.0010382607608276086 0 0.033356387091470104 0.00020523124691533741 0 0.03362705865985538 0.00055619001779740127 0 0.033210471289957376 0.00088256596046582371 0 0.034026156566799616 0.0005071552278655434 0 0.034036155931467763 0.00017899225483541259 0 0.03362705865985538 0.00055619001779740127 0 0.03362705865985538 0.00055619001779740127 0 0.033402381553495487 0.00085130595682271493 0 0.033210471289957376 0.00088256596046582371 0 0.033744168011724938 0.00072045162463072539 0 0.03362705865985538 0.00055619001779740127 0 0.033402381553495487 0.00085130595682271493 0 0.034026156566799616 0.0005071552278655434 0 0.033744168011724938 0.00072045162463072539 0 0.03362705865985538 0.00055619001779740127 0 0.034015516382470766 0.00077108173933017495 0 0.034026156566799616 0.0005071552278655434 0 0.033744168011724938 0.00072045162463072539 0 0.03242611345469195 0.00101582799822681 0 0.032363598821544444 0.0010405716675722628 0 0.032403836016212467 0.0010835422207790574 0 0.032316115600280242 0.0010953356048985566 0 0.032363598821544444 0.0010405716675722628 0 0.032403836016212467 0.0010835422207790574 0 0.032375882614187751 0.00098525795562504417 0 0.03242611345469195 0.00101582799822681 0 0.032363598821544444 0.0010405716675722628 0 0.026714942142049669 0.0027281180330399881 0 0.02707911918212496 0.0023962109708131588 0 0.026973823453619497 0.0031335844607234538 0 0.028762845576175696 0.0019338025879576341 0 0.031229317144649903 0.0010382607608276086 0 0.031229317144649903 0.0010382607608276086 0 0.029931062572912132 0.0027776576839286084 0 0.026260954647580159 0.0025743688834659784 0 0.026714942142049669 0.0027281180330399881 0 0.02707911918212496 0.0023962109708131588 0 0.026387089632501949 0.0027828422978341343 0 0.026260954647580159 0.0025743688834659784 0 0.026714942142049669 0.0027281180330399881 0 0.026387089632501949 0.0027828422978341343 0 0.026714942142049669 0.0027281180330399881 0 0.026466334471544516 0.0030738737489297151 0 0.033123852645450425 0.00086770337082530075 0 0.033418744659963258 0.0012071814621390715 0 0.032866390383369082 0.0018755293081162475 0 0.033774435269124117 0.001069366900197134 0 0.033624507696075071 0.00091866772490225039 0 0.033418744659963258 0.0012071814621390715 0 0.033774435269124117 0.001069366900197134 0 0.033828071575142594 0.00088788102470428601 0 0.033624507696075071 0.00091866772490225039 0 0.033936977638336571 0.0012048691106309184 0 0.033979164381007447 0.00097047879808169566 0 0.033774435269124117 0.001069366900197134 0 0.033979164381007447 0.00097047879808169566 0 0.033774435269124117 0.001069366900197134 0 0.033828071575142594 0.00088788102470428601 0 0.034015516382470766 0.00077108173933017495 0 0.033744168011724938 0.00072045162463072539 0 0.033828071575142594 0.00088788102470428601 0 0.033979164381007447 0.00097047879808169566 0 0.034015516382470766 0.00077108173933017495 0 0.033828071575142594 0.00088788102470428601 0 0.033744168011724938 0.00072045162463072539 0 0.033624507696075071 0.00091866772490225039 0 0.033402381553495487 0.00085130595682271493 0 0.033744168011724938 0.00072045162463072539 0 0.033828071575142594 0.00088788102470428601 0 0.033624507696075071 0.00091866772490225039 0 0.03230897574315756 0.00091783815250663279 0 0.031229317144649903 0.0010382607608276086 0 0.033402381553495487 0.00085130595682271493 0 0.033123852645450425 0.00086770337082530075 0 0.033418744659963258 0.0012071814621390715 0 0.033624507696075071 0.00091866772490225039 0 0.033402381553495487 0.00085130595682271493 0 0.033418744659963258 0.0012071814621390715 0 0.033418744659963258 0.0012071814621390715 0 0.033414417889750268 0.0015932115961101233 0 0.032866390383369082 0.0018755293081162475 0 0.033414417889750268 0.0015932115961101233 0 0.033693362094367373 0.0013519069800701146 0 0.033712945802863215 0.0016578800886498314 0 0.033418744659963258 0.0012071814621390715 0 0.033414417889750268 0.0015932115961101233 0 0.033693362094367373 0.0013519069800701146 0 0.033774435269124117 0.001069366900197134 0 0.033418744659963258 0.0012071814621390715 0 0.033693362094367373 0.0013519069800701146 0 0.033985866696691833 0.0014609911724225591 0 0.033936977638336571 0.0012048691106309184 0 0.033693362094367373 0.0013519069800701146 0 0.033936977638336571 0.0012048691106309184 0 0.033774435269124117 0.001069366900197134 0 0.033693362094367373 0.0013519069800701146 0 0.033985866696691833 0.0014609911724225591 0 0.033693362094367373 0.0013519069800701146 0 0.033712945802863215 0.0016578800886498314 0 0.034171634927151577 0.0016173246657245023 0 0.033712945802863215 0.0016578800886498314 0 0.033469816863647896 0.0023034612825037735 0 0.030539831539638733 0.00024445249133718175 0 0.029983294301359497 0.0010704531158856651 0 0.033469816863647896 0.0023034612825037735 0 0.032623894359658949 0.003020881288942347 0 0.032866390383369082 0.0018755293081162475 0 0.026284358623695214 0.0007372947044725583 0 0.026438201327561736 0.00010338024120335213 0 0.026001506241564408 0.00050066956906642877 0 0.033414417889750268 0.0015932115961101233 0 0.033712945802863215 0.0016578800886498314 0 0.033469816863647896 0.0023034612825037735 0 0.033414417889750268 0.0015932115961101233 0 0.033469816863647896 0.0023034612825037735 0 0.032866390383369082 0.0018755293081162475 0 0.02186843244049478 0.00059888271071240398 0 0.024995030704849906 0.00207726984692015 0 0.019299021009002243 0.00023470674177965726 0 0.019107234892007455 0.00046436049283206832 0 0.019057707351796776 0.0003985277193646434 0 0.026284358623695214 0.0007372947044725583 0 0.026001506241564408 0.00050066956906642877 0 0.025537645500588207 0.00093563934746595807 0 0.029983294301359497 0.0010704531158856651 0 0.024995030704849906 0.00207726984692015 0 0.019299021009002243 0.00023470674177965726 0 0.019107234892007455 0.00046436049283206832 0 0.019241588504268561 0.00050954248497724151 0 0.023041697145589922 0.0024925980391509298 0 0.023433736229301675 0.0020955866180384385 0 0.021729909280066868 0.0024886577901820153 0 0.024995030704849906 0.00207726984692015 0 0.021974513995000552 0.0025796133128428806 0 0.020943391256445305 0.0018756499253015186 0 0.021022397102054977 0.0011107054090606226 0 0.019107234892007455 0.00046436049283206832 0 0.019032738320987095 0.00047742526598718976 0 0.019132435346248169 0.00060267376719244832 0 0.019752783253773824 0.00094468038070108973 0 0.021022397102054977 0.0011107054090606226 0 0.019107234892007455 0.00046436049283206832 0 0.019051745289707153 0.00046213235198830528 0 0.019057707351796776 0.0003985277193646434 0 0.021022397102054977 0.0011107054090606226 0 0.024995030704849906 0.00207726984692015 0 0.020943391256445305 0.0018756499253015186 0 0.024995030704849906 0.00207726984692015 0 0.022227063979032399 0.0024589932019019865 0 0.023042340438714094 0.002467656838514866 0 0.023170362870425672 0.001513615761485934 0 0.026864099308386437 0.0038860221526509481 0 0.026535383503560116 0.0034997509603321496 0 0.026197131557570374 0.0036899115378774949 0 0.024995030704849906 0.00207726984692015 0 0.029931062572912132 0.0027776576839286084 0 0.026535383503560116 0.0034997509603321496 0 0.026466334471544516 0.0030738737489297151 0 0.026272145712129654 0.0033484872343599878 0 0.026864099308386437 0.0038860221526509481 0 0.026535383503560116 0.0034997509603321496 0 0.026973823453619497 0.0031335844607234538 0 0.026714942142049669 0.0027281180330399881 0 0.026973823453619497 0.0031335844607234538 0 0.026466334471544516 0.0030738737489297151 0 0.026535383503560116 0.0034997509603321496 0 0.026973823453619497 0.0031335844607234538 0 0.026466334471544516 0.0030738737489297151 0 0.026244853715932284 0.0029279537901420842 0 0.026466334471544516 0.0030738737489297151 0 0.026118082586938457 0.0031469193133933644 0 0.026466334471544516 0.0030738737489297151 0 0.026118082586938457 0.0031469193133933644 0 0.026272145712129654 0.0033484872343599878 0 0.026244853715932284 0.0029279537901420842 0 0.026118082586938457 0.0031469193133933644 0 0.025944445631817383 0.002946376789307511 0 0.025497622992895503 0.0027825579365223238 0 0.025749071377312811 0.0032430837327906549 0 0.025944445631817383 0.002946376789307511 0 0.026118082586938457 0.0031469193133933644 0 0.025749071377312811 0.0032430837327906549 0 0.025944445631817383 0.002946376789307511 0 0.026118082586938457 0.0031469193133933644 0 0.025749071377312811 0.0032430837327906549 0 0.025984486787012821 0.0034323345730994672 0 0.025749071377312811 0.0032430837327906549 0 0.025984486787012821 0.0034323345730994672 0 0.025664350302676411 0.0036937456371310749 0 0.026535383503560116 0.0034997509603321496 0 0.026272145712129654 0.0033484872343599878 0 0.026197131557570374 0.0036899115378774949 0 0.025984486787012821 0.0034323345730994672 0 0.026272145712129654 0.0033484872343599878 0 0.026197131557570374 0.0036899115378774949 0 0.026118082586938457 0.0031469193133933644 0 0.025984486787012821 0.0034323345730994672 0 0.026272145712129654 0.0033484872343599878 0 0.024966447034119335 0.0029437910293426124 0 0.02498340004444774 0.0027705343837542214 0 0.025101492520735763 0.003018217131172854 0 0.02498340004444774 0.0027705343837542214 0 0.025497622992895503 0.0027825579365223238 0 0.025101492520735763 0.003018217131172854 0 0.025415181554243226 0.0028240530174519869 0 0.025136094992431596 0.0031369118850278631 0 0.025497622992895503 0.0027825579365223238 0 0.025749071377312811 0.0032430837327906549 0 0.025263324080383228 0.0034587128593132591 0 0.025749071377312811 0.0032430837327906549 0 0.025263324080383228 0.0034587128593132591 0 0.025664350302676411 0.0036937456371310749 0 0.025664350302676411 0.0036937456371310749 0 0.025025448539727539 0.004112196978754804 0 0.025887407170670836 0.0041181798342050623 0 0.019412862844543882 0.0017030715595582927 0 0.019737388975869019 0.0017454903786768316 0 0.019255168331742886 0.0017389300678171957 0 0.022638596554146694 0.003082212638652995 0 0.021974513995000552 0.0025796133128428806 0 0.025136094992431596 0.0031369118850278631 0 0.022638596554146694 0.003082212638652995 0 0.024913579813953892 0.0029858609927387709 0 0.025101492520735763 0.003018217131172854 0 0.024941568851613364 0.0030362481779233146 0 0.025263324080383228 0.0034587128593132591 0 0.025664350302676411 0.0036937456371310749 0 0.025025448539727539 0.004112196978754804 0 0.026864099308386437 0.0038860221526509481 0 0.026197131557570374 0.0036899115378774949 0 0.025887407170670836 0.0041181798342050623 0 0.020943391256445305 0.0018756499253015186 0 0.021974513995000552 0.0025796133128428806 0 0.018843921464234907 0.0017139665050414589 0 0.01923609780909805 0.0017296343863432275 0 0.019091222748693536 0.0014464313741373561 0 0.025664350302676411 0.0036937456371310749 0 0.026197131557570374 0.0036899115378774949 0 0.025887407170670836 0.0041181798342050623 0 0.025984486787012821 0.0034323345730994672 0 0.025664350302676411 0.0036937456371310749 0 0.026197131557570374 0.0036899115378774949 0 0.020035636551402714 0.0025321407680906375 0 0.021974513995000552 0.0025796133128428806 0 0.01923609780909805 0.0017296343863432275 0 0.019091222748693536 0.0014464313741373561 0 0.019331397130703837 0.0014704575586618532 0 0.019412862844543882 0.0017030715595582927 0 0.01923609780909805 0.0017296343863432275 0 0.019331397130703837 0.0014704575586618532 0 0.019091222748693536 0.0014464313741373561 0 0.019331397130703837 0.0014704575586618532 0 0.019344291448508195 0.0010615759481707081 0 0.019078959099668141 0.0013704046447718164 0 0.019379109296793613 0.0010321183089973015 0 0.019954172791039809 0.0012509136696275116 0 0.019565769856357346 0.0014541771282803322 0 0.019344291448508195 0.0010615759481707081 0 0.019954172791039809 0.0012509136696275116 0 0.019737388975869019 0.0017454903786768316 0 0.019565769856357346 0.0014541771282803322 0 0.019412862844543882 0.0017030715595582927 0 0.019331397130703837 0.0014704575586618532 0 0.019565769856357346 0.0014541771282803322 0 0.019412862844543882 0.0017030715595582927 0 0.019737388975869019 0.0017454903786768316 0 0.019565769856357346 0.0014541771282803322 0 0.019331397130703837 0.0014704575586618532 0 0.019565769856357346 0.0014541771282803322 0 0.019344291448508195 0.0010615759481707081 0 0.019954172791039809 0.0012509136696275116 0 0.019344291448508195 0.0010615759481707081 0 0.019362789643512332 0.00082971477091466842 0 0.019257468706611058 0.00099781806489947808 0 0.019344291448508195 0.0010615759481707081 0 0.019176228054576517 0.00080833162210442106 0 0.019344291448508195 0.0010615759481707081 0 0.019176228054576517 0.00080833162210442106 0 0.019362789643512332 0.00082971477091466842 0 0.019257468706611058 0.00099781806489947808 0 0.019176228054576517 0.00080833162210442106 0 0.019124219979441609 0.0008074031454806611 0 0.019176228054576517 0.00080833162210442106 0 0.019124219979441609 0.0008074031454806611 0 0.01918280366133697 0.0007304265632184794 0 0.019193523934263917 0.00082068502510821838 0 0.01918280366133697 0.0007304265632184794 0 0.019174913892485306 0.00070875768076576393 0 0.019124219979441609 0.0008074031454806611 0 0.01918280366133697 0.0007304265632184794 0 0.019174913892485306 0.00070875768076576393 0 0.019193523934263917 0.00082068502510821838 0 0.019174913892485306 0.00070875768076576393 0 0.019241588504268561 0.00050954248497724151 0 0.019124219979441609 0.0008074031454806611 0 0.019174913892485306 0.00070875768076576393 0 0.019132435346248169 0.00060267376719244832 0 0.019174913892485306 0.00070875768076576393 0 0.019241588504268561 0.00050954248497724151 0 0.019132435346248169 0.00060267376719244832 0 0.019107234892007455 0.00046436049283206832 0 0.019241588504268561 0.00050954248497724151 0 0.019132435346248169 0.00060267376719244832 0 0.019135286478832409 0.0011253661187633273 0 0.019257468706611058 0.00099781806489947808 0 0.019124219979441609 0.0008074031454806611 0 0.021022397102054977 0.0011107054090606226 0 0.018833269875878543 0.00073788015469889714 0 0.019135286478832409 0.0011253661187633273 0 0.019074868190894063 0.0011243681718917109 0 0.019124219979441609 0.0008074031454806611 0 0.019032738320987095 0.00047742526598718976 0 0.019124219979441609 0.0008074031454806611 0 0.019132435346248169 0.00060267376719244832 0 0.020943391256445305 0.0018756499253015186 0 0.019078959099668141 0.0013704046447718164 0 0.017741374542471145 -0.0003239871822123919 0 0.017720415705982866 -0.00026928659654116123 0 0.017742995249896348 -0.00042218493033473864 0 0.017741374542471145 -0.0003239871822123919 0 0.017720415705982866 -0.00026928659654116123 0 0.017833563220182036 5.7661172272862651e-05 0 0.017803573087743368 -0.00031492221250796791 0 0.017720415705982866 -0.00026928659654116123 0 0.017742995249896348 -0.00042218493033473864 0 0.019016252583050539 0.00030789780271332654 0 0.01918280366133697 0.0007304265632184794 0 0.019164831473263377 0.00060508766709100215 0 0.018438859141861719 0.00017312154885884275 0 0.018570914982057284 0.00035722890413103498 0 0.019176228054576517 0.00080833162210442106 0 0.01918280366133697 0.0007304265632184794 0 0.019164831473263377 0.00060508766709100215 0 0.019176228054576517 0.00080833162210442106 0 0.019164831473263377 0.00060508766709100215 0 0.019175244358310934 0.00067055490925917768 0 0.019176228054576517 0.00080833162210442106 0 0.019175244358310934 0.00067055490925917768 0 0.019362789643512332 0.00082971477091466842 0 0.019175244358310934 0.00067055490925917768 0 0.019362789643512332 0.00082971477091466842 0 0.019341561786752955 0.00046702659297249917 0 0.018570914982057284 0.00035722890413103498 0 0.019310980048559735 0.00043828533157396073 0 0.017833563220182036 5.7661172272862651e-05 0 0.019341561786752955 0.00046702659297249917 0 0.018436197221095647 -0.00020796957164314437 0 0.019341561786752955 0.00046702659297249917 0 0.018610263258323868 -0.00060179760625615893 0 0.019985875224427782 -0.00020155851708369713 0 0.019341561786752955 0.00046702659297249917 0 0.018436197221095647 -0.00020796957164314437 0 0.018610263258323868 -0.00060179760625615893 0 0.017833563220182036 5.7661172272862651e-05 0 0.018436197221095647 -0.00020796957164314437 0 0.017943968011662269 -0.00043368913433390052 0 0.017741374542471145 -0.0003239871822123919 0 0.017833563220182036 5.7661172272862651e-05 0 0.017943968011662269 -0.00043368913433390052 0 0.018436197221095647 -0.00020796957164314437 0 0.017943968011662269 -0.00043368913433390052 0 0.018089115202570404 -0.00076414174661354798 0 0.017741374542471145 -0.0003239871822123919 0 0.017943968011662269 -0.00043368913433390052 0 0.017758458226088698 -0.00059422587642453709 0 0.017879339812528015 -0.00068191632229965069 0 0.017786153053751103 -0.00073833842382577466 0 0.017758458226088698 -0.00059422587642453709 0 0.017943968011662269 -0.00043368913433390052 0 0.017879339812528015 -0.00068191632229965069 0 0.017758458226088698 -0.00059422587642453709 0 0.017943968011662269 -0.00043368913433390052 0 0.017879339812528015 -0.00068191632229965069 0 0.018089115202570404 -0.00076414174661354798 0 0.017879339812528015 -0.00068191632229965069 0 0.017816367412543516 -0.00080801685980829276 0 0.018089115202570404 -0.00076414174661354798 0 0.017816367412543516 -0.00080801685980829276 0 0.017758305957053459 -0.00094042344344607751 0 0.018089115202570404 -0.00076414174661354798 0 0.017758305957053459 -0.00094042344344607751 0 0.018089115202570404 -0.00076414174661354798 0 0.01797978168809674 -0.0011107819995511247 0 0.017758305957053459 -0.00094042344344607751 0 0.01797978168809674 -0.0011107819995511247 0 0.017774230193984178 -0.001181827061966003 0 0.017816367412543516 -0.00080801685980829276 0 0.017758305957053459 -0.00094042344344607751 0 0.017742502599524874 -0.00088772851217978129 0 0.017742502599524874 -0.00088772851217978129 0 0.017760409290587816 -0.00071352460183611295 0 0.017759244882879513 -0.00062532759837311436 0 0.017760409290587816 -0.00071352460183611295 0 0.017786153053751103 -0.00073833842382577466 0 0.017758458226088698 -0.00059422587642453709 0 0.017742502599524874 -0.00088772851217978129 0 0.017760409290587816 -0.00071352460183611295 0 0.017786153053751103 -0.00073833842382577466 0 0.017879339812528015 -0.00068191632229965069 0 0.017816367412543516 -0.00080801685980829276 0 0.017786153053751103 -0.00073833842382577466 0 0.017816367412543516 -0.00080801685980829276 0 0.017742502599524874 -0.00088772851217978129 0 0.017786153053751103 -0.00073833842382577466 0 0.018610263258323868 -0.00060179760625615893 0 0.018063475791971966 -0.0015404293157187901 0 0.019985875224427782 -0.00020155851708369713 0 0.018610263258323868 -0.00060179760625615893 0 0.01797978168809674 -0.0011107819995511247 0 0.018063475791971966 -0.0015404293157187901 0 0.018610263258323868 -0.00060179760625615893 0 0.018089115202570404 -0.00076414174661354798 0 0.01797978168809674 -0.0011107819995511247 0 0.018436197221095647 -0.00020796957164314437 0 0.018610263258323868 -0.00060179760625615893 0 0.018089115202570404 -0.00076414174661354798 0 0.01797978168809674 -0.0011107819995511247 0 0.017750328149391682 -0.0013714895791131704 0 0.017774230193984178 -0.001181827061966003 0 0.01797978168809674 -0.0011107819995511247 0 0.018063475791971966 -0.0015404293157187901 0 0.017750328149391682 -0.0013714895791131704 0 0.017750328149391682 -0.0013714895791131704 0 0.017559418997351688 -0.0014539067536193031 0 0.017460754878425164 -0.001447766025389389 0 0.018063475791971966 -0.0015404293157187901 0 0.017750328149391682 -0.0013714895791131704 0 0.017559418997351688 -0.0014539067536193031 0 0.017677528674853366 -0.00099870654066158628 0 0.017652429792270101 -0.0010868240317081657 0 0.017758305957053459 -0.00094042344344607751 0 0.017598486252781608 -0.0012784199610300362 0 0.017299767602692914 -0.0014494989351730215 0 0.017758305957053459 -0.00094042344344607751 0 0.017742502599524874 -0.00088772851217978129 0 0.017637271204929628 -0.00093011171423916874 0 0.017750328149391682 -0.0013714895791131704 0 0.017598486252781608 -0.0012784199610300362 0 0.017774230193984178 -0.001181827061966003 0 0.017758305957053459 -0.00094042344344607751 0 0.017598486252781608 -0.0012784199610300362 0 0.017774230193984178 -0.001181827061966003 0 0.017750328149391682 -0.0013714895791131704 0 0.017598486252781608 -0.0012784199610300362 0 0.017460754878425164 -0.001447766025389389 0 0.017598486252781608 -0.0012784199610300362 0 0.017460754878425164 -0.001447766025389389 0 0.017428283773620452 -0.001418896958744582 0 0.017598486252781608 -0.0012784199610300362 0 0.017428283773620452 -0.001418896958744582 0 0.017299767602692914 -0.0014494989351730215 0 0.017742502599524874 -0.00088772851217978129 0 0.017772838930491135 -0.00043058484445770805 0 0.017759244882879513 -0.00062532759837311436 0 0.017742502599524874 -0.00088772851217978129 0 0.017637271204929628 -0.00093011171423916874 0 0.017551226613403255 -0.00092407539689626022 0 0.017695921251787108 -0.00086622830651749154 0 0.017769716660707559 -0.00064571228602810159 0 0.017772838930491135 -0.00043058484445770805 0 0.017759244882879513 -0.00062532759837311436 0 0.017783719112147149 -0.00048606160214123421 0 0.017760409290587816 -0.00071352460183611295 0 0.017759244882879513 -0.00062532759837311436 0 0.017758458226088698 -0.00059422587642453709 0 0.017741374542471145 -0.0003239871822123919 0 0.017758458226088698 -0.00059422587642453709 0 0.017742995249896348 -0.00042218493033473864 0 0.017759244882879513 -0.00062532759837311436 0 0.017758458226088698 -0.00059422587642453709 0 0.017742995249896348 -0.00042218493033473864 0 0.017759244882879513 -0.00062532759837311436 0 0.017742995249896348 -0.00042218493033473864 0 0.017783719112147149 -0.00048606160214123421 0 0.017803573087743368 -0.00031492221250796791 0 0.017742995249896348 -0.00042218493033473864 0 0.017803984914827722 -0.00039782772259206085 0 0.017742995249896348 -0.00042218493033473864 0 0.017803984914827722 -0.00039782772259206085 0 0.017783719112147149 -0.00048606160214123421 0 0.017823420169530355 -0.00042908306355573649 0 0.017772838930491135 -0.00043058484445770805 0 0.017783719112147149 -0.00048606160214123421 0 0.017823420169530355 -0.00042908306355573649 0 0.017803984914827722 -0.00039782772259206085 0 0.017783719112147149 -0.00048606160214123421 0 0.017823420169530355 -0.00042908306355573649 0 0.017841619748564207 -0.00042316663543036094 0 0.017772838930491135 -0.00043058484445770805 0 0.017317891806891098 -0.001073278994321717 0 0.017551226613403255 -0.00092407539689626022 0 0.017505269477142257 -0.0010714324053187725 0 0.017158671442011719 -0.00093147075919308502 0 0.017769716660707559 -0.00064571228602810159 0 0.017158671442011719 -0.00093147075919308502 0 0.016296986255666109 -0.0013097666184493984 0 0.017299767602692914 -0.0014494989351730215 0 0.0173847408281687 -0.0013892136851024895 0 0.017375568620425545 -0.0013810480059971212 0 0.017637271204929628 -0.00093011171423916874 0 0.017551226613403255 -0.00092407539689626022 0 0.017505269477142257 -0.0010714324053187725 0 0.017652429792270101 -0.0010868240317081657 0 0.016296986255666109 -0.0013097666184493984 0 0.016296986255666109 -0.0013097666184493984 0 0.016249463327962475 -0.0012465368998491179 0 0.014284062430506445 -0.0011282280016694586 0 0.014708117046028465 -0.0017582771832569829 0 0.015288541578793923 -0.0010565224819642843 0 0.014708117046028465 -0.0017582771832569829 0 0.015539957481532795 -0.0017884007143411738 0 0.015288541578793923 -0.0010565224819642843 0 0.014708117046028465 -0.0017582771832569829 0 0.014982274019230335 -0.0020667648907133824 0 0.015539957481532795 -0.0017884007143411738 0 0.015950228251247832 -0.0013886120946674156 0 0.016119200411225599 -0.0013837497671495768 0 0.016014669373328905 -0.0014953776225917882 0 0.016296986255666109 -0.0013097666184493984 0 0.014881240793844905 -0.001660293354462859 0 0.014284062430506445 -0.0011282280016694586 0 0.014708117046028465 -0.0017582771832569829 0 0.014243369875097089 -0.001744505897222564 0 0.014284062430506445 -0.0011282280016694586 0 0.014243369875097089 -0.001744505897222564 0 0.013804787070768735 -0.0017183295521224901 0 0.013333611339156077 -0.0022441797835039039 0 0.013804787070768735 -0.0017183295521224901 0 0.014180636772241963 -0.0023336379107142561 0 0.014243369875097089 -0.001744505897222564 0 0.013804787070768735 -0.0017183295521224901 0 0.014180636772241963 -0.0023336379107142561 0 0.014325828250378684 -0.0026086467956667318 0 0.01427786526888858 -0.0025111214730139607 0 0.014298848093116696 -0.0025800978893373619 0 0.01427786526888858 -0.0025111214730139607 0 0.014298848093116696 -0.0025800978893373619 0 0.014321400846775649 -0.0026162094012895177 0 0.01427786526888858 -0.0025111214730139607 0 0.014482278479468308 -0.0026292661937727408 0 0.014321400846775649 -0.0026162094012895177 0 0.014708117046028465 -0.0017582771832569829 0 0.014243369875097089 -0.001744505897222564 0 0.014180636772241963 -0.0023336379107142561 0 0.014708117046028465 -0.0017582771832569829 0 0.014180636772241963 -0.0023336379107142561 0 0.014982274019230335 -0.0020667648907133824 0 0.014132326357008422 -0.0024183782582906043 0 0.01488394677498241 -0.0024339618989061961 0 0.014180636772241963 -0.0023336379107142561 0 0.014982274019230335 -0.0020667648907133824 0 0.014894447850168873 -0.0024152426677680103 0 0.01427786526888858 -0.0025111214730139607 0 0.014894447850168873 -0.0024152426677680103 0 0.014482278479468308 -0.0026292661937727408 0 0.014894447850168873 -0.0024152426677680103 0 0.014482278479468308 -0.0026292661937727408 0 0.014805942807844124 -0.0027398761983168439 0 0.014482278479468308 -0.0026292661937727408 0 0.014355383713582375 -0.0026656675013248432 0 0.014452573703391348 -0.0026964118818829227 0 0.014482278479468308 -0.0026292661937727408 0 0.014805942807844124 -0.0027398761983168439 0 0.014452573703391348 -0.0026964118818829227 0 0.014805942807844124 -0.0027398761983168439 0 0.014452573703391348 -0.0026964118818829227 0 0.014234715601052921 -0.0026323738606763656 0 0.014452573703391348 -0.0026964118818829227 0 0.014249382859588433 -0.0026324268023648046 0 0.014234715601052921 -0.0026323738606763656 0 0.014355383713582375 -0.0026656675013248432 0 0.014452573703391348 -0.0026964118818829227 0 0.014249382859588433 -0.0026324268023648046 0 0.014355383713582375 -0.0026656675013248432 0 0.014285705949049595 -0.0026291324458849246 0 0.014249382859588433 -0.0026324268023648046 0 0.014355383713582375 -0.0026656675013248432 0 0.014318479795681523 -0.0026400825285030718 0 0.014285705949049595 -0.0026291324458849246 0 0.014318479795681523 -0.0026400825285030718 0 0.014316018471609137 -0.0026268038223409371 0 0.014316691068744473 -0.0026186745603197889 0 0.014285705949049595 -0.0026291324458849246 0 0.014316018471609137 -0.0026268038223409371 0 0.014318282314099462 -0.0026123261031651031 0 0.014318479795681523 -0.0026400825285030718 0 0.014285705949049595 -0.0026291324458849246 0 0.014316018471609137 -0.0026268038223409371 0 0.014316018471609137 -0.0026268038223409371 0 0.014331159359630353 -0.0026109218885687091 0 0.014318282314099462 -0.0026123261031651031 0 0.014331159359630353 -0.0026109218885687091 0 0.014339672610807588 -0.0026028301887237736 0 0.014318282314099462 -0.0026123261031651031 0 0.014340544492254784 -0.0025913145125722645 0 0.014345113092287327 -0.0025932142532921277 0 0.014331159359630353 -0.0026109218885687091 0 0.014345113092287327 -0.0025932142532921277 0 0.014331159359630353 -0.0026109218885687091 0 0.014339672610807588 -0.0026028301887237736 0 0.014340544492254784 -0.0025913145125722645 0 0.014323832227734415 -0.0025980422913648997 0 0.014331159359630353 -0.0026109218885687091 0 0.014323832227734415 -0.0025980422913648997 0 0.014331159359630353 -0.0026109218885687091 0 0.014316691068744473 -0.0026186745603197889 0 0.014316018471609137 -0.0026268038223409371 0 0.014331159359630353 -0.0026109218885687091 0 0.014316691068744473 -0.0026186745603197889 0 0.014316691068744473 -0.0026186745603197889 0 0.014298848093116696 -0.0025800978893373619 0 0.014321400846775649 -0.0026162094012895177 0 0.014323832227734415 -0.0025980422913648997 0 0.014316691068744473 -0.0026186745603197889 0 0.014298848093116696 -0.0025800978893373619 0 0.014482278479468308 -0.0026292661937727408 0 0.014355383713582375 -0.0026656675013248432 0 0.014321400846775649 -0.0026162094012895177 0 0.014355383713582375 -0.0026656675013248432 0 0.014318479795681523 -0.0026400825285030718 0 0.014321400846775649 -0.0026162094012895177 0 0.014318479795681523 -0.0026400825285030718 0 0.014316691068744473 -0.0026186745603197889 0 0.014321400846775649 -0.0026162094012895177 0 0.014858293853178883 -0.0026935565460629472 0 0.014911427913277825 -0.002543760184064867 0 0.016331401896772943 -0.0024280977439473227 0 0.014914714207092073 -0.0027480338151300104 0 0.016734300656949756 -0.0027258929648398614 0 0.014805942807844124 -0.0027398761983168439 0 0.014914714207092073 -0.0027480338151300104 0 0.01432200240571945 -0.0021732163226971806 0 0.016331401896772943 -0.0024280977439473227 0 0.014914714207092073 -0.0027480338151300104 0 0.015682264386072911 -0.0023963388443989453 0 0.014805942807844124 -0.0027398761983168439 0 0.014914714207092073 -0.0027480338151300104 0 0.015277312808481793 -0.0024317249674148784 0 0.014914714207092073 -0.0027480338151300104 0 0.015682264386072911 -0.0023963388443989453 0 0.015277312808481793 -0.0024317249674148784 0 0.015682264386072911 -0.0023963388443989453 0 0.015277312808481793 -0.0024317249674148784 0 0.016203590472404526 -0.0020634218868583517 0 0.014894447850168873 -0.0024152426677680103 0 0.015277312808481793 -0.0024317249674148784 0 0.015360904445058294 -0.0021594620822149402 0 0.014894447850168873 -0.0024152426677680103 0 0.014805942807844124 -0.0027398761983168439 0 0.015277312808481793 -0.0024317249674148784 0 0.014982274019230335 -0.0020667648907133824 0 0.015360904445058294 -0.0021594620822149402 0 0.015539957481532795 -0.0017884007143411738 0 0.014982274019230335 -0.0020667648907133824 0 0.014894447850168873 -0.0024152426677680103 0 0.015360904445058294 -0.0021594620822149402 0 0.015360904445058294 -0.0021594620822149402 0 0.016203590472404526 -0.0020634218868583517 0 0.015539957481532795 -0.0017884007143411738 0 0.015277312808481793 -0.0024317249674148784 0 0.015360904445058294 -0.0021594620822149402 0 0.016203590472404526 -0.0020634218868583517 0 0.016331401896772943 -0.0024280977439473227 0 0.015682264386072911 -0.0023963388443989453 0 0.016203590472404526 -0.0020634218868583517 0 0.016331401896772943 -0.0024280977439473227 0 0.016203590472404526 -0.0020634218868583517 0 0.016964651219569003 -0.0022374143305096844 0 0.016203590472404526 -0.0020634218868583517 0 0.016902334249672572 -0.0013569282265389023 0 0.017020369534079254 -0.0018058372248856874 0 0.016902334249672572 -0.0013569282265389023 0 0.017252441751201619 -0.0015183899778246721 0 0.017020369534079254 -0.0018058372248856874 0 0.015539957481532795 -0.0017884007143411738 0 0.015288541578793923 -0.0010565224819642843 0 0.016902334249672572 -0.0013569282265389023 0 0.016203590472404526 -0.0020634218868583517 0 0.015539957481532795 -0.0017884007143411738 0 0.016902334249672572 -0.0013569282265389023 0 0.016249463327962475 -0.0012465368998491179 0 0.016844336273135665 -0.001312458002261412 0 0.017375568620425545 -0.0013810480059971212 0 0.017331202769124261 -0.0014540151476759077 0 0.016902334249672572 -0.0013569282265389023 0 0.017299767602692914 -0.0014494989351730215 0 0.017375568620425545 -0.0013810480059971212 0 0.017331202769124261 -0.0014540151476759077 0 0.017460754878425164 -0.001447766025389389 0 0.017331202769124261 -0.0014540151476759077 0 0.016902334249672572 -0.0013569282265389023 0 0.017460754878425164 -0.001447766025389389 0 0.017428283773620452 -0.001418896958744582 0 0.017331202769124261 -0.0014540151476759077 0 0.017428283773620452 -0.001418896958744582 0 0.017299767602692914 -0.0014494989351730215 0 0.017331202769124261 -0.0014540151476759077 0 0.017559418997351688 -0.0014539067536193031 0 0.016902334249672572 -0.0013569282265389023 0 0.017252441751201619 -0.0015183899778246721 0 0.017559418997351688 -0.0014539067536193031 0 0.017460754878425164 -0.001447766025389389 0 0.016902334249672572 -0.0013569282265389023 0 0.017559418997351688 -0.0014539067536193031 0 0.017252441751201619 -0.0015183899778246721 0 0.017482542509306424 -0.0014817879202330925 0 0.017252441751201619 -0.0015183899778246721 0 0.01737326328608654 -0.0017028820430380737 0 0.017482542509306424 -0.0014817879202330925 0 0.017252441751201619 -0.0015183899778246721 0 0.01737326328608654 -0.0017028820430380737 0 0.017020369534079254 -0.0018058372248856874 0 0.01737326328608654 -0.0017028820430380737 0 0.017589950384695324 -0.0017342665769673941 0 0.017482542509306424 -0.0014817879202330925 0 0.01737326328608654 -0.0017028820430380737 0 0.017511151231757498 -0.0020144136058250373 0 0.017589950384695324 -0.0017342665769673941 0 0.01737326328608654 -0.0017028820430380737 0 0.017257547774851008 -0.0019563546702920341 0 0.017511151231757498 -0.0020144136058250373 0 0.017257547774851008 -0.0019563546702920341 0 0.017233049338465249 -0.0021966523046567459 0 0.017511151231757498 -0.0020144136058250373 0 0.017257547774851008 -0.0019563546702920341 0 0.017020369534079254 -0.0018058372248856874 0 0.016964651219569003 -0.0022374143305096844 0 0.01737326328608654 -0.0017028820430380737 0 0.017257547774851008 -0.0019563546702920341 0 0.017020369534079254 -0.0018058372248856874 0 0.016203590472404526 -0.0020634218868583517 0 0.017020369534079254 -0.0018058372248856874 0 0.016964651219569003 -0.0022374143305096844 0 0.017257547774851008 -0.0019563546702920341 0 0.016964651219569003 -0.0022374143305096844 0 0.017233049338465249 -0.0021966523046567459 0 0.016964651219569003 -0.0022374143305096844 0 0.016946961147338943 -0.0023410782940616421 0 0.017233049338465249 -0.0021966523046567459 0 0.016964651219569003 -0.0022374143305096844 0 0.016953292859997977 -0.0024337470042256376 0 0.016946961147338943 -0.0023410782940616421 0 0.016331401896772943 -0.0024280977439473227 0 0.016953292859997977 -0.0024337470042256376 0 0.016734300656949756 -0.0027258929648398614 0 0.016331401896772943 -0.0024280977439473227 0 0.016964651219569003 -0.0022374143305096844 0 0.016953292859997977 -0.0024337470042256376 0 0.016575196137341434 -0.0022029655094990158 0 0.016597001662585414 -0.0022335661699667453 0 0.015563602476801367 -0.0018397626860475417 0 0.016575196137341434 -0.0022029655094990158 0 0.017033972795774212 -0.0022888458805904286 0 0.016597001662585414 -0.0022335661699667453 0 0.016575196137341434 -0.0022029655094990158 0 0.016946961147338943 -0.0023410782940616421 0 0.017033972795774212 -0.0022888458805904286 0 0.016946961147338943 -0.0023410782940616421 0 0.017233049338465249 -0.0021966523046567459 0 0.017033972795774212 -0.0022888458805904286 0 0.017233049338465249 -0.0021966523046567459 0 0.017033972795774212 -0.0022888458805904286 0 0.017580037136682356 -0.0022800701295705456 0 0.017033972795774212 -0.0022888458805904286 0 0.017580037136682356 -0.0022800701295705456 0 0.016597001662585414 -0.0022335661699667453 0 0.017233049338465249 -0.0021966523046567459 0 0.017580037136682356 -0.0022800701295705456 0 0.017511151231757498 -0.0020144136058250373 0 0.017580037136682356 -0.0022800701295705456 0 0.017511151231757498 -0.0020144136058250373 0 0.017929922145439522 -0.0020252854498221547 0 0.017511151231757498 -0.0020144136058250373 0 0.017929922145439522 -0.0020252854498221547 0 0.017589950384695324 -0.0017342665769673941 0 0.017929922145439522 -0.0020252854498221547 0 0.018470168640178624 -0.0021537337123229056 0 0.018369700369244336 -0.0016905184499034533 0 0.017580037136682356 -0.0022800701295705456 0 0.017929922145439522 -0.0020252854498221547 0 0.018470168640178624 -0.0021537337123229056 0 0.018470168640178624 -0.0021537337123229056 0 0.018369700369244336 -0.0016905184499034533 0 0.019682726162096167 -0.0021941565169304794 0 0.018369700369244336 -0.0016905184499034533 0 0.020181671923706818 -0.00095668254417185616 0 0.019682726162096167 -0.0021941565169304794 0 0.018369700369244336 -0.0016905184499034533 0 0.018417475141113453 -0.000231741140318586 0 0.020181671923706818 -0.00095668254417185616 0 0.019222877537709081 -0.0011478916174833484 0 0.020687226295465898 -8.9295307488781959e-05 0 0.018369700369244336 -0.0016905184499034533 0 0.017336170188743436 -0.0012968420378164024 0 0.018417475141113453 -0.000231741140318586 0 0.017929922145439522 -0.0020252854498221547 0 0.018369700369244336 -0.0016905184499034533 0 0.017589950384695324 -0.0017342665769673941 0 0.018369700369244336 -0.0016905184499034533 0 0.017589950384695324 -0.0017342665769673941 0 0.017336170188743436 -0.0012968420378164024 0 0.017589950384695324 -0.0017342665769673941 0 0.017482542509306424 -0.0014817879202330925 0 0.017336170188743436 -0.0012968420378164024 0 0.018063475791971966 -0.0015404293157187901 0 0.017559418997351688 -0.0014539067536193031 0 0.017482542509306424 -0.0014817879202330925 0 0.018063475791971966 -0.0015404293157187901 0 0.017482542509306424 -0.0014817879202330925 0 0.017336170188743436 -0.0012968420378164024 0 0.018188105330122561 -0.0015281581273063789 0 0.019222877537709081 -0.0011478916174833484 0 0.018063475791971966 -0.0015404293157187901 0 0.021098348415053068 -0.0011292044211100884 0 0.019985875224427782 -0.00020155851708369713 0 0.021098348415053068 -0.0011292044211100884 0 0.021929149721209129 0.00052618741234880236 0 0.019985875224427782 -0.00020155851708369713 0 0.021929149721209129 0.00052618741234880236 0 0.019985875224427782 -0.00020155851708369713 0 0.020567936159064264 0.00074311207616599548 0 0.019341561786752955 0.00046702659297249917 0 0.019985875224427782 -0.00020155851708369713 0 0.020567936159064264 0.00074311207616599548 0 0.019362789643512332 0.00082971477091466842 0 0.019341561786752955 0.00046702659297249917 0 0.020567936159064264 0.00074311207616599548 0 0.02193745909135315 0.0014590871261416403 0 0.021929149721209129 0.00052618741234880236 0 0.020567936159064264 0.00074311207616599548 0 0.023084906723426984 0.0013500636517075201 0 0.02193745909135315 0.0014590871261416403 0 0.021929149721209129 0.00052618741234880236 0 0.023084906723426984 0.0013500636517075201 0 0.021929149721209129 0.00052618741234880236 0 0.023093149028008672 0.00084538947913832807 0 0.02362037554861935 0.0014640518383591244 0 0.023084906723426984 0.0013500636517075201 0 0.023093149028008672 0.00084538947913832807 0 0.023093149028008672 0.00084538947913832807 0 0.022928015326715328 8.1788130504489916e-05 0 0.022680060654017287 0.0010547754544026164 0 0.020687226295465898 -8.9295307488781959e-05 0 0.022515232521142015 0.00094087864719387697 0 0.021929149721209129 0.00052618741234880236 0 0.023093149028008672 0.00084538947913832807 0 0.022928015326715328 8.1788130504489916e-05 0 0.021098348415053068 -0.0011292044211100884 0 0.021929149721209129 0.00052618741234880236 0 0.022928015326715328 8.1788130504489916e-05 0 0.022680060654017287 0.0010547754544026164 0 0.0255619819721929 5.7350176595011297e-05 0 0.022578218712081623 -0.00071992597827159161 0 0.025314218031107158 0.0013012299521122442 0 0.025624895755937013 4.0358705225909065e-05 0 0.022680060654017287 0.0010547754544026164 0 0.023738577279951583 0.0017610284926842178 0 0.0255619819721929 5.7350176595011297e-05 0 0.018417475141113453 -0.000231741140318586 0 0.022680060654017287 0.0010547754544026164 0 0.020181671923706818 -0.00095668254417185616 0 0.02362037554861935 0.0014640518383591244 0 0.022680060654017287 0.0010547754544026164 0 0.023738577279951583 0.0017610284926842178 0 0.02362037554861935 0.0014640518383591244 0 0.023093149028008672 0.00084538947913832807 0 0.022680060654017287 0.0010547754544026164 0 0.026771837410657993 0.0010419119652034204 0 0.026755165718624331 0.00080260485137709507 0 0.0255619819721929 5.7350176595011297e-05 0 0.02719812860129037 0.001276877930779142 0 0.026771837410657993 0.0010419119652034204 0 0.026755165718624331 0.00080260485137709507 0 0.02719812860129037 0.001276877930779142 0 0.026755165718624331 0.00080260485137709507 0 0.027476732996000675 0.000852229411088015 0 0.027875433340404279 0.0011413421388715118 0 0.027476732996000675 0.000852229411088015 0 0.028249360287379406 0.00064563484468947534 0 0.027476732996000675 0.000852229411088015 0 0.027536482774997529 0.00040873882245078647 0 0.028249360287379406 0.00064563484468947534 0 0.026755165718624331 0.00080260485137709507 0 0.027476732996000675 0.000852229411088015 0 0.027536482774997529 0.00040873882245078647 0 0.027536482774997529 0.00040873882245078647 0 0.0255619819721929 5.7350176595011297e-05 0 0.027514580959518618 -0.00063111262163850551 0 0.026755165718624331 0.00080260485137709507 0 0.027536482774997529 0.00040873882245078647 0 0.0255619819721929 5.7350176595011297e-05 0 0.021670613359863127 -0.0017618228765080744 0 0.023251755359651197 -0.00068891197542120567 0 0.0255619819721929 5.7350176595011297e-05 0 0.024852786990997449 -0.0019432810236216067 0 0.027514580959518618 -0.00063111262163850551 0 0.018476440243809785 -0.001818626150394015 0 0.018965019253954666 -0.00070766916238560352 0 0.018726090986670114 -0.001492988248274859 0 0.018965019253954666 -0.00070766916238560352 0 0.018726090986670114 -0.001492988248274859 0 0.019462804663151693 -0.0013037679761357041 0 0.018895901437316336 -0.0016766860125069347 0 0.019346663650001671 -0.0018968376200556721 0 0.019462804663151693 -0.0013037679761357041 0 0.018726090986670114 -0.001492988248274859 0 0.018895901437316336 -0.0016766860125069347 0 0.019462804663151693 -0.0013037679761357041 0 0.018895901437316336 -0.0016766860125069347 0 0.0185265212336806 -0.0017620859849202344 0 0.018725938688494859 -0.0018599655843701073 0 0.018476440243809785 -0.001818626150394015 0 0.0185265212336806 -0.0017620859849202344 0 0.018453475562361776 -0.001816398031728109 0 0.018476440243809785 -0.001818626150394015 0 0.018726090986670114 -0.001492988248274859 0 0.0185265212336806 -0.0017620859849202344 0 0.018726090986670114 -0.001492988248274859 0 0.018895901437316336 -0.0016766860125069347 0 0.0185265212336806 -0.0017620859849202344 0 0.021670613359863127 -0.0017618228765080744 0 0.019963155780475389 -0.0021973830996382736 0 0.018476440243809785 -0.001818626150394015 0 0.019682726162096167 -0.0021941565169304794 0 0.018453475562361776 -0.001816398031728109 0 0.024852786990997449 -0.0019432810236216067 0 0.022578218712081623 -0.00071992597827159161 0 0.019682726162096167 -0.0021941565169304794 0 0.0255619819721929 5.7350176595011297e-05 0 0.024852786990997449 -0.0019432810236216067 0 0.022578218712081623 -0.00071992597827159161 0 0.022578218712081623 -0.00071992597827159161 0 0.020181671923706818 -0.00095668254417185616 0 0.019682726162096167 -0.0021941565169304794 0 0.022680060654017287 0.0010547754544026164 0 0.022578218712081623 -0.00071992597827159161 0 0.020181671923706818 -0.00095668254417185616 0 0.018470168640178624 -0.0021537337123229056 0 0.019682726162096167 -0.0021941565169304794 0 0.018159936783022322 -0.002009492390329081 0 0.017580037136682356 -0.0022800701295705456 0 0.018470168640178624 -0.0021537337123229056 0 0.018159936783022322 -0.002009492390329081 0 0.019682726162096167 -0.0021941565169304794 0 0.018159936783022322 -0.002009492390329081 0 0.018453475562361776 -0.001816398031728109 0 0.018159936783022322 -0.002009492390329081 0 0.018453475562361776 -0.001816398031728109 0 0.018129083188971527 -0.0019961723589957442 0 0.018159936783022322 -0.002009492390329081 0 0.017135912261555107 -0.0024126386713620661 0 0.018129083188971527 -0.0019961723589957442 0 0.017580037136682356 -0.0022800701295705456 0 0.018159936783022322 -0.002009492390329081 0 0.017135912261555107 -0.0024126386713620661 0 0.017580037136682356 -0.0022800701295705456 0 0.017135912261555107 -0.0024126386713620661 0 0.016597001662585414 -0.0022335661699667453 0 0.017135912261555107 -0.0024126386713620661 0 0.018369322182377266 -0.0020451171997348193 0 0.018129083188971527 -0.0019961723589957442 0 0.017036207969181913 -0.0023840611211126393 0 0.016552872990716744 -0.0020661024893427965 0 0.017135912261555107 -0.0024126386713620661 0 0.014991104196502696 -0.0017324870942584884 0 0.015434267995815302 -0.0017836368279716542 0 0.017135912261555107 -0.0024126386713620661 0 0.016597001662585414 -0.0022335661699667453 0 0.015434267995815302 -0.0017836368279716542 0 0.014570491478578744 -0.0017148423713476174 0 0.014760717836224091 -0.0022471485565282914 0 0.014392180428735938 -0.0011565935887241443 0 0.014570491478578744 -0.0017148423713476174 0 0.014450020589857665 -0.0015478033251562408 0 0.014392180428735938 -0.0011565935887241443 0 0.014450020589857665 -0.0015478033251562408 0 0.014392180428735938 -0.0011565935887241443 0 0.014417734102099239 -0.0014626381063296699 0 0.014570491478578744 -0.0017148423713476174 0 0.014450020589857665 -0.0015478033251562408 0 0.014991104196502696 -0.0017324870942584884 0 0.014450020589857665 -0.0015478033251562408 0 0.014991104196502696 -0.0017324870942584884 0 0.014565195634615915 -0.0015295409457600192 0 0.014570491478578744 -0.0017148423713476174 0 0.014991104196502696 -0.0017324870942584884 0 0.014760717836224091 -0.0022471485565282914 0 0.018369322182377266 -0.0020451171997348193 0 0.018129083188971527 -0.0019961723589957442 0 0.018387900643567542 -0.0020127517613114185 0 0.017135912261555107 -0.0024126386713620661 0 0.014991104196502696 -0.0017324870942584884 0 0.014760717836224091 -0.0022471485565282914 0 0.018369322182377266 -0.0020451171997348193 0 0.018162281062003502 -0.0018606375610947098 0 0.018387900643567542 -0.0020127517613114185 0 0.016552872990716744 -0.0020661024893427965 0 0.016112836387654365 -0.0012166562419675204 0 0.018369322182377266 -0.0020451171997348193 0 0.018162281062003502 -0.0018606375610947098 0 0.017714983448564155 -0.0011011469771345819 0 0.018162281062003502 -0.0018606375610947098 0 0.01864005965320906 -0.0020482457352069038 0 0.018387900643567542 -0.0020127517613114185 0 0.018162281062003502 -0.0018606375610947098 0 0.01864005965320906 -0.0020482457352069038 0 0.019306271961780912 -0.0021972492378487512 0 0.018300227391444122 -0.0017411948250788058 0 0.018205803454597665 -0.0013231116551134651 0 0.018129083188971527 -0.0019961723589957442 0 0.018387900643567542 -0.0020127517613114185 0 0.018403227466427613 -0.0019949209971246752 0 0.01864005965320906 -0.0020482457352069038 0 0.018387900643567542 -0.0020127517613114185 0 0.018403227466427613 -0.0019949209971246752 0 0.01864005965320906 -0.0020482457352069038 0 0.018403227466427613 -0.0019949209971246752 0 0.018425128866629607 -0.0018945555413185985 0 0.018129083188971527 -0.0019961723589957442 0 0.018403227466427613 -0.0019949209971246752 0 0.018425128866629607 -0.0018945555413185985 0 0.018453475562361776 -0.001816398031728109 0 0.018129083188971527 -0.0019961723589957442 0 0.018425128866629607 -0.0018945555413185985 0 0.01864005965320906 -0.0020482457352069038 0 0.018425128866629607 -0.0018945555413185985 0 0.018725938688494859 -0.0018599655843701073 0 0.0185265212336806 -0.0017620859849202344 0 0.018425128866629607 -0.0018945555413185985 0 0.018725938688494859 -0.0018599655843701073 0 0.0185265212336806 -0.0017620859849202344 0 0.018453475562361776 -0.001816398031728109 0 0.018425128866629607 -0.0018945555413185985 0 0.018895901437316336 -0.0016766860125069347 0 0.018725938688494859 -0.0018599655843701073 0 0.019346663650001671 -0.0018968376200556721 0 0.01864005965320906 -0.0020482457352069038 0 0.018725938688494859 -0.0018599655843701073 0 0.019346663650001671 -0.0018968376200556721 0 0.01864005965320906 -0.0020482457352069038 0 0.019346663650001671 -0.0018968376200556721 0 0.019306271961780912 -0.0021972492378487512 0 0.019346663650001671 -0.0018968376200556721 0 0.019306271961780912 -0.0021972492378487512 0 0.020420023955815454 -0.0017036418308042668 0 0.018205803454597665 -0.0013231116551134651 0 0.020641452221201027 -0.00081384415217684988 0 0.018369352936346488 -0.00012675303128188893 0 0.017403820081293535 -0.00063200469062545106 0 0.018220208680039353 0.00099131344865845366 0 0.018369352936346488 -0.00012675303128188893 0 0.017875330072814763 -0.00078460809931255461 0 0.017403820081293535 -0.00063200469062545106 0 0.018369352936346488 -0.00012675303128188893 0 0.017875330072814763 -0.00078460809931255461 0 0.018646775214666816 -0.00042259149336932596 0 0.018162281062003502 -0.0018606375610947098 0 0.017403820081293535 -0.00063200469062545106 0 0.017620654983201766 -0.0011963887842974751 0 0.017875330072814763 -0.00078460809931255461 0 0.017403820081293535 -0.00063200469062545106 0 0.017620654983201766 -0.0011963887842974751 0 0.017620654983201766 -0.0011963887842974751 0 0.017516603428815451 -0.0011008832029282764 0 0.017714983448564155 -0.0011011469771345819 0 0.018162281062003502 -0.0018606375610947098 0 0.017620654983201766 -0.0011963887842974751 0 0.017714983448564155 -0.0011011469771345819 0 0.017875330072814763 -0.00078460809931255461 0 0.017620654983201766 -0.0011963887842974751 0 0.017516603428815451 -0.0011008832029282764 0 0.017516603428815451 -0.0011008832029282764 0 0.017233831167794554 -0.0011205571234265907 0 0.017714983448564155 -0.0011011469771345819 0 0.017875330072814763 -0.00078460809931255461 0 0.017516603428815451 -0.0011008832029282764 0 0.018009264982744022 -0.00079592878013712688 0 0.017516603428815451 -0.0011008832029282764 0 0.017233831167794554 -0.0011205571234265907 0 0.018009264982744022 -0.00079592878013712688 0 0.017233831167794554 -0.0011205571234265907 0 0.016618852708314823 -0.0011550404290283588 0 0.017714983448564155 -0.0011011469771345819 0 0.016624342139847256 -0.0011681068387789898 0 0.016112836387654365 -0.0012166562419675204 0 0.016618852708314823 -0.0011550404290283588 0 0.014392180428735938 -0.0011565935887241443 0 0.014987012686645308 -0.0015419737126703974 0 0.014392180428735938 -0.0011565935887241443 0 0.014417734102099239 -0.0014626381063296699 0 0.014987012686645308 -0.0015419737126703974 0 0.017530501506149883 5.5732494260324361e-05 0 0.017183427865991918 0.00018718612675148685 0 0.016534729487006541 -6.6782606543970362e-05 0 0.017530501506149883 5.5732494260324361e-05 0 0.017183427865991918 0.00018718612675148685 0 0.018355331723055836 -9.211262005084519e-06 0 0.018011543484767252 5.389204870326613e-07 0 0.017530501506149883 5.5732494260324361e-05 0 0.018355331723055836 -9.211262005084519e-06 0 0.018011543484767252 5.389204870326613e-07 0 0.017530501506149883 5.5732494260324361e-05 0 0.016534729487006541 -6.6782606543970362e-05 0 0.016618852708314823 -0.0011550404290283588 0 0.017658952127582575 -0.0011344499302943078 0 0.015620093208173709 -0.0017171263985379535 0 0.017233831167794554 -0.0011205571234265907 0 0.016618852708314823 -0.0011550404290283588 0 0.017658952127582575 -0.0011344499302943078 0 0.017658952127582575 -0.0011344499302943078 0 0.018009264982744022 -0.00079592878013712688 0 0.019217027598038009 -0.0002373717202711195 0 0.017429298983161385 -0.00050478263714475347 0 0.018912324115099004 -0.00021971657021506726 0 0.017233831167794554 -0.0011205571234265907 0 0.017658952127582575 -0.0011344499302943078 0 0.018009264982744022 -0.00079592878013712688 0 0.017183427865991918 0.00018718612675148685 0 0.018355331723055836 -9.211262005084519e-06 0 0.019217027598038009 -0.0002373717202711195 0 0.018011543484767252 5.389204870326613e-07 0 0.018355331723055836 -9.211262005084519e-06 0 0.01988293003883413 -1.5036577711281361e-06 0 0.018355331723055836 -9.211262005084519e-06 0 0.01988293003883413 -1.5036577711281361e-06 0 0.019217027598038009 -0.0002373717202711195 0 0.01988293003883413 -1.5036577711281361e-06 0 0.019217027598038009 -0.0002373717202711195 0 0.019595405047817292 -0.0001048639842782827 0 0.018009264982744022 -0.00079592878013712688 0 0.019217027598038009 -0.0002373717202711195 0 0.018646775214666816 -0.00042259149336932596 0 0.018369352936346488 -0.00012675303128188893 0 0.018646775214666816 -0.00042259149336932596 0 0.019595405047817292 -0.0001048639842782827 0 0.017875330072814763 -0.00078460809931255461 0 0.018009264982744022 -0.00079592878013712688 0 0.018646775214666816 -0.00042259149336932596 0 0.019217027598038009 -0.0002373717202711195 0 0.018646775214666816 -0.00042259149336932596 0 0.019595405047817292 -0.0001048639842782827 0 0.018369352936346488 -0.00012675303128188893 0 0.018908960416370697 0.0004309911349181187 0 0.019595405047817292 -0.0001048639842782827 0 0.018369352936346488 -0.00012675303128188893 0 0.018908960416370697 0.0004309911349181187 0 0.018220208680039353 0.00099131344865845366 0 0.018908960416370697 0.0004309911349181187 0 0.019595405047817292 -0.0001048639842782827 0 0.019505093440131214 0.00093053047768067436 0 0.01988293003883413 -1.5036577711281361e-06 0 0.021750474196179689 2.6283742234205081e-06 0 0.019595405047817292 -0.0001048639842782827 0 0.021750474196179689 2.6283742234205081e-06 0 0.019595405047817292 -0.0001048639842782827 0 0.019505093440131214 0.00093053047768067436 0 0.021753614627509327 2.4775214064186983e-07 0 0.021176341907954001 0.00042247817997495687 0 0.021755261942963389 9.5022458098352737e-07 0 0.022808261855378202 -0.00021099985836907023 0 0.022921198530337382 2.9684461334320791e-05 0 0.021755261942963389 9.5022458098352737e-07 0 0.022808261855378202 -0.00021099985836907023 0 0.023633960698071065 -1.9725406896764395e-06 0 0.023633960698071065 -1.9725406896764395e-06 0 0.02291043747797597 -0.00039765486692107995 0 0.023158336371204669 0.00054587915363066601 0 0.022808261855378202 -0.00021099985836907023 0 0.023633960698071065 -1.9725406896764395e-06 0 0.02291043747797597 -0.00039765486692107995 0 0.02291043747797597 -0.00039765486692107995 0 0.02120089955088569 -0.00072022290124761827 0 0.023158336371204669 0.00054587915363066601 0 0.023289297952576081 -0.0003010924097744136 0 0.020641452221201027 -0.00081384415217684988 0 0.018908960416370697 0.0004309911349181187 0 0.019505093440131214 0.00093053047768067436 0 0.018220208680039353 0.00099131344865845366 0 0.021176341907954001 0.00042247817997495687 0 0.020641452221201027 -0.00081384415217684988 0 0.022808261855378202 -0.00021099985836907023 0 0.02291043747797597 -0.00039765486692107995 0 0.022921198530337382 2.9684461334320791e-05 0 0.02291043747797597 -0.00039765486692107995 0 0.022921198530337382 2.9684461334320791e-05 0 0.023216454256417194 -5.2514715493501725e-05 0 0.02291043747797597 -0.00039765486692107995 0 0.021593742274115757 -0.0020283803888012141 0 0.02120089955088569 -0.00072022290124761827 0 0.020641452221201027 -0.00081384415217684988 0 0.020315850344862614 -0.0016337662943281968 0 0.021593742274115757 -0.0020283803888012141 0 0.019993149540491289 -0.0016369496159901905 0 0.02120089955088569 -0.00072022290124761827 0 0.019462804663151693 -0.0013037679761357041 0 0.019993149540491289 -0.0016369496159901905 0 0.02120089955088569 -0.00072022290124761827 0 0.019346663650001671 -0.0018968376200556721 0 0.019462804663151693 -0.0013037679761357041 0 0.019993149540491289 -0.0016369496159901905 0 0.019346663650001671 -0.0018968376200556721 0 0.020420023955815454 -0.0017036418308042668 0 0.019993149540491289 -0.0016369496159901905 0 0.019462804663151693 -0.0013037679761357041 0 0.02120089955088569 -0.00072022290124761827 0 0.020756825640058037 0.00028557065691418832 0 0.018965019253954666 -0.00070766916238560352 0 0.019462804663151693 -0.0013037679761357041 0 0.020756825640058037 0.00028557065691418832 0 0.023251755359651197 -0.00068891197542120567 0 0.02458348284125423 0.00027333440130287214 0 0.02458348284125423 0.00027333440130287214 0 0.025417449727250067 0.00060865445894854977 0 0.028490335244322037 0.00035024771086636163 0 0.028559443387555696 0.00061395281106943098 0 0.027848255350164691 0.00088347443141218287 0 0.02120089955088569 -0.00072022290124761827 0 0.020756825640058037 0.00028557065691418832 0 0.023158336371204669 0.00054587915363066601 0 0.027536482774997529 0.00040873882245078647 0 0.028490335244322037 0.00035024771086636163 0 0.028249360287379406 0.00064563484468947534 0 0.027536482774997529 0.00040873882245078647 0 0.027514580959518618 -0.00063111262163850551 0 0.028490335244322037 0.00035024771086636163 0 0.028490335244322037 0.00035024771086636163 0 0.028249360287379406 0.00064563484468947534 0 0.028559443387555696 0.00061395281106943098 0 0.028906532542287856 0.0007098592046194251 0 0.028249360287379406 0.00064563484468947534 0 0.028559443387555696 0.00061395281106943098 0 0.028508031415400013 -6.1053800492946519e-05 0 0.025519129076150462 2.9042036016889884e-06 0 0.027848255350164691 0.00088347443141218287 0 0.028508031415400013 -6.1053800492946519e-05 0 0.028559443387555696 0.00061395281106943098 0 0.027848255350164691 0.00088347443141218287 0 0.025512449405240431 2.4840761789985426e-07 0 0.025417449727250067 0.00060865445894854977 0 0.023633960698071065 -1.9725406896764395e-06 0 0.025508840386659702 2.9372625789046822e-06 0 0.023158336371204669 0.00054587915363066601 0 0.010387658419831119 -0.00041935054399653898 0 0.010794826137994106 -0.00021545110054042589 0 0.011534907160092251 -0.00012879650040805807 0 0.010794826137994106 -0.00021545110054042589 0 0.010534801420681817 -1.3455626726259518e-06 0 0.011324933403239808 -0.00014628147144055384 0 0.010387658419831119 -0.00041935054399653898 0 0.010794826137994106 -0.00021545110054042589 0 0.009964482835166882 -0.00018325700259463879 0 0.010794826137994106 -0.00021545110054042589 0 0.010534801420681817 -1.3455626726259518e-06 0 0.009964482835166882 -0.00018325700259463879 0 0.010534801420681817 -1.3455626726259518e-06 0 0.009964482835166882 -0.00018325700259463879 0 0.0086592176170072113 -1.2100887146311082e-07 0 0.009964482835166882 -0.00018325700259463879 0 0.0095171142877767487 -0.00017149510106599184 0 0.0086592176170072113 -1.2100887146311082e-07 0 0.010387658419831119 -0.00041935054399653898 0 0.0099288927842162908 -0.00021391939093596095 0 0.011110633111602835 -0.00062108272635852987 0 0.0095171142877767487 -0.00017149510106599184 0 0.0099288927842162908 -0.00021391939093596095 0 0.0088660808443496286 -0.00010441068629477878 0 0.010387658419831119 -0.00041935054399653898 0 0.009964482835166882 -0.00018325700259463879 0 0.0095171142877767487 -0.00017149510106599184 0 0.010387658419831119 -0.00041935054399653898 0 0.0095171142877767487 -0.00017149510106599184 0 0.0099288927842162908 -0.00021391939093596095 0 0.0099288927842162908 -0.00021391939093596095 0 0.010667654340816814 -0.00020259749742123728 0 0.011110633111602835 -0.00062108272635852987 0 0.0093462159966237034 -0.00052431025960106227 0 0.010434958403881471 -0.00083919469969136434 0 0.0090743612902572102 -7.7692970676856033e-05 0 0.0093462159966237034 -0.00052431025960106227 0 0.010688223179542412 -0.0013993714599386507 0 0.010434958403881471 -0.00083919469969136434 0 0.010019846709894562 -0.00041558195090166518 0 0.011357531423518185 -0.0010980034908673569 0 0.010667654340816814 -0.00020259749742123728 0 0.012078520370650412 -0.00084689219349278584 0 0.011110633111602835 -0.00062108272635852987 0 0.012078520370650412 -0.00084689219349278584 0 0.011110633111602835 -0.00062108272635852987 0 0.012039018831464599 -0.001226757167269831 0 0.010387658419831119 -0.00041935054399653898 0 0.011110633111602835 -0.00062108272635852987 0 0.012039018831464599 -0.001226757167269831 0 0.012078520370650412 -0.00084689219349278584 0 0.012039018831464599 -0.001226757167269831 0 0.012888508716536106 -0.0013963636598913977 0 0.011357531423518185 -0.0010980034908673569 0 0.012445741698809711 -0.0014629147709009555 0 0.012039018831464599 -0.001226757167269831 0 0.012872205442525016 -0.0014669449912536852 0 0.012888508716536106 -0.0013963636598913977 0 0.012872205442525016 -0.0014669449912536852 0 0.013357040896055895 -0.0014491653708174135 0 0.012888508716536106 -0.0013963636598913977 0 0.012039018831464599 -0.001226757167269831 0 0.012872205442525016 -0.0014669449912536852 0 0.012798817197340927 -0.0014730700227916355 0 0.012872205442525016 -0.0014669449912536852 0 0.012798817197340927 -0.0014730700227916355 0 0.013469393465098749 -0.0014301986046035024 0 0.012039018831464599 -0.001226757167269831 0 0.012798817197340927 -0.0014730700227916355 0 0.012055887560629497 -0.0013560233053649085 0 0.012798817197340927 -0.0014730700227916355 0 0.012055887560629497 -0.0013560233053649085 0 0.013806704353148288 -0.0014817296431142372 0 0.011798294365463528 -0.00071914228707215097 0 0.013617712564314675 -0.00077241290237272536 0 0.010649940731189453 -0.00042358817256781282 0 0.011798294365463528 -0.00071914228707215097 0 0.010387658419831119 -0.00041935054399653898 0 0.012039018831464599 -0.001226757167269831 0 0.012055887560629497 -0.0013560233053649085 0 0.010794826137994106 -0.00021545110054042589 0 0.011534907160092251 -0.00012879650040805807 0 0.011324933403239808 -0.00014628147144055384 0 0.010833445509439883 -1.6426630391899324e-05 0 0.012314108411687461 -7.5365803356802733e-05 0 0.010535050614584679 -1.647198946446284e-08 0 0.012400643541315705 4.7779026360709241e-08 0 0.012421830230628039 -1.1227258080980016e-06 0 0.010534801420681817 -1.3455626726259518e-06 0 0.011324933403239808 -0.00014628147144055384 0 0.011499924924409294 -0.00012217712838269595 0 0.010534801420681817 -1.3455626726259518e-06 0 0.011499924924409294 -0.00012217712838269595 0 0.012165244480222402 -0.00016204181689421647 0 0.011534907160092251 -0.00012879650040805807 0 0.011324933403239808 -0.00014628147144055384 0 0.011928658868766238 -0.00012747171288784699 0 0.011324933403239808 -0.00014628147144055384 0 0.011499924924409294 -0.00012217712838269595 0 0.011928658868766238 -0.00012747171288784699 0 0.011534907160092251 -0.00012879650040805807 0 0.011928658868766238 -0.00012747171288784699 0 0.013386457937312095 -5.6652571045070312e-05 0 0.011499924924409294 -0.00012217712838269595 0 0.012165244480222402 -0.00016204181689421647 0 0.011928658868766238 -0.00012747171288784699 0 0.012400643541315705 4.7779026360709241e-08 0 0.012421830230628039 -1.1227258080980016e-06 0 0.01427052391900605 -2.5824421437994272e-07 0 0.012165244480222402 -0.00016204181689421647 0 0.011928658868766238 -0.00012747171288784699 0 0.013386457937312095 -5.6652571045070312e-05 0 0.012165244480222402 -0.00016204181689421647 0 0.013386457937312095 -5.6652571045070312e-05 0 0.014230113718740573 -3.0174072636996328e-05 0 0.012421830230628039 -1.1227258080980016e-06 0 0.01427052391900605 -2.5824421437994272e-07 0 0.014230113718740573 -3.0174072636996328e-05 0 0.012314108411687461 -7.5365803356802733e-05 0 0.013890452114409453 -2.6861395564852316e-05 0 0.012798817197340927 -0.0014730700227916355 0 0.013806704353148288 -0.0014817296431142372 0 0.013469393465098749 -0.0014301986046035024 0 0.013806704353148288 -0.0014817296431142372 0 0.014470234616707957 -0.0009219129126501359 0 0.013469393465098749 -0.0014301986046035024 0 0.013806704353148288 -0.0014817296431142372 0 0.014470234616707957 -0.0009219129126501359 0 0.015307757217382239 -0.00033897432723650398 0 0.013386457937312095 -5.6652571045070312e-05 0 0.014230113718740573 -3.0174072636996328e-05 0 0.015307757217382239 -0.00033897432723650398 0 0.01427052391900605 -2.5824421437994272e-07 0 0.014230113718740573 -3.0174072636996328e-05 0 0.015307757217382239 -0.00033897432723650398 0 0.01427052391900605 -2.5824421437994272e-07 0 0.016141740859534619 -8.2217283505253062e-07 0 0.015307757217382239 -0.00033897432723650398 0 0.013617712564314675 -0.00077241290237272536 0 0.01499741805764962 -0.00037482833970775103 0 0.016141740859534619 -8.2217283505253062e-07 0 0.015307757217382239 -0.00033897432723650398 0 0.015621489170637987 -0.00024407806522078288 0 0.014470234616707957 -0.0009219129126501359 0 0.015621489170637987 -0.00024407806522078288 0 0.015173627755500031 -0.000125524256728785 0 0.014470234616707957 -0.0009219129126501359 0 0.015307757217382239 -0.00033897432723650398 0 0.015621489170637987 -0.00024407806522078288 0 0.017183427865991918 0.00018718612675148685 0 0.016534729487006541 -6.6782606543970362e-05 0 0.015173627755500031 -0.000125524256728785 0 0.017429298983161385 -0.00050478263714475347 0 0.015418183156343237 -0.00090715290282725603 0 0.015621489170637987 -0.00024407806522078288 0 0.016534729487006541 -6.6782606543970362e-05 0 0.015173627755500031 -0.000125524256728785 0 0.018011543484767252 5.389204870326613e-07 0 0.016141740859534619 -8.2217283505253062e-07 0 0.016534729487006541 -6.6782606543970362e-05 0 0.016141740859534619 -8.2217283505253062e-07 0 0.015621489170637987 -0.00024407806522078288 0 0.016534729487006541 -6.6782606543970362e-05 0 0.014448108922773343 -0.0015454007868349719 0 0.014987012686645308 -0.0015419737126703974 0 0.014621436400950058 -0.00160401164746238 0 0.014448108922773343 -0.0015454007868349719 0 0.014417734102099239 -0.0014626381063296699 0 0.014280582406359538 -0.0014888936630017805 0 0.014448108922773343 -0.0015454007868349719 0 0.014417734102099239 -0.0014626381063296699 0 0.014987012686645308 -0.0015419737126703974 0 0.016618852708314823 -0.0011550404290283588 0 0.014987012686645308 -0.0015419737126703974 0 0.015620093208173709 -0.0017171263985379535 0 0.014987012686645308 -0.0015419737126703974 0 0.015620093208173709 -0.0017171263985379535 0 0.014621436400950058 -0.00160401164746238 0 0.015620093208173709 -0.0017171263985379535 0 0.014621436400950058 -0.00160401164746238 0 0.013895215979429325 -0.0013085057076617208 0 0.015418183156343237 -0.00090715290282725603 0 0.014141056140607318 -0.0012922042365833145 0 0.014470234616707957 -0.0009219129126501359 0 0.015173627755500031 -0.000125524256728785 0 0.013895215979429325 -0.0013085057076617208 0 0.014448108922773343 -0.0015454007868349719 0 0.014621436400950058 -0.00160401164746238 0 0.013937511111456781 -0.0014521215975935435 0 0.014621436400950058 -0.00160401164746238 0 0.013937511111456781 -0.0014521215975935435 0 0.013895215979429325 -0.0013085057076617208 0 0.013937511111456781 -0.0014521215975935435 0 0.013357040896055895 -0.0014491653708174135 0 0.013186106220835811 -0.0014192588481862656 0 0.013937511111456781 -0.0014521215975935435 0 0.013895215979429325 -0.0013085057076617208 0 0.013357040896055895 -0.0014491653708174135 0 0.014470234616707957 -0.0009219129126501359 0 0.013895215979429325 -0.0013085057076617208 0 0.013469393465098749 -0.0014301986046035024 0 0.013895215979429325 -0.0013085057076617208 0 0.013469393465098749 -0.0014301986046035024 0 0.013357040896055895 -0.0014491653708174135 0 0.012872205442525016 -0.0014669449912536852 0 0.013469393465098749 -0.0014301986046035024 0 0.013357040896055895 -0.0014491653708174135 0 0.013357040896055895 -0.0014491653708174135 0 0.013186106220835811 -0.0014192588481862656 0 0.012888508716536106 -0.0013963636598913977 0 0.013186106220835811 -0.0014192588481862656 0 0.013114568117549793 -0.0013465362751206281 0 0.013771659350556931 -0.0013146827672818814 0 0.013937511111456781 -0.0014521215975935435 0 0.013186106220835811 -0.0014192588481862656 0 0.013771659350556931 -0.0013146827672818814 0 0.013937511111456781 -0.0014521215975935435 0 0.014154090689089387 -0.0014217318932753995 0 0.014280582406359538 -0.0014888936630017805 0 0.013937511111456781 -0.0014521215975935435 0 0.013771659350556931 -0.0013146827672818814 0 0.014154090689089387 -0.0014217318932753995 0 0.014448108922773343 -0.0015454007868349719 0 0.013937511111456781 -0.0014521215975935435 0 0.014280582406359538 -0.0014888936630017805 0 0.013771659350556931 -0.0013146827672818814 0 0.014154090689089387 -0.0014217318932753995 0 0.014530236437366716 -0.0014693310258270561 0 0.014991104196502696 -0.0017324870942584884 0 0.014565195634615915 -0.0015295409457600192 0 0.015434267995815302 -0.0017836368279716542 0 0.014154090689089387 -0.0014217318932753995 0 0.014565195634615915 -0.0015295409457600192 0 0.014530236437366716 -0.0014693310258270561 0 0.014450020589857665 -0.0015478033251562408 0 0.014565195634615915 -0.0015295409457600192 0 0.014280582406359538 -0.0014888936630017805 0 0.014450020589857665 -0.0015478033251562408 0 0.014417734102099239 -0.0014626381063296699 0 0.014280582406359538 -0.0014888936630017805 0 0.014154090689089387 -0.0014217318932753995 0 0.014565195634615915 -0.0015295409457600192 0 0.014280582406359538 -0.0014888936630017805 0 0.016597001662585414 -0.0022335661699667453 0 0.015563602476801367 -0.0018397626860475417 0 0.015434267995815302 -0.0017836368279716542 0 0.014565195634615915 -0.0015295409457600192 0 0.015434267995815302 -0.0017836368279716542 0 0.014530236437366716 -0.0014693310258270561 0 0.015563602476801367 -0.0018397626860475417 0 0.015434267995815302 -0.0017836368279716542 0 0.014530236437366716 -0.0014693310258270561 0 0.015563602476801367 -0.0018397626860475417 0 0.014530236437366716 -0.0014693310258270561 0 0.014315743009171935 -0.0013665192286126816 0 0.013771659350556931 -0.0013146827672818814 0 0.014530236437366716 -0.0014693310258270561 0 0.014315743009171935 -0.0013665192286126816 0 0.015563602476801367 -0.0018397626860475417 0 0.014315743009171935 -0.0013665192286126816 0 0.015882840883896104 -0.0012139702207312265 0 0.014315743009171935 -0.0013665192286126816 0 0.013374920837485066 -0.00099798712348997203 0 0.015882840883896104 -0.0012139702207312265 0 0.013771659350556931 -0.0013146827672818814 0 0.014315743009171935 -0.0013665192286126816 0 0.013374920837485066 -0.00099798712348997203 0 0.013114568117549793 -0.0013465362751206281 0 0.013374920837485066 -0.00099798712348997203 0 0.012348703503558413 -0.0013388468101920624 0 0.013114568117549793 -0.0013465362751206281 0 0.013771659350556931 -0.0013146827672818814 0 0.013374920837485066 -0.00099798712348997203 0 0.012348703503558413 -0.0013388468101920624 0 0.011352857297333941 -0.0014722001784000134 0 0.012511742547016308 -0.0014489743660925647 0 0.011352857297333941 -0.0014722001784000134 0 0.012511742547016308 -0.0014489743660925647 0 0.012158002321910113 -0.0014485659387372175 0 0.013114568117549793 -0.0013465362751206281 0 0.012348703503558413 -0.0013388468101920624 0 0.012511742547016308 -0.0014489743660925647 0 0.012511742547016308 -0.0014489743660925647 0 0.012055127036765379 -0.0016380222879332847 0 0.011662005518225464 -0.0014037952929984287 0 0.013114568117549793 -0.0013465362751206281 0 0.012511742547016308 -0.0014489743660925647 0 0.012055127036765379 -0.0016380222879332847 0 0.013186106220835811 -0.0014192588481862656 0 0.013114568117549793 -0.0013465362751206281 0 0.012055127036765379 -0.0016380222879332847 0 0.013022526968721262 -0.0014190657432021565 0 0.012445741698809711 -0.0014629147709009555 0 0.010688223179542412 -0.0013993714599386507 0 0.012055127036765379 -0.0016380222879332847 0 0.011662005518225464 -0.0014037952929984287 0 0.012511742547016308 -0.0014489743660925647 0 0.011662005518225464 -0.0014037952929984287 0 0.012158002321910113 -0.0014485659387372175 0 0.010688223179542412 -0.0013993714599386507 0 0.011662005518225464 -0.0014037952929984287 0 0.010434958403881471 -0.00083919469969136434 0 0.010434958403881471 -0.00083919469969136434 0 0.011491140187580283 -0.00061116623521417508 0 0.0090743612902572102 -7.7692970676856033e-05 0 0.011662005518225464 -0.0014037952929984287 0 0.010434958403881471 -0.00083919469969136434 0 0.011491140187580283 -0.00061116623521417508 0 0.0099462840657140277 -0.00059928948690777899 0 0.010650194974859931 -0.0011962352020725557 0 0.011662005518225464 -0.0014037952929984287 0 0.011491140187580283 -0.00061116623521417508 0 0.012158002321910113 -0.0014485659387372175 0 0.0083976557986082129 -0.00050473335055873563 0 0.0091692709728767169 -0.0010724463335300017 0 0.0084137658157875869 -0.00040907508039741123 0 0.010176331880127218 -0.00090881723476575786 0 0.0099862362440667294 -0.00057324097013299177 0 0.0089062938991159649 -0.00044106149116031855 0 0.010176331880127218 -0.00090881723476575786 0 0.0091692709728767169 -0.0010724463335300017 0 0.0089062938991159649 -0.00044106149116031855 0 0.011230457849178291 -0.0014489170601559578 0 0.010650194974859931 -0.0011962352020725557 0 0.011352857297333941 -0.0014722001784000134 0 0.010176331880127218 -0.00090881723476575786 0 0.0091692709728767169 -0.0010724463335300017 0 0.010987684620009161 -0.0010824889239222711 0 0.011355643672018441 -0.000650463233453568 0 0.0099862362440667294 -0.00057324097013299177 0 0.011352857297333941 -0.0014722001784000134 0 0.010176331880127218 -0.00090881723476575786 0 0.010987684620009161 -0.0010824889239222711 0 0.010176331880127218 -0.00090881723476575786 0 0.010987684620009161 -0.0010824889239222711 0 0.0099862362440667294 -0.00057324097013299177 0 0.011355643672018441 -0.000650463233453568 0 0.011649349180515021 -0.00045470983624387664 0 0.011241743921208549 -0.00021835784552140934 0 0.011355643672018441 -0.000650463233453568 0 0.011598163057829215 -0.0011239448643059124 0 0.011991900913872217 -0.00098510233777621722 0 0.011355643672018441 -0.000650463233453568 0 0.011991900913872217 -0.00098510233777621722 0 0.011649349180515021 -0.00045470983624387664 0 0.010987684620009161 -0.0010824889239222711 0 0.011355643672018441 -0.000650463233453568 0 0.011598163057829215 -0.0011239448643059124 0 0.011598163057829215 -0.0011239448643059124 0 0.011929527010138949 -0.0012581524884425531 0 0.011496422152261064 -0.0013407324389504954 0 0.011598163057829215 -0.0011239448643059124 0 0.011929527010138949 -0.0012581524884425531 0 0.011991900913872217 -0.00098510233777621722 0 0.011929527010138949 -0.0012581524884425531 0 0.012401630865819425 -0.0013001066582458555 0 0.011991900913872217 -0.00098510233777621722 0 0.011929527010138949 -0.0012581524884425531 0 0.011496422152261064 -0.0013407324389504954 0 0.011924466405004655 -0.0012870485443861671 0 0.010987684620009161 -0.0010824889239222711 0 0.011598163057829215 -0.0011239448643059124 0 0.011496422152261064 -0.0013407324389504954 0 0.011352857297333941 -0.0014722001784000134 0 0.010987684620009161 -0.0010824889239222711 0 0.011496422152261064 -0.0013407324389504954 0 0.012348703503558413 -0.0013388468101920624 0 0.011352857297333941 -0.0014722001784000134 0 0.011496422152261064 -0.0013407324389504954 0 0.012348703503558413 -0.0013388468101920624 0 0.011496422152261064 -0.0013407324389504954 0 0.011924466405004655 -0.0012870485443861671 0 0.013374920837485066 -0.00099798712348997203 0 0.011924466405004655 -0.0012870485443861671 0 0.012122537869616487 -0.0010612783830813149 0 0.013374920837485066 -0.00099798712348997203 0 0.012348703503558413 -0.0013388468101920624 0 0.011924466405004655 -0.0012870485443861671 0 0.011924466405004655 -0.0012870485443861671 0 0.012122537869616487 -0.0010612783830813149 0 0.012228068302382001 -0.0013057277004829635 0 0.013501522187716294 -0.0010230030904832441 0 0.014022822993347598 -0.0012012525290121042 0 0.015563602476801367 -0.0018397626860475417 0 0.015882840883896104 -0.0012139702207312265 0 0.016421649724041951 -0.0019319999462262508 0 0.014022822993347598 -0.0012012525290121042 0 0.01458043538385608 -0.0018430571172148537 0 0.015882840883896104 -0.0012139702207312265 0 0.016421649724041951 -0.0019319999462262508 0 0.016943402445701382 -0.0019868563295521451 0 0.016575196137341434 -0.0022029655094990158 0 0.016946961147338943 -0.0023410782940616421 0 0.016421649724041951 -0.0019319999462262508 0 0.016946961147338943 -0.0023410782940616421 0 0.016421649724041951 -0.0019319999462262508 0 0.016943402445701382 -0.0019868563295521451 0 0.016575196137341434 -0.0022029655094990158 0 0.015563602476801367 -0.0018397626860475417 0 0.016421649724041951 -0.0019319999462262508 0 0.014911427913277825 -0.002543760184064867 0 0.01458043538385608 -0.0018430571172148537 0 0.016953292859997977 -0.0024337470042256376 0 0.016734300656949756 -0.0027258929648398614 0 0.016943402445701382 -0.0019868563295521451 0 0.016953292859997977 -0.0024337470042256376 0 0.016946961147338943 -0.0023410782940616421 0 0.016943402445701382 -0.0019868563295521451 0 0.012239331011384465 -0.0016871108114786149 0 0.012803390644159579 -0.0016630037752317789 0 0.012228068302382001 -0.0013057277004829635 0 0.013177140709732861 -0.002471569648826688 0 0.012239331011384465 -0.0016871108114786149 0 0.012803390644159579 -0.0016630037752317789 0 0.012803390644159579 -0.0016630037752317789 0 0.012228068302382001 -0.0013057277004829635 0 0.013186316014167539 -0.0013531634778298691 0 0.012122537869616487 -0.0010612783830813149 0 0.012239331011384465 -0.0016871108114786149 0 0.012228068302382001 -0.0013057277004829635 0 0.011929527010138949 -0.0012581524884425531 0 0.011924466405004655 -0.0012870485443861671 0 0.012228068302382001 -0.0013057277004829635 0 0.012228068302382001 -0.0013057277004829635 0 0.013186316014167539 -0.0013531634778298691 0 0.012401630865819425 -0.0013001066582458555 0 0.011929527010138949 -0.0012581524884425531 0 0.012228068302382001 -0.0013057277004829635 0 0.012401630865819425 -0.0013001066582458555 0 0.013047099676348452 -0.0016560775067241528 0 0.012491321917663563 -0.0013103183813210004 0 0.013145506669360846 -0.001603272622817747 0 0.012899472239752876 -0.0018982322344813856 0 0.012401630865819425 -0.0013001066582458555 0 0.013145506669360846 -0.001603272622817747 0 0.012899472239752876 -0.0018982322344813856 0 0.013727147948198164 -0.0020415839825671683 0 0.012803390644159579 -0.0016630037752317789 0 0.013186316014167539 -0.0013531634778298691 0 0.01432200240571945 -0.0021732163226971806 0 0.012899472239752876 -0.0018982322344813856 0 0.013491344756975681 -0.002428518832052196 0 0.013727147948198164 -0.0020415839825671683 0 0.013047099676348452 -0.0016560775067241528 0 0.013927877325053207 -0.0022850315307160842 0 0.014665433169812222 -0.0027005772674218564 0 0.013927877325053207 -0.0022850315307160842 0 0.014805942807844124 -0.0027398761983168439 0 0.013491344756975681 -0.002428518832052196 0 0.014234715601052921 -0.0026323738606763656 0 0.014914714207092073 -0.0027480338151300104 0 0.013177140709732861 -0.002471569648826688 0 0.01432200240571945 -0.0021732163226971806 0 0.013177140709732861 -0.002471569648826688 0 0.012803390644159579 -0.0016630037752317789 0 0.01432200240571945 -0.0021732163226971806 0 0.014159666116828942 -0.0025081802929391157 0 0.014286680162123104 -0.0025729226550613229 0 0.014579409865223665 -0.0024254824993748176 0 0.014286680162123104 -0.0025729226550613229 0 0.014382423523227715 -0.0025793953497405815 0 0.014353613694444295 -0.0025940190565728201 0 0.014286680162123104 -0.0025729226550613229 0 0.014382423523227715 -0.0025793953497405815 0 0.014579409865223665 -0.0024254824993748176 0 0.014345113092287327 -0.0025932142532921277 0 0.014339672610807588 -0.0026028301887237736 0 0.014353613694444295 -0.0025940190565728201 0 0.014286680162123104 -0.0025729226550613229 0 0.014353613694444295 -0.0025940190565728201 0 0.014318282314099462 -0.0026123261031651031 0 0.014339672610807588 -0.0026028301887237736 0 0.014353613694444295 -0.0025940190565728201 0 0.014318282314099462 -0.0026123261031651031 0 0.014285705949049595 -0.0026291324458849246 0 0.014159666116828942 -0.0025081802929391157 0 0.014249382859588433 -0.0026324268023648046 0 0.014285705949049595 -0.0026291324458849246 0 0.014286680162123104 -0.0025729226550613229 0 0.014318282314099462 -0.0026123261031651031 0 0.014285705949049595 -0.0026291324458849246 0 0.014159666116828942 -0.0025081802929391157 0 0.014286680162123104 -0.0025729226550613229 0 0.014249382859588433 -0.0026324268023648046 0 0.014234715601052921 -0.0026323738606763656 0 0.0140158939873621 -0.0024929466360227846 0 0.013491344756975681 -0.002428518832052196 0 0.014234715601052921 -0.0026323738606763656 0 0.0140158939873621 -0.0024929466360227846 0 0.014159666116828942 -0.0025081802929391157 0 0.014249382859588433 -0.0026324268023648046 0 0.0140158939873621 -0.0024929466360227846 0 0.014159666116828942 -0.0025081802929391157 0 0.0140158939873621 -0.0024929466360227846 0 0.013727147948198164 -0.0020415839825671683 0 0.013491344756975681 -0.002428518832052196 0 0.0140158939873621 -0.0024929466360227846 0 0.013727147948198164 -0.0020415839825671683 0 0.013794896650298502 -0.002009211530509307 0 0.013984391492347563 -0.0023303000986335041 0 0.014159666116828942 -0.0025081802929391157 0 0.013727147948198164 -0.0020415839825671683 0 0.014579409865223665 -0.0024254824993748176 0 0.013727147948198164 -0.0020415839825671683 0 0.013650337739018843 -0.0019572964662280807 0 0.013639213856754435 -0.001937446382440298 0 0.013727147948198164 -0.0020415839825671683 0 0.013522111414525652 -0.0017581615439151658 0 0.013639213856754435 -0.001937446382440298 0 0.013145506669360846 -0.001603272622817747 0 0.013727147948198164 -0.0020415839825671683 0 0.013522111414525652 -0.0017581615439151658 0 0.013145506669360846 -0.001603272622817747 0 0.013522111414525652 -0.0017581615439151658 0 0.013332582498856702 -0.0012302983960332395 0 0.012887002509390573 -0.0012301726152088965 0 0.013420239538770961 -0.0015815371643196068 0 0.012447367086125417 -0.0012609963901990967 0 0.013483044981056251 -0.0016088427293358719 0 0.013255239738255362 -0.001106962553058613 0 0.013522111414525652 -0.0017581615439151658 0 0.013332582498856702 -0.0012302983960332395 0 0.013483044981056251 -0.0016088427293358719 0 0.012447367086125417 -0.0012609963901990967 0 0.01270830644670682 -0.00029516892202102133 0 0.013255239738255362 -0.001106962553058613 0 0.012887002509390573 -0.0012301726152088965 0 0.01219718749502176 -0.00072988061832320137 0 0.012447367086125417 -0.0012609963901990967 0 0.011677304163024291 -0.00064073541545327847 0 0.012081178328437945 -0.00056872338720176147 0 0.013332582498856702 -0.0012302983960332395 0 0.012767024479623417 -0.0012228300659818518 0 0.012710668967353326 -0.00077445342778551484 0 0.013145506669360846 -0.001603272622817747 0 0.013332582498856702 -0.0012302983960332395 0 0.012767024479623417 -0.0012228300659818518 0 0.013145506669360846 -0.001603272622817747 0 0.012767024479623417 -0.0012228300659818518 0 0.012401630865819425 -0.0013001066582458555 0 0.012767024479623417 -0.0012228300659818518 0 0.012401630865819425 -0.0013001066582458555 0 0.011991900913872217 -0.00098510233777621722 0 0.012767024479623417 -0.0012228300659818518 0 0.011991900913872217 -0.00098510233777621722 0 0.012710668967353326 -0.00077445342778551484 0 0.01219718749502176 -0.00072988061832320137 0 0.011711697329335378 -0.00046839256366707974 0 0.011991900913872217 -0.00098510233777621722 0 0.012710668967353326 -0.00077445342778551484 0 0.011649349180515021 -0.00045470983624387664 0 0.011677304163024291 -0.00064073541545327847 0 0.011649349180515021 -0.00045470983624387664 0 0.01157862924634227 -0.00024812676821415135 0 0.011649349180515021 -0.00045470983624387664 0 0.01157862924634227 -0.00024812676821415135 0 0.011376428786650686 -0.00024247768803666169 0 0.0116531103030348 -0.0002435646418595728 0 0.012331730308170672 -0.00042034015720629426 0 0.01157862924634227 -0.00024812676821415135 0 0.01270830644670682 -0.00029516892202102133 0 0.012081178328437945 -0.00056872338720176147 0 0.01157862924634227 -0.00024812676821415135 0 0.011952868781032881 -0.00050655970363183732 0 0.011703703221443729 -0.00020939941927606187 0 0.01195041973730171 -0.00020060254262048809 0 0.011952868781032881 -0.00050655970363183732 0 0.011703703221443729 -0.00020939941927606187 0 0.01195041973730171 -0.00020060254262048809 0 0.011952868781032881 -0.00050655970363183732 0 0.012186783061039591 -0.00014483750787085256 0 0.012447367086125417 -0.0012609963901990967 0 0.01270830644670682 -0.00029516892202102133 0 0.012081178328437945 -0.00056872338720176147 0 0.011677304163024291 -0.00064073541545327847 0 0.01157862924634227 -0.00024812676821415135 0 0.012081178328437945 -0.00056872338720176147 0 0.0113250746136402 -0.00014331067255801675 0 0.01141392959056179 -0.00013334530053073289 0 0.011215509620668439 -0.00014847350570470171 0 0.01141392959056179 -0.00013334530053073289 0 0.011083243004843597 -0.00018538952204373492 0 0.011215509620668439 -0.00014847350570470171 0 0.011301044991180609 -0.00011658083995045325 0 0.0113250746136402 -0.00014331067255801675 0 0.011215509620668439 -0.00014847350570470171 0 0.011301044991180609 -0.00011658083995045325 0 0.011311457617736168 -0.00012729595376787458 0 0.011335499546200029 -7.8738293435121136e-05 0 0.011311457617736168 -0.00012729595376787458 0 0.0113250746136402 -0.00014331067255801675 0 0.01130635469384866 -0.00011824501643933583 0 0.011301044991180609 -0.00011658083995045325 0 0.011311457617736168 -0.00012729595376787458 0 0.0113250746136402 -0.00014331067255801675 0 0.011959819978577833 6.7533324467108067e-05 0 0.01141392959056179 -0.00013334530053073289 0 0.011703703221443729 -0.00020939941927606187 0 0.0113250746136402 -0.00014331067255801675 0 0.01130635469384866 -0.00011824501643933583 0 0.01141392959056179 -0.00013334530053073289 0 0.011665687645643621 -4.1056177901209519e-05 0 0.011453386981253767 -9.6230237712967967e-05 0 0.01195041973730171 -0.00020060254262048809 0 0.011959819978577833 6.7533324467108067e-05 0 0.012186783061039591 -0.00014483750787085256 0 0.01195041973730171 -0.00020060254262048809 0 0.011959819978577833 6.7533324467108067e-05 0 0.011703703221443729 -0.00020939941927606187 0 0.01157862924634227 -0.00024812676821415135 0 0.01141392959056179 -0.00013334530053073289 0 0.011703703221443729 -0.00020939941927606187 0 0.01157862924634227 -0.00024812676821415135 0 0.01141392959056179 -0.00013334530053073289 0 0.011376428786650686 -0.00024247768803666169 0 0.011649349180515021 -0.00045470983624387664 0 0.011376428786650686 -0.00024247768803666169 0 0.011205949488957393 -0.00022728319573809389 0 0.011649349180515021 -0.00045470983624387664 0 0.011205949488957393 -0.00022728319573809389 0 0.011241743921208549 -0.00021835784552140934 0 0.011205949488957393 -0.00022728319573809389 0 0.010799731661266099 -0.000159580293237998 0 0.011241743921208549 -0.00021835784552140934 0 0.011205949488957393 -0.00022728319573809389 0 0.011083243004843597 -0.00018538952204373492 0 0.010799731661266099 -0.000159580293237998 0 0.01141392959056179 -0.00013334530053073289 0 0.011376428786650686 -0.00024247768803666169 0 0.011083243004843597 -0.00018538952204373492 0 0.011376428786650686 -0.00024247768803666169 0 0.011205949488957393 -0.00022728319573809389 0 0.011083243004843597 -0.00018538952204373492 0 0.011083243004843597 -0.00018538952204373492 0 0.010638957208889552 -0.00011634660734156886 0 0.011215509620668439 -0.00014847350570470171 0 0.011083243004843597 -0.00018538952204373492 0 0.010638957208889552 -0.00011634660734156886 0 0.010799731661266099 -0.000159580293237998 0 0.010638957208889552 -0.00011634660734156886 0 0.010799731661266099 -0.000159580293237998 0 0.010176674631986715 -0.00029036538015628406 0 0.010176674631986715 -0.00029036538015628406 0 0.010285152959991469 0.00010750677899605832 0 0.0097648734324834539 9.3168764824961935e-05 0 0.010638957208889552 -0.00011634660734156886 0 0.010176674631986715 -0.00029036538015628406 0 0.010285152959991469 0.00010750677899605832 0 0.010639237447729294 -7.2449542238727928e-05 0 0.01059326542099647 8.8501068267242443e-05 0 0.010638957208889552 -0.00011634660734156886 0 0.010201387071297009 0.00018459558057279957 0 0.010285152959991469 0.00010750677899605832 0 0.011186357674044122 0.00011362410705869201 0 0.011215509620668439 -0.00014847350570470171 0 0.01129646462083826 -1.2237869996107077e-05 0 0.010638957208889552 -0.00011634660734156886 0 0.011186357674044122 0.00011362410705869201 0 0.011215509620668439 -0.00014847350570470171 0 0.011301044991180609 -0.00011658083995045325 0 0.01129646462083826 -1.2237869996107077e-05 0 0.011335499546200029 -7.8738293435121136e-05 0 0.011301044991180609 -0.00011658083995045325 0 0.011215509620668439 -0.00014847350570470171 0 0.01129646462083826 -1.2237869996107077e-05 0 0.01059326542099647 8.8501068267242443e-05 0 0.011145017018232692 0.00028183585163222392 0 0.011186357674044122 0.00011362410705869201 0 0.01129646462083826 -1.2237869996107077e-05 0 0.011322536429359084 0.00012159829139541329 0 0.010201387071297009 0.00018459558057279957 0 0.010105580894846412 0.00029094982924021939 0 0.010129283983307893 0.00029454956126789551 0 0.010105580894846412 0.00029094982924021939 0 0.01007761781213175 0.00033590321528113003 0 0.010129283983307893 0.00029454956126789551 0 0.010105580894846412 0.00029094982924021939 0 0.010143337371065771 0.00036855835184358276 0 0.010285152959991469 0.00010750677899605832 0 0.010201387071297009 0.00018459558057279957 0 0.010105580894846412 0.00029094982924021939 0 0.010285152959991469 0.00010750677899605832 0 0.010105580894846412 0.00029094982924021939 0 0.010143337371065771 0.00036855835184358276 0 0.0098537904876269487 0.0004489822031905004 0 0.010143337371065771 0.00036855835184358276 0 0.0098537904876269487 0.0004489822031905004 0 0.010092279838949343 0.00011537309909539288 0 0.0098537904876269487 0.0004489822031905004 0 0.010092279838949343 0.00011537309909539288 0 0.0085106527510245399 0.0005097223201852403 0 0.010105580894846412 0.00029094982924021939 0 0.0098537904876269487 0.0004489822031905004 0 0.01007761781213175 0.00033590321528113003 0 0.0096969234303243296 0.00045899191553139024 0 0.0095304587599995116 0.0004689914096550765 0 0.0098537904876269487 0.0004489822031905004 0 0.01007761781213175 0.00033590321528113003 0 0.010120304916137321 0.0004354283003482567 0 0.0064939147575346469 -0.00025577272147814207 0 0.0070204512145950158 -4.8291715200219939e-05 0 0.0080445311375163704 -0.00021318586969598739 0 0.00831041227204634 -3.5492593318957406e-05 0 0.0081054493859742498 -0.00018909914384187502 0 0.010092279838949343 0.00011537309909539288 0 0.0080445311375163704 -0.00021318586969598739 0 0.0082264724037130477 0.00012622228645389885 0 0.010092279838949343 0.00011537309909539288 0 0.0085106527510245399 0.0005097223201852403 0 0.0082264724037130477 0.00012622228645389885 0 0.0064939147575346469 -0.00025577272147814207 0 0.0065058631036889851 -0.00019600815268664912 0 0.006820015785965877 -9.7226455349889394e-05 0 0.0065058631036889851 -0.00019600815268664912 0 0.0063435726693517221 -0.00018226361006678547 0 0.006820015785965877 -9.7226455349889394e-05 0 0.0064939147575346469 -0.00025577272147814207 0 0.0065058631036889851 -0.00019600815268664912 0 0.0070204512145950158 -4.8291715200219939e-05 0 0.0065058631036889851 -0.00019600815268664912 0 0.0063435726693517221 -0.00018226361006678547 0 0.0070204512145950158 -4.8291715200219939e-05 0 0.0063435726693517221 -0.00018226361006678547 0 0.0068800995991833563 0.00062883281195573503 0 0.0070204512145950158 -4.8291715200219939e-05 0 0.0063435726693517221 -0.00018226361006678547 0 0.0068800995991833563 0.00062883281195573503 0 0.0059875298423554754 0.00087820387393329567 0 0.0068800995991833563 0.00062883281195573503 0 0.0076218378453362847 0.00042479621861158187 0 0.0070204512145950158 -4.8291715200219939e-05 0 0.0076218378453362847 0.00042479621861158187 0 0.0070204512145950158 -4.8291715200219939e-05 0 0.0080445311375163704 -0.00021318586969598739 0 0.0072515499665679146 -0.0002277277396895226 0 0.0078036123132508538 -0.00012265718498516361 0 0.0076767259748185103 -0.00036813174498835096 0 0.0072515499665679146 -0.0002277277396895226 0 0.0076767259748185103 -0.00036813174498835096 0 0.0071620544623605909 -0.00059182869116882082 0 0.0063435726693517221 -0.00018226361006678547 0 0.0039510603565793027 0.001149889479459518 0 0.0059875298423554754 0.00087820387393329567 0 0.0063435726693517221 -0.00018226361006678547 0 0.0072515499665679146 -0.0002277277396895226 0 0.0071620544623605909 -0.00059182869116882082 0 0.0060916942790928573 -7.0813386661535202e-05 0 0.0059595229763821861 0.00023537448478197978 0 0.0072515499665679146 -0.0002277277396895226 0 0.006820015785965877 -9.7226455349889394e-05 0 0.0073010888650356428 0.00029076916763280376 0 0.0063435726693517221 -0.00018226361006678547 0 0.0072515499665679146 -0.0002277277396895226 0 0.006820015785965877 -9.7226455349889394e-05 0 0.0064939147575346469 -0.00025577272147814207 0 0.006820015785965877 -9.7226455349889394e-05 0 0.0073010888650356428 0.00029076916763280376 0 0.0072515499665679146 -0.0002277277396895226 0 0.0073010888650356428 0.00029076916763280376 0 0.0078036123132508538 -0.00012265718498516361 0 0.0086766746587680441 0.00036672377666482182 0 0.0085518112107380705 0.00023947661303213875 0 0.00831041227204634 -3.5492593318957406e-05 0 0.0086766746587680441 0.00036672377666482182 0 0.010143337371065771 0.00036855835184358276 0 0.010092279838949343 0.00011537309909539288 0 0.010114158864746882 0.00055662681954540014 0 0.010143337371065771 0.00036855835184358276 0 0.010114158864746882 0.00055662681954540014 0 0.010285152959991469 0.00010750677899605832 0 0.010114158864746882 0.00055662681954540014 0 0.0097648734324834539 9.3168764824961935e-05 0 0.0085854609945582062 0.00021902934078252308 0 0.010114158864746882 0.00055662681954540014 0 0.010285152959991469 0.00010750677899605832 0 0.0097648734324834539 9.3168764824961935e-05 0 0.0097648734324834539 9.3168764824961935e-05 0 0.0085854609945582062 0.00021902934078252308 0 0.0088862799769084434 -0.00031309531916238348 0 0.0085854609945582062 0.00021902934078252308 0 0.0083797512956316992 -0.00023293355710780447 0 0.0088862799769084434 -0.00031309531916238348 0 0.0085854609945582062 0.00021902934078252308 0 0.0080550994984382746 -0.00015213658256758598 0 0.0083797512956316992 -0.00023293355710780447 0 0.0085854609945582062 0.00021902934078252308 0 0.008081145111782078 -6.8292999068419807e-05 0 0.0080550994984382746 -0.00015213658256758598 0 0.0085854609945582062 0.00021902934078252308 0 0.0078036123132508538 -0.00012265718498516361 0 0.008081145111782078 -6.8292999068419807e-05 0 0.0073010888650356428 0.00029076916763280376 0 0.0085854609945582062 0.00021902934078252308 0 0.0078036123132508538 -0.00012265718498516361 0 0.008081145111782078 -6.8292999068419807e-05 0 0.0079098338210858016 -0.00017947719346586571 0 0.0078984255595610769 -0.00011641561247333088 0 0.0078036123132508538 -0.00012265718498516361 0 0.008081145111782078 -6.8292999068419807e-05 0 0.0079098338210858016 -0.00017947719346586571 0 0.0079098338210858016 -0.00017947719346586571 0 0.0077722123412064543 -0.0002466317185124741 0 0.0076767259748185103 -0.00036813174498835096 0 0.0078036123132508538 -0.00012265718498516361 0 0.0079098338210858016 -0.00017947719346586571 0 0.0076767259748185103 -0.00036813174498835096 0 0.0075150571465816282 -0.00016512871990845694 0 0.0069774761478340018 4.8953379744943522e-05 0 0.0072346500607418374 0.00081415502962924773 0 0.0077889119307616769 2.9610397542554275e-05 0 0.0063051338308279413 9.6365250285210678e-05 0 0.0075150571465816282 -0.00016512871990845694 0 0.0077935977608174145 9.6034038362046269e-05 0 0.0075090923197409249 0.00027136845452407102 0 0.0078984255595610769 -0.00011641561247333088 0 0.0075150571465816282 -0.00016512871990845694 0 0.0077935977608174145 9.6034038362046269e-05 0 0.0077980467867922601 -0.00011320252539093573 0 0.0078821794594036414 -0.00013693621051699359 0 0.0079098338210858016 -0.00017947719346586571 0 0.0077722123412064543 -0.0002466317185124741 0 0.0075892832461942738 -0.00019269470029457334 0 0.0079098338210858016 -0.00017947719346586571 0 0.0078984255595610769 -0.00011641561247333088 0 0.0077935977608174145 9.6034038362046269e-05 0 0.0078984255595610769 -0.00011641561247333088 0 0.0075150571465816282 -0.00016512871990845694 0 0.0080550994984382746 -0.00015213658256758598 0 0.008081145111782078 -6.8292999068419807e-05 0 0.0078984255595610769 -0.00011641561247333088 0 0.0080550994984382746 -0.00015213658256758598 0 0.0075150571465816282 -0.00016512871990845694 0 0.0076365950379210694 -0.00034211723146320225 0 0.0071274011529133046 -0.00037061579788267722 0 0.0075150571465816282 -0.00016512871990845694 0 0.0076365950379210694 -0.00034211723146320225 0 0.0080550994984382746 -0.00015213658256758598 0 0.0076365950379210694 -0.00034211723146320225 0 0.0080550994984382746 -0.00015213658256758598 0 0.0079725791654227107 -0.00040455098208620288 0 0.0076365950379210694 -0.00034211723146320225 0 0.0079725791654227107 -0.00040455098208620288 0 0.0073050876985695096 -0.00055116814366208992 0 0.0080550994984382746 -0.00015213658256758598 0 0.0083797512956316992 -0.00023293355710780447 0 0.0079725791654227107 -0.00040455098208620288 0 0.0079725791654227107 -0.00040455098208620288 0 0.0085064423849477173 -0.00062222497222583087 0 0.0079031421982665214 -0.00056841506322534625 0 0.0085064423849477173 -0.00062222497222583087 0 0.0084841150010957177 -0.00055476251382011827 0 0.0079031421982665214 -0.00056841506322534625 0 0.0085064423849477173 -0.00062222497222583087 0 0.0090808963285511565 -0.00059759532144165294 0 0.0084841150010957177 -0.00055476251382011827 0 0.0083797512956316992 -0.00023293355710780447 0 0.0079725791654227107 -0.00040455098208620288 0 0.0085064423849477173 -0.00062222497222583087 0 0.0083797512956316992 -0.00023293355710780447 0 0.0085064423849477173 -0.00062222497222583087 0 0.0088862799769084434 -0.00031309531916238348 0 0.010176674631986715 -0.00029036538015628406 0 0.0097648734324834539 9.3168764824961935e-05 0 0.0088862799769084434 -0.00031309531916238348 0 0.010176674631986715 -0.00029036538015628406 0 0.0088862799769084434 -0.00031309531916238348 0 0.0089169719580038647 -0.00082388709190757599 0 0.010207510396024208 -0.00027892580687932005 0 0.010002293635907399 -0.00044511513502860776 0 0.010799731661266099 -0.000159580293237998 0 0.010176674631986715 -0.00029036538015628406 0 0.011066136904694605 -0.00015284069334067489 0 0.0085064423849477173 -0.00062222497222583087 0 0.0088862799769084434 -0.00031309531916238348 0 0.0089169719580038647 -0.00082388709190757599 0 0.0085064423849477173 -0.00062222497222583087 0 0.0089169719580038647 -0.00082388709190757599 0 0.0088226519068767776 -0.00065681304783387988 0 0.011066136904694605 -0.00015284069334067489 0 0.011241743921208549 -0.00021835784552140934 0 0.010893323459957943 -6.5731318837681596e-05 0 0.010002293635907399 -0.00044511513502860776 0 0.0098673029560005145 -0.00041582183764839431 0 0.010799731661266099 -0.000159580293237998 0 0.011066136904694605 -0.00015284069334067489 0 0.011241743921208549 -0.00021835784552140934 0 0.011355643672018441 -0.000650463233453568 0 0.011241743921208549 -0.00021835784552140934 0 0.010893323459957943 -6.5731318837681596e-05 0 0.0099152915257466005 -0.00056207874997576469 0 0.0098673029560005145 -0.00041582183764839431 0 0.011355643672018441 -0.000650463233453568 0 0.0099862362440667294 -0.00057324097013299177 0 0.010893323459957943 -6.5731318837681596e-05 0 0.0099862362440667294 -0.00057324097013299177 0 0.0090808963285511565 -0.00059759532144165294 0 0.0089062938991159649 -0.00044106149116031855 0 0.0099862362440667294 -0.00057324097013299177 0 0.0090808963285511565 -0.00059759532144165294 0 0.0088226519068767776 -0.00065681304783387988 0 0.0085064423849477173 -0.00062222497222583087 0 0.0090808963285511565 -0.00059759532144165294 0 0.0088226519068767776 -0.00065681304783387988 0 0.0089062938991159649 -0.00044106149116031855 0 0.0084137658157875869 -0.00040907508039741123 0 0.008107210274897185 -0.00043904403130308749 0 0.0089062938991159649 -0.00044106149116031855 0 0.008107210274897185 -0.00043904403130308749 0 0.0080588457276218276 -0.00052898585894328774 0 0.0090808963285511565 -0.00059759532144165294 0 0.0089062938991159649 -0.00044106149116031855 0 0.0084841150010957177 -0.00055476251382011827 0 0.0089062938991159649 -0.00044106149116031855 0 0.0080588457276218276 -0.00052898585894328774 0 0.0084841150010957177 -0.00055476251382011827 0 0.0091692709728767169 -0.0010724463335300017 0 0.0089062938991159649 -0.00044106149116031855 0 0.0084137658157875869 -0.00040907508039741123 0 0.0083976557986082129 -0.00050473335055873563 0 0.0084137658157875869 -0.00040907508039741123 0 0.0082642398636819155 -0.00035054612896635807 0 0.0083976557986082129 -0.00050473335055873563 0 0.0082642398636819155 -0.00035054612896635807 0 0.0090743612902572102 -7.7692970676856033e-05 0 0.0099462840657140277 -0.00059928948690777899 0 0.0092198719382402712 -0.00014683856900036822 0 0.0082642398636819155 -0.00035054612896635807 0 0.0083243204768921331 -0.00021038502930208699 0 0.0090743612902572102 -7.7692970676856033e-05 0 0.0084137658157875869 -0.00040907508039741123 0 0.0082642398636819155 -0.00035054612896635807 0 0.008107210274897185 -0.00043904403130308749 0 0.0082642398636819155 -0.00035054612896635807 0 0.008107210274897185 -0.00043904403130308749 0 0.0076963044466118319 -0.00051562021405043661 0 0.008107210274897185 -0.00043904403130308749 0 0.0076963044466118319 -0.00051562021405043661 0 0.0080588457276218276 -0.00052898585894328774 0 0.0082642398636819155 -0.00035054612896635807 0 0.0076963044466118319 -0.00051562021405043661 0 0.0076024872094759346 -0.00041424860533547417 0 0.0082642398636819155 -0.00035054612896635807 0 0.0076024872094759346 -0.00041424860533547417 0 0.0083243204768921331 -0.00021038502930208699 0 0.0076963044466118319 -0.00051562021405043661 0 0.0076024872094759346 -0.00041424860533547417 0 0.0070951328668428845 -0.00062148118692479954 0 0.0076024872094759346 -0.00041424860533547417 0 0.0070951328668428845 -0.00062148118692479954 0 0.006786893756321505 -0.00055037093666062179 0 0.0076963044466118319 -0.00051562021405043661 0 0.0070951328668428845 -0.00062148118692479954 0 0.007391359828158894 -0.00062269531041459305 0 0.007391359828158894 -0.00062269531041459305 0 0.0080588457276218276 -0.00052898585894328774 0 0.0079031421982665214 -0.00056841506322534625 0 0.0076963044466118319 -0.00051562021405043661 0 0.007391359828158894 -0.00062269531041459305 0 0.0080588457276218276 -0.00052898585894328774 0 0.0080588457276218276 -0.00052898585894328774 0 0.0084841150010957177 -0.00055476251382011827 0 0.0079031421982665214 -0.00056841506322534625 0 0.0079725791654227107 -0.00040455098208620288 0 0.0079031421982665214 -0.00056841506322534625 0 0.0073050876985695096 -0.00055116814366208992 0 0.007391359828158894 -0.00062269531041459305 0 0.0079031421982665214 -0.00056841506322534625 0 0.0073050876985695096 -0.00055116814366208992 0 0.007391359828158894 -0.00062269531041459305 0 0.0073050876985695096 -0.00055116814366208992 0 0.0066233651192465874 -0.00070253083416963694 0 0.0073050876985695096 -0.00055116814366208992 0 0.0066535123573336335 -0.00051817690144395742 0 0.0066233651192465874 -0.00070253083416963694 0 0.0076365950379210694 -0.00034211723146320225 0 0.0073050876985695096 -0.00055116814366208992 0 0.0071274011529133046 -0.00037061579788267722 0 0.0073050876985695096 -0.00055116814366208992 0 0.0071274011529133046 -0.00037061579788267722 0 0.0066535123573336335 -0.00051817690144395742 0 0.0071274011529133046 -0.00037061579788267722 0 0.0065708702092659435 -0.00024842305152914499 0 0.0069774761478340018 4.8953379744943522e-05 0 0.0075150571465816282 -0.00016512871990845694 0 0.0071274011529133046 -0.00037061579788267722 0 0.0069774761478340018 4.8953379744943522e-05 0 0.0071274011529133046 -0.00037061579788267722 0 0.0066535123573336335 -0.00051817690144395742 0 0.0065708702092659435 -0.00024842305152914499 0 0.0066535123573336335 -0.00051817690144395742 0 0.00602583414108769 -0.00040644917581730985 0 0.0060628964575070209 -0.00061444679612489153 0 0.0066535123573336335 -0.00051817690144395742 0 0.00602583414108769 -0.00040644917581730985 0 0.0065708702092659435 -0.00024842305152914499 0 0.0065708702092659435 -0.00024842305152914499 0 0.0058870299040351837 -8.7877045826545465e-05 0 0.0064547926160085801 4.5156416799338884e-05 0 0.00602583414108769 -0.00040644917581730985 0 0.0065708702092659435 -0.00024842305152914499 0 0.0058870299040351837 -8.7877045826545465e-05 0 0.006621854018659723 0.00025851100439382038 0 0.0064547926160085801 4.5156416799338884e-05 0 0.0059178338930527949 0.00032128012731047175 0 0.0058870299040351837 -8.7877045826545465e-05 0 0.0064547926160085801 4.5156416799338884e-05 0 0.0059178338930527949 0.00032128012731047175 0 0.006621854018659723 0.00025851100439382038 0 0.0064547926160085801 4.5156416799338884e-05 0 0.0069774761478340018 4.8953379744943522e-05 0 0.006621854018659723 0.00025851100439382038 0 0.0069774761478340018 4.8953379744943522e-05 0 0.0068529507142929434 0.00053769010899923765 0 0.0065708702092659435 -0.00024842305152914499 0 0.0064547926160085801 4.5156416799338884e-05 0 0.0069774761478340018 4.8953379744943522e-05 0 0.0042688091437404312 -0.00025950201331096252 0 0.0053790844538359802 -0.00053558755635110995 0 0.0046641817475470684 -0.00063271677991239928 0 0.0042688091437404312 -0.00025950201331096252 0 0.0046641817475470684 -0.00063271677991239928 0 0.0033019282183691253 -0.00045153269634786418 0 0.0042688091437404312 -0.00025950201331096252 0 0.0053369479391794702 -0.00024072908421413156 0 0.0048977355794962768 0.00015147734905384411 0 0.0042688091437404312 -0.00025950201331096252 0 0.0053369479391794702 -0.00024072908421413156 0 0.0053790844538359802 -0.00053558755635110995 0 0.0058870299040351837 -8.7877045826545465e-05 0 0.0053369479391794702 -0.00024072908421413156 0 0.0048977355794962768 0.00015147734905384411 0 0.00602583414108769 -0.00040644917581730985 0 0.0058870299040351837 -8.7877045826545465e-05 0 0.0053369479391794702 -0.00024072908421413156 0 0.0053790844538359802 -0.00053558755635110995 0 0.0060628964575070209 -0.00061444679612489153 0 0.0057548613811759623 -0.00079449294798174459 0 0.00602583414108769 -0.00040644917581730985 0 0.0053790844538359802 -0.00053558755635110995 0 0.0060628964575070209 -0.00061444679612489153 0 0.00602583414108769 -0.00040644917581730985 0 0.0053369479391794702 -0.00024072908421413156 0 0.0053790844538359802 -0.00053558755635110995 0 0.0053790844538359802 -0.00053558755635110995 0 0.0046641817475470684 -0.00063271677991239928 0 0.0057548613811759623 -0.00079449294798174459 0 0.0046641817475470684 -0.00063271677991239928 0 0.0057548613811759623 -0.00079449294798174459 0 0.0044189243330972254 -0.00091937414590603501 0 0.0057548613811759623 -0.00079449294798174459 0 0.006337819210758381 -0.00076041689381032337 0 0.0058542321531550208 -0.00086073491663712616 0 0.0057548613811759623 -0.00079449294798174459 0 0.0066233651192465874 -0.00070253083416963694 0 0.006337819210758381 -0.00076041689381032337 0 0.0060628964575070209 -0.00061444679612489153 0 0.0057548613811759623 -0.00079449294798174459 0 0.0066233651192465874 -0.00070253083416963694 0 0.0066535123573336335 -0.00051817690144395742 0 0.0060628964575070209 -0.00061444679612489153 0 0.0066233651192465874 -0.00070253083416963694 0 0.0070951328668428845 -0.00062148118692479954 0 0.007391359828158894 -0.00062269531041459305 0 0.0066233651192465874 -0.00070253083416963694 0 0.0070951328668428845 -0.00062148118692479954 0 0.0066233651192465874 -0.00070253083416963694 0 0.006337819210758381 -0.00076041689381032337 0 0.0070951328668428845 -0.00062148118692479954 0 0.006337819210758381 -0.00076041689381032337 0 0.006786893756321505 -0.00055037093666062179 0 0.006786893756321505 -0.00055037093666062179 0 0.0070035324555213392 -0.00074308511574600077 0 0.0058542321531550208 -0.00086073491663712616 0 0.006337819210758381 -0.00076041689381032337 0 0.006786893756321505 -0.00055037093666062179 0 0.0058542321531550208 -0.00086073491663712616 0 0.0053289868047320874 -0.00057572503984769418 0 0.0046247173975344728 -0.00080217931228519931 0 0.0035976394006780395 -0.00056241013213350222 0 0.0034315039177595054 -0.0007677635312399937 0 0.0044189243330972254 -0.00091937414590603501 0 0.0057548613811759623 -0.00079449294798174459 0 0.0058542321531550208 -0.00086073491663712616 0 0.0044189243330972254 -0.00091937414590603501 0 0.0070035324555213392 -0.00074308511574600077 0 0.0058542321531550208 -0.00086073491663712616 0 0.0044189243330972254 -0.00091937414590603501 0 0.0046641817475470684 -0.00063271677991239928 0 0.0044189243330972254 -0.00091937414590603501 0 0.0033019282183691253 -0.00045153269634786418 0 0.0044189243330972254 -0.00091937414590603501 0 0.0024244620257407429 -0.00055437365993638639 0 0.0033019282183691253 -0.00045153269634786418 0 0.0034315039177595054 -0.0007677635312399937 0 0.0044189243330972254 -0.00091937414590603501 0 0.0024244620257407429 -0.00055437365993638639 0 0.0024244620257407429 -0.00055437365993638639 0 0.0033019282183691253 -0.00045153269634786418 0 0.00121090310650051 -0.00010785213166867057 0 0.0042688091437404312 -0.00025950201331096252 0 0.0033019282183691253 -0.00045153269634786418 0 0.0028507155292171529 -0.00014582145176346981 0 0.00030277420494100217 -4.6635557312077836e-07 0 0.0013480812079906031 -0.00029638453411298064 0 0.00053560775022470268 -0.0001541961914088506 0 0.0024244620257407429 -0.00055437365993638639 0 0.0013480812079906031 -0.00029638453411298064 0 0.00053560775022470268 -0.0001541961914088506 0 0.0034315039177595054 -0.0007677635312399937 0 0.0024244620257407429 -0.00055437365993638639 0 0.0039773642970721166 -0.00066301011724696258 0 0.0025626492207898813 -0.00046305681669086537 0 0.0029358093809081789 -0.00044589874253242787 0 0.0024244620257407429 -0.00055437365993638639 0 0.0013480812079906031 -0.00029638453411298064 0 0.0018863555469352696 -0.00017601538936750126 0 0.00030277420494100217 -4.6635557312077836e-07 0 0.0013480812079906031 -0.00029638453411298064 0 0.0021747896984638734 -1.0105547205961045e-06 0 0.0013480812079906031 -0.00029638453411298064 0 0.0021747896984638734 -1.0105547205961045e-06 0 0.0018863555469352696 -0.00017601538936750126 0 0.0021747896984638734 -1.0105547205961045e-06 0 0.0018863555469352696 -0.00017601538936750126 0 0.0040450436504637418 9.4712563282991666e-07 0 0.0035976394006780395 -0.00056241013213350222 0 0.0034315039177595054 -0.0007677635312399937 0 0.0039773642970721166 -0.00066301011724696258 0 0.0035976394006780395 -0.00056241013213350222 0 0.0039773642970721166 -0.00066301011724696258 0 0.004182971048430904 -0.00027899834444240768 0 0.0035976394006780395 -0.00056241013213350222 0 0.004182971048430904 -0.00027899834444240768 0 0.0047697951489080199 -6.355392933163261e-05 0 0.004182971048430904 -0.00027899834444240768 0 0.004050356081584037 -1.4275553958046097e-06 0 0.0047697951489080199 -6.355392933163261e-05 0 0.0029358093809081789 -0.00044589874253242787 0 0.0040464502616618294 -3.5196625606130948e-07 0 0.0039773642970721166 -0.00066301011724696258 0 0.004182971048430904 -0.00027899834444240768 0 0.004050356081584037 -1.4275553958046097e-06 0 0.004050356081584037 -1.4275553958046097e-06 0 0.005583641297393264 6.5514328746634658e-07 0 0.0047697951489080199 -6.355392933163261e-05 0 0.005583641297393264 6.5514328746634658e-07 0 0.0071223785873820002 -4.5302495211045366e-08 0 0.0071222978141261542 0.0001086428826540183 0 0.005583641297393264 6.5514328746634658e-07 0 0.0047697951489080199 -6.355392933163261e-05 0 0.0071222978141261542 0.0001086428826540183 0 0.0063365691775764928 -0.00012180434508349296 0 0.0069448141719311955 1.7211494082880683e-05 0 0.0082463070653290473 3.9749783899801884e-05 0 0.0079884543817520456 -2.4614760153990102e-07 0 0.0071222978141261542 0.0001086428826540183 0 0.0053289868047320874 -0.00057572503984769418 0 0.0063365691775764928 -0.00012180434508349296 0 0.0070035324555213392 -0.00074308511574600077 0 0.0079884543817520456 -2.4614760153990102e-07 0 0.0076814970392150017 -0.00015906603580496226 0 0.006786893756321505 -0.00055037093666062179 0 0.0070035324555213392 -0.00074308511574600077 0 0.0076814970392150017 -0.00015906603580496226 0 0.0076024872094759346 -0.00041424860533547417 0 0.006786893756321505 -0.00055037093666062179 0 0.0076814970392150017 -0.00015906603580496226 0 0.0076024872094759346 -0.00041424860533547417 0 0.0076814970392150017 -0.00015906603580496226 0 0.0083243204768921331 -0.00021038502930208699 0 0.0082463070653290473 3.9749783899801884e-05 0 0.0076814970392150017 -0.00015906603580496226 0 0.0083243204768921331 -0.00021038502930208699 0 0.0082463070653290473 3.9749783899801884e-05 0 0.0079884543817520456 -2.4614760153990102e-07 0 0.0076814970392150017 -0.00015906603580496226 0 0.0082463070653290473 3.9749783899801884e-05 0 0.0088857770302983915 -1.8272541966901943e-05 0 0.0082090245850050831 -6.0969693099156849e-05 0 0.0082463070653290473 3.9749783899801884e-05 0 0.0088857770302983915 -1.8272541966901943e-05 0 0.0083243204768921331 -0.00021038502930208699 0 0.0088857770302983915 -1.8272541966901943e-05 0 0.0083243204768921331 -0.00021038502930208699 0 0.0090743612902572102 -7.7692970676856033e-05 0 0.0093462159966237034 -0.00052431025960106227 0 0.0088857770302983915 -1.8272541966901943e-05 0 0.0090743612902572102 -7.7692970676856033e-05 0 0.0099288927842162908 -0.00021391939093596095 0 0.010667654340816814 -0.00020259749742123728 0 0.0088857770302983915 -1.8272541966901943e-05 0 0.010019846709894562 -0.00041558195090166518 0 0.009127366258902864 -7.302257988947412e-05 0 0.0099288927842162908 -0.00021391939093596095 0 0.0088857770302983915 -1.8272541966901943e-05 0 0.0088660808443496286 -0.00010441068629477878 0 0.0088660808443496286 -0.00010441068629477878 0 0.0080136909229747404 -6.2808891359273595e-05 0 0.0082090245850050831 -6.0969693099156849e-05 0 0.0086592176170072113 -1.2100887146311082e-07 0 0.0080136909229747404 -6.2808891359273595e-05 0 0.0071223785873820002 -4.5302495211045366e-08 0 0.0095171142877767487 -0.00017149510106599184 0 0.0088660808443496286 -0.00010441068629477878 0 0.0086592176170072113 -1.2100887146311082e-07 0 0.0088660808443496286 -0.00010441068629477878 0 0.0086592176170072113 -1.2100887146311082e-07 0 0.0080136909229747404 -6.2808891359273595e-05 0 0.0080136909229747404 -6.2808891359273595e-05 0 0.0071222978141261542 0.0001086428826540183 0 0.0082090245850050831 -6.0969693099156849e-05 0 0.0080136909229747404 -6.2808891359273595e-05 0 0.0071223785873820002 -4.5302495211045366e-08 0 0.0071222978141261542 0.0001086428826540183 0 0.0082463070653290473 3.9749783899801884e-05 0 0.0071222978141261542 0.0001086428826540183 0 0.0082090245850050831 -6.0969693099156849e-05 0 0.0088857770302983915 -1.8272541966901943e-05 0 0.0088660808443496286 -0.00010441068629477878 0 0.0082090245850050831 -6.0969693099156849e-05 0 0.013253248279223756 -0.00038046995981829893 0 0.013026343434426662 -0.00033859514374715894 0 0.013217164809259338 -0.00061359530181278677 0 0.013253248279223756 -0.00038046995981829893 0 0.01316091016147122 -0.00021461693725769273 0 0.01328822721207947 -0.00020849193269328452 0 0.013253248279223756 -0.00038046995981829893 0 0.01328822721207947 -0.00020849193269328452 0 0.013438982462651735 -0.0002646474569878355 0 0.013253248279223756 -0.00038046995981829893 0 0.013026343434426662 -0.00033859514374715894 0 0.01316091016147122 -0.00021461693725769273 0 0.013026343434426662 -0.00033859514374715894 0 0.01316091016147122 -0.00021461693725769273 0 0.013054753721466547 -0.00018924650160589623 0 0.01316091016147122 -0.00021461693725769273 0 0.013054753721466547 -0.00018924650160589623 0 0.013138806186681312 -0.00010493878372542725 0 0.01316091016147122 -0.00021461693725769273 0 0.013138806186681312 -0.00010493878372542725 0 0.013235742322176803 -9.529969695955212e-05 0 0.013026343434426662 -0.00033859514374715894 0 0.013054753721466547 -0.00018924650160589623 0 0.012833671568387597 -8.4258551430396359e-05 0 0.01306206071071944 -7.9433648342288016e-05 0 0.012974911745770533 -1.828974235388548e-05 0 0.013115023551915038 -3.7131109920324329e-05 0 0.013054753721466547 -0.00018924650160589623 0 0.01300936585569787 -8.9576371334992104e-05 0 0.01306206071071944 -7.9433648342288016e-05 0 0.01300936585569787 -8.9576371334992104e-05 0 0.01306206071071944 -7.9433648342288016e-05 0 0.012974911745770533 -1.828974235388548e-05 0 0.014590457437886433 0.00053247148398728381 0 0.015391997271194528 0.00030460954688819566 0 0.013054753721466547 -0.00018924650160589623 0 0.01306206071071944 -7.9433648342288016e-05 0 0.013138806186681312 -0.00010493878372542725 0 0.012974911745770533 -1.828974235388548e-05 0 0.013115023551915038 -3.7131109920324329e-05 0 0.013177587242406018 4.4309567669653945e-06 0 0.01306206071071944 -7.9433648342288016e-05 0 0.013138806186681312 -0.00010493878372542725 0 0.013115023551915038 -3.7131109920324329e-05 0 0.013115023551915038 -3.7131109920324329e-05 0 0.013184176619004678 -4.5076045101013798e-05 0 0.013177587242406018 4.4309567669653945e-06 0 0.013138806186681312 -0.00010493878372542725 0 0.013115023551915038 -3.7131109920324329e-05 0 0.013184176619004678 -4.5076045101013798e-05 0 0.013184176619004678 -4.5076045101013798e-05 0 0.013239454074329743 -9.8374687816482068e-06 0 0.013177587242406018 4.4309567669653945e-06 0 0.013184176619004678 -4.5076045101013798e-05 0 0.013235742322176803 -9.529969695955212e-05 0 0.013239454074329743 -9.8374687816482068e-06 0 0.013235742322176803 -9.529969695955212e-05 0 0.013302310099288098 -1.0362679181038089e-05 0 0.013239454074329743 -9.8374687816482068e-06 0 0.013138806186681312 -0.00010493878372542725 0 0.013184176619004678 -4.5076045101013798e-05 0 0.013235742322176803 -9.529969695955212e-05 0 0.01316091016147122 -0.00021461693725769273 0 0.013235742322176803 -9.529969695955212e-05 0 0.01328822721207947 -0.00020849193269328452 0 0.01328822721207947 -0.00020849193269328452 0 0.013353641295841805 -8.7852804048850272e-05 0 0.013438982462651735 -0.0002646474569878355 0 0.013235742322176803 -9.529969695955212e-05 0 0.01328822721207947 -0.00020849193269328452 0 0.013353641295841805 -8.7852804048850272e-05 0 0.013235742322176803 -9.529969695955212e-05 0 0.013353641295841805 -8.7852804048850272e-05 0 0.013302310099288098 -1.0362679181038089e-05 0 0.013353641295841805 -8.7852804048850272e-05 0 0.013302310099288098 -1.0362679181038089e-05 0 0.013358613988763219 -1.2168655690650824e-05 0 0.013353641295841805 -8.7852804048850272e-05 0 0.013358613988763219 -1.2168655690650824e-05 0 0.013417967621965524 -5.3876907631598162e-06 0 0.013353641295841805 -8.7852804048850272e-05 0 0.013498776451057723 -0.00010426644518412318 0 0.013417967621965524 -5.3876907631598162e-06 0 0.013498776451057723 -0.00010426644518412318 0 0.013696925294382914 -0.0001608228780107015 0 0.013438982462651735 -0.0002646474569878355 0 0.013498776451057723 -0.00010426644518412318 0 0.013417967621965524 -5.3876907631598162e-06 0 0.013490811519072617 2.758911822618667e-05 0 0.013498776451057723 -0.00010426644518412318 0 0.013595550091728126 1.5059590003796937e-05 0 0.013490811519072617 2.758911822618667e-05 0 0.013498776451057723 -0.00010426644518412318 0 0.013696925294382914 -0.0001608228780107015 0 0.013595550091728126 1.5059590003796937e-05 0 0.013353641295841805 -8.7852804048850272e-05 0 0.013498776451057723 -0.00010426644518412318 0 0.013438982462651735 -0.0002646474569878355 0 0.013696925294382914 -0.0001608228780107015 0 0.013803663054374351 -0.00036646121526407528 0 0.013935913254710001 -8.5221327374599562e-07 0 0.013696925294382914 -0.0001608228780107015 0 0.013595550091728126 1.5059590003796937e-05 0 0.013935913254710001 -8.5221327374599562e-07 0 0.013696925294382914 -0.0001608228780107015 0 0.013803663054374351 -0.00036646121526407528 0 0.013438982462651735 -0.0002646474569878355 0 0.013803663054374351 -0.00036646121526407528 0 0.013438982462651735 -0.0002646474569878355 0 0.013510937862036878 -0.00057308947936607281 0 0.013253248279223756 -0.00038046995981829893 0 0.013438982462651735 -0.0002646474569878355 0 0.013510937862036878 -0.00057308947936607281 0 0.013510937862036878 -0.00057308947936607281 0 0.01381395261003459 -0.00061276204417573738 0 0.013714891678300149 -0.00087001923009567275 0 0.013803663054374351 -0.00036646121526407528 0 0.013510937862036878 -0.00057308947936607281 0 0.01381395261003459 -0.00061276204417573738 0 0.013510937862036878 -0.00057308947936607281 0 0.013416422851190886 -0.00090218206502503751 0 0.013217164809259338 -0.00061359530181278677 0 0.013510937862036878 -0.00057308947936607281 0 0.013714891678300149 -0.00087001923009567275 0 0.013416422851190886 -0.00090218206502503751 0 0.0078993405234586127 -0.0013957870404354784 0 0.0084069361154368548 -0.0014217276510256574 0 0.0083917538332221788 -0.0018774300828735498 0 0.01053148950425664 -0.0010709423531919074 0 0.010847612055440848 -0.0012786512276266159 0 0.013253248279223756 -0.00038046995981829893 0 0.013510937862036878 -0.00057308947936607281 0 0.013217164809259338 -0.00061359530181278677 0 0.0089190907038611579 -0.0024427515223359965 0 0.0083917538332221788 -0.0018774300828735498 0 0.0089524367259829051 -0.001735490735709143 0 0.01082857929581355 -0.0013503442361138158 0 0.010847612055440848 -0.0012786512276266159 0 0.0084069361154368548 -0.0014217276510256574 0 0.0089524367259829051 -0.001735490735709143 0 0.0088231181373785352 -0.0013608351347603137 0 0.0084069361154368548 -0.0014217276510256574 0 0.0083917538332221788 -0.0018774300828735498 0 0.0089524367259829051 -0.001735490735709143 0 0.0089524367259829051 -0.001735490735709143 0 0.0088231181373785352 -0.0013608351347603137 0 0.0092363566078290105 -0.0013106280537587712 0 0.0089524367259829051 -0.001735490735709143 0 0.0092363566078290105 -0.0013106280537587712 0 0.0096719217951073463 -0.0020121043122478593 0 0.0093035392561680291 -0.0011373752622938099 0 0.0096321645965845287 -0.0019773805501669866 0 0.0093447093420146368 -0.00091567006173399242 0 0.0097865675095682361 -0.0011540760825563287 0 0.0094628321053609691 -0.00079008169095021879 0 0.0097036205679780167 -0.0011075483252821964 0 0.0096495959325823416 -0.00089304907302229961 0 0.0094628321053609691 -0.00079008169095021879 0 0.0097865675095682361 -0.0011540760825563287 0 0.010418824386790778 -0.0013331998496294774 0 0.0094628321053609691 -0.00079008169095021879 0 0.0093447093420146368 -0.00091567006173399242 0 0.0097865675095682361 -0.0011540760825563287 0 0.0099545444092286797 -0.0016058826092468885 0 0.0093447093420146368 -0.00091567006173399242 0 0.0099545444092286797 -0.0016058826092468885 0 0.0096719217951073463 -0.0020121043122478593 0 0.0099261371562988105 -0.0012446670877325201 0 0.0095669875388823059 -0.00082600612659549841 0 0.0097865675095682361 -0.0011540760825563287 0 0.0099545444092286797 -0.0016058826092468885 0 0.010418824386790778 -0.0013331998496294774 0 0.0099545444092286797 -0.0016058826092468885 0 0.010387100686119553 -0.0019815982948028351 0 0.010418824386790778 -0.0013331998496294774 0 0.0099545444092286797 -0.0016058826092468885 0 0.010387100686119553 -0.0019815982948028351 0 0.0096719217951073463 -0.0020121043122478593 0 0.0089190907038611579 -0.0024427515223359965 0 0.0089524367259829051 -0.001735490735709143 0 0.0096719217951073463 -0.0020121043122478593 0 0.013989967131575807 -0.00021529325761001646 0 0.01400995438185995 -0.00020187693237141708 0 0.013903269535215344 -0.00019825388440676152 0 0.013989967131575807 -0.00021529325761001646 0 0.01400995438185995 -0.00020187693237141708 0 0.014031988954378545 -0.00017347087788464156 0 0.0099847169313556448 -0.0011444570231287313 0 0.0098767486882003624 -0.00092245897645127609 0 0.0098653732975796556 -0.00082612252333870851 0 0.011976977902575328 -0.00061688254015710266 0 0.010970567370040712 -0.00061495427164684762 0 0.0099847169313556448 -0.0011444570231287313 0 0.0098767486882003624 -0.00092245897645127609 0 0.0097808778193611157 -0.00099911210768980794 0 0.0097808778193611157 -0.00099911210768980794 0 0.0097036205679780167 -0.0011075483252821964 0 0.0096495959325823416 -0.00089304907302229961 0 0.0098767486882003624 -0.00092245897645127609 0 0.0097808778193611157 -0.00099911210768980794 0 0.0097594926693703194 -0.00088854930617403912 0 0.0097808778193611157 -0.00099911210768980794 0 0.0097594926693703194 -0.00088854930617403912 0 0.0096495959325823416 -0.00089304907302229961 0 0.0099847169313556448 -0.0011444570231287313 0 0.0097808778193611157 -0.00099911210768980794 0 0.0097036205679780167 -0.0011075483252821964 0 0.0099847169313556448 -0.0011444570231287313 0 0.0097036205679780167 -0.0011075483252821964 0 0.010091456713525983 -0.0015071433195400126 0 0.0099261371562988105 -0.0012446670877325201 0 0.011618937300142037 -0.001371395140808063 0 0.010387100686119553 -0.0019815982948028351 0 0.010418824386790778 -0.0013331998496294774 0 0.011251290274738729 -0.0020440763984556731 0 0.01400995438185995 -0.00020187693237141708 0 0.014081186611476584 -0.00011501975629974269 0 0.014031988954378545 -0.00017347087788464156 0 0.014032410162376815 -0.00010006935307967699 0 0.014081186611476584 -0.00011501975629974269 0 0.014031988954378545 -0.00017347087788464156 0 0.011976977902575328 -0.00061688254015710266 0 0.011618937300142037 -0.001371395140808063 0 0.011251290274738729 -0.0020440763984556731 0 0.01078680113887079 -0.0024988887770002431 0 0.011492845305261587 -0.0026953321581472196 0 0.012351825921458096 -0.0025113633660412533 0 0.011391450747056237 -0.0014860871268720459 0 0.011607025721442354 -0.0023763147473067786 0 0.013506283504642395 -0.0011802452895164075 0 0.011618937300142037 -0.001371395140808063 0 0.011618937300142037 -0.001371395140808063 0 0.011572334686856898 -0.002613936839130887 0 0.010387100686119553 -0.0019815982948028351 0 0.011251290274738729 -0.0020440763984556731 0 0.01078680113887079 -0.0024988887770002431 0 0.010387100686119553 -0.0019815982948028351 0 0.01078680113887079 -0.0024988887770002431 0 0.010182348268808311 -0.002392336189357613 0 0.01078680113887079 -0.0024988887770002431 0 0.010885710348250891 -0.0029489591555878101 0 0.011492845305261587 -0.0026953321581472196 0 0.01078680113887079 -0.0024988887770002431 0 0.010885710348250891 -0.0029489591555878101 0 0.010292391178033161 -0.0029463344066672902 0 0.010885710348250891 -0.0029489591555878101 0 0.011050814314819524 -0.0033536327183469336 0 0.010601893202248181 -0.0032465419195384635 0 0.010885710348250891 -0.0029489591555878101 0 0.010292391178033161 -0.0029463344066672902 0 0.010601893202248181 -0.0032465419195384635 0 0.010885710348250891 -0.0029489591555878101 0 0.011314771839700054 -0.0030628053525664036 0 0.011050814314819524 -0.0033536327183469336 0 0.011572334686856898 -0.002613936839130887 0 0.011779763556634562 -0.0031931216299927886 0 0.012351825921458096 -0.0025113633660412533 0 0.011607025721442354 -0.0023763147473067786 0 0.0118296909527329 -0.0032736298825363787 0 0.011314771839700054 -0.0030628053525664036 0 0.011492845305261587 -0.0026953321581472196 0 0.0118296909527329 -0.0032736298825363787 0 0.010885710348250891 -0.0029489591555878101 0 0.011314771839700054 -0.0030628053525664036 0 0.011492845305261587 -0.0026953321581472196 0 0.0089190907038611579 -0.0024427515223359965 0 0.0096719217951073463 -0.0020121043122478593 0 0.0097160978568809359 -0.0025818794494061117 0 0.0096719217951073463 -0.0020121043122478593 0 0.0097160978568809359 -0.0025818794494061117 0 0.010182348268808311 -0.002392336189357613 0 0.010387100686119553 -0.0019815982948028351 0 0.0096719217951073463 -0.0020121043122478593 0 0.010182348268808311 -0.002392336189357613 0 0.01078680113887079 -0.0024988887770002431 0 0.010182348268808311 -0.002392336189357613 0 0.010292391178033161 -0.0029463344066672902 0 0.0097160978568809359 -0.0025818794494061117 0 0.010182348268808311 -0.002392336189357613 0 0.010292391178033161 -0.0029463344066672902 0 0.0097160978568809359 -0.0025818794494061117 0 0.010292391178033161 -0.0029463344066672902 0 0.0095673367622041098 -0.0032110780461636211 0 0.010292391178033161 -0.0029463344066672902 0 0.010250591682629717 -0.0034283205092466456 0 0.010601893202248181 -0.0032465419195384635 0 0.010292391178033161 -0.0029463344066672902 0 0.0099047160858511049 -0.0031223783949689285 0 0.010250591682629717 -0.0034283205092466456 0 0.0093835067393614 -0.0032544281675148724 0 0.012169183681627655 -0.0015674150849101284 0 0.01082857929581355 -0.0013503442361138158 0 0.012169183681627655 -0.0015674150849101284 0 0.0089190907038611579 -0.0024427515223359965 0 0.0097160978568809359 -0.0025818794494061117 0 0.0095673367622041098 -0.0032110780461636211 0 0.013054753721466547 -0.00018924650160589623 0 0.01300936585569787 -8.9576371334992104e-05 0 0.012833671568387597 -8.4258551430396359e-05 0 0.01300936585569787 -8.9576371334992104e-05 0 0.012975051842752798 -2.9433917537321655e-05 0 0.012833671568387597 -8.4258551430396359e-05 0 0.015391997271194528 0.00030460954688819566 0 0.012169183681627655 -0.0015674150849101284 0 0.016104222316257612 0.00070462030630424801 0 0.016701661478057586 0.00092285986762039149 0 0.016940569166437144 -0.00062186378991665407 0 0.017694182486399167 0.00087737376691203559 0 0.018372882007485977 -0.00022913863113967545 0 0.017239943509809074 0.00011481453031571323 0 0.015391997271194528 0.00030460954688819566 0 0.017876358572779829 -0.00039544240926871199 0 0.0099047160858511049 -0.0031223783949689285 0 0.010250591682629717 -0.0034283205092466456 0 0.010322220588264463 -0.0036239779837445607 0 0.016701661478057586 0.00092285986762039149 0 0.01751969057165155 -3.1245061219957817e-05 0 0.016940569166437144 -0.00062186378991665407 0 0.012169183681627655 -0.0015674150849101284 0 0.015886279330716801 -0.0010896817193853997 0 0.010250591682629717 -0.0034283205092466456 0 0.010601893202248181 -0.0032465419195384635 0 0.010779680519052603 -0.0036750298757275918 0 0.010250591682629717 -0.0034283205092466456 0 0.010335363434253321 -0.0036966946888745927 0 0.010779680519052603 -0.0036750298757275918 0 0.013943584367363374 -0.0022905869780874403 0 0.015886279330716801 -0.0010896817193853997 0 0.01751969057165155 -3.1245061219957817e-05 0 0.016940569166437144 -0.00062186378991665407 0 0.018081147146261554 -0.001638055034294719 0 0.015886279330716801 -0.0010896817193853997 0 0.02098159284041666 -0.00063405656637296906 0 0.018372882007485977 -0.00022913863113967545 0 0.018095239172020126 -0.0010431685584091192 0 0.01770760251679478 -0.00048156858528645237 0 0.018372882007485977 -0.00022913863113967545 0 0.017239943509809074 0.00011481453031571323 0 0.01770760251679478 -0.00048156858528645237 0 0.011314771839700054 -0.0030628053525664036 0 0.0118296909527329 -0.0032736298825363787 0 0.011050814314819524 -0.0033536327183469336 0 0.0118296909527329 -0.0032736298825363787 0 0.011050814314819524 -0.0033536327183469336 0 0.01142272115148584 -0.0038498323930655884 0 0.011050814314819524 -0.0033536327183469336 0 0.010779680519052603 -0.0036750298757275918 0 0.01142272115148584 -0.0038498323930655884 0 0.011050814314819524 -0.0033536327183469336 0 0.010601893202248181 -0.0032465419195384635 0 0.010779680519052603 -0.0036750298757275918 0 0.010335363434253321 -0.0036966946888745927 0 0.010779680519052603 -0.0036750298757275918 0 0.011067347725699546 -0.0045391520591580581 0 0.021993029905489327 0.001206605691745207 0 0.022627873630672153 -0.00020409048780195739 0 0.022998991195662545 0.00020156869599670805 0 0.015886279330716801 -0.0010896817193853997 0 0.017072916313430667 -0.0021860137160795499 0 0.010779680519052603 -0.0036750298757275918 0 0.01142272115148584 -0.0038498323930655884 0 0.011067347725699546 -0.0045391520591580581 0 0.012424335909875949 -0.0043694233101017532 0 0.0118296909527329 -0.0032736298825363787 0 0.01142272115148584 -0.0038498323930655884 0 0.012424335909875949 -0.0043694233101017532 0 0.01142272115148584 -0.0038498323930655884 0 0.011067347725699546 -0.0045391520591580581 0 0.012424335909875949 -0.0043694233101017532 0 0.011067347725699546 -0.0045391520591580581 0 0.011874518344852668 -0.0054016931668859737 0 0.017072916313430667 -0.0021860137160795499 0 0.017915120446635385 -0.0032248033965625489 0 0.022627873630672153 -0.00020409048780195739 0 0.022998991195662545 0.00020156869599670805 0 0.023894603647450295 -0.00076450397444822744 0 0.01864711309382271 -0.0032290821377542861 0 0.018081147146261554 -0.001638055034294719 0 0.017792521937323374 -0.001931772954672097 0 0.023233156998618564 -0.0014850346872500562 0 0.022627873630672153 -0.00020409048780195739 0 0.023894603647450295 -0.00076450397444822744 0 0.020223389242112755 -0.0024637565993808966 0 0.018254202387148637 -0.0016507141999435777 0 0.019174542079908194 -0.0022066462240216038 0 0.019713905534914426 -0.0024130418387459168 0 0.019050397489218357 -0.0013326769601212569 0 0.020223389242112755 -0.0024637565993808966 0 0.02098159284041666 -0.00063405656637296906 0 0.018372882007485977 -0.00022913863113967545 0 0.018095239172020126 -0.0010431685584091192 0 0.019050397489218357 -0.0013326769601212569 0 0.017876358572779829 -0.00039544240926871199 0 0.018254202387148637 -0.0016507141999435777 0 0.016940569166437144 -0.00062186378991665407 0 0.018081147146261554 -0.001638055034294719 0 0.017792521937323374 -0.001931772954672097 0 0.018095239172020126 -0.0010431685584091192 0 0.019050397489218357 -0.0013326769601212569 0 0.018438204572548179 -0.0016162614293059761 0 0.018691619571935072 -0.0022163980964383118 0 0.019174542079908194 -0.0022066462240216038 0 0.019050397489218357 -0.0013326769601212569 0 0.018691619571935072 -0.0022163980964383118 0 0.019050397489218357 -0.0013326769601212569 0 0.018438204572548179 -0.0016162614293059761 0 0.018691619571935072 -0.0022163980964383118 0 0.018438204572548179 -0.0016162614293059761 0 0.017867902027820372 -0.0019213727386106596 0 0.018095239172020126 -0.0010431685584091192 0 0.018438204572548179 -0.0016162614293059761 0 0.017867902027820372 -0.0019213727386106596 0 0.017676776449330685 -0.0025007501736632261 0 0.01807899061797754 -0.0023218692659803838 0 0.017074160713624331 -0.0019036594539048801 0 0.017633272329460947 -0.0024776604501551194 0 0.017152716693594781 -0.0020320901969019742 0 0.017266314875943902 -0.0025998713354502549 0 0.017676776449330685 -0.0025007501736632261 0 0.017248614717409169 -0.0021800744428034052 0 0.017266314875943902 -0.0025998713354502549 0 0.017248614717409169 -0.0021800744428034052 0 0.016984801485803336 -0.002506424296274999 0 0.017074160713624331 -0.0019036594539048801 0 0.016846994178691562 -0.0010961862841729819 0 0.016443458087373367 -0.0012778106466950171 0 0.017074160713624331 -0.0019036594539048801 0 0.017473964658347892 -0.0013217601829291186 0 0.016846994178691562 -0.0010961862841729819 0 0.017152716693594781 -0.0020320901969019742 0 0.016742834901968335 -0.0016351247952333091 0 0.01807899061797754 -0.0023218692659803838 0 0.017074160713624331 -0.0019036594539048801 0 0.017473964658347892 -0.0013217601829291186 0 0.018095239172020126 -0.0010431685584091192 0 0.017867902027820372 -0.0019213727386106596 0 0.017120768970640538 -0.00076887383223231962 0 0.018095239172020126 -0.0010431685584091192 0 0.017120768970640538 -0.00076887383223231962 0 0.01770760251679478 -0.00048156858528645237 0 0.017950730348532441 -0.0021123521179567529 0 0.017480682205285213 -0.0010703024312702075 0 0.017120768970640538 -0.00076887383223231962 0 0.017239943509809074 0.00011481453031571323 0 0.01770760251679478 -0.00048156858528645237 0 0.017473964658347892 -0.0013217601829291186 0 0.016846994178691562 -0.0010961862841729819 0 0.016821186483827098 -0.00026418505473445531 0 0.017120768970640538 -0.00076887383223231962 0 0.017239943509809074 0.00011481453031571323 0 0.016381277109479436 0.0003942085698930292 0 0.016846994178691562 -0.0010961862841729819 0 0.016821186483827098 -0.00026418505473445531 0 0.016466043726194861 -0.0007819956584948967 0 0.017480682205285213 -0.0010703024312702075 0 0.015412040011144086 -3.8279884478600417e-05 0 0.012974911745770533 -1.828974235388548e-05 0 0.013360626295009394 0.00013334591611712714 0 0.013250050516342026 4.8196033352407625e-05 0 0.013354247967637779 0.00010693746175934827 0 0.013360626295009394 0.00013334591611712714 0 0.013357495096966706 8.263831562651256e-05 0 0.013354247967637779 0.00010693746175934827 0 0.013360626295009394 0.00013334591611712714 0 0.013329379719751117 9.4536136652804487e-05 0 0.013360626295009394 0.00013334591611712714 0 0.013383684552312529 8.2238767127729918e-05 0 0.0134269884915142 8.2741491020714268e-05 0 0.013383684552312529 8.2238767127729918e-05 0 0.013380688247888746 4.6668253483073305e-05 0 0.0134269884915142 8.2741491020714268e-05 0 0.013360626295009394 0.00013334591611712714 0 0.013383684552312529 8.2238767127729918e-05 0 0.013357495096966706 8.263831562651256e-05 0 0.013383684552312529 8.2238767127729918e-05 0 0.013357495096966706 8.263831562651256e-05 0 0.013380688247888746 4.6668253483073305e-05 0 0.013357495096966706 8.263831562651256e-05 0 0.013333100211165995 3.3275282934746103e-05 0 0.013380688247888746 4.6668253483073305e-05 0 0.013360626295009394 0.00013334591611712714 0 0.013329379719751117 9.4536136652804487e-05 0 0.013250050516342026 4.8196033352407625e-05 0 0.013357495096966706 8.263831562651256e-05 0 0.013311869000425493 6.6724555717926571e-05 0 0.013333100211165995 3.3275282934746103e-05 0 0.013354247967637779 0.00010693746175934827 0 0.013357495096966706 8.263831562651256e-05 0 0.013329379719751117 9.4536136652804487e-05 0 0.013357495096966706 8.263831562651256e-05 0 0.013329379719751117 9.4536136652804487e-05 0 0.013311869000425493 6.6724555717926571e-05 0 0.013302310099288098 -1.0362679181038089e-05 0 0.013358613988763219 -1.2168655690650824e-05 0 0.013333100211165995 3.3275282934746103e-05 0 0.013311869000425493 6.6724555717926571e-05 0 0.013333100211165995 3.3275282934746103e-05 0 0.013286567558972156 3.4085689244000764e-05 0 0.013302310099288098 -1.0362679181038089e-05 0 0.013333100211165995 3.3275282934746103e-05 0 0.013286567558972156 3.4085689244000764e-05 0 0.013358613988763219 -1.2168655690650824e-05 0 0.013380688247888746 4.6668253483073305e-05 0 0.013417967621965524 -5.3876907631598162e-06 0 0.013380688247888746 4.6668253483073305e-05 0 0.013417967621965524 -5.3876907631598162e-06 0 0.0134269884915142 8.2741491020714268e-05 0 0.013358613988763219 -1.2168655690650824e-05 0 0.013333100211165995 3.3275282934746103e-05 0 0.013380688247888746 4.6668253483073305e-05 0 0.013311869000425493 6.6724555717926571e-05 0 0.013250050516342026 4.8196033352407625e-05 0 0.013286567558972156 3.4085689244000764e-05 0 0.013329379719751117 9.4536136652804487e-05 0 0.013311869000425493 6.6724555717926571e-05 0 0.013250050516342026 4.8196033352407625e-05 0 0.013302310099288098 -1.0362679181038089e-05 0 0.013286567558972156 3.4085689244000764e-05 0 0.013239454074329743 -9.8374687816482068e-06 0 0.013250050516342026 4.8196033352407625e-05 0 0.013286567558972156 3.4085689244000764e-05 0 0.013239454074329743 -9.8374687816482068e-06 0 0.013250050516342026 4.8196033352407625e-05 0 0.013239454074329743 -9.8374687816482068e-06 0 0.013177587242406018 4.4309567669653945e-06 0 0.012974911745770533 -1.828974235388548e-05 0 0.013250050516342026 4.8196033352407625e-05 0 0.013177587242406018 4.4309567669653945e-06 0 0.015391997271194528 0.00030460954688819566 0 0.015412040011144086 -3.8279884478600417e-05 0 0.017694182486399167 0.00087737376691203559 0 0.017239943509809074 0.00011481453031571323 0 0.016381277109479436 0.0003942085698930292 0 0.016140758861065238 -0.0015774797901490069 0 0.01592434017807938 -0.0016674071967896138 0 0.015744325933859309 -0.0012674912072348791 0 0.013595550091728126 1.5059590003796937e-05 0 0.01369010247026611 0.00024821472188989852 0 0.013935913254710001 -8.5221327374599562e-07 0 0.015278605110288668 -0.00086828008213126699 0 0.014772806002519241 -0.00058438002608481249 0 0.015412040011144086 -3.8279884478600417e-05 0 0.015278605110288668 -0.00086828008213126699 0 0.013595550091728126 1.5059590003796937e-05 0 0.013491061716470951 0.00010742597200616762 0 0.01369010247026611 0.00024821472188989852 0 0.013360626295009394 0.00013334591611712714 0 0.013491061716470951 0.00010742597200616762 0 0.01369010247026611 0.00024821472188989852 0 0.013595550091728126 1.5059590003796937e-05 0 0.013490811519072617 2.758911822618667e-05 0 0.013491061716470951 0.00010742597200616762 0 0.013417967621965524 -5.3876907631598162e-06 0 0.013490811519072617 2.758911822618667e-05 0 0.0134269884915142 8.2741491020714268e-05 0 0.013490811519072617 2.758911822618667e-05 0 0.0134269884915142 8.2741491020714268e-05 0 0.013491061716470951 0.00010742597200616762 0 0.013360626295009394 0.00013334591611712714 0 0.0134269884915142 8.2741491020714268e-05 0 0.013491061716470951 0.00010742597200616762 0 0.016821186483827098 -0.00026418505473445531 0 0.016466043726194861 -0.0007819956584948967 0 0.01582010386213259 -0.00063211375278727957 0 0.016846994178691562 -0.0010961862841729819 0 0.016466043726194861 -0.0007819956584948967 0 0.016443458087373367 -0.0012778106466950171 0 0.015278605110288668 -0.00086828008213126699 0 0.016742834901968335 -0.0016351247952333091 0 0.016466043726194861 -0.0007819956584948967 0 0.01582010386213259 -0.00063211375278727957 0 0.016443458087373367 -0.0012778106466950171 0 0.016375172091198927 -0.0014448753718108826 0 0.016250419367661462 -0.0017966830293273772 0 0.016818391087222408 -0.0018344550795448067 0 0.015278605110288668 -0.00086828008213126699 0 0.016116625141271046 -0.0014607857453215803 0 0.016375172091198927 -0.0014448753718108826 0 0.016250419367661462 -0.0017966830293273772 0 0.01592434017807938 -0.0016674071967896138 0 0.016250419367661462 -0.0017966830293273772 0 0.016310194613489683 -0.0021022146360446517 0 0.015835026069028649 -0.001958084572034694 0 0.016250419367661462 -0.0017966830293273772 0 0.016310194613489683 -0.0021022146360446517 0 0.016818391087222408 -0.0018344550795448067 0 0.017248614717409169 -0.0021800744428034052 0 0.016818391087222408 -0.0018344550795448067 0 0.016727178724212005 -0.0022744616643354696 0 0.016310194613489683 -0.0021022146360446517 0 0.016818391087222408 -0.0018344550795448067 0 0.016727178724212005 -0.0022744616643354696 0 0.017248614717409169 -0.0021800744428034052 0 0.016727178724212005 -0.0022744616643354696 0 0.016984801485803336 -0.002506424296274999 0 0.016691556553700963 -0.0026559004708349015 0 0.016727178724212005 -0.0022744616643354696 0 0.01633709964256105 -0.0024705382685405457 0 0.016691556553700963 -0.0026559004708349015 0 0.016727178724212005 -0.0022744616643354696 0 0.016984801485803336 -0.002506424296274999 0 0.016310194613489683 -0.0021022146360446517 0 0.01633709964256105 -0.0024705382685405457 0 0.015915680495974877 -0.0023385327466438851 0 0.016310194613489683 -0.0021022146360446517 0 0.016727178724212005 -0.0022744616643354696 0 0.01633709964256105 -0.0024705382685405457 0 0.016011667861342411 -0.0026390707690410143 0 0.01633709964256105 -0.0024705382685405457 0 0.015915680495974877 -0.0023385327466438851 0 0.015651116710545063 -0.0026571931586249799 0 0.015915680495974877 -0.0023385327466438851 0 0.015547962058925904 -0.0022823060156589889 0 0.015651116710545063 -0.0026571931586249799 0 0.016011667861342411 -0.0026390707690410143 0 0.015915680495974877 -0.0023385327466438851 0 0.016310194613489683 -0.0021022146360446517 0 0.015915680495974877 -0.0023385327466438851 0 0.015835026069028649 -0.001958084572034694 0 0.015915680495974877 -0.0023385327466438851 0 0.015835026069028649 -0.001958084572034694 0 0.015547962058925904 -0.0022823060156589889 0 0.015476791777089809 -0.0019690289688319975 0 0.015194676119958428 -0.0022005969625232924 0 0.015188606458067395 -0.0018353817111185459 0 0.015835026069028649 -0.001958084572034694 0 0.015476791777089809 -0.0019690289688319975 0 0.015547962058925904 -0.0022823060156589889 0 0.015476791777089809 -0.0019690289688319975 0 0.015547962058925904 -0.0022823060156589889 0 0.015194676119958428 -0.0022005969625232924 0 0.015248158596470955 -0.0026057781453102564 0 0.015547962058925904 -0.0022823060156589889 0 0.015194676119958428 -0.0022005969625232924 0 0.015248158596470955 -0.0026057781453102564 0 0.015651116710545063 -0.0026571931586249799 0 0.015547962058925904 -0.0022823060156589889 0 0.015248158596470955 -0.0026057781453102564 0 0.014937584743199837 -0.0027145760543596737 0 0.014912940652610354 -0.0023502044993445447 0 0.015248158596470955 -0.0026057781453102564 0 0.014912940652610354 -0.0023502044993445447 0 0.015194676119958428 -0.0022005969625232924 0 0.014937584743199837 -0.0027145760543596737 0 0.014912940652610354 -0.0023502044993445447 0 0.014723630007890788 -0.0025922237794115447 0 0.014723630007890788 -0.0025922237794115447 0 0.014665553435650036 -0.0023285112943939863 0 0.014455072332002246 -0.0024888592074660018 0 0.014912940652610354 -0.0023502044993445447 0 0.014723630007890788 -0.0025922237794115447 0 0.014665553435650036 -0.0023285112943939863 0 0.014912940652610354 -0.0023502044993445447 0 0.014694356275040314 -0.002091526704454446 0 0.014942019762892032 -0.0019925996650145029 0 0.014665553435650036 -0.0023285112943939863 0 0.014694356275040314 -0.002091526704454446 0 0.014477830706156309 -0.0021534828678559902 0 0.014912940652610354 -0.0023502044993445447 0 0.014665553435650036 -0.0023285112943939863 0 0.014694356275040314 -0.002091526704454446 0 0.014694356275040314 -0.002091526704454446 0 0.014942019762892032 -0.0019925996650145029 0 0.014695380422112011 -0.0018091911610132758 0 0.014694356275040314 -0.002091526704454446 0 0.014477830706156309 -0.0021534828678559902 0 0.014483149483006068 -0.0019149999202745646 0 0.015194676119958428 -0.0022005969625232924 0 0.014942019762892032 -0.0019925996650145029 0 0.015188606458067395 -0.0018353817111185459 0 0.014912940652610354 -0.0023502044993445447 0 0.015194676119958428 -0.0022005969625232924 0 0.014942019762892032 -0.0019925996650145029 0 0.015188606458067395 -0.0018353817111185459 0 0.014920513438570227 -0.001716947872687234 0 0.015095646452319009 -0.001534416938784891 0 0.014942019762892032 -0.0019925996650145029 0 0.014920513438570227 -0.001716947872687234 0 0.014695380422112011 -0.0018091911610132758 0 0.014942019762892032 -0.0019925996650145029 0 0.015188606458067395 -0.0018353817111185459 0 0.014920513438570227 -0.001716947872687234 0 0.014695380422112011 -0.0018091911610132758 0 0.014483149483006068 -0.0019149999202745646 0 0.014421234983810319 -0.0016286145702633496 0 0.014695380422112011 -0.0018091911610132758 0 0.014732057536985073 -0.0015469923068920002 0 0.014421234983810319 -0.0016286145702633496 0 0.014694356275040314 -0.002091526704454446 0 0.014695380422112011 -0.0018091911610132758 0 0.014483149483006068 -0.0019149999202745646 0 0.014920513438570227 -0.001716947872687234 0 0.014695380422112011 -0.0018091911610132758 0 0.014732057536985073 -0.0015469923068920002 0 0.014732057536985073 -0.0015469923068920002 0 0.014421234983810319 -0.0016286145702633496 0 0.01452795469967684 -0.0012515866932684323 0 0.014920513438570227 -0.001716947872687234 0 0.014732057536985073 -0.0015469923068920002 0 0.015095646452319009 -0.001534416938784891 0 0.015095646452319009 -0.001534416938784891 0 0.015309471753961326 -0.0013272834304209179 0 0.014933244027119643 -0.0012438224992528252 0 0.014732057536985073 -0.0015469923068920002 0 0.015095646452319009 -0.001534416938784891 0 0.014933244027119643 -0.0012438224992528252 0 0.015095646452319009 -0.001534416938784891 0 0.015309471753961326 -0.0013272834304209179 0 0.01551924098837023 -0.0016265271712914357 0 0.015309471753961326 -0.0013272834304209179 0 0.01551924098837023 -0.0016265271712914357 0 0.015744325933859309 -0.0012674912072348791 0 0.01592434017807938 -0.0016674071967896138 0 0.01551924098837023 -0.0016265271712914357 0 0.015744325933859309 -0.0012674912072348791 0 0.015835026069028649 -0.001958084572034694 0 0.015476791777089809 -0.0019690289688319975 0 0.01551924098837023 -0.0016265271712914357 0 0.015835026069028649 -0.001958084572034694 0 0.01592434017807938 -0.0016674071967896138 0 0.01551924098837023 -0.0016265271712914357 0 0.016250419367661462 -0.0017966830293273772 0 0.015835026069028649 -0.001958084572034694 0 0.01592434017807938 -0.0016674071967896138 0 0.015188606458067395 -0.0018353817111185459 0 0.015095646452319009 -0.001534416938784891 0 0.01551924098837023 -0.0016265271712914357 0 0.015476791777089809 -0.0019690289688319975 0 0.015188606458067395 -0.0018353817111185459 0 0.01551924098837023 -0.0016265271712914357 0 0.013650337739018843 -0.0019572964662280807 0 0.013713271533326812 -0.0019533450655389341 0 0.013639213856754435 -0.001937446382440298 0 0.013434452293397096 -0.0023410715851868765 0 0.013722842390115902 -0.0023266120837288351 0 0.013731443442362276 -0.0019927595248707183 0 0.013984391492347563 -0.0023303000986335041 0 0.01367481216675233 -0.0019667058798810461 0 0.014489165188047442 -0.0026170788412577168 0 0.014353613694444295 -0.0025940190565728201 0 0.014434508734258642 -0.0025915609408430243 0 0.014411134127857632 -0.0025402580710283049 0 0.014434508734258642 -0.0025915609408430243 0 0.014504080749446417 -0.0025996580157010229 0 0.013984391492347563 -0.0023303000986335041 0 0.014119958640316965 -0.0026054536293912095 0 0.013434452293397096 -0.0023410715851868765 0 0.013722842390115902 -0.0023266120837288351 0 0.013774322768080778 -0.0025694158513557726 0 0.014278893723138716 -0.00240492349187387 0 0.013984391492347563 -0.0023303000986335041 0 0.014382423523227715 -0.0025793953497405815 0 0.014353613694444295 -0.0025940190565728201 0 0.014434508734258642 -0.0025915609408430243 0 0.014382423523227715 -0.0025793953497405815 0 0.014411134127857632 -0.0025402580710283049 0 0.014434508734258642 -0.0025915609408430243 0 0.013722842390115902 -0.0023266120837288351 0 0.013774322768080778 -0.0025694158513557726 0 0.01389769664803729 -0.0023949761394541514 0 0.013774322768080778 -0.0025694158513557726 0 0.01389769664803729 -0.0023949761394541514 0 0.014036173224591129 -0.0025412888677318261 0 0.013722842390115902 -0.0023266120837288351 0 0.01389769664803729 -0.0023949761394541514 0 0.013904180543245595 -0.0022090524358722315 0 0.013722842390115902 -0.0023266120837288351 0 0.013904180543245595 -0.0022090524358722315 0 0.013731443442362276 -0.0019927595248707183 0 0.013904180543245595 -0.0022090524358722315 0 0.013731443442362276 -0.0019927595248707183 0 0.014176070502771556 -0.0020109392135653908 0 0.014176070502771556 -0.0020109392135653908 0 0.014085674888466763 -0.0023084815514875356 0 0.014283233037115364 -0.0022591233121055359 0 0.013904180543245595 -0.0022090524358722315 0 0.014176070502771556 -0.0020109392135653908 0 0.014085674888466763 -0.0023084815514875356 0 0.01389769664803729 -0.0023949761394541514 0 0.013904180543245595 -0.0022090524358722315 0 0.014085674888466763 -0.0023084815514875356 0 0.01389769664803729 -0.0023949761394541514 0 0.014085674888466763 -0.0023084815514875356 0 0.014036173224591129 -0.0025412888677318261 0 0.014085674888466763 -0.0023084815514875356 0 0.014036173224591129 -0.0025412888677318261 0 0.014219487035140282 -0.0024591744708743826 0 0.014309842824608857 -0.0026206313497341019 0 0.014191919687767502 -0.0026366151092409133 0 0.014219487035140282 -0.0024591744708743826 0 0.014191919687767502 -0.0026366151092409133 0 0.014036173224591129 -0.0025412888677318261 0 0.014219487035140282 -0.0024591744708743826 0 0.014085674888466763 -0.0023084815514875356 0 0.014219487035140282 -0.0024591744708743826 0 0.014283233037115364 -0.0022591233121055359 0 0.014455072332002246 -0.0024888592074660018 0 0.014477830706156309 -0.0021534828678559902 0 0.014283233037115364 -0.0022591233121055359 0 0.014665553435650036 -0.0023285112943939863 0 0.014455072332002246 -0.0024888592074660018 0 0.014477830706156309 -0.0021534828678559902 0 0.014219487035140282 -0.0024591744708743826 0 0.014455072332002246 -0.0024888592074660018 0 0.014283233037115364 -0.0022591233121055359 0 0.014309842824608857 -0.0026206313497341019 0 0.014219487035140282 -0.0024591744708743826 0 0.014455072332002246 -0.0024888592074660018 0 0.014176070502771556 -0.0020109392135653908 0 0.014477830706156309 -0.0021534828678559902 0 0.014483149483006068 -0.0019149999202745646 0 0.014176070502771556 -0.0020109392135653908 0 0.014477830706156309 -0.0021534828678559902 0 0.014283233037115364 -0.0022591233121055359 0 0.014176070502771556 -0.0020109392135653908 0 0.014483149483006068 -0.0019149999202745646 0 0.014421234983810319 -0.0016286145702633496 0 0.014421234983810319 -0.0016286145702633496 0 0.014277885385091664 -0.0013881539568015694 0 0.01452795469967684 -0.0012515866932684323 0 0.014421234983810319 -0.0016286145702633496 0 0.014031462348560753 -0.0016557518320516244 0 0.014277885385091664 -0.0013881539568015694 0 0.014003213415860199 -0.0017028321062415473 0 0.014254602763177216 -0.0014140939573673427 0 0.013953963175552121 -0.0017734692711842647 0 0.013794287704250882 -0.0014056861885135532 0 0.014277885385091664 -0.0013881539568015694 0 0.013731443442362276 -0.0019927595248707183 0 0.014176070502771556 -0.0020109392135653908 0 0.014031462348560753 -0.0016557518320516244 0 0.014176070502771556 -0.0020109392135653908 0 0.014421234983810319 -0.0016286145702633496 0 0.014031462348560753 -0.0016557518320516244 0 0.013713271533326812 -0.0019533450655389341 0 0.013953963175552121 -0.0017734692711842647 0 0.013669232316511567 -0.0017797269044999091 0 0.01367481216675233 -0.0019667058798810461 0 0.014003213415860199 -0.0017028321062415473 0 0.013669232316511567 -0.0017797269044999091 0 0.013483044981056251 -0.0016088427293358719 0 0.013794287704250882 -0.0014056861885135532 0 0.013953963175552121 -0.0017734692711842647 0 0.013669232316511567 -0.0017797269044999091 0 0.013794287704250882 -0.0014056861885135532 0 0.013522111414525652 -0.0017581615439151658 0 0.013669232316511567 -0.0017797269044999091 0 0.013483044981056251 -0.0016088427293358719 0 0.013713271533326812 -0.0019533450655389341 0 0.013669232316511567 -0.0017797269044999091 0 0.013639213856754435 -0.001937446382440298 0 0.013522111414525652 -0.0017581615439151658 0 0.013669232316511567 -0.0017797269044999091 0 0.013639213856754435 -0.001937446382440298 0 0.013483044981056251 -0.0016088427293358719 0 0.013255239738255362 -0.001106962553058613 0 0.013794287704250882 -0.0014056861885135532 0 0.013255239738255362 -0.001106962553058613 0 0.013794287704250882 -0.0014056861885135532 0 0.013637361078828373 -0.00071757903784469155 0 0.013794287704250882 -0.0014056861885135532 0 0.014189049963490828 -0.0010636906125082459 0 0.013637361078828373 -0.00071757903784469155 0 0.01390928088785609 -0.0010744009063710161 0 0.013188266463041897 -0.00077280926834832604 0 0.013794287704250882 -0.0014056861885135532 0 0.014189049963490828 -0.0010636906125082459 0 0.014277885385091664 -0.0013881539568015694 0 0.014189049963490828 -0.0010636906125082459 0 0.014277885385091664 -0.0013881539568015694 0 0.01452795469967684 -0.0012515866932684323 0 0.013634126449638042 -0.0011097910718325236 0 0.014134425523322404 -0.00090274523934355934 0 0.01452795469967684 -0.0012515866932684323 0 0.01390928088785609 -0.0010744009063710161 0 0.014477194722187474 -0.001253097312292805 0 0.013634126449638042 -0.0011097910718325236 0 0.014134425523322404 -0.00090274523934355934 0 0.013801679496879561 -0.00071589044589330671 0 0.014003852572667353 -0.00017388417140764531 0 0.013619193800712151 -0.00027769066407360056 0 0.014232311557879873 -0.00061102971346369472 0 0.013707442758258508 -0.00033490257812460709 0 0.014158168384012886 -0.00058608962082425803 0 0.013801679496879561 -0.00071589044589330671 0 0.013683235962464797 -0.00034621728690594806 0 0.014232311557879873 -0.00061102971346369472 0 0.014134425523322404 -0.00090274523934355934 0 0.013801679496879561 -0.00071589044589330671 0 0.014232311557879873 -0.00061102971346369472 0 0.014003852572667353 -0.00017388417140764531 0 0.014014000887182337 6.9887120408332966e-05 0 0.014359955677780039 -8.1377481673463963e-05 0 0.014003852572667353 -0.00017388417140764531 0 0.014014000887182337 6.9887120408332966e-05 0 0.01377410550992629 4.0774221235102422e-05 0 0.014014000887182337 6.9887120408332966e-05 0 0.01377410550992629 4.0774221235102422e-05 0 0.013844585999704718 0.00026480988052762859 0 0.01377410550992629 4.0774221235102422e-05 0 0.013488622490757718 0.00018681529822051255 0 0.013703505869947114 0.00029142449723157621 0 0.01377410550992629 4.0774221235102422e-05 0 0.013619193800712151 -0.00027769066407360056 0 0.013488622490757718 0.00018681529822051255 0 0.01377410550992629 4.0774221235102422e-05 0 0.013844585999704718 0.00026480988052762859 0 0.013703505869947114 0.00029142449723157621 0 0.014003852572667353 -0.00017388417140764531 0 0.01377410550992629 4.0774221235102422e-05 0 0.013619193800712151 -0.00027769066407360056 0 0.013683235962464797 -0.00034621728690594806 0 0.013060413244098287 -0.00016204861488242628 0 0.013084368785835243 -8.216484726413695e-05 0 0.013619193800712151 -0.00027769066407360056 0 0.013488622490757718 0.00018681529822051255 0 0.013005588938288818 0.00010707184919039734 0 0.013707442758258508 -0.00033490257812460709 0 0.012740275067143026 -3.9368572610445286e-05 0 0.013683235962464797 -0.00034621728690594806 0 0.013300309255108599 -0.0006068322024717764 0 0.013060413244098287 -0.00016204861488242628 0 0.013634126449638042 -0.0011097910718325236 0 0.013300309255108599 -0.0006068322024717764 0 0.012760563677643532 -0.00083925980868274693 0 0.013634126449638042 -0.0011097910718325236 0 0.013801679496879561 -0.00071589044589330671 0 0.013300309255108599 -0.0006068322024717764 0 0.013801679496879561 -0.00071589044589330671 0 0.013683235962464797 -0.00034621728690594806 0 0.013300309255108599 -0.0006068322024717764 0 0.012760563677643532 -0.00083925980868274693 0 0.012866508759215177 -0.00044004524613252291 0 0.012493812891800441 -0.00034471005951929463 0 0.013300309255108599 -0.0006068322024717764 0 0.012760563677643532 -0.00083925980868274693 0 0.012866508759215177 -0.00044004524613252291 0 0.012866508759215177 -0.00044004524613252291 0 0.013060413244098287 -0.00016204861488242628 0 0.012799673572771349 -0.00018021014056351255 0 0.012799673572771349 -0.00018021014056351255 0 0.012493812891800441 -0.00034471005951929463 0 0.012506126336056968 0.00012679576805933618 0 0.013300309255108599 -0.0006068322024717764 0 0.012866508759215177 -0.00044004524613252291 0 0.013060413244098287 -0.00016204861488242628 0 0.013060413244098287 -0.00016204861488242628 0 0.013075357444478613 -9.5875928599392705e-05 0 0.012799673572771349 -0.00018021014056351255 0 0.012761555988994915 -4.5916739396858335e-05 0 0.012740275067143026 -3.9368572610445286e-05 0 0.012866508759215177 -0.00044004524613252291 0 0.012799673572771349 -0.00018021014056351255 0 0.012493812891800441 -0.00034471005951929463 0 0.011952868781032881 -0.00050655970363183732 0 0.012493812891800441 -0.00034471005951929463 0 0.012186783061039591 -0.00014483750787085256 0 0.012493812891800441 -0.00034471005951929463 0 0.012186783061039591 -0.00014483750787085256 0 0.012506126336056968 0.00012679576805933618 0 0.012331730308170672 -0.00042034015720629426 0 0.013188266463041897 -0.00077280926834832604 0 0.011952868781032881 -0.00050655970363183732 0 0.012760563677643532 -0.00083925980868274693 0 0.012493812891800441 -0.00034471005951929463 0 0.01270830644670682 -0.00029516892202102133 0 0.013255239738255362 -0.001106962553058613 0 0.013637361078828373 -0.00071757903784469155 0 0.014216661616213213 -0.00024697943675848835 0 0.014620371070620768 -0.0005818124985142748 0 0.01416056462332063 -0.00051027906104121276 0 0.013803663054374351 -0.00036646121526407528 0 0.014216661616213213 -0.00024697943675848835 0 0.01416056462332063 -0.00051027906104121276 0 0.014755034100231013 -0.00061485771137979276 0 0.014772806002519241 -0.00058438002608481249 0 0.013803663054374351 -0.00036646121526407528 0 0.014216661616213213 -0.00024697943675848835 0 0.013935913254710001 -8.5221327374599562e-07 0 0.015309471753961326 -0.0013272834304209179 0 0.015255627264732978 -0.00093398824485493067 0 0.014933244027119643 -0.0012438224992528252 0 0.015309471753961326 -0.0013272834304209179 0 0.015255627264732978 -0.00093398824485493067 0 0.015744325933859309 -0.0012674912072348791 0 0.014933244027119643 -0.0012438224992528252 0 0.01452795469967684 -0.0012515866932684323 0 0.014713318783889231 -0.00088967914877389803 0 0.014732057536985073 -0.0015469923068920002 0 0.014933244027119643 -0.0012438224992528252 0 0.01452795469967684 -0.0012515866932684323 0 0.014134425523322404 -0.00090274523934355934 0 0.01452795469967684 -0.0012515866932684323 0 0.014455486919878144 -0.00079585389771284819 0 0.01452795469967684 -0.0012515866932684323 0 0.014455486919878144 -0.00079585389771284819 0 0.014713318783889231 -0.00088967914877389803 0 0.014455486919878144 -0.00079585389771284819 0 0.014713318783889231 -0.00088967914877389803 0 0.014589588346439451 -0.00058500736210996367 0 0.015255627264732978 -0.00093398824485493067 0 0.014713318783889231 -0.00088967914877389803 0 0.014620371070620768 -0.0005818124985142748 0 0.014755034100231013 -0.00061485771137979276 0 0.014638873158886772 -0.00057955667969233405 0 0.015255627264732978 -0.00093398824485493067 0 0.014933244027119643 -0.0012438224992528252 0 0.014713318783889231 -0.00088967914877389803 0 0.014713318783889231 -0.00088967914877389803 0 0.014620371070620768 -0.0005818124985142748 0 0.014589588346439451 -0.00058500736210996367 0 0.014579329688063572 -0.000634342366937509 0 0.014388611350642557 -0.00068873151904700887 0 0.014553624340616212 -0.00070854741235640035 0 0.014579329688063572 -0.000634342366937509 0 0.014589588346439451 -0.00058500736210996367 0 0.014553624340616212 -0.00070854741235640035 0 0.014620371070620768 -0.0005818124985142748 0 0.014579329688063572 -0.000634342366937509 0 0.014589588346439451 -0.00058500736210996367 0 0.014620371070620768 -0.0005818124985142748 0 0.014579329688063572 -0.000634342366937509 0 0.014388611350642557 -0.00068873151904700887 0 0.014541788012035725 -0.00048784228178509189 0 0.014654784946646196 -0.00066349054310931152 0 0.014232311557879873 -0.00061102971346369472 0 0.014589588346439451 -0.00058500736210996367 0 0.014359955677780039 -8.1377481673463963e-05 0 0.014134425523322404 -0.00090274523934355934 0 0.014455486919878144 -0.00079585389771284819 0 0.014232311557879873 -0.00061102971346369472 0 0.014455486919878144 -0.00079585389771284819 0 0.014232311557879873 -0.00061102971346369472 0 0.014589588346439451 -0.00058500736210996367 0 0.014589588346439451 -0.00058500736210996367 0 0.014681385270000864 -0.00080065253746370777 0 0.014553624340616212 -0.00070854741235640035 0 0.014014000887182337 6.9887120408332966e-05 0 0.014359955677780039 -8.1377481673463963e-05 0 0.014078899467403042 0.0004779526418233542 0 0.014003852572667353 -0.00017388417140764531 0 0.014232311557879873 -0.00061102971346369472 0 0.014359955677780039 -8.1377481673463963e-05 0 0.014681385270000864 -0.00080065253746370777 0 0.014553624340616212 -0.00070854741235640035 0 0.014544306908219671 -0.00084357488058545377 0 0.014681385270000864 -0.00080065253746370777 0 0.014544306908219671 -0.00084357488058545377 0 0.01457915827903658 -0.00096194279598212063 0 0.014388611350642557 -0.00068873151904700887 0 0.014553624340616212 -0.00070854741235640035 0 0.014419434866146948 -0.0008269887995203364 0 0.014553624340616212 -0.00070854741235640035 0 0.014544306908219671 -0.00084357488058545377 0 0.014419434866146948 -0.0008269887995203364 0 0.014544306908219671 -0.00084357488058545377 0 0.014419434866146948 -0.0008269887995203364 0 0.014417991606205802 -0.0009692811861412089 0 0.014419434866146948 -0.0008269887995203364 0 0.014187729095550959 -0.00091209554455150114 0 0.014417991606205802 -0.0009692811861412089 0 0.014388611350642557 -0.00068873151904700887 0 0.014419434866146948 -0.0008269887995203364 0 0.014187729095550959 -0.00091209554455150114 0 0.014388611350642557 -0.00068873151904700887 0 0.014187729095550959 -0.00091209554455150114 0 0.014002335946676091 -0.0007331282315840642 0 0.014388611350642557 -0.00068873151904700887 0 0.01416056462332063 -0.00051027906104121276 0 0.014002335946676091 -0.0007331282315840642 0 0.014620371070620768 -0.0005818124985142748 0 0.014388611350642557 -0.00068873151904700887 0 0.01416056462332063 -0.00051027906104121276 0 0.01381395261003459 -0.00061276204417573738 0 0.01416056462332063 -0.00051027906104121276 0 0.014002335946676091 -0.0007331282315840642 0 0.013803663054374351 -0.00036646121526407528 0 0.01381395261003459 -0.00061276204417573738 0 0.01416056462332063 -0.00051027906104121276 0 0.013714891678300149 -0.00087001923009567275 0 0.014002335946676091 -0.0007331282315840642 0 0.0139102320063008 -0.0010113255089202649 0 0.01381395261003459 -0.00061276204417573738 0 0.013714891678300149 -0.00087001923009567275 0 0.014002335946676091 -0.0007331282315840642 0 0.014187729095550959 -0.00091209554455150114 0 0.014002335946676091 -0.0007331282315840642 0 0.0139102320063008 -0.0010113255089202649 0 0.0139102320063008 -0.0010113255089202649 0 0.013899010579667546 -0.0012058097058531727 0 0.013616679814744535 -0.0011965944451215967 0 0.0139102320063008 -0.0010113255089202649 0 0.013899010579667546 -0.0012058097058531727 0 0.014082614016369233 -0.001138389797856802 0 0.013891605585229772 -0.001388613046712677 0 0.013795138845522321 -0.0014836123020504637 0 0.013616679814744535 -0.0011965944451215967 0 0.013899010579667546 -0.0012058097058531727 0 0.013891605585229772 -0.001388613046712677 0 0.013616679814744535 -0.0011965944451215967 0 0.013899010579667546 -0.0012058097058531727 0 0.014009927778422544 -0.0013002954158058265 0 0.014082614016369233 -0.001138389797856802 0 0.013899010579667546 -0.0012058097058531727 0 0.013891605585229772 -0.001388613046712677 0 0.014009927778422544 -0.0013002954158058265 0 0.013891605585229772 -0.001388613046712677 0 0.014009927778422544 -0.0013002954158058265 0 0.013943814566017423 -0.0014402135122107715 0 0.014222112098327558 -0.0013180856287629966 0 0.014009927778422544 -0.0013002954158058265 0 0.013943814566017423 -0.0014402135122107715 0 0.011653524925059579 -0.0005503032914207606 0 0.0095773789548817996 -0.00077631151960562341 0 0.014222112098327558 -0.0013180856287629966 0 0.014009927778422544 -0.0013002954158058265 0 0.014082614016369233 -0.001138389797856802 0 0.011653524925059579 -0.0005503032914207606 0 0.013903736349269044 -0.0012557997462554404 0 0.014222112098327558 -0.0013180856287629966 0 0.014272300171175728 -0.0010939092026440657 0 0.014082614016369233 -0.001138389797856802 0 0.014187729095550959 -0.00091209554455150114 0 0.014272300171175728 -0.0010939092026440657 0 0.014082614016369233 -0.001138389797856802 0 0.014187729095550959 -0.00091209554455150114 0 0.0139102320063008 -0.0010113255089202649 0 0.014082614016369233 -0.001138389797856802 0 0.014187729095550959 -0.00091209554455150114 0 0.014272300171175728 -0.0010939092026440657 0 0.014417991606205802 -0.0009692811861412089 0 0.014272300171175728 -0.0010939092026440657 0 0.014417991606205802 -0.0009692811861412089 0 0.014523657367168102 -0.0011732998778408354 0 0.014544306908219671 -0.00084357488058545377 0 0.014417991606205802 -0.0009692811861412089 0 0.01457915827903658 -0.00096194279598212063 0 0.014417991606205802 -0.0009692811861412089 0 0.01457915827903658 -0.00096194279598212063 0 0.014523657367168102 -0.0011732998778408354 0 0.014654784946646196 -0.00066349054310931152 0 0.011755528189899091 -3.7190686600351755e-06 0 0.01457915827903658 -0.00096194279598212063 0 0.014523657367168102 -0.0011732998778408354 0 0.014769291770645017 -0.0010293059416167643 0 0.014681385270000864 -0.00080065253746370777 0 0.01457915827903658 -0.00096194279598212063 0 0.014769291770645017 -0.0010293059416167643 0 0.011366708476539443 -0.00053003587877482514 0 0.011755528189899091 -3.7190686600351755e-06 0 0.008289490207414851 0.00032172179587309455 0 0.0084106958322363555 0.00022338167418197024 0 0.0082522014902985732 0.00013353365697788317 0 0.008289490207414851 0.00032172179587309455 0 0.0084106958322363555 0.00022338167418197024 0 0.0083912625835516237 0.00043852319295628774 0 0.014235376393386831 -0.0013181010057130107 0 0.014272300171175728 -0.0010939092026440657 0 0.014523657367168102 -0.0011732998778408354 0 0.0085729938056722538 0.00030937114706478008 0 0.0084106958322363555 0.00022338167418197024 0 0.0083912625835516237 0.00043852319295628774 0 0.011653524925059579 -0.0005503032914207606 0 0.011366708476539443 -0.00053003587877482514 0 0.0085729938056722538 0.00030937114706478008 0 0.0083912625835516237 0.00043852319295628774 0 0.0085610968993876674 0.00052104901043363008 0 0.008289490207414851 0.00032172179587309455 0 0.0083912625835516237 0.00043852319295628774 0 0.0082019528491416808 0.00050632419693236077 0 0.0082019528491416808 0.00050632419693236077 0 0.0080795141818110049 0.00068705337574312918 0 0.0083408632070919291 0.00071271239426376086 0 0.0083912625835516237 0.00043852319295628774 0 0.0082019528491416808 0.00050632419693236077 0 0.0083408632070919291 0.00071271239426376086 0 0.0083912625835516237 0.00043852319295628774 0 0.0085610968993876674 0.00052104901043363008 0 0.0083408632070919291 0.00071271239426376086 0 0.0055325794619481873 2.1546904542655862e-05 0 0.0050417319860820813 0.0002719700441817672 0 0.0023915987887838798 -0.00052742436580472752 0 0.0023916402466250685 -0.00020074718384112259 0 0.0019874954799988277 -0.00017228552192357862 0 -0.003818442250991789 -0.0017050797003850602 0 -0.0039082027706990544 -0.0011704955191910358 0 -0.0041250483491269046 -0.0013817622293913251 0 0.0041703235628496879 -0.00038845158346643028 0 0.0030371646954131543 -0.00079005927610525625 0 0.0031271252707968946 0.00085494328084534171 0 0.0055325794619481873 2.1546904542655862e-05 0 -0.00068034333945747561 -0.00070640016711317121 0 -6.0865069859594862e-05 -0.00067757285979134314 0 -0.00068034333945747561 -0.00070640016711317121 0 -0.003818442250991789 -0.0017050797003850602 0 -0.0034893554940570413 -0.0020357862762916796 0 -0.0033619642003181352 -0.0015845663895786195 0 -0.003818442250991789 -0.0017050797003850602 0 -0.0035585978601567043 -0.0012440064440350056 0 -0.0033619642003181352 -0.0015845663895786195 0 -6.0865069859594862e-05 -0.00067757285979134314 0 0.0052013603854064042 -0.0015352451122095866 0 0.0041703235628496879 -0.00038845158346643028 0 0.0052167880776209574 -0.0016466571425026795 0 0.0044217117754747851 -0.0020535228599948639 0 0.0052013603854064042 -0.0015352451122095866 0 0.0095773789548817996 -0.00077631151960562341 0 0.013891605585229772 -0.001388613046712677 0 0.013795138845522321 -0.0014836123020504637 0 0.013917359698261977 -0.0014228448410698617 0 0.011029533700832607 -0.0016226707254775455 0 0.0095773789548817996 -0.00077631151960562341 0 0.011653524925059579 -0.0005503032914207606 0 0.0055325794619481873 2.1546904542655862e-05 0 0.0041703235628496879 -0.00038845158346643028 0 0.0044217117754747851 -0.0020535228599948639 0 0.0030371646954131543 -0.00079005927610525625 0 0.0087643736280462979 -0.00061860706826566522 0 0.0091551781315027374 -0.00041678858932018366 0 0.0087784945441969006 -8.0047549367545122e-05 0 0.0095773789548817996 -0.00077631151960562341 0 0.0055325794619481873 2.1546904542655862e-05 0 0.011311457617736168 -0.00012729595376787458 0 0.011368854014589438 -0.00010490127952323735 0 0.011375504026306237 -0.00015768856034997211 0 0.011311457617736168 -0.00012729595376787458 0 0.011368854014589438 -0.00010490127952323735 0 0.011335499546200029 -7.8738293435121136e-05 0 0.011368854014589438 -0.00010490127952323735 0 0.011383561548782345 -4.1790661462142117e-05 0 0.011335499546200029 -7.8738293435121136e-05 0 0.011311457617736168 -0.00012729595376787458 0 0.01130635469384866 -0.00011824501643933583 0 0.011314939208752864 -0.00012120962495752095 0 0.011665687645643621 -4.1056177901209519e-05 0 0.011805914438643789 -2.9496446033432533e-05 0 0.011959819978577833 6.7533324467108067e-05 0 0.012186783061039591 -0.00014483750787085256 0 0.012506126336056968 0.00012679576805933618 0 0.01120721825652992 -7.9779880262481731e-05 0 0.011805914438643789 -2.9496446033432533e-05 0 0.011375504026306237 -0.00015768856034997211 0 0.01141797469998178 -0.0001207757468491201 0 0.011452363036362373 -0.00016635506225632168 0 0.011805914438643789 -2.9496446033432533e-05 0 0.01194709767563564 0.00018033301600603365 0 0.012262515026365297 -6.1580535631424973e-05 0 0.011940158680025225 0.00014812747471614491 0 0.012307808483166106 8.9069222049355964e-05 0 0.013075357444478613 -9.5875928599392705e-05 0 0.012799673572771349 -0.00018021014056351255 0 0.012506126336056968 0.00012679576805933618 0 0.012740275067143026 -3.9368572610445286e-05 0 0.011805914438643789 -2.9496446033432533e-05 0 0.01141797469998178 -0.0001207757468491201 0 0.011425804508627659 -7.1756062842920452e-05 0 0.011468959606921812 -0.00010188184534870535 0 0.011368854014589438 -0.00010490127952323735 0 0.011375504026306237 -0.00015768856034997211 0 0.01141797469998178 -0.0001207757468491201 0 0.011368854014589438 -0.00010490127952323735 0 0.01141797469998178 -0.0001207757468491201 0 0.011425804508627659 -7.1756062842920452e-05 0 0.011368854014589438 -0.00010490127952323735 0 0.011425804508627659 -7.1756062842920452e-05 0 0.011383561548782345 -4.1790661462142117e-05 0 0.011267966330619888 0.00010728645468089832 0 0.0099044052662435513 0.00027361993464399849 0 0.011073895191088857 0.00031814827926567838 0 0.011091693438068241 0.00032508883988184014 0 0.011063654628970339 0.00034612449129701144 0 0.011425804508627659 -7.1756062842920452e-05 0 0.011468959606921812 -0.00010188184534870535 0 0.011485668039184164 -3.0321417628869739e-05 0 0.011073895191088857 0.00031814827926567838 0 0.011092198451501147 0.00030455027642191314 0 0.011091693438068241 0.00032508883988184014 0 0.01141797469998178 -0.0001207757468491201 0 0.011468959606921812 -0.00010188184534870535 0 0.011452363036362373 -0.00016635506225632168 0 0.013488622490757718 0.00018681529822051255 0 0.013092744227052099 0.00039584065712443831 0 0.013702559590655481 0.00029607624100954906 0 0.011267966330619888 0.00010728645468089832 0 0.01194709767563564 0.00018033301600603365 0 0.011078841119871232 0.00029419524004969494 0 0.011092198451501147 0.00030455027642191314 0 0.011103081573510646 0.00028921223579207332 0 0.01194709767563564 0.00018033301600603365 0 0.012843653414430547 0.00029046484861413766 0 0.011073895191088857 0.00031814827926567838 0 0.011078841119871232 0.00029419524004969494 0 0.011092198451501147 0.00030455027642191314 0 0.012740275067143026 -3.9368572610445286e-05 0 0.01194709767563564 0.00018033301600603365 0 0.013488622490757718 0.00018681529822051255 0 0.013005588938288818 0.00010707184919039734 0 0.013092744227052099 0.00039584065712443831 0 0.011092198451501147 0.00030455027642191314 0 0.011118390066481861 0.0002964441826929693 0 0.011091693438068241 0.00032508883988184014 0 0.011092198451501147 0.00030455027642191314 0 0.011103081573510646 0.00028921223579207332 0 0.011118390066481861 0.0002964441826929693 0 0.013285602691713616 0.00023958428628805217 0 0.012843653414430547 0.00029046484861413766 0 0.013351647438712005 0.00039695321777248892 0 0.012843653414430547 0.00029046484861413766 0 0.013844585999704718 0.00026480988052762859 0 0.013701695137255736 0.00028867406947244732 0 0.014078899467403042 0.0004779526418233542 0 0.014014000887182337 6.9887120408332966e-05 0 0.013844585999704718 0.00026480988052762859 0 0.014078899467403042 0.0004779526418233542 0 0.012843653414430547 0.00029046484861413766 0 0.011755528189899091 -3.7190686600351755e-06 0 0.008289490207414851 0.00032172179587309455 0 0.0082522014902985732 0.00013353365697788317 0 0.0081424456782732742 0.00030361862054863539 0 0.011755528189899091 -3.7190686600351755e-06 0 0.0095261981597408035 0.00043878383314409488 0 0.011091693438068241 0.00032508883988184014 0 0.011061337665251313 0.00035273277683406411 0 0.011063654628970339 0.00034612449129701144 0 0.0095261981597408035 0.00043878383314409488 0 0.0087365494235804204 0.00030731880615749249 0 0.0081424456782732742 0.00030361862054863539 0 0.0082019528491416808 0.00050632419693236077 0 0.0080392212294919871 0.00047547897288170281 0 0.008289490207414851 0.00032172179587309455 0 0.0081424456782732742 0.00030361862054863539 0 0.0082019528491416808 0.00050632419693236077 0 0.0082019528491416808 0.00050632419693236077 0 0.0080392212294919871 0.00047547897288170281 0 0.0080795141818110049 0.00068705337574312918 0 0.0087365494235804204 0.00030731880615749249 0 0.0071664821541647878 0.00072441299923498752 0 0.0091393714085706828 0.00041597076988149492 0 0.0091330307946374586 0.00039374807408317587 0 0.0092228657525704853 0.0002520453882462264 0 0.0091393714085706828 0.00041597076988149492 0 0.0091330307946374586 0.00039374807408317587 0 0.0090641795684143212 0.00057771914430884079 0 0.010345470204994902 7.4649307858397991e-05 0 0.0089192027748164742 0.00044883337246924419 0 0.0076603151584247993 0.00072963080099208006 0 0.0087365494235804204 0.00030731880615749249 0 0.011456674686575763 4.2820303784393887e-05 0 0.011413253374458414 6.5087523409144038e-05 0 0.011415568943260243 0.00011658581478357921 0 0.0062268110968885966 0.00063803430218184335 0 0.0062538623113305098 0.00061928560628876227 0 0.0062301198836551474 0.0006470154320935012 0 0.0062268110968885966 0.00063803430218184335 0 0.0062195953359414453 0.00064835611665110869 0 0.0062301198836551474 0.0006470154320935012 0 0.0091330307946374586 0.00039374807408317587 0 0.0092228657525704853 0.0002520453882462264 0 0.0092105074040363874 0.00020730713878484313 0 0.011456674686575763 4.2820303784393887e-05 0 0.011485668039184164 -3.0321417628869739e-05 0 0.011427398939787187 -2.7080411106174133e-06 0 0.010345470204994902 7.4649307858397991e-05 0 0.0099044052662435513 0.00027361993464399849 0 0.011425804508627659 -7.1756062842920452e-05 0 0.011485668039184164 -3.0321417628869739e-05 0 0.011427398939787187 -2.7080411106174133e-06 0 0.0087365494235804204 0.00030731880615749249 0 0.0099044052662435513 0.00027361993464399849 0 0.011383561548782345 -4.1790661462142117e-05 0 0.011427398939787187 -2.7080411106174133e-06 0 0.011382526293772916 4.9087490542945754e-05 0 0.011425804508627659 -7.1756062842920452e-05 0 0.011383561548782345 -4.1790661462142117e-05 0 0.011427398939787187 -2.7080411106174133e-06 0 0.011456674686575763 4.2820303784393887e-05 0 0.011427398939787187 -2.7080411106174133e-06 0 0.011413253374458414 6.5087523409144038e-05 0 0.011427398939787187 -2.7080411106174133e-06 0 0.011413253374458414 6.5087523409144038e-05 0 0.011382526293772916 4.9087490542945754e-05 0 0.011413253374458414 6.5087523409144038e-05 0 0.011382526293772916 4.9087490542945754e-05 0 0.011383922436322576 0.0001036284011058776 0 0.011382526293772916 4.9087490542945754e-05 0 0.011348347908631368 6.7623442261026076e-06 0 0.011322536429359084 0.00012159829139541329 0 0.01129646462083826 -1.2237869996107077e-05 0 0.011348347908631368 6.7623442261026076e-06 0 0.011322536429359084 0.00012159829139541329 0 0.011383561548782345 -4.1790661462142117e-05 0 0.011382526293772916 4.9087490542945754e-05 0 0.011348347908631368 6.7623442261026076e-06 0 0.01129646462083826 -1.2237869996107077e-05 0 0.011348347908631368 6.7623442261026076e-06 0 0.011335499546200029 -7.8738293435121136e-05 0 0.011383561548782345 -4.1790661462142117e-05 0 0.011348347908631368 6.7623442261026076e-06 0 0.011335499546200029 -7.8738293435121136e-05 0 0.010120304916137321 0.0004354283003482567 0 0.010150483189670371 0.00037039909204153741 0 0.01018552564555234 0.00042269660375955377 0 0.0095304587599995116 0.0004689914096550765 0 0.0078581952737867746 0.00071987092739574207 0 0.01007761781213175 0.00033590321528113003 0 0.010120304916137321 0.0004354283003482567 0 0.010150483189670371 0.00037039909204153741 0 0.010150483189670371 0.00037039909204153741 0 0.010129283983307893 0.00029454956126789551 0 0.010215034349173577 0.00037028935218833084 0 0.01007761781213175 0.00033590321528113003 0 0.010150483189670371 0.00037039909204153741 0 0.010129283983307893 0.00029454956126789551 0 0.011145017018232692 0.00028183585163222392 0 0.0087084505589965985 0.00037867373209082459 0 0.011382526293772916 4.9087490542945754e-05 0 0.011322536429359084 0.00012159829139541329 0 0.011383922436322576 0.0001036284011058776 0 0.011322536429359084 0.00012159829139541329 0 0.011383922436322576 0.0001036284011058776 0 0.01138847071851418 0.00015603556265952418 0 0.011413253374458414 6.5087523409144038e-05 0 0.011383922436322576 0.0001036284011058776 0 0.011415568943260243 0.00011658581478357921 0 0.011383922436322576 0.0001036284011058776 0 0.011415568943260243 0.00011658581478357921 0 0.01138847071851418 0.00015603556265952418 0 0.0089192027748164742 0.00044883337246924419 0 0.0087084505589965985 0.00037867373209082459 0 0.0062134340244809107 0.00065136507160949882 0 0.0062118657107449937 0.00065577210988809786 0 0.0062063055293448159 0.00065569912493906206 0 0.0087084505589965985 0.00037867373209082459 0 0.0064989709629445702 2.4109806337421379e-05 0 0.010150483189670371 0.00037039909204153741 0 0.010215034349173577 0.00037028935218833084 0 0.01018552564555234 0.00042269660375955377 0 0.0087084505589965985 0.00037867373209082459 0 0.0078581952737867746 0.00071987092739574207 0 0.0079181480788787593 -0.00020569801150174013 0 0.0067908567279856254 0.0017056692676170578 0 0.0071330855299433817 0.0017493335177180239 0 0.0061921009814719947 0.00065314208146699288 0 0.0061956381081159067 0.00065862456990384863 0 0.006176897095633082 0.00066888578362409674 0 0.0087084505589965985 0.00037867373209082459 0 0.0052578987112107565 0.0011009700072744926 0 0.0061956381081159067 0.00065862456990384863 0 0.0061825572706475547 0.00066832111782637055 0 0.006176897095633082 0.00066888578362409674 0 0.0061956381081159067 0.00065862456990384863 0 0.0061982182162420669 0.0006599263400109117 0 0.0061825572706475547 0.00066832111782637055 0 0.0061982182162420669 0.0006599263400109117 0 0.0062063055293448159 0.00065569912493906206 0 0.0062104187105652747 0.00065485888333549484 0 0.0062118657107449937 0.00065577210988809786 0 0.0061956381081159067 0.00065862456990384863 0 0.0062063055293448159 0.00065569912493906206 0 0.0061956381081159067 0.00065862456990384863 0 0.0061982182162420669 0.0006599263400109117 0 0.0062063055293448159 0.00065569912493906206 0 0.0062134340244809107 0.00065136507160949882 0 0.0062063055293448159 0.00065569912493906206 0 0.0062195953359414453 0.00064835611665110869 0 0.0076603151584247993 0.00072963080099208006 0 0.0089192027748164742 0.00044883337246924419 0 0.0062268110968885966 0.00063803430218184335 0 0.0062134340244809107 0.00065136507160949882 0 0.0062195953359414453 0.00064835611665110869 0 0.0062195953359414453 0.00064835611665110869 0 0.0062104187105652747 0.00065485888333549484 0 0.0062301198836551474 0.0006470154320935012 0 0.0062063055293448159 0.00065569912493906206 0 0.0062195953359414453 0.00064835611665110869 0 0.0062104187105652747 0.00065485888333549484 0 0.0071664821541647878 0.00072441299923498752 0 0.0055648716100724742 0.0007043579721222608 0 0.0062104187105652747 0.00065485888333549484 0 0.0062301198836551474 0.0006470154320935012 0 0.0062056033940051918 0.00065967581915899181 0 0.0080795141818110049 0.00068705337574312918 0 0.0081176935536133431 0.00089896644128255982 0 0.0083408632070919291 0.00071271239426376086 0 0.0016007009829120005 0.00017983744527506426 0 0.0013306853228126257 0.0004293600861727464 0 0.0017874529468748263 0.00048767434915657399 0 0.0061982182162420669 0.0006599263400109117 0 0.0062104187105652747 0.00065485888333549484 0 0.0062056033940051918 0.00065967581915899181 0 0.0055648716100724742 0.0007043579721222608 0 0.0013147594036054743 0.00078773438616250562 0 0.0061982182162420669 0.0006599263400109117 0 0.0062056033940051918 0.00065967581915899181 0 0.0061825572706475547 0.00066832111782637055 0 0.0013147594036054743 0.00078773438616250562 0 -0.0024876495634196345 4.0710690098033217e-05 0 -0.0026781876476036385 0.0016122205319529957 0 -0.0033796102676867971 0.0015033339079429959 0 -0.0034431447329457418 0.00072509022778924879 0 -0.0026781876476036385 0.0016122205319529957 0 -0.0034431447329457418 0.00072509022778924879 0 -0.0020854501392444263 0.00088748498874447 0 -0.0026781876476036385 0.0016122205319529957 0 -0.0033796102676867971 0.0015033339079429959 0 -0.0032859263729201624 0.0023368827845796827 0 -0.0055555863957438469 -0.00012362264167775541 0 -0.0058916471124997229 0.00027716929268013513 0 -0.005451247857786631 0.00027115161111857807 0 -0.0038372204898480923 0.00040222778508628603 0 -0.008213838924306556 0.0028431631954180673 0 -0.0040434403430008176 0.0031044386171022588 0 -0.008213838924306556 0.0028431631954180673 0 -0.0099149538533895333 0.0080545708575655763 0 -0.010081408713461535 0.0055000438517746452 0 -0.012435121093774903 0.0051869986398007323 0 -0.0033796102676867971 0.0015033339079429959 0 -0.0041088861648755793 0.001338739979794037 0 -0.0032859263729201624 0.0023368827845796827 0 0.0013147594036054743 0.00078773438616250562 0 -0.0040434403430008176 0.0031044386171022588 0 0.0013147594036054743 0.00078773438616250562 0 0.0052578987112107565 0.0011009700072744926 0 0.00075088312958945921 0.0016538713199584156 0 -2.1106284233433952e-06 0.0018034842924018893 0 0.00025112959087042849 0.0021144677915171969 0 -0.0033796102676867971 0.0015033339079429959 0 -0.0034431447329457418 0.00072509022778924879 0 -0.0041088861648755793 0.001338739979794037 0 0.0052578987112107565 0.0011009700072744926 0 0.0041247635961681539 0.00084533277663469272 0 0.00075088312958945921 0.0016538713199584156 0 -2.1106284233433952e-06 0.0018034842924018893 0 -9.5115294712132329e-05 0.0015543492373762387 0 0.0078552324301380521 -2.9312004710799405e-05 0 0.0082266877455106236 -5.5698748220091781e-05 0 0.0080658230207428915 -5.4334588937304996e-05 0 -2.1106284233433952e-06 0.0018034842924018893 0 -9.5115294712132329e-05 0.0015543492373762387 0 -0.00039060754925555083 0.0022659811364997423 0 0.0078581952737867746 0.00071987092739574207 0 0.0080987490234117245 -9.1285201360408563e-05 0 0.0078887747254638863 -1.9245302527831257e-05 0 0.0078552324301380521 -2.9312004710799405e-05 0 0.0080658230207428915 -5.4334588937304996e-05 0 0.0078581952737867746 0.00071987092739574207 0 0.0052578987112107565 0.0011009700072744926 0 -2.1106284233433952e-06 0.0018034842924018893 0 -9.4500339631188699e-05 0.0021829509236842557 0 -0.00039060754925555083 0.0022659811364997423 0 -2.1106284233433952e-06 0.0018034842924018893 0 0.00023130514433282193 0.0021154088083446478 0 -9.4500339631188699e-05 0.0021829509236842557 0 -0.00090371414249165857 0.0030049673297612846 0 -0.0040434403430008176 0.0031044386171022588 0 0.00023130514433282193 0.0021154088083446478 0 -0.00021871400349323698 0.002546386459033336 0 -9.4500339631188699e-05 0.0021829509236842557 0 -0.0040434403430008176 0.0031044386171022588 0 -0.0046825642141911034 0.004952961359526005 0 -0.0099149538533895333 0.0080545708575655763 0 -0.0080897210569257829 0.0063926294089218299 0 -0.010081408713461535 0.0055000438517746452 0 -0.00021871400349323698 0.002546386459033336 0 -9.4500339631188699e-05 0.0021829509236842557 0 -0.00039060754925555083 0.0022659811364997423 0 0.0041247635961681539 0.00084533277663469272 0 -0.001002286884654664 0.0025412498918399246 0 -0.00021871400349323698 0.002546386459033336 0 -0.00039060754925555083 0.0022659811364997423 0 -0.00067277627496495525 0.0029778070281831479 0 0.0076218378453362847 0.00042479621861158187 0 0.0082266877455106236 -5.5698748220091781e-05 0 0.0080082090793734267 0.0010439044089632899 0 -0.0046825642141911034 0.004952961359526005 0 -0.001002286884654664 0.0025412498918399246 0 0.0076218378453362847 0.00042479621861158187 0 0.0082266877455106236 -5.5698748220091781e-05 0 0.0080445311375163704 -0.00021318586969598739 0 0.0085106527510245399 0.0005097223201852403 0 0.0077927348802709264 0.00031283108850333434 0 0.0082264724037130477 0.00012622228645389885 0 0.0080445311375163704 -0.00021318586969598739 0 0.0080658230207428915 -5.4334588937304996e-05 0 0.0082264724037130477 0.00012622228645389885 0 0.0082266877455106236 -5.5698748220091781e-05 0 0.0080445311375163704 -0.00021318586969598739 0 0.0080658230207428915 -5.4334588937304996e-05 0 0.0077927348802709264 0.00031283108850333434 0 0.0080658230207428915 -5.4334588937304996e-05 0 0.0082264724037130477 0.00012622228645389885 0 -0.0042479091178224309 -0.001023086709097848 0 -0.0045242100645875964 -0.00072185661924542295 0 -0.0042311804655040539 -0.00049399887711238765 0 -0.0041532801017732622 -0.00093332584678056845 0 -0.0037938141926173946 -0.0008533491771233288 0 -0.0042311804655040539 -0.00049399887711238765 0 -0.0042765368040125528 -0.001148086121182325 0 -0.0042070063104024252 -0.00047519277219368463 0 -0.0041532801017732622 -0.00093332584678056845 0 -0.0037938141926173946 -0.0008533491771233288 0 -0.0039082027706990544 -0.0011704955191910358 0 -0.0037938141926173946 -0.0008533491771233288 0 -0.0035585978601567043 -0.0012440064440350056 0 -0.0034218379386478292 -0.000910816237240902 0 -0.0037938141926173946 -0.0008533491771233288 0 -0.0035802854354051233 -0.00050474463733757476 0 -0.0034218379386478292 -0.000910816237240902 0 -0.0037938141926173946 -0.0008533491771233288 0 -0.0035585978601567043 -0.0012440064440350056 0 -0.0039082027706990544 -0.0011704955191910358 0 -0.003818442250991789 -0.0017050797003850602 0 -0.0035585978601567043 -0.0012440064440350056 0 -0.0039082027706990544 -0.0011704955191910358 0 -0.0042765368040125528 -0.001148086121182325 0 -0.00068034333945747561 -0.00070640016711317121 0 -0.0042479091178224309 -0.001023086709097848 0 -0.0042512576339748453 -0.0015450772848643554 0 -0.0047154282176871095 -0.0010179004858839667 0 -0.0041532801017732622 -0.00093332584678056845 0 -0.0039082027706990544 -0.0011704955191910358 0 -0.0041250483491269046 -0.0013817622293913251 0 0.0023916402466250685 -0.00020074718384112259 0 0.0019874954799988277 -0.00017228552192357862 0 0.0020847355416537144 0.00014870434391845515 0 -0.00068034333945747561 -0.00070640016711317121 0 -0.001225029779693557 -0.00050005663556762644 0 0.0055648716100724742 0.0007043579721222608 0 0.0050417319860820813 0.0002719700441817672 0 0.0016007009829120005 0.00017983744527506426 0 0.0019874954799988277 -0.00017228552192357862 0 0.0020847355416537144 0.00014870434391845515 0 -0.001225029779693557 -0.00050005663556762644 0 -0.0024876495634196345 4.0710690098033217e-05 0 0.0016007009829120005 0.00017983744527506426 0 0.0020847355416537144 0.00014870434391845515 0 0.0017874529468748263 0.00048767434915657399 0 -0.0042479091178224309 -0.001023086709097848 0 -0.0047154282176871095 -0.0010179004858839667 0 -0.0045242100645875964 -0.00072185661924542295 0 -0.0047154282176871095 -0.0010179004858839667 0 -0.0045242100645875964 -0.00072185661924542295 0 -0.0047920920364917345 -0.00046355892708962971 0 -0.0045242100645875964 -0.00072185661924542295 0 -0.0047920920364917345 -0.00046355892708962971 0 -0.0042311804655040539 -0.00049399887711238765 0 -0.0047154282176871095 -0.0010179004858839667 0 -0.0047920920364917345 -0.00046355892708962971 0 -0.0051289672991418987 -0.00050804309662131654 0 -0.0047920920364917345 -0.00046355892708962971 0 -0.0045351512025742797 -3.8232366002613737e-05 0 -0.0042311804655040539 -0.00049399887711238765 0 -0.0055555863957438469 -0.00012362264167775541 0 -0.0052104992930267231 -0.00052685081658003638 0 -0.005076266021617537 -0.00012062991907751341 0 -0.0055263235701957149 -0.00052153842038341058 0 -0.0024876495634196345 4.0710690098033217e-05 0 -0.0047920920364917345 -0.00046355892708962971 0 -0.0052104992930267231 -0.00052685081658003638 0 -0.005076266021617537 -0.00012062991907751341 0 -0.0038372204898480923 0.00040222778508628603 0 -0.0024876495634196345 4.0710690098033217e-05 0 -0.0055555863957438469 -0.00012362264167775541 0 -0.005076266021617537 -0.00012062991907751341 0 -0.005451247857786631 0.00027115161111857807 0 -0.005076266021617537 -0.00012062991907751341 0 -0.0050183776947457757 0.00029803232813671647 0 -0.005451247857786631 0.00027115161111857807 0 -0.0047920920364917345 -0.00046355892708962971 0 -0.005076266021617537 -0.00012062991907751341 0 -0.0045351512025742797 -3.8232366002613737e-05 0 -0.005076266021617537 -0.00012062991907751341 0 -0.0045351512025742797 -3.8232366002613737e-05 0 -0.0050183776947457757 0.00029803232813671647 0 -0.0045351512025742797 -3.8232366002613737e-05 0 -0.0039129584642202501 -0.00013154085358788994 0 -0.0042407877396371868 0.00024063272683219375 0 -0.0045351512025742797 -3.8232366002613737e-05 0 -0.0042311804655040539 -0.00049399887711238765 0 -0.0039129584642202501 -0.00013154085358788994 0 -0.0037938141926173946 -0.0008533491771233288 0 -0.0042311804655040539 -0.00049399887711238765 0 -0.0035802854354051233 -0.00050474463733757476 0 -0.0042311804655040539 -0.00049399887711238765 0 -0.0035802854354051233 -0.00050474463733757476 0 -0.0039129584642202501 -0.00013154085358788994 0 -0.0039129584642202501 -0.00013154085358788994 0 -0.0034996997179951904 -2.4789441419653115e-05 0 -0.0039074631012230871 0.00019678532446279763 0 -0.0035802854354051233 -0.00050474463733757476 0 -0.0039129584642202501 -0.00013154085358788994 0 -0.0034996997179951904 -2.4789441419653115e-05 0 -0.0039129584642202501 -0.00013154085358788994 0 -0.0039074631012230871 0.00019678532446279763 0 -0.0042407877396371868 0.00024063272683219375 0 -0.0034996997179951904 -2.4789441419653115e-05 0 -0.0032340188507780148 0.00010341627353194185 0 -0.003429313991735081 0.00028298988895969577 0 -0.003563530206624367 -6.4302440451227365e-05 0 -0.0028886513602397229 -6.3135343845047435e-06 0 -0.0034996997179951904 -2.4789441419653115e-05 0 -0.0030841245582700775 -0.00023107096805303635 0 -0.0031408223553147157 -0.00038543328008125888 0 -0.0032340188507780148 0.00010341627353194185 0 -0.0029273715818078764 0.00016199952223155915 0 -0.0032114004311333618 0.00024677497650690616 0 -0.0034996997179951904 -2.4789441419653115e-05 0 -0.0030108405907119788 -0.0001901555400103412 0 -0.0030841245582700775 -0.00023107096805303635 0 -0.0030108405907119788 -0.0001901555400103412 0 -0.0030402114311112033 -0.00022233073603612104 0 -0.0031992817121458714 -0.000321400399555644 0 -0.0030402114311112033 -0.00022233073603612104 0 -0.0030841245582700775 -0.00023107096805303635 0 -0.0029013130783722561 -0.00038104608977012673 0 -0.0030108405907119788 -0.0001901555400103412 0 -0.0030402114311112033 -0.00022233073603612104 0 -0.0030841245582700775 -0.00023107096805303635 0 -0.0030841245582700775 -0.00023107096805303635 0 -0.0031408223553147157 -0.00038543328008125888 0 -0.0029013130783722561 -0.00038104608977012673 0 -0.0031408223553147157 -0.00038543328008125888 0 -0.0029013130783722561 -0.00038104608977012673 0 -0.0028304578239135218 -0.00056122189501395258 0 -0.0031408223553147157 -0.00038543328008125888 0 -0.0028304578239135218 -0.00056122189501395258 0 -0.0031034574708817121 -0.00071180197017029401 0 -0.0035802854354051233 -0.00050474463733757476 0 -0.0034996997179951904 -2.4789441419653115e-05 0 -0.0031408223553147157 -0.00038543328008125888 0 -0.0035802854354051233 -0.00050474463733757476 0 -0.0031408223553147157 -0.00038543328008125888 0 -0.0031034574708817121 -0.00071180197017029401 0 -0.0042064573928268225 -0.00074849962239690974 0 -0.0043911748214666875 -0.00099078844667349879 0 -0.0039107045972677753 -0.00091623621398278046 0 -0.003910335613518061 -0.00079151748068048678 0 -0.0042064573928268225 -0.00074849962239690974 0 -0.0039107045972677753 -0.00091623621398278046 0 -0.003910335613518061 -0.00079151748068048678 0 -0.0042340769178321443 -0.00040642762516283058 0 -0.0042064573928268225 -0.00074849962239690974 0 -0.0041971273602397626 -0.00066187331213196914 0 -0.0058323700205476 -0.00090176523182004266 0 -0.0041971273602397626 -0.00066187331213196914 0 -0.0037942913455090111 -0.00037564672752367107 0 -0.0030108405907119788 -0.0001901555400103412 0 -0.0033169338055136157 -0.00046702723847116644 0 -0.0031992817121458714 -0.000321400399555644 0 -0.0028886513602397229 -6.3135343845047435e-06 0 -0.004766535652542688 -0.00024373087080917452 0 -0.0034426311060190215 -0.00038330163678338834 0 -0.0033629528048628758 -0.00036169642528221212 0 -0.0035255369788505437 -0.00037222331430413342 0 -0.0033398863882978381 -0.00030510820190772254 0 -0.0033629528048628758 -0.00036169642528221212 0 -0.0035255369788505437 -0.00037222331430413342 0 -0.0034426311060190215 -0.00038330163678338834 0 -0.0033629528048628758 -0.00036169642528221212 0 -0.0033169338055136157 -0.00046702723847116644 0 -0.0041971273602397626 -0.00066187331213196914 0 -0.004766535652542688 -0.00024373087080917452 0 -0.004787444229657498 -0.00052584961776097107 0 -0.004946252499981681 -0.00039593839370454409 0 -0.0047872258967923209 -0.00036908887869544345 0 -0.004766535652542688 -0.00024373087080917452 0 -0.0058323700205476 -0.00090176523182004266 0 -0.0033629528048628758 -0.00036169642528221212 0 -0.0033169338055136157 -0.00046702723847116644 0 -0.0031992817121458714 -0.000321400399555644 0 -0.0030402114311112033 -0.00022233073603612104 0 -0.0033398863882978381 -0.00030510820190772254 0 -0.0031992817121458714 -0.000321400399555644 0 -0.0033398863882978381 -0.00030510820190772254 0 -0.0033629528048628758 -0.00036169642528221212 0 -0.0031992817121458714 -0.000321400399555644 0 -0.0030402114311112033 -0.00022233073603612104 0 -0.0033398863882978381 -0.00030510820190772254 0 -0.0035744025599357887 -0.0002124019388055428 0 -0.0030402114311112033 -0.00022233073603612104 0 -0.0029013130783722561 -0.00038104608977012673 0 -0.0022818023824547331 -0.00052709789694808614 0 -0.0033398863882978381 -0.00030510820190772254 0 -0.0035744025599357887 -0.0002124019388055428 0 -0.0035255369788505437 -0.00037222331430413342 0 -0.0029013130783722561 -0.00038104608977012673 0 -0.0028304578239135218 -0.00056122189501395258 0 -0.0022818023824547331 -0.00052709789694808614 0 -0.0027014391860316635 -0.00043299270491889029 0 -0.0037644428622955286 -0.00010405374960463587 0 -0.003516140158453428 -0.00058727880608968805 0 -0.0035255369788505437 -0.00037222331430413342 0 -0.0038243286123178315 -0.00032747500162445294 0 -0.003516140158453428 -0.00058727880608968805 0 -0.0038243286123178315 -0.00032747500162445294 0 -0.0042340769178321443 -0.00040642762516283058 0 -0.0041971273602397626 -0.00066187331213196914 0 -0.0040402522915379971 -0.00043999256711463357 0 -0.0035744025599357887 -0.0002124019388055428 0 -0.0035255369788505437 -0.00037222331430413342 0 -0.0038243286123178315 -0.00032747500162445294 0 -0.0035744025599357887 -0.0002124019388055428 0 -0.0038243286123178315 -0.00032747500162445294 0 -0.0040147571212575967 0.00016992870084391057 0 -0.0022818023824547331 -0.00052709789694808614 0 -0.0022017001238582991 -0.0009797513402397596 0 -0.0016063564536283562 -0.001083661853248403 0 -0.0037644428622955286 -0.00010405374960463587 0 0.0018666598740863874 -0.0006753367998730246 0 -0.0028304578239135218 -0.00056122189501395258 0 -0.0022818023824547331 -0.00052709789694808614 0 -0.0026225185458889962 -0.00090047517924235498 0 -0.0022818023824547331 -0.00052709789694808614 0 -0.0026225185458889962 -0.00090047517924235498 0 -0.0022017001238582991 -0.0009797513402397596 0 -0.0026225185458889962 -0.00090047517924235498 0 -0.0022017001238582991 -0.0009797513402397596 0 -0.0022840055512426036 -0.0014028346412424863 0 0.0081266178242534147 0.00020551405061932762 0 0.0087320322967998892 7.7568604046039709e-05 0 0.0087777308783095215 0.00054589286404038543 0 0.0034215905878717274 -0.00042959464475424749 0 0.0018666598740863874 -0.0006753367998730246 0 -0.0022017001238582991 -0.0009797513402397596 0 -0.0022840055512426036 -0.0014028346412424863 0 -0.0016063564536283562 -0.001083661853248403 0 -0.0035802854354051233 -0.00050474463733757476 0 -0.0034218379386478292 -0.000910816237240902 0 -0.0031034574708817121 -0.00071180197017029401 0 -0.0034218379386478292 -0.000910816237240902 0 -0.0031034574708817121 -0.00071180197017029401 0 -0.003043636299161853 -0.0012162954038338128 0 -0.0028304578239135218 -0.00056122189501395258 0 -0.0026225185458889962 -0.00090047517924235498 0 -0.0031034574708817121 -0.00071180197017029401 0 -0.0026225185458889962 -0.00090047517924235498 0 -0.0031034574708817121 -0.00071180197017029401 0 -0.003043636299161853 -0.0012162954038338128 0 -0.0026225185458889962 -0.00090047517924235498 0 -0.003043636299161853 -0.0012162954038338128 0 -0.0022840055512426036 -0.0014028346412424863 0 -0.0035585978601567043 -0.0012440064440350056 0 -0.0034218379386478292 -0.000910816237240902 0 -0.003043636299161853 -0.0012162954038338128 0 -0.0035585978601567043 -0.0012440064440350056 0 -0.003043636299161853 -0.0012162954038338128 0 -0.0033619642003181352 -0.0015845663895786195 0 -0.003043636299161853 -0.0012162954038338128 0 -0.0033619642003181352 -0.0015845663895786195 0 -0.0028928125281838723 -0.0017081309175028525 0 -0.0034893554940570413 -0.0020357862762916796 0 -0.0033619642003181352 -0.0015845663895786195 0 -0.0028928125281838723 -0.0017081309175028525 0 0.0052013603854064042 -0.0015352451122095866 0 0.0015525256971990822 -0.0010529628506211577 0 0.0069274384636951285 -0.00043956149088047032 0 0.0076722361009448781 -0.00055955955971117807 0 0.0075159979237893809 -0.0001271364152707588 0 0.0076722361009448781 -0.00055955955971117807 0 0.0075159979237893809 -0.0001271364152707588 0 0.0082014963105075528 -0.00051661746699129202 0 -0.003043636299161853 -0.0012162954038338128 0 -0.0028928125281838723 -0.0017081309175028525 0 -0.0022840055512426036 -0.0014028346412424863 0 0.0015525256971990822 -0.0010529628506211577 0 0.0034215905878717274 -0.00042959464475424749 0 0.0075159979237893809 -0.0001271364152707588 0 0.0081266178242534147 0.00020551405061932762 0 0.0083432590877283823 -0.00016085089245493261 0 0.0081266178242534147 0.00020551405061932762 0 0.0087320322967998892 7.7568604046039709e-05 0 0.0083432590877283823 -0.00016085089245493261 0 0.0087320322967998892 7.7568604046039709e-05 0 0.0083432590877283823 -0.00016085089245493261 0 0.0089510348869498036 -0.00064679475557375722 0 0.0083432590877283823 -0.00016085089245493261 0 0.0082014963105075528 -0.00051661746699129202 0 0.0089510348869498036 -0.00064679475557375722 0 0.0075159979237893809 -0.0001271364152707588 0 0.0083432590877283823 -0.00016085089245493261 0 0.0082014963105075528 -0.00051661746699129202 0 0.0082014963105075528 -0.00051661746699129202 0 0.0080187625219405242 -0.00095232378881426687 0 0.0085519248987065699 -0.00098806049277773856 0 0.0082014963105075528 -0.00051661746699129202 0 0.0085519248987065699 -0.00098806049277773856 0 0.0089510348869498036 -0.00064679475557375722 0 0.008891408484578563 -0.0010753640511451501 0 0.0085519248987065699 -0.00098806049277773856 0 0.0089510348869498036 -0.00064679475557375722 0 0.0084069361154368548 -0.0014217276510256574 0 0.0088231181373785352 -0.0013608351347603137 0 0.0085519248987065699 -0.00098806049277773856 0 0.0088231181373785352 -0.0013608351347603137 0 0.008891408484578563 -0.0010753640511451501 0 0.0085519248987065699 -0.00098806049277773856 0 0.0084069361154368548 -0.0014217276510256574 0 0.0080187625219405242 -0.00095232378881426687 0 0.0085519248987065699 -0.00098806049277773856 0 0.0078993405234586127 -0.0013957870404354784 0 0.0084069361154368548 -0.0014217276510256574 0 0.0080187625219405242 -0.00095232378881426687 0 0.0078993405234586127 -0.0013957870404354784 0 0.0080187625219405242 -0.00095232378881426687 0 0.0074043759486992003 -0.00092516753695352479 0 0.01053148950425664 -0.0010709423531919074 0 0.011247120241992195 -0.0012443379462416483 0 0.013714891678300149 -0.00087001923009567275 0 0.013416422851190886 -0.00090218206502503751 0 0.013616679814744535 -0.0011965944451215967 0 0.013714891678300149 -0.00087001923009567275 0 0.0139102320063008 -0.0010113255089202649 0 0.013616679814744535 -0.0011965944451215967 0 0.0052013603854064042 -0.0015352451122095866 0 0.011247120241992195 -0.0012443379462416483 0 0.0069274384636951285 -0.00043956149088047032 0 0.0076722361009448781 -0.00055955955971117807 0 0.0074043759486992003 -0.00092516753695352479 0 0.0076722361009448781 -0.00055955955971117807 0 0.0080187625219405242 -0.00095232378881426687 0 0.0074043759486992003 -0.00092516753695352479 0 0.0076722361009448781 -0.00055955955971117807 0 0.0082014963105075528 -0.00051661746699129202 0 0.0080187625219405242 -0.00095232378881426687 0 0.0090927875210610708 -0.0007002363497932249 0 0.0091392741774610955 -0.00057982489873656005 0 0.0089936247938589668 -0.00043532701249342773 0 0.0090927875210610708 -0.0007002363497932249 0 0.0091392741774610955 -0.00057982489873656005 0 0.0091934960881552546 -0.00096439798347993397 0 0.0094260017912245232 -0.00062149737486037022 0 0.0070772702420181643 -0.0009460998455607597 0 0.0097565595737075378 -0.00057942399431744449 0 0.0095380732442605955 -0.0004813759852822607 0 0.009656906169265244 -0.00027858585685851928 0 0.0085235906271940963 -0.00081127123894246468 0 0.0096347940996401142 -0.00067352417171651763 0 0.0050204092445073545 -0.0013407914010195904 0 0.0049089543117678165 -0.0013190057240393882 0 0.0049192612501036074 -0.0014329009911666821 0 0.0050204092445073545 -0.0013407914010195904 0 0.0049089543117678165 -0.0013190057240393882 0 0.0049415694380736631 -0.0012026769329729289 0 0.0047994377443839869 -0.0012970324320370936 0 0.0049089543117678165 -0.0013190057240393882 0 0.0049415694380736631 -0.0012026769329729289 0 0.013810791886766694 -8.0691206663059093e-05 0 0.013954330932470876 -0.00017247323565857073 0 0.013903269535215344 -0.00019825388440676152 0 0.013979590584880087 -0.00020810863599657206 0 0.013989967131575807 -0.00021529325761001646 0 0.013954330932470876 -0.00017247323565857073 0 0.010227179501751303 -0.00095349676977231573 0 0.0096347940996401142 -0.00067352417171651763 0 0.013989967131575807 -0.00021529325761001646 0 0.013954330932470876 -0.00017247323565857073 0 0.013903269535215344 -0.00019825388440676152 0 0.0097565595737075378 -0.00057942399431744449 0 0.0098599109754079206 -0.00084461657505047747 0 0.0096895125216511866 -0.00078058119141699057 0 0.0094260017912245232 -0.00062149737486037022 0 0.010970567370040712 -0.00061495427164684762 0 0.0085235906271940963 -0.00081127123894246468 0 0.010970567370040712 -0.00061495427164684762 0 0.010735267219710104 -0.00077476187730264362 0 0.010970567370040712 -0.00061495427164684762 0 0.0098767486882003624 -0.00092245897645127609 0 0.0098599109754079206 -0.00084461657505047747 0 0.0097594926693703194 -0.00088854930617403912 0 0.0097565595737075378 -0.00057942399431744449 0 0.0096895125216511866 -0.00078058119141699057 0 0.0095600420212725648 -0.00067536199586404008 0 0.0098599109754079206 -0.00084461657505047747 0 0.0096895125216511866 -0.00078058119141699057 0 0.0097594926693703194 -0.00088854930617403912 0 0.0096895125216511866 -0.00078058119141699057 0 0.0097594926693703194 -0.00088854930617403912 0 0.0096495959325823416 -0.00089304907302229961 0 0.0096495959325823416 -0.00089304907302229961 0 0.0095874162355841439 -0.00078510319210319804 0 0.0094628321053609691 -0.00079008169095021879 0 0.0096895125216511866 -0.00078058119141699057 0 0.0096495959325823416 -0.00089304907302229961 0 0.0095874162355841439 -0.00078510319210319804 0 0.0095874162355841439 -0.00078510319210319804 0 0.0094628321053609691 -0.00079008169095021879 0 0.0095600420212725648 -0.00067536199586404008 0 0.0094628321053609691 -0.00079008169095021879 0 0.0095600420212725648 -0.00067536199586404008 0 0.009354464440028425 -0.00058282270084773064 0 0.0096895125216511866 -0.00078058119141699057 0 0.0095874162355841439 -0.00078510319210319804 0 0.0095600420212725648 -0.00067536199586404008 0 0.0093447093420146368 -0.00091567006173399242 0 0.0094628321053609691 -0.00079008169095021879 0 0.009354464440028425 -0.00058282270084773064 0 0.0092363566078290105 -0.0013106280537587712 0 0.008891408484578563 -0.0010753640511451501 0 0.0089510348869498036 -0.00064679475557375722 0 0.0093035392561680291 -0.0011373752622938099 0 0.0090098995373875338 -0.00053219530906527496 0 0.0088231181373785352 -0.0013608351347603137 0 0.0092363566078290105 -0.0013106280537587712 0 0.008891408484578563 -0.0010753640511451501 0 0.0093447093420146368 -0.00091567006173399242 0 0.0090850188939177075 -0.000452906879734208 0 0.009354464440028425 -0.00058282270084773064 0 0.0090850188939177075 -0.000452906879734208 0 0.009354464440028425 -0.00058282270084773064 0 0.0093040147446830004 -0.00025557230952883542 0 0.009354464440028425 -0.00058282270084773064 0 0.0095380732442605955 -0.0004813759852822607 0 0.0093040147446830004 -0.00025557230952883542 0 0.0097565595737075378 -0.00057942399431744449 0 0.0095600420212725648 -0.00067536199586404008 0 0.0095380732442605955 -0.0004813759852822607 0 0.0095600420212725648 -0.00067536199586404008 0 0.009354464440028425 -0.00058282270084773064 0 0.0095380732442605955 -0.0004813759852822607 0 0.0093040147446830004 -0.00025557230952883542 0 0.0092752165434374107 9.5390987969543896e-05 0 0.009656906169265244 -0.00027858585685851928 0 0.0095380732442605955 -0.0004813759852822607 0 0.0093040147446830004 -0.00025557230952883542 0 0.009656906169265244 -0.00027858585685851928 0 0.0078713901411828092 -0.0010952116524606806 0 0.0070772702420181643 -0.0009460998455607597 0 0.0087620316389227428 5.598623388260642e-05 0 0.0090098995373875338 -0.00053219530906527496 0 0.0087320322967998892 7.7568604046039709e-05 0 0.0090850188939177075 -0.000452906879734208 0 0.0093040147446830004 -0.00025557230952883542 0 0.0087320322967998892 7.7568604046039709e-05 0 0.0092752165434374107 9.5390987969543896e-05 0 0.0087777308783095215 0.00054589286404038543 0 0.0087320322967998892 7.7568604046039709e-05 0 0.0093040147446830004 -0.00025557230952883542 0 0.0092752165434374107 9.5390987969543896e-05 0 0.0049800938224095776 -0.0017258529637211139 0 0.0049777117268342084 -0.001722367029200073 0 0.0050199440988058655 -0.0017229718172351825 0 0.0046896596323430777 -0.0018819059222014252 0 0.0070772702420181643 -0.0009460998455607597 0 0.0049800938224095776 -0.0017258529637211139 0 0.0049777117268342084 -0.001722367029200073 0 0.004965774004765027 -0.0017423279426319338 0 0.0049777117268342084 -0.001722367029200073 0 0.0049597086837362067 -0.001702664674014842 0 0.0050088797539357644 -0.0016540232649791377 0 0.0049777117268342084 -0.001722367029200073 0 0.0049597086837362067 -0.001702664674014842 0 0.0049539722118378798 -0.0017393361616253318 0 0.0050096616107849637 -0.0016234848395392011 0 0.0049597086837362067 -0.001702664674014842 0 0.0050088797539357644 -0.0016540232649791377 0 0.0050204092445073545 -0.0013407914010195904 0 0.0049710274247006143 -0.0015359087289295841 0 0.0049192612501036074 -0.0014329009911666821 0 0.0085235906271940963 -0.00081127123894246468 0 0.0045953754041099136 -0.0017634877528630549 0 0.0085235906271940963 -0.00081127123894246468 0 0.0070772702420181643 -0.0009460998455607597 0 0.004823479560255705 -0.0014521638140127392 0 0.0049089543117678165 -0.0013190057240393882 0 0.0049192612501036074 -0.0014329009911666821 0 0.004823479560255705 -0.0014521638140127392 0 0.0049192612501036074 -0.0014329009911666821 0 0.004874938817483832 -0.0015189097990610185 0 0.0049710274247006143 -0.0015359087289295841 0 0.0047979338265018026 -0.0016122561601897469 0 0.004874938817483832 -0.0015189097990610185 0 0.004823479560255705 -0.0014521638140127392 0 0.0047979338265018026 -0.0016122561601897469 0 0.004874938817483832 -0.0015189097990610185 0 0.0049710274247006143 -0.0015359087289295841 0 0.0049192612501036074 -0.0014329009911666821 0 0.004874938817483832 -0.0015189097990610185 0 0.0047979338265018026 -0.0016122561601897469 0 0.0047933444140524492 -0.0017333514714897441 0 0.0049155007105866804 -0.0017571896865240324 0 0.0049710274247006143 -0.0015359087289295841 0 0.0047979338265018026 -0.0016122561601897469 0 0.0049155007105866804 -0.0017571896865240324 0 0.0046355025624304474 -0.0017542076068744899 0 0.0047979338265018026 -0.0016122561601897469 0 0.0047933444140524492 -0.0017333514714897441 0 0.0045953754041099136 -0.0017634877528630549 0 0.005001493144079455 -0.0016900224703475634 0 0.0049597086837362067 -0.001702664674014842 0 0.0049155007105866804 -0.0017571896865240324 0 0.0049539722118378798 -0.0017393361616253318 0 0.0049155007105866804 -0.0017571896865240324 0 0.0049539722118378798 -0.0017393361616253318 0 0.004954675567406041 -0.0017913379343692209 0 -9.8441181441166252e-05 -0.0011028507360364406 0 9.7759017554752245e-05 -0.0013253924663252426 0 0.0049155007105866804 -0.0017571896865240324 0 0.004954675567406041 -0.0017913379343692209 0 0.004820578869064081 -0.0019649315504412282 0 0.0047933444140524492 -0.0017333514714897441 0 0.0049155007105866804 -0.0017571896865240324 0 0.004820578869064081 -0.0019649315504412282 0 0.0046355025624304474 -0.0017542076068744899 0 0.0047933444140524492 -0.0017333514714897441 0 0.004820578869064081 -0.0019649315504412282 0 0.0049800938224095776 -0.0017258529637211139 0 0.004956808022002936 -0.0017355743538691288 0 0.004965774004765027 -0.0017423279426319338 0 0.0078713901411828092 -0.0010952116524606806 0 0.0018666598740863874 -0.0006753367998730246 0 0.004956808022002936 -0.0017355743538691288 0 0.004965774004765027 -0.0017423279426319338 0 0.004954675567406041 -0.0017913379343692209 0 0.004965774004765027 -0.0017423279426319338 0 0.0049539722118378798 -0.0017393361616253318 0 0.004954675567406041 -0.0017913379343692209 0 0.0049777117268342084 -0.001722367029200073 0 0.004965774004765027 -0.0017423279426319338 0 0.0049539722118378798 -0.0017393361616253318 0 0.0018666598740863874 -0.0006753367998730246 0 -9.8441181441166252e-05 -0.0011028507360364406 0 -0.0040147571212575967 0.00016992870084391057 0 -0.0045969074701080062 -0.00025535532339668955 0 -0.0042340769178321443 -0.00040642762516283058 0 -0.0038243286123178315 -0.00032747500162445294 0 -0.0040147571212575967 0.00016992870084391057 0 -0.0042340769178321443 -0.00040642762516283058 0 -0.0042340769178321443 -0.00040642762516283058 0 -0.0047206714489069724 -0.00071032341613405311 0 -0.0042064573928268225 -0.00074849962239690974 0 -0.0045969074701080062 -0.00025535532339668955 0 -0.0042340769178321443 -0.00040642762516283058 0 -0.0047206714489069724 -0.00071032341613405311 0 -0.0047206714489069724 -0.00071032341613405311 0 -0.0050575533196360583 -0.0009075481879395695 0 -0.0043911748214666875 -0.00099078844667349879 0 -0.0047206714489069724 -0.00071032341613405311 0 -0.0042064573928268225 -0.00074849962239690974 0 -0.0043911748214666875 -0.00099078844667349879 0 -0.0045969074701080062 -0.00025535532339668955 0 -0.0047206714489069724 -0.00071032341613405311 0 -0.0047991136283457051 -0.00075151223629192848 0 -0.0047206714489069724 -0.00071032341613405311 0 -0.0048209454096413105 -0.00086011830712065366 0 -0.0050575533196360583 -0.0009075481879395695 0 -0.0047206714489069724 -0.00071032341613405311 0 -0.0047991136283457051 -0.00075151223629192848 0 -0.0048209454096413105 -0.00086011830712065366 0 -0.0044462568086153162 -0.0010614293756996778 0 -0.0047991136283457051 -0.00075151223629192848 0 -0.0048209454096413105 -0.00086011830712065366 0 -0.0048209454096413105 -0.00086011830712065366 0 -0.0049188890650518676 -0.00057921194165882984 0 -0.0045901146933213302 -0.00052776934301253698 0 -0.0048209454096413105 -0.00086011830712065366 0 -0.0045901146933213302 -0.00052776934301253698 0 -0.0045321336604848246 -0.00078378061422640084 0 -0.0048209454096413105 -0.00086011830712065366 0 -0.0050575533196360583 -0.0009075481879395695 0 -0.0049188890650518676 -0.00057921194165882984 0 -0.0049188890650518676 -0.00057921194165882984 0 -0.0055744895726930746 -0.00035118180189465929 0 -0.0051078271241094941 -9.5024486802060092e-05 0 -0.0050575533196360583 -0.0009075481879395695 0 -0.0049188890650518676 -0.00057921194165882984 0 -0.0055744895726930746 -0.00035118180189465929 0 -0.0049188890650518676 -0.00057921194165882984 0 -0.0047163915410405191 -8.0275206389336732e-05 0 -0.0045901146933213302 -0.00052776934301253698 0 -0.0049188890650518676 -0.00057921194165882984 0 -0.0047163915410405191 -8.0275206389336732e-05 0 -0.0051078271241094941 -9.5024486802060092e-05 0 -0.006178247441421549 -0.0011853293697163907 0 -0.0063378060268242898 -0.00043789408768774566 0 -0.006799415620687946 -0.00081073363003991976 0 -0.0050902213854447115 -0.00093874236924677737 0 -0.0052081292533015062 -0.0010868042123996255 0 -0.0050575533196360583 -0.0009075481879395695 0 -0.006178247441421549 -0.0011853293697163907 0 -0.0055744895726930746 -0.00035118180189465929 0 -0.006178247441421549 -0.0011853293697163907 0 -0.0055744895726930746 -0.00035118180189465929 0 -0.0063378060268242898 -0.00043789408768774566 0 -0.0063378060268242898 -0.00043789408768774566 0 -0.0066166296809432399 -0.00018944912868570891 0 -0.006736585770083404 -0.00044397795858608835 0 -0.0060484173995518972 0.00013864526548880367 0 -0.0066166296809432399 -0.00018944912868570891 0 -0.0066459047232877719 0.0001290348152420012 0 -0.0063378060268242898 -0.00043789408768774566 0 -0.0060484173995518972 0.00013864526548880367 0 -0.0066166296809432399 -0.00018944912868570891 0 -0.0060484173995518972 0.00013864526548880367 0 -0.006385130818007052 0.0004303627460910996 0 -0.0066459047232877719 0.0001290348152420012 0 -0.0055744895726930746 -0.00035118180189465929 0 -0.0060484173995518972 0.00013864526548880367 0 -0.0054758945286383018 0.00018434061979623768 0 -0.0055744895726930746 -0.00035118180189465929 0 -0.0063378060268242898 -0.00043789408768774566 0 -0.0060484173995518972 0.00013864526548880367 0 -0.0060484173995518972 0.00013864526548880367 0 -0.0058553043352842461 0.00059541328708070799 0 -0.0054758945286383018 0.00018434061979623768 0 -0.0060484173995518972 0.00013864526548880367 0 -0.0058553043352842461 0.00059541328708070799 0 -0.006385130818007052 0.0004303627460910996 0 -0.0058553043352842461 0.00059541328708070799 0 -0.006385130818007052 0.0004303627460910996 0 -0.0062471786594444807 0.00091917725876666573 0 -0.006385130818007052 0.0004303627460910996 0 -0.0062471786594444807 0.00091917725876666573 0 -0.0067447787924048838 0.00074184194406492533 0 -0.006385130818007052 0.0004303627460910996 0 -0.0068322349976837433 0.00037169121712619149 0 -0.0067447787924048838 0.00074184194406492533 0 -0.006385130818007052 0.0004303627460910996 0 -0.0068322349976837433 0.00037169121712619149 0 -0.0066459047232877719 0.0001290348152420012 0 -0.0047163915410405191 -8.0275206389336732e-05 0 -0.0051078271241094941 -9.5024486802060092e-05 0 -0.0048969543586726847 0.00026634662242998135 0 -0.0051078271241094941 -9.5024486802060092e-05 0 -0.0054758945286383018 0.00018434061979623768 0 -0.0048969543586726847 0.00026634662242998135 0 -0.0055744895726930746 -0.00035118180189465929 0 -0.0051078271241094941 -9.5024486802060092e-05 0 -0.0054758945286383018 0.00018434061979623768 0 -0.0058553043352842461 0.00059541328708070799 0 -0.0054758945286383018 0.00018434061979623768 0 -0.005199046410361995 0.00072694644765764339 0 -0.0054758945286383018 0.00018434061979623768 0 -0.0048969543586726847 0.00026634662242998135 0 -0.005199046410361995 0.00072694644765764339 0 -0.0048969543586726847 0.00026634662242998135 0 -0.005199046410361995 0.00072694644765764339 0 -0.0045251014259766265 0.00062905360770169005 0 -0.005199046410361995 0.00072694644765764339 0 -0.0046498699929314671 0.0011132259615844627 0 -0.0045251014259766265 0.00062905360770169005 0 -0.0052172446133293814 0.00127530429736233 0 -0.005199046410361995 0.00072694644765764339 0 -0.0046498699929314671 0.0011132259615844627 0 -0.010908843743261915 -0.00091614971475352861 0 -0.010917683059518417 -0.0028692166628143546 0 -0.0053440844438097761 0.001684076328431065 0 -0.0057672381391386347 0.0012420694992786691 0 -0.0059352236945854758 0.0018490964227728247 0 -0.0053440844438097761 0.001684076328431065 0 -0.005199046410361995 0.00072694644765764339 0 -0.0057672381391386347 0.0012420694992786691 0 -0.010908843743261915 -0.00091614971475352861 0 -0.003878867650155526 0.0018098365367799686 0 -0.0058553043352842461 0.00059541328708070799 0 -0.005199046410361995 0.00072694644765764339 0 -0.0057672381391386347 0.0012420694992786691 0 -0.0062471786594444807 0.00091917725876666573 0 -0.0062963256034236394 0.0014670756584824706 0 -0.0057672381391386347 0.0012420694992786691 0 -0.0058553043352842461 0.00059541328708070799 0 -0.0062471786594444807 0.00091917725876666573 0 -0.0057672381391386347 0.0012420694992786691 0 -0.0062471786594444807 0.00091917725876666573 0 -0.0066914073878311447 0.0011214775960843176 0 -0.0062963256034236394 0.0014670756584824706 0 -0.0062471786594444807 0.00091917725876666573 0 -0.0066914073878311447 0.0011214775960843176 0 -0.0067447787924048838 0.00074184194406492533 0 -0.011801498824774962 0.0013592987482411399 0 -0.0064731788307829221 0.0019968028782362166 0 -0.0062963256034236394 0.0014670756584824706 0 -0.0064733267520992116 0.0019985241410467526 0 -0.0067557688567180564 0.0015276536192906501 0 -0.0066914073878311447 0.0011214775960843176 0 -0.0062963256034236394 0.0014670756584824706 0 -0.0067557688567180564 0.0015276536192906501 0 -0.0062963256034236394 0.0014670756584824706 0 -0.0057672381391386347 0.0012420694992786691 0 -0.0059352236945854758 0.0018490964227728247 0 -0.016823247795007514 1.8859095884301337e-05 0 -0.017240033832488996 0.00016200946182552255 0 -0.017075631892872811 0.00054737016952539452 0 -0.0062963256034236394 0.0014670756584824706 0 -0.0059352236945854758 0.0018490964227728247 0 -0.0064733267520992116 0.0019985241410467526 0 -0.016823247795007514 1.8859095884301337e-05 0 -0.017075631892872811 0.00054737016952539452 0 -0.01678341852112614 0.00036965424743997825 0 -0.011425996020154407 0.00098759164293434109 0 -0.011801498824774962 0.0013592987482411399 0 -0.016853171348994892 0.0013487454172122599 0 -0.016831582409563027 0.0011758561481141619 0 -0.016657011295964246 0.0013214601281664649 0 -0.011801498824774962 0.0013592987482411399 0 -0.011823395516222523 0.001759849501347189 0 -0.0067993758779985218 0.0020905348344051576 0 -0.0072466339324582709 0.0019147306747488253 0 -0.007074589456884414 0.0015531693796233604 0 -0.016831582409563027 0.0011758561481141619 0 -0.016974360933931766 0.0011321877379635167 0 -0.016953424316424489 0.0010086445040829019 0 -0.016853171348994892 0.0013487454172122599 0 -0.016831582409563027 0.0011758561481141619 0 -0.016974360933931766 0.0011321877379635167 0 -0.011801498824774962 0.0013592987482411399 0 -0.017498801843602522 0.00038490571140743736 0 -0.017075631892872811 0.00054737016952539452 0 -0.01678341852112614 0.00036965424743997825 0 -0.016992554020999428 0.0009337976555900447 0 -0.01678341852112614 0.00036965424743997825 0 -0.01652646628491241 0.0004963680974513615 0 -0.016992554020999428 0.0009337976555900447 0 -0.018082488063086353 -0.0051143463687881481 0 -0.017103262348850606 -0.0055915835986151841 0 -0.017247689320169186 -0.004500004388118181 0 -0.018010344033185164 -0.0062480962027218305 0 -0.016911386701179379 -0.0065771532690186516 0 -0.017103262348850606 -0.0055915835986151841 0 -0.018010344033185164 -0.0062480962027218305 0 -0.018082488063086353 -0.0051143463687881481 0 -0.017103262348850606 -0.0055915835986151841 0 -0.016314258395779085 -0.00014016671479457504 0 -0.016823247795007514 1.8859095884301337e-05 0 -0.01678341852112614 0.00036965424743997825 0 -0.010908843743261915 -0.00091614971475352861 0 -0.017957115943906185 -0.0028342592024570065 0 -0.010908843743261915 -0.00091614971475352861 0 -0.011425996020154407 0.00098759164293434109 0 -0.016314258395779085 -0.00014016671479457504 0 -0.01678341852112614 0.00036965424743997825 0 -0.01652646628491241 0.0004963680974513615 0 -0.013960178937730812 0.0013596941647815127 0 -0.014091754694662853 0.0013281589584120102 0 -0.014144957832037711 0.001466103336720445 0 -0.013960178937730812 0.0013596941647815127 0 -0.014091754694662853 0.0013281589584120102 0 -0.013951566126759497 0.0012741542319890831 0 -0.014091754694662853 0.0013281589584120102 0 -0.014187709089287045 0.0013025669211758106 0 -0.014280694318070272 0.0013473243792837843 0 -0.014091754694662853 0.0013281589584120102 0 -0.014144957832037711 0.001466103336720445 0 -0.014280694318070272 0.0013473243792837843 0 -0.015355112397509094 0.001447354267230557 0 -0.014893735620136534 0.0013061425308081849 0 -0.014144957832037711 0.001466103336720445 0 -0.014280694318070272 0.0013473243792837843 0 -0.014431812431271767 0.0013470235926031401 0 -0.015956074169589152 0.0014369044645705389 0 -0.016331502414920554 0.0015429741728725391 0 -0.016342165915488524 0.0012458012843641587 0 -0.013960178937730812 0.0013596941647815127 0 -0.014144957832037711 0.001466103336720445 0 -0.01389132515329721 0.0014569368144991446 0 -0.015355112397509094 0.001447354267230557 0 -0.013515123088754468 0.0019762830616543892 0 -0.013515123088754468 0.0019762830616543892 0 -0.016368324115635543 0.0010717231972260928 0 -0.016420462748702902 0.0012885390241398509 0 -0.016694819515605138 0.0011229444157836116 0 -0.016417168246728731 0.0010818959941837239 0 -0.016831582409563027 0.0011758561481141619 0 -0.016694819515605138 0.0011229444157836116 0 -0.016657011295964246 0.0013214601281664649 0 -0.016420462748702902 0.0012885390241398509 0 -0.016694819515605138 0.0011229444157836116 0 -0.016657011295964246 0.0013214601281664649 0 -0.0067993758779985218 0.0020905348344051576 0 -0.0073808886122422191 0.002284517294569161 0 -0.0072466339324582709 0.0019147306747488253 0 -0.0073808886122422191 0.002284517294569161 0 -0.007628460482088738 0.0020038739964780383 0 -0.0072466339324582709 0.0019147306747488253 0 -0.007628460482088738 0.0020038739964780383 0 -0.0072466339324582709 0.0019147306747488253 0 -0.0075265192894215308 0.0016785686946260529 0 -0.013515123088754468 0.0019762830616543892 0 -0.01069922380898655 0.001464198346862578 0 -0.013515123088754468 0.0019762830616543892 0 -0.011823395516222523 0.001759849501347189 0 -0.0080506671022849852 0.002482489572096559 0 -0.0073808886122422191 0.002284517294569161 0 -0.007628460482088738 0.0020038739964780383 0 -0.0080506671022849852 0.002482489572096559 0 -0.007628460482088738 0.0020038739964780383 0 -0.0079756133104712818 0.0016609261149247373 0 -0.013960178937730812 0.0013596941647815127 0 -0.01389132515329721 0.0014569368144991446 0 -0.013849816458614488 0.0012771011082966404 0 -0.007628460482088738 0.0020038739964780383 0 -0.0079756133104712818 0.0016609261149247373 0 -0.0075265192894215308 0.0016785686946260529 0 -0.0079756133104712818 0.0016609261149247373 0 -0.0075265192894215308 0.0016785686946260529 0 -0.0077707996502525542 0.001234892985423915 0 -0.0075265192894215308 0.0016785686946260529 0 -0.007074589456884414 0.0015531693796233604 0 -0.0071738755860757467 0.0010084262545345351 0 -0.0072466339324582709 0.0019147306747488253 0 -0.0075265192894215308 0.0016785686946260529 0 -0.007074589456884414 0.0015531693796233604 0 -0.0066914073878311447 0.0011214775960843176 0 -0.0067557688567180564 0.0015276536192906501 0 -0.0071738755860757467 0.0010084262545345351 0 -0.0075265192894215308 0.0016785686946260529 0 -0.0071738755860757467 0.0010084262545345351 0 -0.0071775868174715771 0.00067488527263537019 0 -0.0075265192894215308 0.0016785686946260529 0 -0.0077707996502525542 0.001234892985423915 0 -0.0076387341459494117 0.00071072629532413858 0 -0.0064731788307829221 0.0019968028782362166 0 -0.0073012991543397144 0.00085969472883719018 0 -0.0075144087780952915 0.0016485179161845344 0 -0.0073838793730635708 0.0007331883922450399 0 -0.0071738755860757467 0.0010084262545345351 0 -0.0067447787924048838 0.00074184194406492533 0 -0.0071775868174715771 0.00067488527263537019 0 -0.0066914073878311447 0.0011214775960843176 0 -0.0071738755860757467 0.0010084262545345351 0 -0.0067447787924048838 0.00074184194406492533 0 -0.0079756133104712818 0.0016609261149247373 0 -0.0077707996502525542 0.001234892985423915 0 -0.0079586621980887329 0.00090638327127397407 0 -0.01069922380898655 0.001464198346862578 0 -0.010872936296055158 0.00098507359136178153 0 -0.013849816458614488 0.0012771011082966404 0 -0.013763895322581716 0.0011202340595530885 0 -0.013885913768738121 0.0012024569740300499 0 -0.0077707996502525542 0.001234892985423915 0 -0.0079586621980887329 0.00090638327127397407 0 -0.0076387341459494117 0.00071072629532413858 0 -0.013763895322581716 0.0011202340595530885 0 -0.013873286701634169 0.0011288488558809599 0 -0.013885913768738121 0.0012024569740300499 0 -0.013763895322581716 0.0011202340595530885 0 -0.013873286701634169 0.0011288488558809599 0 -0.01381970637530055 0.0010381410984983705 0 -0.013873286701634169 0.0011288488558809599 0 -0.013999082237455964 0.001218130607909442 0 -0.013947895063944371 0.0011102685691931347 0 -0.013873286701634169 0.0011288488558809599 0 -0.013885913768738121 0.0012024569740300499 0 -0.013999082237455964 0.001218130607909442 0 -0.013849816458614488 0.0012771011082966404 0 -0.013885913768738121 0.0012024569740300499 0 -0.013951566126759497 0.0012741542319890831 0 -0.013885913768738121 0.0012024569740300499 0 -0.013999082237455964 0.001218130607909442 0 -0.013951566126759497 0.0012741542319890831 0 -0.014091754694662853 0.0013281589584120102 0 -0.013999082237455964 0.001218130607909442 0 -0.013951566126759497 0.0012741542319890831 0 -0.013960178937730812 0.0013596941647815127 0 -0.013849816458614488 0.0012771011082966404 0 -0.013951566126759497 0.0012741542319890831 0 -0.014091754694662853 0.0013281589584120102 0 -0.013999082237455964 0.001218130607909442 0 -0.014187709089287045 0.0013025669211758106 0 -0.013999082237455964 0.001218130607909442 0 -0.014187709089287045 0.0013025669211758106 0 -0.014087540242998095 0.0011788996797734762 0 -0.013999082237455964 0.001218130607909442 0 -0.013947895063944371 0.0011102685691931347 0 -0.014087540242998095 0.0011788996797734762 0 -0.013947895063944371 0.0011102685691931347 0 -0.014087540242998095 0.0011788996797734762 0 -0.01396892419761829 0.0010333421451337152 0 -0.014087540242998095 0.0011788996797734762 0 -0.01396892419761829 0.0010333421451337152 0 -0.014137648539995173 0.0011100237677301123 0 -0.013947895063944371 0.0011102685691931347 0 -0.01396892419761829 0.0010333421451337152 0 -0.013863862469788765 0.00098567714751282131 0 -0.013873286701634169 0.0011288488558809599 0 -0.013947895063944371 0.0011102685691931347 0 -0.01381970637530055 0.0010381410984983705 0 -0.013947895063944371 0.0011102685691931347 0 -0.01381970637530055 0.0010381410984983705 0 -0.013863862469788765 0.00098567714751282131 0 -0.01381970637530055 0.0010381410984983705 0 -0.013863862469788765 0.00098567714751282131 0 -0.013786903147064109 0.0009341456133351297 0 -0.013863862469788765 0.00098567714751282131 0 -0.013786903147064109 0.0009341456133351297 0 -0.013852752890835403 0.00090505387017477843 0 -0.01381970637530055 0.0010381410984983705 0 -0.013786903147064109 0.0009341456133351297 0 -0.013678923857838084 0.00094280710141634542 0 -0.013786903147064109 0.0009341456133351297 0 -0.013723667716291309 0.00085514604630574189 0 -0.013784244490788397 0.00087132274298193065 0 -0.013786903147064109 0.0009341456133351297 0 -0.013723667716291309 0.00085514604630574189 0 -0.013678923857838084 0.00094280710141634542 0 -0.013786903147064109 0.0009341456133351297 0 -0.013784244490788397 0.00087132274298193065 0 -0.013852752890835403 0.00090505387017477843 0 -0.01396892419761829 0.0010333421451337152 0 -0.013852752890835403 0.00090505387017477843 0 -0.013950880836090213 0.00094016830392008703 0 -0.01396892419761829 0.0010333421451337152 0 -0.013863862469788765 0.00098567714751282131 0 -0.013852752890835403 0.00090505387017477843 0 -0.013852752890835403 0.00090505387017477843 0 -0.013950880836090213 0.00094016830392008703 0 -0.013912125904541254 0.0008313504931329247 0 -0.0068322349976837433 0.00037169121712619149 0 -0.0067447787924048838 0.00074184194406492533 0 -0.0071775868174715771 0.00067488527263537019 0 -0.013763895322581716 0.0011202340595530885 0 -0.01381970637530055 0.0010381410984983705 0 -0.013678923857838084 0.00094280710141634542 0 -0.010872936296055158 0.00098507359136178153 0 -0.010877220495874324 0.00071567583810019637 0 -0.0079586621980887329 0.00090638327127397407 0 -0.0076387341459494117 0.00071072629532413858 0 -0.0079410467123976827 0.00024331463871136544 0 -0.0076387341459494117 0.00071072629532413858 0 -0.0079410467123976827 0.00024331463871136544 0 -0.0076653336929554099 -0.00012750866767337376 0 -0.013723667716291309 0.00085514604630574189 0 -0.013678923857838084 0.00094280710141634542 0 -0.013627494878439738 0.00075748213104745205 0 -0.010877220495874324 0.00071567583810019637 0 -0.010025684327295512 -0.00041099273555098823 0 -0.0068322349976837433 0.00037169121712619149 0 -0.0066459047232877719 0.0001290348152420012 0 -0.0070726907712053127 -0.00028858427633478002 0 -0.0073838793730635708 0.0007331883922450399 0 -0.0075904510286584148 -0.00027087587573459011 0 -0.0068322349976837433 0.00037169121712619149 0 -0.0071775868174715771 0.00067488527263537019 0 -0.0070726907712053127 -0.00028858427633478002 0 -0.0066166296809432399 -0.00018944912868570891 0 -0.0066459047232877719 0.0001290348152420012 0 -0.0070726907712053127 -0.00028858427633478002 0 -0.0063378060268242898 -0.00043789408768774566 0 -0.006736585770083404 -0.00044397795858608835 0 -0.006799415620687946 -0.00081073363003991976 0 -0.0066166296809432399 -0.00018944912868570891 0 -0.006736585770083404 -0.00044397795858608835 0 -0.0070726907712053127 -0.00028858427633478002 0 -0.006736585770083404 -0.00044397795858608835 0 -0.0070726907712053127 -0.00028858427633478002 0 -0.006799415620687946 -0.00081073363003991976 0 -0.0076653336929554099 -0.00012750866767337376 0 -0.0077524953973216737 -0.00043777390711744379 0 -0.0076421473547820225 -0.00096858057773910019 0 -0.0079410467123976827 0.00024331463871136544 0 -0.0076653336929554099 -0.00012750866767337376 0 -0.0079200503855262807 -0.00041535033731548028 0 -0.0076653336929554099 -0.00012750866767337376 0 -0.0077524953973216737 -0.00043777390711744379 0 -0.0079200503855262807 -0.00041535033731548028 0 -0.008513801383440758 -0.00053608544234245233 0 -0.010025684327295512 -0.00041099273555098823 0 -0.0077524953973216737 -0.00043777390711744379 0 -0.0079098352694405329 -0.00041444088460291888 0 -0.0080916108092677057 -0.00053736614516649173 0 -0.0077524953973216737 -0.00043777390711744379 0 -0.0078808142441117845 -0.00071862588836955096 0 -0.0076421473547820225 -0.00096858057773910019 0 -0.0077524953973216737 -0.00043777390711744379 0 -0.0080916108092677057 -0.00053736614516649173 0 -0.0078808142441117845 -0.00071862588836955096 0 -0.0080916108092677057 -0.00053736614516649173 0 -0.0078808142441117845 -0.00071862588836955096 0 -0.0082889410483434362 -0.00066207501854820424 0 -0.0078490647799957462 -0.0010072480526630157 0 -0.0078808142441117845 -0.00071862588836955096 0 -0.0082889410483434362 -0.00066207501854820424 0 -0.004766535652542688 -0.00024373087080917452 0 -0.0055536837214272506 -0.0002231401022093785 0 -0.0078490647799957462 -0.0010072480526630157 0 -0.0078808142441117845 -0.00071862588836955096 0 -0.0076421473547820225 -0.00096858057773910019 0 -0.0075904510286584148 -0.00027087587573459011 0 -0.0058323700205476 -0.00090176523182004266 0 -0.0052081292533015062 -0.0010868042123996255 0 -0.0058323700205476 -0.00090176523182004266 0 -0.0070726907712053127 -0.00028858427633478002 0 -0.0070684625201887005 -0.0013340360479996416 0 -0.006799415620687946 -0.00081073363003991976 0 -0.006178247441421549 -0.0011853293697163907 0 -0.0070684625201887005 -0.0013340360479996416 0 -0.006799415620687946 -0.00081073363003991976 0 -0.013852752890835403 0.00090505387017477843 0 -0.013791334447190657 0.00080378500641905388 0 -0.013912125904541254 0.0008313504931329247 0 -0.0035933129934077311 0.00075295930248802344 0 -0.003188734350981254 0.00041250760055798052 0 -0.0035735119793885955 0.00050532711777338303 0 -0.0035735119793885955 0.00050532711777338303 0 -0.0037575483903944848 0.00040652067927875391 0 -0.0039521016655781364 0.00082078975631764853 0 -0.0083728195887562019 1.083451584712667e-05 0 -0.011349918248673336 0.00030367310133968455 0 -0.0035933129934077311 0.00075295930248802344 0 -0.0035735119793885955 0.00050532711777338303 0 -0.0039521016655781364 0.00082078975631764853 0 -0.0083728195887562019 1.083451584712667e-05 0 -0.0090671779925565205 0.0008243767530537818 0 -0.013852752890835403 0.00090505387017477843 0 -0.013791334447190657 0.00080378500641905388 0 -0.013770703863715169 0.00078994587277328953 0 -0.013723667716291309 0.00085514604630574189 0 -0.013627494878439738 0.00075748213104745205 0 -0.013770703863715169 0.00078994587277328953 0 -0.010025684327295512 -0.00041099273555098823 0 -0.011349918248673336 0.00030367310133968455 0 -0.013784244490788397 0.00087132274298193065 0 -0.013852752890835403 0.00090505387017477843 0 -0.013770703863715169 0.00078994587277328953 0 -0.0079098352694405329 -0.00041444088460291888 0 -0.0080916108092677057 -0.00053736614516649173 0 -0.0084548686055384778 -0.00032553959530749152 0 -0.013723667716291309 0.00085514604630574189 0 -0.013784244490788397 0.00087132274298193065 0 -0.013770703863715169 0.00078994587277328953 0 -0.0080916108092677057 -0.00053736614516649173 0 -0.0084548686055384778 -0.00032553959530749152 0 -0.0082889410483434362 -0.00066207501854820424 0 -0.0087355796965689937 -0.00028403518501966092 0 -0.0084548686055384778 -0.00032553959530749152 0 -0.0082889410483434362 -0.00066207501854820424 0 -0.0083728195887562019 1.083451584712667e-05 0 -0.0055536837214272506 -0.0002231401022093785 0 -0.0029273715818078764 0.00016199952223155915 0 -0.003188734350981254 0.00041250760055798052 0 -0.0032114004311333618 0.00024677497650690616 0 -0.003188734350981254 0.00041250760055798052 0 -0.003429313991735081 0.00028298988895969577 0 -0.0035735119793885955 0.00050532711777338303 0 -0.0032340188507780148 0.00010341627353194185 0 -0.0032114004311333618 0.00024677497650690616 0 -0.003429313991735081 0.00028298988895969577 0 -0.003188734350981254 0.00041250760055798052 0 -0.0032114004311333618 0.00024677497650690616 0 -0.003429313991735081 0.00028298988895969577 0 -0.0034996997179951904 -2.4789441419653115e-05 0 -0.003429313991735081 0.00028298988895969577 0 -0.0037575483903944848 0.00040652067927875391 0 -0.003429313991735081 0.00028298988895969577 0 -0.0035735119793885955 0.00050532711777338303 0 -0.0037575483903944848 0.00040652067927875391 0 -0.0037575483903944848 0.00040652067927875391 0 -0.0039074631012230871 0.00019678532446279763 0 -0.0041823403013902787 0.0005610012850079364 0 -0.0034996997179951904 -2.4789441419653115e-05 0 -0.0037575483903944848 0.00040652067927875391 0 -0.0039074631012230871 0.00019678532446279763 0 -0.0039074631012230871 0.00019678532446279763 0 -0.0041823403013902787 0.0005610012850079364 0 -0.0042407877396371868 0.00024063272683219375 0 -0.0037575483903944848 0.00040652067927875391 0 -0.0039521016655781364 0.00082078975631764853 0 -0.0041823403013902787 0.0005610012850079364 0 -0.0039521016655781364 0.00082078975631764853 0 -0.0045254135388630937 0.00094602930489969027 0 -0.0041823403013902787 0.0005610012850079364 0 -0.0090671779925565205 0.0008243767530537818 0 -0.0089896434914718149 0.00080596353216605215 0 -0.0045254135388630937 0.00094602930489969027 0 -0.0041823403013902787 0.0005610012850079364 0 -0.0046234619086868269 0.00050236047264618942 0 -0.0045351512025742797 -3.8232366002613737e-05 0 -0.0042407877396371868 0.00024063272683219375 0 -0.0046234619086868269 0.00050236047264618942 0 -0.0041823403013902787 0.0005610012850079364 0 -0.0042407877396371868 0.00024063272683219375 0 -0.0046234619086868269 0.00050236047264618942 0 -0.0046234619086868269 0.00050236047264618942 0 -0.0050183776947457757 0.00029803232813671647 0 -0.0051011530643696491 0.00064873854247649444 0 -0.0045351512025742797 -3.8232366002613737e-05 0 -0.0046234619086868269 0.00050236047264618942 0 -0.0050183776947457757 0.00029803232813671647 0 -0.0050183776947457757 0.00029803232813671647 0 -0.005315174016348824 0.00049568066161293552 0 -0.005451247857786631 0.00027115161111857807 0 -0.0050183776947457757 0.00029803232813671647 0 -0.005315174016348824 0.00049568066161293552 0 -0.0051011530643696491 0.00064873854247649444 0 -0.005315174016348824 0.00049568066161293552 0 -0.005451247857786631 0.00027115161111857807 0 -0.0055374069905470367 0.00067370816793700563 0 -0.005315174016348824 0.00049568066161293552 0 -0.0051011530643696491 0.00064873854247649444 0 -0.0055374069905470367 0.00067370816793700563 0 -0.013656818303966737 0.0026983129350098786 0 -0.013416521726226356 0.0031265078076068119 0 -0.013402929472214071 0.0026667093595408521 0 -0.0051011530643696491 0.00064873854247649444 0 -0.0052132358527140028 0.0010651326698535529 0 -0.0055374069905470367 0.00067370816793700563 0 -0.011105566077802892 0.0020200500399526942 0 -0.0094257816753250193 0.0019367193139037354 0 -0.0045254135388630937 0.00094602930489969027 0 -0.0046234619086868269 0.00050236047264618942 0 -0.0051011530643696491 0.00064873854247649444 0 -0.0089896434914718149 0.00080596353216605215 0 -0.011105566077802892 0.0020200500399526942 0 -0.0045254135388630937 0.00094602930489969027 0 -0.0051011530643696491 0.00064873854247649444 0 -0.0052132358527140028 0.0010651326698535529 0 -0.011105566077802892 0.0020200500399526942 0 -0.014471412764247529 0.0014239393670963244 0 -0.014120930156281429 0.00091782422911472689 0 -0.014152390989036314 0.00096533128364639645 0 -0.014172825144619174 0.001002684102163417 0 -0.014120930156281429 0.00091782422911472689 0 -0.014172825144619174 0.001002684102163417 0 -0.014143214247320707 0.00099676038435096356 0 -0.013704859010465429 0.0027234227283134526 0 -0.013626442148132179 0.0024340160582697252 0 -0.014083577711344325 0.0022723866627957778 0 -0.013704859010465429 0.0027234227283134526 0 -0.013626442148132179 0.0024340160582697252 0 -0.013402929472214071 0.0026667093595408521 0 -0.011105566077802892 0.0020200500399526942 0 -0.013766720837564876 0.0025806420616513357 0 -0.013621127656706524 0.0021516711638101351 0 -0.014083577711344325 0.0022723866627957778 0 -0.013997013678065594 0.0016988820542008314 0 -0.013626442148132179 0.0024340160582697252 0 -0.013621127656706524 0.0021516711638101351 0 -0.014083577711344325 0.0022723866627957778 0 -0.013626442148132179 0.0024340160582697252 0 -0.013621127656706524 0.0021516711638101351 0 -0.013303990538735532 0.0024270358050249461 0 -0.014471412764247529 0.0014239393670963244 0 -0.014201746478853817 0.0015294843859953759 0 -0.014083577711344325 0.0022723866627957778 0 -0.014354259345523923 0.001803609579881901 0 -0.013997013678065594 0.0016988820542008314 0 -0.014137648539995173 0.0011100237677301123 0 -0.014070979095633439 0.00099155025010697951 0 -0.014214475980967903 0.0011138995702893255 0 -0.014070979095633439 0.00099155025010697951 0 -0.014143214247320707 0.00099676038435096356 0 -0.014214475980967903 0.0011138995702893255 0 -0.014172825144619174 0.001002684102163417 0 -0.014143214247320707 0.00099676038435096356 0 -0.014214475980967903 0.0011138995702893255 0 -0.01396892419761829 0.0010333421451337152 0 -0.014137648539995173 0.0011100237677301123 0 -0.014070979095633439 0.00099155025010697951 0 -0.013950880836090213 0.00094016830392008703 0 -0.013912125904541254 0.0008313504931329247 0 -0.014070979095633439 0.00099155025010697951 0 -0.013912125904541254 0.0008313504931329247 0 -0.014120930156281429 0.00091782422911472689 0 -0.014070979095633439 0.00099155025010697951 0 -0.01396892419761829 0.0010333421451337152 0 -0.013950880836090213 0.00094016830392008703 0 -0.014070979095633439 0.00099155025010697951 0 -0.014120930156281429 0.00091782422911472689 0 -0.014070979095633439 0.00099155025010697951 0 -0.014143214247320707 0.00099676038435096356 0 -0.0061585985904781485 0.00095992657633805763 0 -0.0075301962604467027 0.002149037013059271 0 -0.0052956200838463014 0.0021651318940112555 0 -0.0061585985904781485 0.00095992657633805763 0 -0.0052956200838463014 0.0021651318940112555 0 -0.0045845568694988801 0.0012330932524045849 0 -0.0075301962604467027 0.002149037013059271 0 -0.0052956200838463014 0.0021651318940112555 0 -0.0068060469109715574 0.0032196331835780932 0 -0.0052956200838463014 0.0021651318940112555 0 -0.0062063011277355947 0.0046748884691448439 0 -0.0068060469109715574 0.0032196331835780932 0 -0.005553424740695004 0.0033710503626791528 0 -0.001002286884654664 0.0025412498918399246 0 -0.0062063011277355947 0.0046748884691448439 0 -0.0068060469109715574 0.0032196331835780932 0 -0.008560905746710909 0.0040423967607937806 0 -0.008560905746710909 0.0040423967607937806 0 -0.010081408713461535 0.0055000438517746452 0 -0.011353324229074133 0.0037915025589865333 0 -0.008560905746710909 0.0040423967607937806 0 -0.0098974089840689304 0.0027256575160498737 0 -0.011353324229074133 0.0037915025589865333 0 -0.0075301962604467027 0.002149037013059271 0 -0.0068060469109715574 0.0032196331835780932 0 -0.008560905746710909 0.0040423967607937806 0 -0.0080897210569257829 0.0063926294089218299 0 -0.0062063011277355947 0.0046748884691448439 0 -0.008560905746710909 0.0040423967607937806 0 -0.0080897210569257829 0.0063926294089218299 0 -0.008560905746710909 0.0040423967607937806 0 -0.010081408713461535 0.0055000438517746452 0 -0.0061585985904781485 0.00095992657633805763 0 -0.0075301962604467027 0.002149037013059271 0 -0.0093031764411362836 0.00074158598444724346 0 -0.0075301962604467027 0.002149037013059271 0 -0.008560905746710909 0.0040423967607937806 0 -0.0098974089840689304 0.0027256575160498737 0 -0.0075301962604467027 0.002149037013059271 0 -0.0098974089840689304 0.0027256575160498737 0 -0.0093031764411362836 0.00074158598444724346 0 -0.0098974089840689304 0.0027256575160498737 0 -0.011353324229074133 0.0037915025589865333 0 -0.012735687597565401 0.0029413361910185323 0 -0.012623995360186225 0.0027653258514409923 0 -0.012735687597565401 0.0029413361910185323 0 -0.012934619520795386 0.0026572945715095707 0 -0.011050521150124198 0.0018591280545865812 0 -0.012595676830139456 0.0028186288439977529 0 -0.0098974089840689304 0.0027256575160498737 0 -0.0093031764411362836 0.00074158598444724346 0 -0.012735687597565401 0.0029413361910185323 0 -0.011698187506492352 0.0049358976446579016 0 -0.008213838924306556 0.0028431631954180673 0 -0.010081408713461535 0.0055000438517746452 0 -0.011353324229074133 0.0037915025589865333 0 -0.012435121093774903 0.0051869986398007323 0 -0.011353324229074133 0.0037915025589865333 0 -0.012607267266228255 0.0036348838035116524 0 -0.012462987100294708 0.0046900443709088479 0 -0.011353324229074133 0.0037915025589865333 0 -0.012607267266228255 0.0036348838035116524 0 -0.012735687597565401 0.0029413361910185323 0 -0.012607267266228255 0.0036348838035116524 0 -0.012462987100294708 0.0046900443709088479 0 -0.013416521726226356 0.0031265078076068119 0 -0.008213838924306556 0.0028431631954180673 0 -0.0094257816753250193 0.0019367193139037354 0 -0.0058916471124997229 0.00027716929268013513 0 -0.005451247857786631 0.00027115161111857807 0 -0.0055374069905470367 0.00067370816793700563 0 -0.013416521726226356 0.0031265078076068119 0 -0.013149210665427272 0.0028155337559527946 0 -0.013402929472214071 0.0026667093595408521 0 -0.013149210665427272 0.0028155337559527946 0 -0.013402929472214071 0.0026667093595408521 0 -0.012934619520795386 0.0026572945715095707 0 -0.012735687597565401 0.0029413361910185323 0 -0.013149210665427272 0.0028155337559527946 0 -0.012934619520795386 0.0026572945715095707 0 -0.013416521726226356 0.0031265078076068119 0 -0.012735687597565401 0.0029413361910185323 0 -0.013149210665427272 0.0028155337559527946 0 -0.012607267266228255 0.0036348838035116524 0 -0.013416521726226356 0.0031265078076068119 0 -0.012735687597565401 0.0029413361910185323 0 -0.013402929472214071 0.0026667093595408521 0 -0.013303990538735532 0.0024270358050249461 0 -0.012934619520795386 0.0026572945715095707 0 -0.013303990538735532 0.0024270358050249461 0 -0.013086946089150252 0.0022473768074040912 0 -0.012934619520795386 0.0026572945715095707 0 -0.013626442148132179 0.0024340160582697252 0 -0.013402929472214071 0.0026667093595408521 0 -0.013303990538735532 0.0024270358050249461 0 -0.013621127656706524 0.0021516711638101351 0 -0.013086946089150252 0.0022473768074040912 0 -0.013624961069367012 0.0018544327321664755 0 -0.013621127656706524 0.0021516711638101351 0 -0.013303990538735532 0.0024270358050249461 0 -0.013086946089150252 0.0022473768074040912 0 -0.013086946089150252 0.0022473768074040912 0 -0.012934619520795386 0.0026572945715095707 0 -0.012565287716147785 0.0025244047953670015 0 -0.012623995360186225 0.0027653258514409923 0 -0.012934619520795386 0.0026572945715095707 0 -0.012565287716147785 0.0025244047953670015 0 -0.011050521150124198 0.0018591280545865812 0 -0.0088476713411070468 0.00063960360243693257 0 -0.012623995360186225 0.0027653258514409923 0 -0.012565287716147785 0.0025244047953670015 0 -0.012175302691779423 0.002635723750400941 0 -0.012565287716147785 0.0025244047953670015 0 -0.012145652916392158 0.0023970474033265122 0 -0.012653426699245593 0.0022122356333001908 0 -0.013086946089150252 0.0022473768074040912 0 -0.012565287716147785 0.0025244047953670015 0 -0.012653426699245593 0.0022122356333001908 0 -0.012565287716147785 0.0025244047953670015 0 -0.012175302691779423 0.002635723750400941 0 -0.012145652916392158 0.0023970474033265122 0 -0.0061585985904781485 0.00095992657633805763 0 -0.0093031764411362836 0.00074158598444724346 0 -0.0061085887438449924 -0.00078088620046720008 0 -0.0061585985904781485 0.00095992657633805763 0 -0.0061085887438449924 -0.00078088620046720008 0 -0.0045219084682466331 0.00022466269014427933 0 -0.012293339272071267 0.0018645055423810091 0 -0.012244832346821713 0.0011192663540485403 0 -0.011667648057076862 0.0017877603047465143 0 -0.012293339272071267 0.0018645055423810091 0 -0.012697353010219051 0.0017397934674289854 0 -0.012244832346821713 0.0011192663540485403 0 -0.012145652916392158 0.0023970474033265122 0 -0.012293339272071267 0.0018645055423810091 0 -0.012653426699245593 0.0022122356333001908 0 -0.012145652916392158 0.0023970474033265122 0 -0.012293339272071267 0.0018645055423810091 0 -0.011667648057076862 0.0017877603047465143 0 -0.012293339272071267 0.0018645055423810091 0 -0.012653426699245593 0.0022122356333001908 0 -0.012697353010219051 0.0017397934674289854 0 -0.012653426699245593 0.0022122356333001908 0 -0.012697353010219051 0.0017397934674289854 0 -0.012991879691107266 0.0019532210665032146 0 -0.012697353010219051 0.0017397934674289854 0 -0.012843014711666201 0.0013308353592678959 0 -0.012244832346821713 0.0011192663540485403 0 -0.012697353010219051 0.0017397934674289854 0 -0.012843014711666201 0.0013308353592678959 0 -0.013044989193383998 0.001631130012770808 0 -0.013044989193383998 0.001631130012770808 0 -0.013375710621136992 0.001736936850600829 0 -0.013274130105094688 0.0013736107768405172 0 -0.012843014711666201 0.0013308353592678959 0 -0.013044989193383998 0.001631130012770808 0 -0.013274130105094688 0.0013736107768405172 0 -0.012697353010219051 0.0017397934674289854 0 -0.013044989193383998 0.001631130012770808 0 -0.012991879691107266 0.0019532210665032146 0 -0.013086946089150252 0.0022473768074040912 0 -0.012653426699245593 0.0022122356333001908 0 -0.012991879691107266 0.0019532210665032146 0 -0.013086946089150252 0.0022473768074040912 0 -0.012991879691107266 0.0019532210665032146 0 -0.013375710621136992 0.001736936850600829 0 -0.013044989193383998 0.001631130012770808 0 -0.012991879691107266 0.0019532210665032146 0 -0.013375710621136992 0.001736936850600829 0 -0.013086946089150252 0.0022473768074040912 0 -0.013375710621136992 0.001736936850600829 0 -0.013624961069367012 0.0018544327321664755 0 -0.013375710621136992 0.001736936850600829 0 -0.013624961069367012 0.0018544327321664755 0 -0.013785633354880039 0.0014556715164781779 0 -0.013375710621136992 0.001736936850600829 0 -0.013274130105094688 0.0013736107768405172 0 -0.013785633354880039 0.0014556715164781779 0 -0.013507495371136945 0.0010787707950939706 0 -0.013785633354880039 0.0014556715164781779 0 -0.014258240451147075 0.0010789542618082301 0 -0.013507495371136945 0.0010787707950939706 0 -0.013274130105094688 0.0013736107768405172 0 -0.013785633354880039 0.0014556715164781779 0 -0.013507495371136945 0.0010787707950939706 0 -0.014258240451147075 0.0010789542618082301 0 -0.013674746892763646 0.00074876544971511799 0 -0.013507495371136945 0.0010787707950939706 0 -0.013121802386695915 0.00081421057571614316 0 -0.013089254395758688 0.0011201116453476555 0 -0.013507495371136945 0.0010787707950939706 0 -0.013121802386695915 0.00081421057571614316 0 -0.013674746892763646 0.00074876544971511799 0 -0.013121802386695915 0.00081421057571614316 0 -0.012810590753777419 0.0006480970575523748 0 -0.013059792837742413 0.00046555179632278525 0 -0.013121802386695915 0.00081421057571614316 0 -0.013089254395758688 0.0011201116453476555 0 -0.01269550727862168 0.0010022135733432252 0 -0.013507495371136945 0.0010787707950939706 0 -0.013089254395758688 0.0011201116453476555 0 -0.013274130105094688 0.0013736107768405172 0 -0.012843014711666201 0.0013308353592678959 0 -0.013089254395758688 0.0011201116453476555 0 -0.013274130105094688 0.0013736107768405172 0 -0.012843014711666201 0.0013308353592678959 0 -0.01269550727862168 0.0010022135733432252 0 -0.012244832346821713 0.0011192663540485403 0 -0.012843014711666201 0.0013308353592678959 0 -0.013089254395758688 0.0011201116453476555 0 -0.01269550727862168 0.0010022135733432252 0 -0.01269550727862168 0.0010022135733432252 0 -0.01241783195301044 0.00083412257399980729 0 -0.012244832346821713 0.0011192663540485403 0 -0.01269550727862168 0.0010022135733432252 0 -0.012810590753777419 0.0006480970575523748 0 -0.012500228947477619 0.00063554708798979165 0 -0.013121802386695915 0.00081421057571614316 0 -0.01269550727862168 0.0010022135733432252 0 -0.012810590753777419 0.0006480970575523748 0 -0.01269550727862168 0.0010022135733432252 0 -0.012500228947477619 0.00063554708798979165 0 -0.01241783195301044 0.00083412257399980729 0 -0.012500228947477619 0.00063554708798979165 0 -0.01241783195301044 0.00083412257399980729 0 -0.012148076212800171 0.00066378717945784918 0 -0.012500228947477619 0.00063554708798979165 0 -0.012219749794104895 0.00049526261331765892 0 -0.012148076212800171 0.00066378717945784918 0 -0.012219749794104895 0.00049526261331765892 0 -0.012148076212800171 0.00066378717945784918 0 -0.011973353802454151 0.00049580002431178719 0 -0.01241783195301044 0.00083412257399980729 0 -0.012148076212800171 0.00066378717945784918 0 -0.012244832346821713 0.0011192663540485403 0 -0.012148076212800171 0.00066378717945784918 0 -0.012244832346821713 0.0011192663540485403 0 -0.011745470784137733 0.00063994275636029916 0 -0.014300979400786585 0.0014506078157423585 0 -0.014306213993217467 0.0013348969615171974 0 -0.014418639959615521 0.0013004054520869834 0 -0.014300979400786585 0.0014506078157423585 0 -0.014253102689764175 0.0013367503686812349 0 -0.014418639959615521 0.0013004054520869834 0 -0.014187709089287045 0.0013025669211758106 0 -0.014087540242998095 0.0011788996797734762 0 -0.014306213993217467 0.0013348969615171974 0 -0.014187709089287045 0.0013025669211758106 0 -0.014306213993217467 0.0013348969615171974 0 -0.014418639959615521 0.0013004054520869834 0 -0.014137648539995173 0.0011100237677301123 0 -0.014306213993217467 0.0013348969615171974 0 -0.014214475980967903 0.0011138995702893255 0 -0.014087540242998095 0.0011788996797734762 0 -0.014137648539995173 0.0011100237677301123 0 -0.014306213993217467 0.0013348969615171974 0 -0.014311750057752242 0.0013563865119891917 0 -0.014201746478853817 0.0015294843859953759 0 -0.014300979400786585 0.0014506078157423585 0 -0.014306213993217467 0.0013348969615171974 0 -0.014354259345523923 0.001803609579881901 0 -0.014300979400786585 0.0014506078157423585 0 -0.014354259345523923 0.001803609579881901 0 -0.013997013678065594 0.0016988820542008314 0 -0.013621127656706524 0.0021516711638101351 0 -0.013997013678065594 0.0016988820542008314 0 -0.013624961069367012 0.0018544327321664755 0 -0.013997013678065594 0.0016988820542008314 0 -0.013624961069367012 0.0018544327321664755 0 -0.013785633354880039 0.0014556715164781779 0 -0.013997013678065594 0.0016988820542008314 0 -0.013785633354880039 0.0014556715164781779 0 -0.014253102689764175 0.0013367503686812349 0 -0.014300979400786585 0.0014506078157423585 0 -0.013997013678065594 0.0016988820542008314 0 -0.014253102689764175 0.0013367503686812349 0 -0.014253102689764175 0.0013367503686812349 0 -0.014258240451147075 0.0010789542618082301 0 -0.014542920383972712 0.0011953902786574512 0 -0.013785633354880039 0.0014556715164781779 0 -0.014253102689764175 0.0013367503686812349 0 -0.014258240451147075 0.0010789542618082301 0 -0.014258240451147075 0.0010789542618082301 0 -0.014542920383972712 0.0011953902786574512 0 -0.014821799216425733 0.0010780730185724488 0 -0.014542920383972712 0.0011953902786574512 0 -0.014418639959615521 0.0013004054520869834 0 -0.014431812431271767 0.0013470235926031401 0 -0.014542920383972712 0.0011953902786574512 0 -0.014431812431271767 0.0013470235926031401 0 -0.014821799216425733 0.0010780730185724488 0 -0.014253102689764175 0.0013367503686812349 0 -0.014542920383972712 0.0011953902786574512 0 -0.014418639959615521 0.0013004054520869834 0 -0.014187709089287045 0.0013025669211758106 0 -0.014418639959615521 0.0013004054520869834 0 -0.014280694318070272 0.0013473243792837843 0 -0.014418639959615521 0.0013004054520869834 0 -0.014280694318070272 0.0013473243792837843 0 -0.014431812431271767 0.0013470235926031401 0 -0.015519456703906779 0.0013304936116227694 0 -0.015438101561051507 0.0008219224229949894 0 -0.015802046532946496 0.0011744321070340487 0 -0.015438101561051507 0.0008219224229949894 0 -0.015802046532946496 0.0011744321070340487 0 -0.015861729978248293 0.00091033738406232903 0 -0.015438101561051507 0.0008219224229949894 0 -0.015861729978248293 0.00091033738406232903 0 -0.01587870318076463 0.00071015923378375909 0 -0.015438101561051507 0.0008219224229949894 0 -0.014821799216425733 0.0010780730185724488 0 -0.014935039415416488 0.00081730466861422392 0 -0.015519456703906779 0.0013304936116227694 0 -0.015438101561051507 0.0008219224229949894 0 -0.014821799216425733 0.0010780730185724488 0 -0.014893735620136534 0.0013061425308081849 0 -0.014834200982754127 0.0011288814816615279 0 -0.014821799216425733 0.0010780730185724488 0 -0.014616239618676348 0.00072938584470026897 0 -0.014935039415416488 0.00081730466861422392 0 -0.014258240451147075 0.0010789542618082301 0 -0.014821799216425733 0.0010780730185724488 0 -0.014616239618676348 0.00072938584470026897 0 -0.014258240451147075 0.0010789542618082301 0 -0.014616239618676348 0.00072938584470026897 0 -0.013674746892763646 0.00074876544971511799 0 -0.014616239618676348 0.00072938584470026897 0 -0.014935039415416488 0.00081730466861422392 0 -0.015005560380862497 0.00077846961228762257 0 -0.014616239618676348 0.00072938584470026897 0 -0.015005560380862497 0.00077846961228762257 0 -0.015087842730819 0.00073091723183594983 0 -0.015438101561051507 0.0008219224229949894 0 -0.014935039415416488 0.00081730466861422392 0 -0.015205560732961202 0.00072629608677697295 0 -0.014935039415416488 0.00081730466861422392 0 -0.015205560732961202 0.00072629608677697295 0 -0.015005560380862497 0.00077846961228762257 0 -0.015205560732961202 0.00072629608677697295 0 -0.015005560380862497 0.00077846961228762257 0 -0.015186212022803213 0.00070508379404928586 0 -0.015205560732961202 0.00072629608677697295 0 -0.015186212022803213 0.00070508379404928586 0 -0.015442639282773219 0.00061183850494908945 0 -0.015186212022803213 0.00070508379404928586 0 -0.01523516993634258 0.00061771088898932307 0 -0.015442639282773219 0.00061183850494908945 0 -0.015546460153896938 0.00065906924838011723 0 -0.015726593405499929 0.00059145098935307644 0 -0.015442639282773219 0.00061183850494908945 0 -0.015205560732961202 0.00072629608677697295 0 -0.015546460153896938 0.00065906924838011723 0 -0.015442639282773219 0.00061183850494908945 0 -0.015546460153896938 0.00065906924838011723 0 -0.015751552606078415 0.00065332339959366949 0 -0.015726593405499929 0.00059145098935307644 0 -0.015751552606078415 0.00065332339959366949 0 -0.015941530516463118 0.00062360089854696262 0 -0.016152628781422342 0.00069506624527861669 0 -0.015751552606078415 0.00065332339959366949 0 -0.015941530516463118 0.00062360089854696262 0 -0.015726593405499929 0.00059145098935307644 0 -0.015438101561051507 0.0008219224229949894 0 -0.015751552606078415 0.00065332339959366949 0 -0.01587870318076463 0.00071015923378375909 0 -0.015438101561051507 0.0008219224229949894 0 -0.015546460153896938 0.00065906924838011723 0 -0.015751552606078415 0.00065332339959366949 0 -0.015438101561051507 0.0008219224229949894 0 -0.015205560732961202 0.00072629608677697295 0 -0.015546460153896938 0.00065906924838011723 0 -0.012346180000108809 3.6080485414552377e-06 0 -0.012405497716843262 0.00012561410577389463 0 -0.012224027897231159 0.00014447067349191673 0 -0.012346180000108809 3.6080485414552377e-06 0 -0.012405497716843262 0.00012561410577389463 0 -0.012558203897212227 4.0028101555356535e-05 0 -0.012405497716843262 0.00012561410577389463 0 -0.012515181322889996 0.00022244374151634657 0 -0.012558203897212227 4.0028101555356535e-05 0 -0.012405497716843262 0.00012561410577389463 0 -0.012306329035740582 0.00023946425467692036 0 -0.012515181322889996 0.00022244374151634657 0 -0.012405497716843262 0.00012561410577389463 0 -0.012306329035740582 0.00023946425467692036 0 -0.012224027897231159 0.00014447067349191673 0 -0.012306329035740582 0.00023946425467692036 0 -0.012390593486515205 0.00038761706501732929 0 -0.012135432622190013 0.00032859008357634308 0 -0.012306329035740582 0.00023946425467692036 0 -0.012224027897231159 0.00014447067349191673 0 -0.012135432622190013 0.00032859008357634308 0 -0.012219749794104895 0.00049526261331765892 0 -0.011973353802454151 0.00049580002431178719 0 -0.012135432622190013 0.00032859008357634308 0 -0.012219749794104895 0.00049526261331765892 0 -0.012390593486515205 0.00038761706501732929 0 -0.012135432622190013 0.00032859008357634308 0 -0.012500228947477619 0.00063554708798979165 0 -0.012219749794104895 0.00049526261331765892 0 -0.012390593486515205 0.00038761706501732929 0 -0.012306329035740582 0.00023946425467692036 0 -0.012390593486515205 0.00038761706501732929 0 -0.012515181322889996 0.00022244374151634657 0 -0.012681903994015342 0.00039927324017211929 0 -0.012834631314420725 0.00014207007246227866 0 -0.012515181322889996 0.00022244374151634657 0 -0.012390593486515205 0.00038761706501732929 0 -0.012681903994015342 0.00039927324017211929 0 -0.012515181322889996 0.00022244374151634657 0 -0.012500228947477619 0.00063554708798979165 0 -0.012390593486515205 0.00038761706501732929 0 -0.012681903994015342 0.00039927324017211929 0 -0.012810590753777419 0.0006480970575523748 0 -0.012500228947477619 0.00063554708798979165 0 -0.012681903994015342 0.00039927324017211929 0 -0.012810590753777419 0.0006480970575523748 0 -0.012681903994015342 0.00039927324017211929 0 -0.013059792837742413 0.00046555179632278525 0 -0.012681903994015342 0.00039927324017211929 0 -0.012834631314420725 0.00014207007246227866 0 -0.013059792837742413 0.00046555179632278525 0 -0.012346180000108809 3.6080485414552377e-06 0 -0.012558203897212227 4.0028101555356535e-05 0 -0.012695902609587778 -0.00015729671562207976 0 -0.012834631314420725 0.00014207007246227866 0 -0.012515181322889996 0.00022244374151634657 0 -0.012558203897212227 4.0028101555356535e-05 0 -0.012834631314420725 0.00014207007246227866 0 -0.012558203897212227 4.0028101555356535e-05 0 -0.012695902609587778 -0.00015729671562207976 0 -0.012834631314420725 0.00014207007246227866 0 -0.013502647136837133 2.0894751058726957e-05 0 -0.012695902609587778 -0.00015729671562207976 0 -0.012834631314420725 0.00014207007246227866 0 -0.013059792837742413 0.00046555179632278525 0 -0.013502647136837133 2.0894751058726957e-05 0 -0.014280098654875058 0.00040642395661619359 0 -0.013941033041063719 0.00027769616989795537 0 -0.013059792837742413 0.00046555179632278525 0 -0.013674746892763646 0.00074876544971511799 0 -0.013502647136837133 2.0894751058726957e-05 0 -0.013121802386695915 0.00081421057571614316 0 -0.013059792837742413 0.00046555179632278525 0 -0.013674746892763646 0.00074876544971511799 0 -0.014616239618676348 0.00072938584470026897 0 -0.013674746892763646 0.00074876544971511799 0 -0.013502647136837133 2.0894751058726957e-05 0 -0.014615843343948737 0.00068581046804133173 0 -0.014280098654875058 0.00040642395661619359 0 -0.015005560380862497 0.00077846961228762257 0 -0.015087842730819 0.00073091723183594983 0 -0.015127570860222275 0.00072691355893648156 0 -0.015005560380862497 0.00077846961228762257 0 -0.015186212022803213 0.00070508379404928586 0 -0.015127570860222275 0.00072691355893648156 0 -0.015186212022803213 0.00070508379404928586 0 -0.015127570860222275 0.00072691355893648156 0 -0.01523516993634258 0.00061771088898932307 0 -0.015127570860222275 0.00072691355893648156 0 -0.015048111853940874 0.00062726537560287661 0 -0.01523516993634258 0.00061771088898932307 0 -0.015127570860222275 0.00072691355893648156 0 -0.015067011538464754 0.00070180450493626174 0 -0.015048111853940874 0.00062726537560287661 0 -0.015087842730819 0.00073091723183594983 0 -0.015127570860222275 0.00072691355893648156 0 -0.015053884770360203 0.00074220531252972954 0 -0.015127570860222275 0.00072691355893648156 0 -0.015053884770360203 0.00074220531252972954 0 -0.015067011538464754 0.00070180450493626174 0 -0.012346180000108809 3.6080485414552377e-06 0 -0.012695902609587778 -0.00015729671562207976 0 -0.012559153649249276 -0.00014848042940322973 0 -0.013941033041063719 0.00027769616989795537 0 -0.014700093936072897 0.00056485573581351934 0 -0.015053884770360203 0.00074220531252972954 0 -0.015029030633803073 0.00073776285595668161 0 -0.015067011538464754 0.00070180450493626174 0 -0.014700093936072897 0.00056485573581351934 0 -0.016157766135440031 0.00013507350083973664 0 -0.016294407209189961 0.0014578867904130053 0 -0.017033939260540195 -0.00051811148972333635 0 -0.015776210118679315 4.5341410110889054e-05 0 -0.015029030633803073 0.00073776285595668161 0 -0.015067011538464754 0.00070180450493626174 0 -0.015048111853940874 0.00062726537560287661 0 -0.015776210118679315 4.5341410110889054e-05 0 -0.014886075346466422 0.00086728870441202949 0 -0.014239637708145176 -0.00047187742100167238 0 -0.012346180000108809 3.6080485414552377e-06 0 -0.012559153649249276 -0.00014848042940322973 0 -0.012264386046608252 -9.2424038730742566e-05 0 -0.014700093936072897 0.00056485573581351934 0 -0.013530328943304257 0.00035558145402505382 0 -0.016294407209189961 0.0014578867904130053 0 -0.015776210118679315 4.5341410110889054e-05 0 -0.014886075346466422 0.00086728870441202949 0 -0.015773812443352107 -0.0014199673569277582 0 -0.016252241405012111 -0.0026134102868499596 0 -0.014887954081424853 -0.0026227981642529415 0 -0.015776210118679315 4.5341410110889054e-05 0 -0.015773812443352107 -0.0014199673569277582 0 -0.014239637708145176 -0.00047187742100167238 0 -0.017033939260540195 -0.00051811148972333635 0 -0.015776210118679315 4.5341410110889054e-05 0 -0.015773812443352107 -0.0014199673569277582 0 -0.017033939260540195 -0.00051811148972333635 0 -0.015773812443352107 -0.0014199673569277582 0 -0.017615572000663361 -0.0023725593592548032 0 -0.015773812443352107 -0.0014199673569277582 0 -0.016252241405012111 -0.0026134102868499596 0 -0.017615572000663361 -0.0023725593592548032 0 -0.015048111853940874 0.00062726537560287661 0 -0.015119400221352424 0.00038648494684247648 0 -0.01523516993634258 0.00061771088898932307 0 -0.016157766135440031 0.00013507350083973664 0 -0.016311445712108755 -0.00099894515521752004 0 -0.015119400221352424 0.00038648494684247648 0 -0.01523516993634258 0.00061771088898932307 0 -0.015470610989208222 0.000450692815589207 0 -0.015119400221352424 0.00038648494684247648 0 -0.015403987748456638 0.00021836018727819975 0 -0.015470610989208222 0.000450692815589207 0 -0.015403987748456638 0.00021836018727819975 0 -0.015470610989208222 0.000450692815589207 0 -0.015840467573180084 4.517475218498079e-05 0 -0.015119400221352424 0.00038648494684247648 0 -0.015403987748456638 0.00021836018727819975 0 -0.015265794751849903 -0.00024866307347744628 0 -0.015403987748456638 0.00021836018727819975 0 -0.015265794751849903 -0.00024866307347744628 0 -0.015840467573180084 4.517475218498079e-05 0 -0.015265794751849903 -0.00024866307347744628 0 -0.015937184669652164 -0.00065080235130689484 0 -0.016181270781150812 -0.0014225631027604602 0 -0.016252768234588853 -0.0017385200743706428 0 -0.016153914263074842 -0.001444159288508484 0 -0.015265794751849903 -0.00024866307347744628 0 -0.015840467573180084 4.517475218498079e-05 0 -0.015937184669652164 -0.00065080235130689484 0 -0.017182509436862579 -0.0033973312966439654 0 -0.017424454865504056 -0.0032201532038778433 0 -0.017068110554670932 -0.0019665607857132007 0 -0.017182509436862579 -0.0033973312966439654 0 -0.017424454865504056 -0.0032201532038778433 0 -0.017344335342548419 -0.0031948867957924177 0 -0.017424454865504056 -0.0032201532038778433 0 -0.017362935658500604 -0.0035210481202025698 0 -0.01757404752281598 -0.0030854632457753286 0 -0.017424454865504056 -0.0032201532038778433 0 -0.017344335342548419 -0.0031948867957924177 0 -0.017362935658500604 -0.0035210481202025698 0 -0.017344335342548419 -0.0031948867957924177 0 -0.016996107473391923 -0.0030035314972367715 0 -0.017362935658500604 -0.0035210481202025698 0 -0.017615572000663361 -0.0023725593592548032 0 -0.017344335342548419 -0.0031948867957924177 0 -0.016996107473391923 -0.0030035314972367715 0 -0.017615572000663361 -0.0023725593592548032 0 -0.017182509436862579 -0.0033973312966439654 0 -0.017344335342548419 -0.0031948867957924177 0 -0.016311445712108755 -0.00099894515521752004 0 -0.016252768234588853 -0.0017385200743706428 0 -0.016252241405012111 -0.0026134102868499596 0 -0.017615572000663361 -0.0023725593592548032 0 -0.016996107473391923 -0.0030035314972367715 0 -0.016252241405012111 -0.0026134102868499596 0 -0.016996107473391923 -0.0030035314972367715 0 -0.016340979020969496 -0.0033522851835670912 0 -0.016996107473391923 -0.0030035314972367715 0 -0.016340979020969496 -0.0033522851835670912 0 -0.017362935658500604 -0.0035210481202025698 0 -0.017362935658500604 -0.0035210481202025698 0 -0.017999925221786107 -0.0030153989298235882 0 -0.01757404752281598 -0.0030854632457753286 0 -0.017362935658500604 -0.0035210481202025698 0 -0.018682316370529462 -0.0035044419643617728 0 -0.017999925221786107 -0.0030153989298235882 0 -0.016340979020969496 -0.0033522851835670912 0 -0.017362935658500604 -0.0035210481202025698 0 -0.015841462002687604 -0.0041047947303567795 0 -0.017452915430155695 -0.0035615502436825916 0 -0.017106878265482364 -0.003806470842673743 0 -0.016340979020969496 -0.0033522851835670912 0 -0.015841462002687604 -0.0041047947303567795 0 -0.015314180390349869 -0.0036804314422380566 0 -0.017106878265482364 -0.003806470842673743 0 -0.018133630374487206 -0.0033385032392307503 0 -0.015841462002687604 -0.0041047947303567795 0 -0.015314180390349869 -0.0036804314422380566 0 -0.015146135980634726 -0.0040759194403662624 0 -0.016252241405012111 -0.0026134102868499596 0 -0.016340979020969496 -0.0033522851835670912 0 -0.015314180390349869 -0.0036804314422380566 0 -0.016252241405012111 -0.0026134102868499596 0 -0.015314180390349869 -0.0036804314422380566 0 -0.014887954081424853 -0.0026227981642529415 0 -0.015930728139175575 0.00048348847647353539 0 -0.015726593405499929 0.00059145098935307644 0 -0.015717796776395912 0.00042240105092114288 0 -0.015930728139175575 0.00048348847647353539 0 -0.016149643384175998 0.00057481248236871763 0 -0.016131833097942645 0.00045056192631814836 0 -0.015930728139175575 0.00048348847647353539 0 -0.016149643384175998 0.00057481248236871763 0 -0.015941530516463118 0.00062360089854696262 0 -0.016149643384175998 0.00057481248236871763 0 -0.015941530516463118 0.00062360089854696262 0 -0.016152628781422342 0.00069506624527861669 0 -0.015930728139175575 0.00048348847647353539 0 -0.015941530516463118 0.00062360089854696262 0 -0.015726593405499929 0.00059145098935307644 0 -0.015726593405499929 0.00059145098935307644 0 -0.015442639282773219 0.00061183850494908945 0 -0.015717796776395912 0.00042240105092114288 0 -0.015442639282773219 0.00061183850494908945 0 -0.015470610989208222 0.000450692815589207 0 -0.015717796776395912 0.00042240105092114288 0 -0.01523516993634258 0.00061771088898932307 0 -0.015442639282773219 0.00061183850494908945 0 -0.015470610989208222 0.000450692815589207 0 -0.015470610989208222 0.000450692815589207 0 -0.015717796776395912 0.00042240105092114288 0 -0.015840467573180084 4.517475218498079e-05 0 -0.015930728139175575 0.00048348847647353539 0 -0.015717796776395912 0.00042240105092114288 0 -0.015876208680967327 0.00028903315665487441 0 -0.015717796776395912 0.00042240105092114288 0 -0.015876208680967327 0.00028903315665487441 0 -0.015840467573180084 4.517475218498079e-05 0 -0.015852946695864647 3.4751241535817876e-05 0 -0.016138801385151724 -0.00033940837662990573 0 -0.015840467573180084 4.517475218498079e-05 0 -0.015937184669652164 -0.00065080235130689484 0 -0.01641358255952708 -0.00089542361154112255 0 -0.015876208680967327 0.00028903315665487441 0 -0.015840467573180084 4.517475218498079e-05 0 -0.015868685740304506 0.00023273655944610952 0 -0.015876208680967327 0.00028903315665487441 0 -0.015868685740304506 0.00023273655944610952 0 -0.016045866282518282 0.00033108602449281389 0 -0.016045866282518282 0.00033108602449281389 0 -0.016324967762903441 0.000435227417244259 0 -0.016142600883303656 0.00024844605673868015 0 -0.015868685740304506 0.00023273655944610952 0 -0.016045866282518282 0.00033108602449281389 0 -0.016142600883303656 0.00024844605673868015 0 -0.015930728139175575 0.00048348847647353539 0 -0.015876208680967327 0.00028903315665487441 0 -0.016131833097942645 0.00045056192631814836 0 -0.015876208680967327 0.00028903315665487441 0 -0.016045866282518282 0.00033108602449281389 0 -0.016131833097942645 0.00045056192631814836 0 -0.016131833097942645 0.00045056192631814836 0 -0.016324967762903441 0.000435227417244259 0 -0.016362277695278496 0.00052613475430916194 0 -0.016149643384175998 0.00057481248236871763 0 -0.016131833097942645 0.00045056192631814836 0 -0.016362277695278496 0.00052613475430916194 0 -0.016045866282518282 0.00033108602449281389 0 -0.016131833097942645 0.00045056192631814836 0 -0.016324967762903441 0.000435227417244259 0 -0.016614651179385438 0.000535472496722643 0 -0.016631194542845125 0.00059884107446219262 0 -0.016362277695278496 0.00052613475430916194 0 -0.016324967762903441 0.000435227417244259 0 -0.016614651179385438 0.000535472496722643 0 -0.016362277695278496 0.00052613475430916194 0 -0.016324967762903441 0.000435227417244259 0 -0.016614651179385438 0.000535472496722643 0 -0.016591038596071802 0.0004211678159336097 0 -0.016614651179385438 0.000535472496722643 0 -0.016782014920976345 0.00064129323601265736 0 -0.016631194542845125 0.00059884107446219262 0 -0.016782014920976345 0.00064129323601265736 0 -0.016631194542845125 0.00059884107446219262 0 -0.016814145929871953 0.00066711750692718225 0 -0.016631194542845125 0.00059884107446219262 0 -0.016482530433802295 0.00067164019658296598 0 -0.016748821803652759 0.00066505169310221814 0 -0.016631194542845125 0.00059884107446219262 0 -0.016362277695278496 0.00052613475430916194 0 -0.016482530433802295 0.00067164019658296598 0 -0.016149643384175998 0.00057481248236871763 0 -0.016482530433802295 0.00067164019658296598 0 -0.016152628781422342 0.00069506624527861669 0 -0.016149643384175998 0.00057481248236871763 0 -0.016362277695278496 0.00052613475430916194 0 -0.016482530433802295 0.00067164019658296598 0 -0.016317639813219976 0.0004280058882727278 0 -0.016539759764773364 0.0003024038267633297 0 -0.016145754895049408 0.00019086980482942398 0 -0.015937391259419592 0.00039888539030725757 0 -0.01623887004390067 0.00044440061112991107 0 -0.016145754895049408 0.00019086980482942398 0 -0.016339625193484919 0.00026268693261841152 0 -0.01623887004390067 0.00044440061112991107 0 -0.016317639813219976 0.0004280058882727278 0 -0.01604893479996241 0.00053381603212605204 0 -0.016873522288840745 0.00057544013723898155 0 -0.016839615474354339 0.0007600691947150448 0 -0.016339625193484919 0.00026268693261841152 0 -0.016493293030426959 0.00014875083011065744 0 -0.016520744482839193 0.00048133061135750686 0 -0.017252363558656659 0.0010395127445378871 0 -0.017189345568210036 0.0010244326416803827 0 -0.017162069865579645 0.0010178511396716971 0 -0.016339625193484919 0.00026268693261841152 0 -0.01623887004390067 0.00044440061112991107 0 -0.016520744482839193 0.00048133061135750686 0 -0.016339625193484919 0.00026268693261841152 0 -0.016493293030426959 0.00014875083011065744 0 -0.016328434038654048 1.6957949417784967e-05 0 -0.016145754895049408 0.00019086980482942398 0 -0.016339625193484919 0.00026268693261841152 0 -0.016328434038654048 1.6957949417784967e-05 0 -0.016873522288840745 0.00057544013723898155 0 -0.016829476007453666 0.00054181481222296255 0 -0.017252363558656659 0.0010395127445378871 0 -0.017229022821917392 0.0010538354041051655 0 -0.017339488175014187 0.001050705804927562 0 -0.016493293030426959 0.00014875083011065744 0 -0.016328434038654048 1.6957949417784967e-05 0 -0.0164846356939936 -0.00014719585423754781 0 -0.016539759764773364 0.0003024038267633297 0 -0.016829476007453666 0.00054181481222296255 0 -0.016631194542845125 0.00059884107446219262 0 -0.016748821803652759 0.00066505169310221814 0 -0.016814145929871953 0.00066711750692718225 0 -0.016748821803652759 0.00066505169310221814 0 -0.016814145929871953 0.00066711750692718225 0 -0.016909603143238826 0.0007238753840117611 0 -0.016814145929871953 0.00066711750692718225 0 -0.016909603143238826 0.0007238753840117611 0 -0.016929263084363644 0.0007471926058935372 0 -0.016782014920976345 0.00064129323601265736 0 -0.016814145929871953 0.00066711750692718225 0 -0.016929263084363644 0.0007471926058935372 0 -0.017229022821917392 0.0010538354041051655 0 -0.017339488175014187 0.001050705804927562 0 -0.017318014794993657 0.0010570041996826672 0 -0.017339488175014187 0.001050705804927562 0 -0.017449147850719059 0.0011333846426185641 0 -0.017318014794993657 0.0010570041996826672 0 -0.017339488175014187 0.001050705804927562 0 -0.017508897261491733 0.0010620890813107353 0 -0.017449147850719059 0.0011333846426185641 0 -0.017339488175014187 0.001050705804927562 0 -0.017508897261491733 0.0010620890813107353 0 -0.017408884736402282 0.0009556557804903835 0 -0.017481463041119936 0.0011631874937806093 0 -0.017508897261491733 0.0010620890813107353 0 -0.017562078255271493 0.0013608455011525815 0 -0.017508897261491733 0.0010620890813107353 0 -0.017562078255271493 0.0013608455011525815 0 -0.017449147850719059 0.0011333846426185641 0 -0.017508897261491733 0.0010620890813107353 0 -0.017648238604709158 0.00081268351397285822 0 -0.017408884736402282 0.0009556557804903835 0 -0.017481463041119936 0.0011631874937806093 0 -0.017648238604709158 0.00081268351397285822 0 -0.017264693778746582 0.0008617764216758536 0 -0.017481463041119936 0.0011631874937806093 0 -0.017508897261491733 0.0010620890813107353 0 -0.017648238604709158 0.00081268351397285822 0 -0.017648238604709158 0.00081268351397285822 0 -0.017132691646926379 0.00010635897969660779 0 -0.017264693778746582 0.0008617764216758536 0 -0.017648238604709158 0.00081268351397285822 0 -0.017408884736402282 0.0009556557804903835 0 -0.017339604428388652 0.0010329953936039197 0 -0.017339604428388652 0.0010329953936039197 0 -0.017273762341724924 0.001017211233078326 0 -0.01719949715759618 0.0010373115981259832 0 -0.017408884736402282 0.0009556557804903835 0 -0.017339604428388652 0.0010329953936039197 0 -0.017273762341724924 0.001017211233078326 0 -0.017648238604709158 0.00081268351397285822 0 -0.018187266787873049 -0.00070541154502730451 0 -0.017132691646926379 0.00010635897969660779 0 -0.017673533760453976 0.00072695843507196033 0 -0.017744576265288702 0.00014366130848841968 0 -0.017252363558656659 0.0010395127445378871 0 -0.017339488175014187 0.001050705804927562 0 -0.017276779404595072 0.0010189988992699325 0 -0.017252363558656659 0.0010395127445378871 0 -0.017276779404595072 0.0010189988992699325 0 -0.017189345568210036 0.0010244326416803827 0 -0.017339488175014187 0.001050705804927562 0 -0.017408884736402282 0.0009556557804903835 0 -0.017276779404595072 0.0010189988992699325 0 -0.017408884736402282 0.0009556557804903835 0 -0.017276779404595072 0.0010189988992699325 0 -0.017273762341724924 0.001017211233078326 0 -0.017273762341724924 0.001017211233078326 0 -0.017189345568210036 0.0010244326416803827 0 -0.01719949715759618 0.0010373115981259832 0 -0.017276779404595072 0.0010189988992699325 0 -0.017273762341724924 0.001017211233078326 0 -0.017189345568210036 0.0010244326416803827 0 -0.017189345568210036 0.0010244326416803827 0 -0.017100517479838484 0.001019043381451495 0 -0.017091138162388633 0.0010039197618089354 0 -0.017189345568210036 0.0010244326416803827 0 -0.017091138162388633 0.0010039197618089354 0 -0.017162069865579645 0.0010178511396716971 0 -0.017189345568210036 0.0010244326416803827 0 -0.017100517479838484 0.001019043381451495 0 -0.01719949715759618 0.0010373115981259832 0 -0.017091138162388633 0.0010039197618089354 0 -0.01703566479524456 0.0009950980110285646 0 -0.016989063471208939 0.00097886773270222443 0 -0.017100517479838484 0.001019043381451495 0 -0.017091138162388633 0.0010039197618089354 0 -0.01703566479524456 0.0009950980110285646 0 -0.017744576265288702 0.00014366130848841968 0 -0.017704446631472241 -0.00069339597308008718 0 -0.018187266787873049 -0.00070541154502730451 0 -0.018313261366192789 -0.0023568395017634649 0 -0.01698107803027608 -0.0016298298401309656 0 -0.017339604428388652 0.0010329953936039197 0 -0.01719949715759618 0.0010373115981259832 0 -0.017100830710176051 0.0010358385706489251 0 -0.017100517479838484 0.001019043381451495 0 -0.017100830710176051 0.0010358385706489251 0 -0.017020313269705354 0.0010105868350088259 0 -0.017100517479838484 0.001019043381451495 0 -0.01719949715759618 0.0010373115981259832 0 -0.017100830710176051 0.0010358385706489251 0 -0.017704446631472241 -0.00069339597308008718 0 -0.017453049239555735 -0.0013448328033925279 0 -0.018313261366192789 -0.0023568395017634649 0 -0.018221412066791592 -0.003859006012477541 0 -0.017222281506272537 -0.0032303629767043898 0 -0.017020313269705354 0.0010105868350088259 0 -0.016826601316293984 0.00095738296934705521 0 -0.016992554020999428 0.0009337976555900447 0 -0.017100830710176051 0.0010358385706489251 0 -0.017020313269705354 0.0010105868350088259 0 -0.016826601316293984 0.00095738296934705521 0 -0.01652646628491241 0.0004963680974513615 0 -0.016826601316293984 0.00095738296934705521 0 -0.016992554020999428 0.0009337976555900447 0 -0.018221412066791592 -0.003859006012477541 0 -0.017222281506272537 -0.0032303629767043898 0 -0.017247689320169186 -0.004500004388118181 0 -0.018082488063086353 -0.0051143463687881481 0 -0.018221412066791592 -0.003859006012477541 0 -0.017247689320169186 -0.004500004388118181 0 -0.017957115943906185 -0.0028342592024570065 0 -0.017453049239555735 -0.0013448328033925279 0 -0.01703566479524456 0.0009950980110285646 0 -0.017029628818685659 0.00099298006153891553 0 -0.016953424316424489 0.0010086445040829019 0 -0.01703566479524456 0.0009950980110285646 0 -0.016953424316424489 0.0010086445040829019 0 -0.016989063471208939 0.00097886773270222443 0 -0.017100517479838484 0.001019043381451495 0 -0.01703566479524456 0.0009950980110285646 0 -0.017029628818685659 0.00099298006153891553 0 -0.017100517479838484 0.001019043381451495 0 -0.017020313269705354 0.0010105868350088259 0 -0.017029628818685659 0.00099298006153891553 0 -0.017020313269705354 0.0010105868350088259 0 -0.017029628818685659 0.00099298006153891553 0 -0.016992554020999428 0.0009337976555900447 0 -0.016974360933931766 0.0011321877379635167 0 -0.016992554020999428 0.0009337976555900447 0 -0.016953424316424489 0.0010086445040829019 0 -0.017029628818685659 0.00099298006153891553 0 -0.016992554020999428 0.0009337976555900447 0 -0.016953424316424489 0.0010086445040829019 0 -0.017498801843602522 0.00038490571140743736 0 -0.016845775086649643 0.0011301987082062972 0 -0.016831582409563027 0.0011758561481141619 0 -0.016694819515605138 0.0011229444157836116 0 -0.016953424316424489 0.0010086445040829019 0 -0.016694819515605138 0.0011229444157836116 0 -0.016953424316424489 0.0010086445040829019 0 -0.016989063471208939 0.00097886773270222443 0 -0.016708579707924987 0.0011323240231885608 0 -0.016775499027352619 0.00092288486548291603 0 -0.016694819515605138 0.0011229444157836116 0 -0.01656777952078025 0.00083505501605122396 0 -0.016348925518215481 0.00092694006255045246 0 -0.016348925518215481 0.00092694006255045246 0 -0.016110727392734031 0.00082805190642777019 0 -0.016355767241385356 0.00070786213720423785 0 -0.01656777952078025 0.00083505501605122396 0 -0.016348925518215481 0.00092694006255045246 0 -0.016355767241385356 0.00070786213720423785 0 -0.016694819515605138 0.0011229444157836116 0 -0.016348925518215481 0.00092694006255045246 0 -0.016417168246728731 0.0010818959941837239 0 -0.016358390930602578 0.00097631191889825273 0 -0.016368324115635543 0.0010717231972260928 0 -0.015956074169589152 0.0014369044645705389 0 -0.016342165915488524 0.0012458012843641587 0 -0.016068394337943877 0.0010836744792546166 0 -0.016348925518215481 0.00092694006255045246 0 -0.016342165915488524 0.0012458012843641587 0 -0.016068394337943877 0.0010836744792546166 0 -0.015956074169589152 0.0014369044645705389 0 -0.015519456703906779 0.0013304936116227694 0 -0.015802046532946496 0.0011744321070340487 0 -0.015956074169589152 0.0014369044645705389 0 -0.016068394337943877 0.0010836744792546166 0 -0.015802046532946496 0.0011744321070340487 0 -0.016068394337943877 0.0010836744792546166 0 -0.015802046532946496 0.0011744321070340487 0 -0.015861729978248293 0.00091033738406232903 0 -0.015861729978248293 0.00091033738406232903 0 -0.016110727392734031 0.00082805190642777019 0 -0.01587870318076463 0.00071015923378375909 0 -0.016348925518215481 0.00092694006255045246 0 -0.016068394337943877 0.0010836744792546166 0 -0.016110727392734031 0.00082805190642777019 0 -0.016068394337943877 0.0010836744792546166 0 -0.015861729978248293 0.00091033738406232903 0 -0.016110727392734031 0.00082805190642777019 0 -0.016110727392734031 0.00082805190642777019 0 -0.016132939779733065 0.00064183789644177295 0 -0.016355767241385356 0.00070786213720423785 0 -0.016110727392734031 0.00082805190642777019 0 -0.016132939779733065 0.00064183789644177295 0 -0.01587870318076463 0.00071015923378375909 0 -0.015937391259419592 0.00039888539030725757 0 -0.016132939779733065 0.00064183789644177295 0 -0.01587870318076463 0.00071015923378375909 0 -0.015751552606078415 0.00065332339959366949 0 -0.015937391259419592 0.00039888539030725757 0 -0.01587870318076463 0.00071015923378375909 0 -0.015804966002995923 0.00064543092032620533 0 -0.01604893479996241 0.00053381603212605204 0 -0.015937391259419592 0.00039888539030725757 0 -0.016132939779733065 0.00064183789644177295 0 -0.01623887004390067 0.00044440061112991107 0 -0.016132939779733065 0.00064183789644177295 0 -0.01623887004390067 0.00044440061112991107 0 -0.016355767241385356 0.00070786213720423785 0 -0.01623887004390067 0.00044440061112991107 0 -0.016520744482839193 0.00048133061135750686 0 -0.016355767241385356 0.00070786213720423785 0 -0.01656777952078025 0.00083505501605122396 0 -0.016520744482839193 0.00048133061135750686 0 -0.016355767241385356 0.00070786213720423785 0 -0.016775499027352619 0.00092288486548291603 0 -0.016839615474354339 0.0007600691947150448 0 -0.017091138162388633 0.0010039197618089354 0 -0.016989063471208939 0.00097886773270222443 0 -0.017162069865579645 0.0010178511396716971 0 -0.0065555362268565837 8.1065681010304e-05 0 -0.0070178550963757415 4.7904717676627159e-06 0 -0.0061320060500151393 0.00014688477993052892 0 -0.0065555362268565837 8.1065681010304e-05 0 -0.0061320060500151393 0.00014688477993052892 0 -0.0052540130445478395 0.00034877682430609633 0 -0.0065555362268565837 8.1065681010304e-05 0 -0.0076281840109749342 -1.4424527681519504e-07 0 -0.0055340032098275278 6.8940362096212516e-07 0 -0.0076281840109749342 -1.4424527681519504e-07 0 -0.0078827672423084482 -6.1926490812862576e-06 0 -0.0097210232339126137 2.101795213216164e-07 0 -0.0065555362268565837 8.1065681010304e-05 0 -0.0076281840109749342 -1.4424527681519504e-07 0 -0.0078827672423084482 -6.1926490812862576e-06 0 -0.0078827672423084482 -6.1926490812862576e-06 0 -0.0070178550963757415 4.7904717676627159e-06 0 -0.0075264520183328451 0.00011509521218904114 0 -0.0065555362268565837 8.1065681010304e-05 0 -0.0078827672423084482 -6.1926490812862576e-06 0 -0.0070178550963757415 4.7904717676627159e-06 0 -0.0078394280928780428 0.00061849959763890484 0 -0.010168423228646323 0.00073953081021758309 0 -0.0070178550963757415 4.7904717676627159e-06 0 -0.0067143733337131899 1.5695410901614781e-05 0 -0.0075264520183328451 0.00011509521218904114 0 -0.01259106208787523 0.0016083534967360309 0 -0.012681178446247807 0.0013335119715513133 0 -0.012390908631772318 0.0012242383617708484 0 -0.0058538117051817754 0.0011482514832474762 0 -0.005853903425900633 0.0013183712781951521 0 -0.006005016470618206 0.0012895761091929162 0 -0.0078394280928780428 0.00061849959763890484 0 -0.0099858699317065518 0.0014203142525405499 0 -0.006009217444865835 0.0011294963461624082 0 -0.0058538117051817754 0.0011482514832474762 0 -0.006005016470618206 0.0012895761091929162 0 -0.0053858640467287378 0.00021092297413656167 0 -0.0054527066114222989 0.00036416909333925415 0 -0.0052286554257112757 0.00047521104331617949 0 -0.0058538117051817754 0.0011482514832474762 0 -0.0058495163239684362 0.00095388692077769338 0 -0.0056815348717073966 0.001007703212301331 0 -0.006009217444865835 0.0011294963461624082 0 -0.0058538117051817754 0.0011482514832474762 0 -0.0058495163239684362 0.00095388692077769338 0 -0.0078394280928780428 0.00061849959763890484 0 -0.0055608272349242501 0.00051622093904786243 0 -0.0078394280928780428 0.00061849959763890484 0 -0.0048583629122580622 0.00023607793390799506 0 -0.0067143733337131899 1.5695410901614781e-05 0 -0.0061320060500151393 0.00014688477993052892 0 -0.0052286554257112757 0.00047521104331617949 0 -0.0070178550963757415 4.7904717676627159e-06 0 -0.0067143733337131899 1.5695410901614781e-05 0 -0.0061320060500151393 0.00014688477993052892 0 -0.0061320060500151393 0.00014688477993052892 0 -0.0052286554257112757 0.00047521104331617949 0 -0.0052540130445478395 0.00034877682430609633 0 -0.0052286554257112757 0.00047521104331617949 0 -0.0040643939670822644 0.0011130569684377658 0 -0.0052540130445478395 0.00034877682430609633 0 -0.0052286554257112757 0.00047521104331617949 0 -0.0054224013009758158 0.00082256689559845331 0 -0.0056119117869089675 0.00076728415371429424 0 -0.0054527066114222989 0.00036416909333925415 0 -0.0052286554257112757 0.00047521104331617949 0 -0.0056119117869089675 0.00076728415371429424 0 -0.0055608272349242501 0.00051622093904786243 0 -0.0056636538728990988 0.00079827755763686096 0 -0.0054224013009758158 0.00082256689559845331 0 -0.0054175916266609916 0.001163412529884951 0 -0.0055578514293517442 0.00091341769127815237 0 -0.0054224013009758158 0.00082256689559845331 0 -0.0040643939670822644 0.0011130569684377658 0 -0.0054175916266609916 0.001163412529884951 0 -0.0052286554257112757 0.00047521104331617949 0 -0.0054224013009758158 0.00082256689559845331 0 -0.0040643939670822644 0.0011130569684377658 0 -0.0037051087105877279 0.0011818223845610331 0 -0.0026014015472614099 0.0014436945790059406 0 -0.0040643939670822644 0.0011130569684377658 0 -0.0046159114164905368 0.00052326604166263828 0 -0.0038086216906026956 0.00049535445019628632 0 -0.0040643939670822644 0.0011130569684377658 0 -0.0046159114164905368 0.00052326604166263828 0 -0.0052540130445478395 0.00034877682430609633 0 -0.0065555362268565837 8.1065681010304e-05 0 -0.0052540130445478395 0.00034877682430609633 0 -0.0055340032098275278 6.8940362096212516e-07 0 -0.0046159114164905368 0.00052326604166263828 0 -0.0052540130445478395 0.00034877682430609633 0 -0.0055340032098275278 6.8940362096212516e-07 0 -0.0055340032098275278 6.8940362096212516e-07 0 -0.0034447813497624634 1.0364057010202726e-06 0 -0.0038086216906026956 0.00049535445019628632 0 -0.0046159114164905368 0.00052326604166263828 0 -0.0055340032098275278 6.8940362096212516e-07 0 -0.0038086216906026956 0.00049535445019628632 0 -0.0034447813497624634 1.0364057010202726e-06 0 -0.0038086216906026956 0.00049535445019628632 0 -0.0024214405299300512 8.373997118693894e-05 0 -0.0038086216906026956 0.00049535445019628632 0 -0.0024214405299300512 8.373997118693894e-05 0 -0.0020630755181287631 0.00086256097425765432 0 -0.0040643939670822644 0.0011130569684377658 0 -0.0038086216906026956 0.00049535445019628632 0 -0.0020630755181287631 0.00086256097425765432 0 -0.0024214405299300512 8.373997118693894e-05 0 -0.00062616201321797575 0.00039263031017888419 0 -0.0020630755181287631 0.00086256097425765432 0 -0.0034398043712044334 1.741881853239043e-06 0 -0.00036214455415062421 0.00040284184964057716 0 -0.0015693709132661219 -2.065490323929728e-07 0 -0.0034414995925704864 6.606780067144333e-08 0 -0.0013229869212369497 0.00021469028463352903 0 -0.00036214455415062421 0.00040284184964057716 0 -0.0015693709132661219 -2.065490323929728e-07 0 0.00053560775022470268 -0.0001541961914088506 0 -0.00036214455415062421 0.00040284184964057716 0 0.00053560775022470268 -0.0001541961914088506 0 0.00121090310650051 -0.00010785213166867057 0 -0.0013229869212369497 0.00021469028463352903 0 0.00086457836261058182 -0.00013836248814573762 0 0.0024244620257407429 -0.00055437365993638639 0 0.00053560775022470268 -0.0001541961914088506 0 0.00121090310650051 -0.00010785213166867057 0 0.00030277420494100217 -4.6635557312077836e-07 0 -0.0015693709132661219 -2.065490323929728e-07 0 0.00053560775022470268 -0.0001541961914088506 0 0.0033019282183691253 -0.00045153269634786418 0 0.0028507155292171529 -0.00014582145176346981 0 0.00121090310650051 -0.00010785213166867057 0 0.0028507155292171529 -0.00014582145176346981 0 0.00121090310650051 -0.00010785213166867057 0 0.0029920386660069746 0.00029515724496129598 0 -0.0024214405299300512 8.373997118693894e-05 0 0.00121090310650051 -0.00010785213166867057 0 -0.00062616201321797575 0.00039263031017888419 0 0.00121090310650051 -0.00010785213166867057 0 0.00074172456702853548 0.0007339937642299075 0 -0.00062616201321797575 0.00039263031017888419 0 0.00121090310650051 -0.00010785213166867057 0 0.00074172456702853548 0.0007339937642299075 0 0.0029920386660069746 0.00029515724496129598 0 0.00074172456702853548 0.0007339937642299075 0 8.3245623784839463e-05 0.0020145271109525903 0 0.0029548535892105115 0.001775166956058672 0 0.00074172456702853548 0.0007339937642299075 0 -0.00062616201321797575 0.00039263031017888419 0 -0.0020630755181287631 0.00086256097425765432 0 -0.0040643939670822644 0.0011130569684377658 0 -0.0020630755181287631 0.00086256097425765432 0 8.3245623784839463e-05 0.0020145271109525903 0 0.00074172456702853548 0.0007339937642299075 0 -0.0020630755181287631 0.00086256097425765432 0 8.3245623784839463e-05 0.0020145271109525903 0 -0.0054175916266609916 0.001163412529884951 0 -0.0054963640433211367 0.00086788078361344249 0 -0.0055578514293517442 0.00091341769127815237 0 -0.0026014015472614099 0.0014436945790059406 0 -0.0012091906819864759 0.0012736631730663002 0 -0.0054388223864095496 0.00085283510268452432 0 -0.0054963640433211367 0.00086788078361344249 0 -0.0055578514293517442 0.00091341769127815237 0 -0.0012091906819864759 0.0012736631730663002 0 -0.00032468840765712172 0.001032573910879662 0 -0.0054388223864095496 0.00085283510268452432 0 -0.0054963640433211367 0.00086788078361344249 0 -0.0053429312158558727 0.00069245400126074586 0 0.0029548535892105115 0.001775166956058672 0 0.0042490504764287965 0.00062506655126419463 0 0.0049596833014706942 0.0013259489056701111 0 0.00074172456702853548 0.0007339937642299075 0 0.0029548535892105115 0.001775166956058672 0 0.0029920386660069746 0.00029515724496129598 0 0.0029548535892105115 0.001775166956058672 0 0.0029920386660069746 0.00029515724496129598 0 0.0042490504764287965 0.00062506655126419463 0 0.0042490504764287965 0.00062506655126419463 0 0.0053876389586957861 0.00054455976412016082 0 0.0049596833014706942 0.0013259489056701111 0 0.0029920386660069746 0.00029515724496129598 0 0.0042490504764287965 0.00062506655126419463 0 0.0048977355794962768 0.00015147734905384411 0 0.0042490504764287965 0.00062506655126419463 0 0.0048977355794962768 0.00015147734905384411 0 0.0053876389586957861 0.00054455976412016082 0 0.0042688091437404312 -0.00025950201331096252 0 0.0028507155292171529 -0.00014582145176346981 0 0.0029920386660069746 0.00029515724496129598 0 0.0042688091437404312 -0.00025950201331096252 0 0.0029920386660069746 0.00029515724496129598 0 0.0048977355794962768 0.00015147734905384411 0 0.0045595050789216246 0.00058164035855204929 0 0.0065395483927831758 0.00062018166983255978 0 0.0069774761478340018 4.8953379744943522e-05 0 0.0068529507142929434 0.00053769010899923765 0 0.0072346500607418374 0.00081415502962924773 0 0.0069941082468772033 0.001067772752683276 0 0.0068529507142929434 0.00053769010899923765 0 0.0059178338930527949 0.00032128012731047175 0 0.0058834642463896827 0.00040597994352279825 0 0.0058658260159843746 0.00045610136231187271 0 0.0059178338930527949 0.00032128012731047175 0 0.0045889834234172306 0.0015476332642427799 0 0.0011636027661923105 0.00055992928360688551 0 0.0058834642463896827 0.00040597994352279825 0 0.0058658260159843746 0.00045610136231187271 0 0.0058610803174484047 0.00043950242147348148 0 0.0069941082468772033 0.001067772752683276 0 0.0068529507142929434 0.00053769010899923765 0 0.0072346500607418374 0.00081415502962924773 0 0.0045595050789216246 0.00058164035855204929 0 0.0063051338308279413 9.6365250285210678e-05 0 0.006621854018659723 0.00025851100439382038 0 0.0068529507142929434 0.00053769010899923765 0 0.0059178338930527949 0.00032128012731047175 0 0.0058834642463896827 0.00040597994352279825 0 0.0053876389586957861 0.00054455976412016082 0 0.0061113551362061511 0.00074353109050160899 0 0.0058870299040351837 -8.7877045826545465e-05 0 0.0048977355794962768 0.00015147734905384411 0 0.0059178338930527949 0.00032128012731047175 0 0.0048977355794962768 0.00015147734905384411 0 0.0059178338930527949 0.00032128012731047175 0 0.0053876389586957861 0.00054455976412016082 0 0.0058834642463896827 0.00040597994352279825 0 0.0059178338930527949 0.00032128012731047175 0 0.0053876389586957861 0.00054455976412016082 0 0.0053876389586957861 0.00054455976412016082 0 0.0061113551362061511 0.00074353109050160899 0 0.0049596833014706942 0.0013259489056701111 0 -0.0051593190059951461 0.00058868782080510212 0 -0.0052349527344887781 0.00071010475667920489 0 -0.0053429312158558727 0.00069245400126074586 0 0.0011636027661923105 0.00055992928360688551 0 -0.00032468840765712172 0.001032573910879662 0 0.0011636027661923105 0.00055992928360688551 0 -0.0025121683542995064 0.0006684491782883885 0 -0.0051593190059951461 0.00058868782080510212 0 -0.0052349527344887781 0.00071010475667920489 0 -0.0051277905971162307 0.00070945310074676041 0 0.0013906693191647779 0.00089132959251692176 0 0.00088920831644405699 0.00015152544068637266 0 0.00084875694450947442 0.00092247767155591385 0 0.0010953652499722051 0.0010820119443661774 0 0.0013906693191647779 0.00089132959251692176 0 0.00084875694450947442 0.00092247767155591385 0 0.0045595050789216246 0.00058164035855204929 0 0.0032077271666122575 0.00065661992379197661 0 0.0045595050789216246 0.00058164035855204929 0 0.0011636027661923105 0.00055992928360688551 0 -0.0052113996485900526 0.00083846929976026392 0 -0.0025121683542995064 0.0006684491782883885 0 -0.0052300530916279684 0.00077474291524411122 0 -0.0051857099731673212 0.00081118802498226421 0 -0.0051277905971162307 0.00070945310074676041 0 -0.0052349527344887781 0.00071010475667920489 0 -0.0052300530916279684 0.00077474291524411122 0 -0.0051277905971162307 0.00070945310074676041 0 -0.0054388223864095496 0.00085283510268452432 0 -0.0053429312158558727 0.00069245400126074586 0 -0.0053236582241059614 0.00080205443249343436 0 -0.0052349527344887781 0.00071010475667920489 0 -0.0053429312158558727 0.00069245400126074586 0 -0.0053236582241059614 0.00080205443249343436 0 -0.0052349527344887781 0.00071010475667920489 0 -0.0052300530916279684 0.00077474291524411122 0 -0.0053236582241059614 0.00080205443249343436 0 -0.0054388223864095496 0.00085283510268452432 0 -0.0053236582241059614 0.00080205443249343436 0 -0.0054323959661884968 0.00088659123444379429 0 -0.0053236582241059614 0.00080205443249343436 0 -0.0052756537220551812 0.00084871168447402047 0 -0.0054323959661884968 0.00088659123444379429 0 -0.0052300530916279684 0.00077474291524411122 0 -0.0053236582241059614 0.00080205443249343436 0 -0.0052756537220551812 0.00084871168447402047 0 -0.0051857099731673212 0.00081118802498226421 0 -0.0052756537220551812 0.00084871168447402047 0 -0.0052120671500168496 0.00089185397433695244 0 -0.0052300530916279684 0.00077474291524411122 0 -0.0051857099731673212 0.00081118802498226421 0 -0.0052756537220551812 0.00084871168447402047 0 -0.0052113996485900526 0.00083846929976026392 0 -0.0051991549244195332 0.00086807296299368166 0 -0.0052756537220551812 0.00084871168447402047 0 -0.0052120671500168496 0.00089185397433695244 0 -0.0053449049508248695 0.00092379654118690166 0 -0.0052793444172074162 0.00098504514795922748 0 -0.0053027241862169333 0.0011097861297113519 0 -0.0051506169627098791 0.00099561078923284495 0 -0.0052120671500168496 0.00089185397433695244 0 -0.0052793444172074162 0.00098504514795922748 0 -0.0053449049508248695 0.00092379654118690166 0 -0.0052120671500168496 0.00089185397433695244 0 -0.0052793444172074162 0.00098504514795922748 0 -0.0051506169627098791 0.00099561078923284495 0 -0.0052793444172074162 0.00098504514795922748 0 -0.0053449049508248695 0.00092379654118690166 0 -0.005381456804994621 0.0010191656225877928 0 -0.0054466105128191111 0.00093079421437517623 0 -0.0055202952806833513 0.0010042399845144405 0 -0.005381456804994621 0.0010191656225877928 0 -0.0053449049508248695 0.00092379654118690166 0 -0.0054466105128191111 0.00093079421437517623 0 -0.005381456804994621 0.0010191656225877928 0 -0.0053449049508248695 0.00092379654118690166 0 -0.0054466105128191111 0.00093079421437517623 0 -0.0054323959661884968 0.00088659123444379429 0 -0.0052756537220551812 0.00084871168447402047 0 -0.0053449049508248695 0.00092379654118690166 0 -0.0054323959661884968 0.00088659123444379429 0 -0.0054323959661884968 0.00088659123444379429 0 -0.0055578514293517442 0.00091341769127815237 0 -0.0055446762533260061 0.00087627907291134796 0 -0.0054388223864095496 0.00085283510268452432 0 -0.0054323959661884968 0.00088659123444379429 0 -0.0055578514293517442 0.00091341769127815237 0 -0.0055578514293517442 0.00091341769127815237 0 -0.0056119117869089675 0.00076728415371429424 0 -0.0055446762533260061 0.00087627907291134796 0 -0.0054224013009758158 0.00082256689559845331 0 -0.0055578514293517442 0.00091341769127815237 0 -0.0056119117869089675 0.00076728415371429424 0 -0.0058495163239684362 0.00095388692077769338 0 -0.0056119117869089675 0.00076728415371429424 0 -0.0056815348717073966 0.001007703212301331 0 -0.0056119117869089675 0.00076728415371429424 0 -0.0055446762533260061 0.00087627907291134796 0 -0.0056815348717073966 0.001007703212301331 0 -0.0054466105128191111 0.00093079421437517623 0 -0.0054323959661884968 0.00088659123444379429 0 -0.0055446762533260061 0.00087627907291134796 0 -0.0055446762533260061 0.00087627907291134796 0 -0.0055202952806833513 0.0010042399845144405 0 -0.0056815348717073966 0.001007703212301331 0 -0.0054466105128191111 0.00093079421437517623 0 -0.0055446762533260061 0.00087627907291134796 0 -0.0055202952806833513 0.0010042399845144405 0 -0.0055202952806833513 0.0010042399845144405 0 -0.0056815348717073966 0.001007703212301331 0 -0.0055878517960095287 0.001135839205654953 0 -0.0055202952806833513 0.0010042399845144405 0 -0.0055878517960095287 0.001135839205654953 0 -0.0054625006148525989 0.0010987435804401004 0 -0.0058538117051817754 0.0011482514832474762 0 -0.0056815348717073966 0.001007703212301331 0 -0.0057294517795360954 0.0011772871550348829 0 -0.0056815348717073966 0.001007703212301331 0 -0.0057294517795360954 0.0011772871550348829 0 -0.0055878517960095287 0.001135839205654953 0 -0.0057294517795360954 0.0011772871550348829 0 -0.0055878517960095287 0.001135839205654953 0 -0.0056677220456063174 0.0012800626795407006 0 -0.0057294517795360954 0.0011772871550348829 0 -0.005853903425900633 0.0013183712781951521 0 -0.0056677220456063174 0.0012800626795407006 0 -0.0058538117051817754 0.0011482514832474762 0 -0.0057294517795360954 0.0011772871550348829 0 -0.005853903425900633 0.0013183712781951521 0 -0.0055878517960095287 0.001135839205654953 0 -0.0054804482129011617 0.0012711907668754539 0 -0.0056677220456063174 0.0012800626795407006 0 -0.0055878517960095287 0.001135839205654953 0 -0.0054625006148525989 0.0010987435804401004 0 -0.0054804482129011617 0.0012711907668754539 0 -0.0076097959772932541 0.00017285434571506674 0 -0.010133408163768873 0.00027631452645976548 0 -0.013724195132441344 -0.00096910114792429444 0 -0.013701550994179575 -0.0011736776470188542 0 -0.013995762295898977 -0.00090527842128679877 0 -0.0053235603072628668 0.0010827546093890074 0 -0.0054625006148525989 0.0010987435804401004 0 -0.0054804482129011617 0.0012711907668754539 0 -0.0076097959772932541 0.00017285434571506674 0 -0.0086943617822553675 -0.0010738253209236657 0 -0.013724195132441344 -0.00096910114792429444 0 -0.013701550994179575 -0.0011736776470188542 0 -0.013492772570842779 -0.00098267756073823183 0 -0.0052793444172074162 0.00098504514795922748 0 -0.0053027241862169333 0.0011097861297113519 0 -0.005381456804994621 0.0010191656225877928 0 -0.0076097959772932541 0.00017285434571506674 0 -0.0042608241891018417 0.00080254168965946987 0 -0.0076097959772932541 0.00017285434571506674 0 -0.0050038190439318994 0.0015570335046327726 0 -0.0055202952806833513 0.0010042399845144405 0 -0.005381456804994621 0.0010191656225877928 0 -0.0054625006148525989 0.0010987435804401004 0 -0.0053235603072628668 0.0010827546093890074 0 -0.005381456804994621 0.0010191656225877928 0 -0.0054625006148525989 0.0010987435804401004 0 -0.0046804341724912832 0.00025026893335805203 0 -0.0052117181534281545 -0.00058883619240058518 0 -0.0055679603795932842 0.00046026846806191009 0 -0.0046804341724912832 0.00025026893335805203 0 -0.004482144332318313 -0.00046913496357507353 0 -0.0052117181534281545 -0.00058883619240058518 0 -0.0031632864233757754 -7.8163791560813197e-05 0 -0.0040044586429137247 -4.6350377531246088e-05 0 -0.00395592360405229 0.00081465650094077972 0 -0.0046804341724912832 0.00025026893335805203 0 -0.0040044586429137247 -4.6350377531246088e-05 0 -0.00395592360405229 0.00081465650094077972 0 -0.0046804341724912832 0.00025026893335805203 0 -0.0040044586429137247 -4.6350377531246088e-05 0 -0.004482144332318313 -0.00046913496357507353 0 -0.0039284957729516122 -0.00090253769805416744 0 -0.0047980538064049099 -0.0011047480468001872 0 -0.004482144332318313 -0.00046913496357507353 0 -0.0040044586429137247 -4.6350377531246088e-05 0 -0.0039284957729516122 -0.00090253769805416744 0 -0.004482144332318313 -0.00046913496357507353 0 -0.0031632864233757754 -7.8163791560813197e-05 0 -0.0040044586429137247 -4.6350377531246088e-05 0 -0.0039284957729516122 -0.00090253769805416744 0 -0.0047980538064049099 -0.0011047480468001872 0 -0.0052117181534281545 -0.00058883619240058518 0 -0.0056812260214577368 -0.0018116781747656401 0 -0.0047980538064049099 -0.0011047480468001872 0 -0.004482144332318313 -0.00046913496357507353 0 -0.0052117181534281545 -0.00058883619240058518 0 -0.0052117181534281545 -0.00058883619240058518 0 -0.0061513732654697008 -0.0010375266106860662 0 -0.005961878294411682 -0.00028510495462276278 0 -0.0052117181534281545 -0.00058883619240058518 0 -0.0061513732654697008 -0.0010375266106860662 0 -0.0056812260214577368 -0.0018116781747656401 0 -0.006927825018149752 -0.0010252634562910169 0 -0.0061513732654697008 -0.0010375266106860662 0 -0.0065947671427886842 -0.00049606108656922803 0 -0.0061513732654697008 -0.0010375266106860662 0 -0.0065947671427886842 -0.00049606108656922803 0 -0.005961878294411682 -0.00028510495462276278 0 -0.006927825018149752 -0.0010252634562910169 0 -0.0065947671427886842 -0.00049606108656922803 0 -0.0073363343239525652 -0.00047031055150224978 0 -0.0065587263820443371 0.00022705359654162763 0 -0.0055679603795932842 0.00046026846806191009 0 -0.0063846307648778152 0.0012039141575630422 0 -0.0065947671427886842 -0.00049606108656922803 0 -0.0065587263820443371 0.00022705359654162763 0 -0.0073363343239525652 -0.00047031055150224978 0 -0.0065947671427886842 -0.00049606108656922803 0 -0.0065587263820443371 0.00022705359654162763 0 -0.005961878294411682 -0.00028510495462276278 0 -0.0065587263820443371 0.00022705359654162763 0 -0.0063846307648778152 0.0012039141575630422 0 -0.0074313240523160825 0.00066209694369976561 0 -0.0052117181534281545 -0.00058883619240058518 0 -0.005961878294411682 -0.00028510495462276278 0 -0.0055679603795932842 0.00046026846806191009 0 -0.0065587263820443371 0.00022705359654162763 0 -0.005961878294411682 -0.00028510495462276278 0 -0.0055679603795932842 0.00046026846806191009 0 -0.0055679603795932842 0.00046026846806191009 0 -0.0056817383247599997 0.0015685433886772674 0 -0.0049032750859874475 0.001453260755221884 0 -0.0054836092665596914 0.00057069714727958241 0 -0.0050375112772477306 0.0011871491204293843 0 -0.0055679603795932842 0.00046026846806191009 0 -0.0056817383247599997 0.0015685433886772674 0 -0.0063846307648778152 0.0012039141575630422 0 -0.0056817383247599997 0.0015685433886772674 0 -0.0053428507685419156 0.0023270408881810021 0 -0.0049032750859874475 0.001453260755221884 0 -0.0063846307648778152 0.0012039141575630422 0 -0.0061617022196805435 0.0023375839090917791 0 -0.0071191565336247275 0.0019672292219622546 0 -0.0056817383247599997 0.0015685433886772674 0 -0.0063846307648778152 0.0012039141575630422 0 -0.0061617022196805435 0.0023375839090917791 0 -0.0061617022196805435 0.0023375839090917791 0 -0.0066178143390912009 0.0027561329050210721 0 -0.0071191565336247275 0.0019672292219622546 0 -0.0061617022196805435 0.0023375839090917791 0 -0.0057818925975727858 0.0031324838724670311 0 -0.006251347735691519 0.0030779222319458096 0 -0.0061617022196805435 0.0023375839090917791 0 -0.0066178143390912009 0.0027561329050210721 0 -0.006251347735691519 0.0030779222319458096 0 -0.0056817383247599997 0.0015685433886772674 0 -0.0061617022196805435 0.0023375839090917791 0 -0.0053428507685419156 0.0023270408881810021 0 -0.0061617022196805435 0.0023375839090917791 0 -0.0053428507685419156 0.0023270408881810021 0 -0.0057818925975727858 0.0031324838724670311 0 -0.003526521136671631 0.0015663705198035432 0 -0.0029624080345440275 0.002273531536354382 0 -0.0053428507685419156 0.0023270408881810021 0 -0.0043482351617778582 0.0023449462244105029 0 -0.0050852413360056078 0.0031051136039924382 0 -0.003526521136671631 0.0015663705198035432 0 -0.0050375112772477306 0.0011871491204293843 0 -0.0053428507685419156 0.0023270408881810021 0 -0.0043482351617778582 0.0023449462244105029 0 -0.0049032750859874475 0.001453260755221884 0 -0.0047421499168708373 0.0016796078592852745 0 -0.0051622210350468298 0.0010387263629266503 0 -0.004635142162253466 0.00094695052325296483 0 -0.0047421499168708373 0.0016796078592852745 0 -0.004635142162253466 0.00094695052325296483 0 -0.00395592360405229 0.00081465650094077972 0 -0.0046804341724912832 0.00025026893335805203 0 -0.0055679603795932842 0.00046026846806191009 0 -0.0051622210350468298 0.0010387263629266503 0 -0.0046804341724912832 0.00025026893335805203 0 -0.0051622210350468298 0.0010387263629266503 0 -0.004635142162253466 0.00094695052325296483 0 -0.003526521136671631 0.0015663705198035432 0 -0.0042608241891018417 0.00080254168965946987 0 -0.0046804341724912832 0.00025026893335805203 0 -0.004635142162253466 0.00094695052325296483 0 -0.00395592360405229 0.00081465650094077972 0 -0.005008532274371231 0.00088466478138229661 0 -0.0051124327041642869 0.000858153927761776 0 -0.0050819973715759909 0.00077236492663159729 0 -0.0052120671500168496 0.00089185397433695244 0 -0.0051506169627098791 0.00099561078923284495 0 -0.0051124327041642869 0.000858153927761776 0 -0.0051587203653924683 0.00077610387376004088 0 -0.0052120671500168496 0.00089185397433695244 0 -0.0051124327041642869 0.000858153927761776 0 -0.005008532274371231 0.00088466478138229661 0 -0.0051506169627098791 0.00099561078923284495 0 -0.0051124327041642869 0.000858153927761776 0 -0.0051587203653924683 0.00077610387376004088 0 -0.0050819973715759909 0.00077236492663159729 0 -0.0051203354723328995 0.00068172455412716265 0 -0.0051587203653924683 0.00077610387376004088 0 -0.0051124327041642869 0.000858153927761776 0 -0.0050819973715759909 0.00077236492663159729 0 -0.003526521136671631 0.0015663705198035432 0 -0.0027120982704427928 0.00093160938177630406 0 -0.00047828136789300311 0.0010587413586797879 0 -0.00040929644156704244 0.001114817227103742 0 -0.00050679004308040341 0.0011033336282350638 0 -0.00040929644156704244 0.001114817227103742 0 -0.00046236723418888127 0.0011427868685238186 0 -0.00050679004308040341 0.0011033336282350638 0 -0.00040929644156704244 0.001114817227103742 0 -0.00046236723418888127 0.0011427868685238186 0 -0.00043154304437218268 0.0012018377672691444 0 -0.00046236723418888127 0.0011427868685238186 0 -0.00043154304437218268 0.0012018377672691444 0 -0.00054548688441183411 0.0011494942448778897 0 -0.0027120982704427928 0.00093160938177630406 0 -0.0025121683542995064 0.0006684491782883885 0 -0.00040929644156704244 0.001114817227103742 0 -0.00043154304437218268 0.0012018377672691444 0 -0.00033415879649497304 0.0011829274925180295 0 -0.0025121683542995064 0.0006684491782883885 0 0.0032077271666122575 0.00065661992379197661 0 -0.00043154304437218268 0.0012018377672691444 0 -0.00033415879649497304 0.0011829274925180295 0 -0.00031369134626232307 0.0012590031906663771 0 0.0066544136618222382 -0.0011914591562170033 0 0.0077017550709437199 -0.00044426416544569093 0 0.0075222021813230724 -0.00011242637145411161 0 0.0036688609271554209 -0.00013319623034227342 0 0.0032077271666122575 0.00065661992379197661 0 0.0066544136618222382 -0.0011914591562170033 0 0.0075222021813230724 -0.00011242637145411161 0 0.005739934768375002 -0.00024052235858726666 0 0.0077722123412064543 -0.0002466317185124741 0 0.0075222021813230724 -0.00011242637145411161 0 0.0077779289268747435 -0.00035119797589097218 0 0.0077722123412064543 -0.0002466317185124741 0 0.0075892832461942738 -0.00019269470029457334 0 0.0075222021813230724 -0.00011242637145411161 0 0.0071770903102336952 -0.00013228684817581153 0 0.0074053970116000362 -0.00042131289864285015 0 0.0078821794594036414 -0.00013693621051699359 0 0.0063051338308279413 9.6365250285210678e-05 0 0.0075892832461942738 -0.00019269470029457334 0 0.0075795993415215075 -0.0001556796640133534 0 0.0075222021813230724 -0.00011242637145411161 0 0.0077017550709437199 -0.00044426416544569093 0 0.0075795993415215075 -0.0001556796640133534 0 0.0075222021813230724 -0.00011242637145411161 0 0.0045231389497462611 0.00064827121825898669 0 0.0047191291470832725 0.00077825517635782661 0 0.0047477342932361749 0.00050633760985913383 0 0.0032077271666122575 0.00065661992379197661 0 0.0063051338308279413 9.6365250285210678e-05 0 0.0076767259748185103 -0.00036813174498835096 0 0.0077779289268747435 -0.00035119797589097218 0 0.0074998325864490192 -0.00066739155040766902 0 0.0077722123412064543 -0.0002466317185124741 0 0.0076767259748185103 -0.00036813174498835096 0 0.0077779289268747435 -0.00035119797589097218 0 0.0066544136618222382 -0.0011914591562170033 0 0.0049501533739247433 -0.0010234699472751378 0 0.005739934768375002 -0.00024052235858726666 0 0.0074053970116000362 -0.00042131289864285015 0 0.0023746986975758649 0.00086398769182787155 0 0.0049501533739247433 -0.0010234699472751378 0 0.005739934768375002 -0.00024052235858726666 0 0.0037702312517991611 -0.00070621028638455494 0 0.0049501533739247433 -0.0010234699472751378 0 0.0037702312517991611 -0.00070621028638455494 0 0.0050731815141057367 -0.002130284511575823 0 0.0023746986975758649 0.00086398769182787155 0 -0.001023842828264289 0.001531315171436476 0 -0.0051170609710035298 0.00146554208451143 0 -0.0056347365457841553 0.0031617465755857197 0 -0.0066828570521182242 0.0038192632802622742 0 -0.0056347365457841553 0.0031617465755857197 0 -0.0066828570521182242 0.0038192632802622742 0 -0.0061487826461598368 0.0035401692687263078 0 -0.0056347365457841553 0.0031617465755857197 0 -0.0063540981302723024 0.0033578871613697144 0 -0.0061487826461598368 0.0035401692687263078 0 0.0066544136618222382 -0.0011914591562170033 0 0.0049501533739247433 -0.0010234699472751378 0 0.0050731815141057367 -0.002130284511575823 0 0.0036688609271554209 -0.00013319623034227342 0 -0.001023842828264289 0.001531315171436476 0 -0.00046236723418888127 0.0011427868685238186 0 -0.00054548688441183411 0.0011494942448778897 0 -0.00050679004308040341 0.0011033336282350638 0 -0.001023842828264289 0.001531315171436476 0 -0.0029624080345440275 0.002273531536354382 0 -0.0059390410390095117 0.0038720594031879958 0 -0.0057818925975727858 0.0031324838724670311 0 -0.0062866394534097977 0.0036775248347148178 0 -0.0059390410390095117 0.0038720594031879958 0 -0.0057818925975727858 0.0031324838724670311 0 -0.0050852413360056078 0.0031051136039924382 0 -0.001023842828264289 0.001531315171436476 0 -0.0028990445414869537 0.0012845524181977729 0 -0.0053428507685419156 0.0023270408881810021 0 -0.0057818925975727858 0.0031324838724670311 0 -0.0050852413360056078 0.0031051136039924382 0 -0.0063540981302723024 0.0033578871613697144 0 -0.0062342344933698527 0.0034021657286420243 0 -0.006251347735691519 0.0030779222319458096 0 -0.0063540981302723024 0.0033578871613697144 0 -0.0061487826461598368 0.0035401692687263078 0 -0.0062342344933698527 0.0034021657286420243 0 -0.0062866394534097977 0.0036775248347148178 0 -0.0062342344933698527 0.0034021657286420243 0 -0.006251347735691519 0.0030779222319458096 0 -0.0061487826461598368 0.0035401692687263078 0 -0.0062866394534097977 0.0036775248347148178 0 -0.0062342344933698527 0.0034021657286420243 0 -0.0066828570521182242 0.0038192632802622742 0 -0.0061487826461598368 0.0035401692687263078 0 -0.0062866394534097977 0.0036775248347148178 0 -0.0057818925975727858 0.0031324838724670311 0 -0.0062866394534097977 0.0036775248347148178 0 -0.006251347735691519 0.0030779222319458096 0 -0.0066178143390912009 0.0027561329050210721 0 -0.0063540981302723024 0.0033578871613697144 0 -0.006251347735691519 0.0030779222319458096 0 -0.0070683279763003775 0.0030057515091858312 0 -0.0065495722479169986 0.0033093086168842294 0 -0.0072410113879033729 0.0035161309116612722 0 -0.0066178143390912009 0.0027561329050210721 0 -0.0063540981302723024 0.0033578871613697144 0 -0.0070683279763003775 0.0030057515091858312 0 -0.0063540981302723024 0.0033578871613697144 0 -0.0070683279763003775 0.0030057515091858312 0 -0.0065495722479169986 0.0033093086168842294 0 -0.0070683279763003775 0.0030057515091858312 0 -0.0086182860395496597 0.004355883027469149 0 -0.008605974154099692 0.0024267076853889099 0 -0.0086182860395496597 0.004355883027469149 0 -0.010562057637288293 0.003639301580227967 0 -0.008605974154099692 0.0024267076853889099 0 -0.0084179896665990059 0.0039566361329662026 0 -0.0035584784541672068 0.0026451944873007878 0 0.0011063462335683485 0.0028240796531885473 0 0.0042144642749651802 0.0041245969802780813 0 0.0021778616290952656 0.0062842942447370303 0 -0.00038690801709660353 0.0022480197568745691 0 0.0043368124903341888 0.0043395018822023892 0 0.0035328678895588401 0.0034383356695250429 0 0.0047225746615644094 0.0027236777862728449 0 0.0043368124903341888 0.0043395018822023892 0 -0.0056347365457841553 0.0031617465755857197 0 -0.0065495722479169986 0.0033093086168842294 0 -0.0072410113879033729 0.0035161309116612722 0 -0.0056347365457841553 0.0031617465755857197 0 0.0021778616290952656 0.0062842942447370303 0 -0.00038690801709660353 0.0022480197568745691 0 -0.0050065854972015716 0.0039902099106164188 0 -0.0035584784541672068 0.0026451944873007878 0 -0.0051170609710035298 0.00146554208451143 0 -0.0056347365457841553 0.0031617465755857197 0 -0.00038690801709660353 0.0022480197568745691 0 -0.0056347365457841553 0.0031617465755857197 0 -0.0063540981302723024 0.0033578871613697144 0 -0.0065495722479169986 0.0033093086168842294 0 0.0023746986975758649 0.00086398769182787155 0 0.0011063462335683485 0.0028240796531885473 0 0.0023746986975758649 0.00086398769182787155 0 0.0059595229763821861 0.00023537448478197978 0 0.002105566806511098 0.0028996614400306235 0 0.0035328678895588401 0.0034383356695250429 0 0.0039510603565793027 0.001149889479459518 0 0.0035328678895588401 0.0034383356695250429 0 0.0047225746615644094 0.0027236777862728449 0 0.0039510603565793027 0.001149889479459518 0 0.0047225746615644094 0.0027236777862728449 0 0.0039510603565793027 0.001149889479459518 0 0.0055630276823582245 0.0017060311134225038 0 0.0039510603565793027 0.001149889479459518 0 0.0059875298423554754 0.00087820387393329567 0 0.0055630276823582245 0.0017060311134225038 0 0.0076767259748185103 -0.00036813174498835096 0 0.0074998325864490192 -0.00066739155040766902 0 0.0071620544623605909 -0.00059182869116882082 0 0.0072530637679713676 0.0011160438512483229 0 0.0065313386395820369 0.0014848918462410103 0 0.0071198876227644651 0.0021002949834115305 0 -0.001002286884654664 0.0025412498918399246 0 0.001598844268300204 0.0020132191850240405 0 -0.0052956200838463014 0.0021651318940112555 0 -0.0056134457126804354 0.0032448415184346598 0 -0.0043885870808912418 0.0022079299919394229 0 0.0080082090793734267 0.0010439044089632899 0 0.0072530637679713676 0.0011160438512483229 0 0.0071198876227644651 0.0021002949834115305 0 0.0076218378453362847 0.00042479621861158187 0 0.0080082090793734267 0.0010439044089632899 0 0.0072530637679713676 0.0011160438512483229 0 0.0068800995991833563 0.00062883281195573503 0 0.0076218378453362847 0.00042479621861158187 0 0.0072530637679713676 0.0011160438512483229 0 0.0068800995991833563 0.00062883281195573503 0 0.0072530637679713676 0.0011160438512483229 0 0.0065313386395820369 0.0014848918462410103 0 0.0068800995991833563 0.00062883281195573503 0 0.0059875298423554754 0.00087820387393329567 0 0.0065313386395820369 0.0014848918462410103 0 0.0059875298423554754 0.00087820387393329567 0 0.0055630276823582245 0.0017060311134225038 0 0.0065313386395820369 0.0014848918462410103 0 0.0055630276823582245 0.0017060311134225038 0 0.0065313386395820369 0.0014848918462410103 0 0.006093591233855152 0.0022731144648046103 0 0.0065313386395820369 0.0014848918462410103 0 0.006093591233855152 0.0022731144648046103 0 0.0071198876227644651 0.0021002949834115305 0 0.0047225746615644094 0.0027236777862728449 0 0.0055630276823582245 0.0017060311134225038 0 0.006093591233855152 0.0022731144648046103 0 0.0047225746615644094 0.0027236777862728449 0 0.006093591233855152 0.0022731144648046103 0 0.0060512022402823672 0.0033156135107547985 0 0.006093591233855152 0.0022731144648046103 0 0.0071198876227644651 0.0021002949834115305 0 0.0060512022402823672 0.0033156135107547985 0 0.001598844268300204 0.0020132191850240405 0 0.0021620255192267633 0.001675576470251793 0 -0.0043885870808912418 0.0022079299919394229 0 -0.0045845568694988801 0.0012330932524045849 0 -0.0025913536884941335 0.00052299207177222251 0 -0.0052956200838463014 0.0021651318940112555 0 -0.0043885870808912418 0.0022079299919394229 0 -0.0045845568694988801 0.0012330932524045849 0 -0.0061585985904781485 0.00095992657633805763 0 -0.0045845568694988801 0.0012330932524045849 0 -0.0045219084682466331 0.00022466269014427933 0 -0.0061085887438449924 -0.00078088620046720008 0 -0.0045219084682466331 0.00022466269014427933 0 -0.0034980666837385022 -0.00063511166981644932 0 -0.0045219084682466331 0.00022466269014427933 0 -0.0025913536884941335 0.00052299207177222251 0 -0.0034980666837385022 -0.00063511166981644932 0 -0.0045845568694988801 0.0012330932524045849 0 -0.0045219084682466331 0.00022466269014427933 0 -0.0025913536884941335 0.00052299207177222251 0 0.0047225746615644094 0.0027236777862728449 0 0.0060512022402823672 0.0033156135107547985 0 0.0043368124903341888 0.0043395018822023892 0 -0.0025913536884941335 0.00052299207177222251 0 -0.0034980666837385022 -0.00063511166981644932 0 -0.0024897760661586922 -0.00077514495978379375 0 -0.0035584784541672068 0.0026451944873007878 0 0.0021620255192267633 0.001675576470251793 0 -0.00089432457503814703 -0.0010772389066432721 0 -0.0025913536884941335 0.00052299207177222251 0 -0.0024897760661586922 -0.00077514495978379375 0 0.0021778616290952656 0.0062842942447370303 0 0.0060512022402823672 0.0033156135107547985 0 0.0043368124903341888 0.0043395018822023892 0 -0.0035584784541672068 0.0026451944873007878 0 -0.0089291327963260687 0.001905408122576615 0 -0.00089432457503814703 -0.0010772389066432721 0 -0.0024897760661586922 -0.00077514495978379375 0 -0.0035858383812079433 -0.0020661640810526855 0 -0.0034980666837385022 -0.00063511166981644932 0 -0.0024897760661586922 -0.00077514495978379375 0 -0.0035858383812079433 -0.0020661640810526855 0 -0.012175302691779423 0.002635723750400941 0 -0.012145652916392158 0.0023970474033265122 0 -0.011813947735506874 0.0024774090361399472 0 -0.0088476713411070468 0.00063960360243693257 0 -0.0089291327963260687 0.001905408122576615 0 -0.0061085887438449924 -0.00078088620046720008 0 -0.0034980666837385022 -0.00063511166981644932 0 -0.0035858383812079433 -0.0020661640810526855 0 -0.012885705723463942 0.002478073838066819 0 -0.0089291327963260687 0.001905408122576615 0 -0.012145652916392158 0.0023970474033265122 0 -0.010840483385394594 0.0033046378724040006 0 -0.011667648057076862 0.0017877603047465143 0 -0.010840483385394594 0.0033046378724040006 0 -0.011667648057076862 0.0017877603047465143 0 -0.010478756206936399 0.0019168867898592527 0 -0.011667648057076862 0.0017877603047465143 0 -0.010478756206936399 0.0019168867898592527 0 -0.011319024170700189 0.00074809876511187446 0 -0.012244832346821713 0.0011192663540485403 0 -0.011667648057076862 0.0017877603047465143 0 -0.011319024170700189 0.00074809876511187446 0 -0.010478756206936399 0.0019168867898592527 0 -0.011319024170700189 0.00074809876511187446 0 -0.0098373700430456189 0.00083141219226059472 0 -0.010478756206936399 0.0019168867898592527 0 -0.0091968998451215679 0.001498031925361358 0 -0.0098373700430456189 0.00083141219226059472 0 -0.010840483385394594 0.0033046378724040006 0 -0.010478756206936399 0.0019168867898592527 0 -0.008605974154099692 0.0024267076853889099 0 -0.0089291327963260687 0.001905408122576615 0 -0.0094914012142581113 0.0030586531796871932 0 -0.010478756206936399 0.0019168867898592527 0 -0.008605974154099692 0.0024267076853889099 0 -0.0091968998451215679 0.001498031925361358 0 -0.008605974154099692 0.0024267076853889099 0 -0.0071191565336247275 0.0019672292219622546 0 -0.008112450474449558 0.0013844010414016373 0 -0.0070683279763003775 0.0030057515091858312 0 -0.008605974154099692 0.0024267076853889099 0 -0.0071191565336247275 0.0019672292219622546 0 -0.0066178143390912009 0.0027561329050210721 0 -0.0070683279763003775 0.0030057515091858312 0 -0.0071191565336247275 0.0019672292219622546 0 -0.0071191565336247275 0.0019672292219622546 0 -0.008112450474449558 0.0013844010414016373 0 -0.0074313240523160825 0.00066209694369976561 0 -0.0063846307648778152 0.0012039141575630422 0 -0.0071191565336247275 0.0019672292219622546 0 -0.0074313240523160825 0.00066209694369976561 0 -0.008112450474449558 0.0013844010414016373 0 -0.0082861175451669506 0.00061946080580352466 0 -0.0074313240523160825 0.00066209694369976561 0 -0.008605974154099692 0.0024267076853889099 0 -0.008112450474449558 0.0013844010414016373 0 -0.0091968998451215679 0.001498031925361358 0 -0.008112450474449558 0.0013844010414016373 0 -0.0089621231543370282 0.00097326791496026098 0 -0.0082861175451669506 0.00061946080580352466 0 -0.008112450474449558 0.0013844010414016373 0 -0.0091968998451215679 0.001498031925361358 0 -0.0089621231543370282 0.00097326791496026098 0 -0.0091968998451215679 0.001498031925361358 0 -0.0089621231543370282 0.00097326791496026098 0 -0.0098373700430456189 0.00083141219226059472 0 -0.0089621231543370282 0.00097326791496026098 0 -0.0088763527038392149 0.00021223454854934869 0 -0.0098373700430456189 0.00083141219226059472 0 -0.0088763527038392149 0.00021223454854934869 0 -0.0094106866693482102 -0.00053068220833740818 0 -0.0098373700430456189 0.00083141219226059472 0 -0.0089621231543370282 0.00097326791496026098 0 -0.0088763527038392149 0.00021223454854934869 0 -0.0082861175451669506 0.00061946080580352466 0 -0.0088763527038392149 0.00021223454854934869 0 -0.0082861175451669506 0.00061946080580352466 0 -0.0081068035397295866 -0.00012287369255514928 0 -0.0088763527038392149 0.00021223454854934869 0 -0.0081068035397295866 -0.00012287369255514928 0 -0.0085697628303638487 -0.00043304468029741914 0 -0.0088763527038392149 0.00021223454854934869 0 -0.0094106866693482102 -0.00053068220833740818 0 -0.0085697628303638487 -0.00043304468029741914 0 -0.0074313240523160825 0.00066209694369976561 0 -0.0081068035397295866 -0.00012287369255514928 0 -0.0073363343239525652 -0.00047031055150224978 0 -0.0065587263820443371 0.00022705359654162763 0 -0.0074313240523160825 0.00066209694369976561 0 -0.0073363343239525652 -0.00047031055150224978 0 -0.0082861175451669506 0.00061946080580352466 0 -0.0074313240523160825 0.00066209694369976561 0 -0.0081068035397295866 -0.00012287369255514928 0 -0.0081068035397295866 -0.00012287369255514928 0 -0.0073363343239525652 -0.00047031055150224978 0 -0.0079025786307370168 -0.0012314557203035809 0 -0.006927825018149752 -0.0010252634562910169 0 -0.0073363343239525652 -0.00047031055150224978 0 -0.0079025786307370168 -0.0012314557203035809 0 -0.0081068035397295866 -0.00012287369255514928 0 -0.0079025786307370168 -0.0012314557203035809 0 -0.0085697628303638487 -0.00043304468029741914 0 -0.011333575433899547 0.00037879632445174199 0 -0.011697061183167018 0.0005910751989627916 0 -0.011650952993161531 0.00047240011564679411 0 -0.009538466309224997 -0.00048236500985079488 0 -0.010578460787829277 9.5059472441678551e-05 0 -0.0079025786307370168 -0.0012314557203035809 0 -0.0094106866693482102 -0.00053068220833740818 0 -0.0085697628303638487 -0.00043304468029741914 0 -0.011650952993161531 0.00047240011564679411 0 -0.011765782968763834 0.00043938728321382149 0 -0.011752300336046639 0.00036717216996190943 0 -0.011650952993161531 0.00047240011564679411 0 -0.011706160456741008 0.00054527773574327332 0 -0.011765782968763834 0.00043938728321382149 0 -0.011697061183167018 0.0005910751989627916 0 -0.011650952993161531 0.00047240011564679411 0 -0.011706160456741008 0.00054527773574327332 0 -0.011697061183167018 0.0005910751989627916 0 -0.011706160456741008 0.00054527773574327332 0 -0.011620402012927009 0.00062203469861913524 0 -0.011706160456741008 0.00054527773574327332 0 -0.011620402012927009 0.00062203469861913524 0 -0.011782636755557706 0.00051762014211364723 0 -0.011706160456741008 0.00054527773574327332 0 -0.011782636755557706 0.00051762014211364723 0 -0.011765782968763834 0.00043938728321382149 0 -0.011782636755557706 0.00051762014211364723 0 -0.011973353802454151 0.00049580002431178719 0 -0.011928845745197137 0.00036562875378332629 0 -0.011782636755557706 0.00051762014211364723 0 -0.011973353802454151 0.00049580002431178719 0 -0.011745470784137733 0.00063994275636029916 0 -0.012148076212800171 0.00066378717945784918 0 -0.011973353802454151 0.00049580002431178719 0 -0.011745470784137733 0.00063994275636029916 0 -0.011620402012927009 0.00062203469861913524 0 -0.011782636755557706 0.00051762014211364723 0 -0.011745470784137733 0.00063994275636029916 0 -0.011620402012927009 0.00062203469861913524 0 -0.011745470784137733 0.00063994275636029916 0 -0.011319024170700189 0.00074809876511187446 0 -0.012244832346821713 0.0011192663540485403 0 -0.011745470784137733 0.00063994275636029916 0 -0.011319024170700189 0.00074809876511187446 0 -0.011697061183167018 0.0005910751989627916 0 -0.011620402012927009 0.00062203469861913524 0 -0.011319024170700189 0.00074809876511187446 0 -0.0094106866693482102 -0.00053068220833740818 0 -0.011319024170700189 0.00074809876511187446 0 -0.0098373700430456189 0.00083141219226059472 0 -0.010578460787829277 9.5059472441678551e-05 0 -0.011289088522229325 0.00067690060334828575 0 -0.011976831397424302 0.00023871574608261493 0 -0.011884000328719316 0.00026687814923974406 0 -0.01200174923295734 0.00015791872505535105 0 -0.011884000328719316 0.00026687814923974406 0 -0.01200174923295734 0.00015791872505535105 0 -0.011877002490839523 0.00021854526452995827 0 -0.01200174923295734 0.00015791872505535105 0 -0.012115761778221584 5.4535497714475691e-05 0 -0.011998727576184131 0.00010110135614145253 0 -0.01200174923295734 0.00015791872505535105 0 -0.011877002490839523 0.00021854526452995827 0 -0.011998727576184131 0.00010110135614145253 0 -0.011976831397424302 0.00023871574608261493 0 -0.01200174923295734 0.00015791872505535105 0 -0.012166577380237126 5.8686558850571207e-05 0 -0.01200174923295734 0.00015791872505535105 0 -0.012166577380237126 5.8686558850571207e-05 0 -0.012115761778221584 5.4535497714475691e-05 0 -0.012346180000108809 3.6080485414552377e-06 0 -0.012166577380237126 5.8686558850571207e-05 0 -0.012224027897231159 0.00014447067349191673 0 -0.012166577380237126 5.8686558850571207e-05 0 -0.012224027897231159 0.00014447067349191673 0 -0.012085783685682682 0.00022027390354807219 0 -0.011976831397424302 0.00023871574608261493 0 -0.012166577380237126 5.8686558850571207e-05 0 -0.012085783685682682 0.00022027390354807219 0 -0.011976831397424302 0.00023871574608261493 0 -0.012085783685682682 0.00022027390354807219 0 -0.011928845745197137 0.00036562875378332629 0 -0.012224027897231159 0.00014447067349191673 0 -0.012085783685682682 0.00022027390354807219 0 -0.012135432622190013 0.00032859008357634308 0 -0.012085783685682682 0.00022027390354807219 0 -0.012135432622190013 0.00032859008357634308 0 -0.011928845745197137 0.00036562875378332629 0 -0.011973353802454151 0.00049580002431178719 0 -0.012135432622190013 0.00032859008357634308 0 -0.011928845745197137 0.00036562875378332629 0 -0.011782636755557706 0.00051762014211364723 0 -0.011928845745197137 0.00036562875378332629 0 -0.011765782968763834 0.00043938728321382149 0 -0.011928845745197137 0.00036562875378332629 0 -0.011860550347039586 0.00033646091328674529 0 -0.011765782968763834 0.00043938728321382149 0 -0.011976831397424302 0.00023871574608261493 0 -0.011928845745197137 0.00036562875378332629 0 -0.011860550347039586 0.00033646091328674529 0 -0.011976831397424302 0.00023871574608261493 0 -0.011884000328719316 0.00026687814923974406 0 -0.011860550347039586 0.00033646091328674529 0 -0.011884000328719316 0.00026687814923974406 0 -0.011804391430392478 0.00034240958518521523 0 -0.011800219062640109 0.00029602397343370026 0 -0.011884000328719316 0.00026687814923974406 0 -0.011860550347039586 0.00033646091328674529 0 -0.011804391430392478 0.00034240958518521523 0 -0.011860550347039586 0.00033646091328674529 0 -0.011804391430392478 0.00034240958518521523 0 -0.011765782968763834 0.00043938728321382149 0 -0.011804391430392478 0.00034240958518521523 0 -0.011765782968763834 0.00043938728321382149 0 -0.011752300336046639 0.00036717216996190943 0 -0.011650952993161531 0.00047240011564679411 0 -0.011305073037668589 8.6389136341004664e-05 0 -0.011422598684066851 -6.5047104283729427e-05 0 -0.011333575433899547 0.00037879632445174199 0 -0.011650952993161531 0.00047240011564679411 0 -0.011305073037668589 8.6389136341004664e-05 0 -0.011669648018790375 0.00045384678645823338 0 -0.011564201270898973 0.00012692385007965069 0 -0.011650952993161531 0.00047240011564679411 0 -0.011752300336046639 0.00036717216996190943 0 -0.011765888848991319 0.00027297913118665742 0 -0.011804391430392478 0.00034240958518521523 0 -0.011752300336046639 0.00036717216996190943 0 -0.011800219062640109 0.00029602397343370026 0 -0.011752300336046639 0.00036717216996190943 0 -0.011800219062640109 0.00029602397343370026 0 -0.011765888848991319 0.00027297913118665742 0 -0.011333575433899547 0.00037879632445174199 0 -0.011305073037668589 8.6389136341004664e-05 0 -0.010837738822075412 6.2631581283715366e-05 0 -0.009538466309224997 -0.00048236500985079488 0 -0.0092753051470908562 -0.00070401136612234288 0 -0.011830575231635181 9.3766637160690606e-05 0 -0.0092753051470908562 -0.00070401136612234288 0 -0.006927825018149752 -0.0010252634562910169 0 -0.0079025786307370168 -0.0012314557203035809 0 -0.0067055315904111425 -0.0018600094902532394 0 -0.011305073037668589 8.6389136341004664e-05 0 -0.011251405088421547 -4.7047302834489058e-05 0 -0.011065061819118451 3.8495018771822153e-05 0 -0.011305073037668589 8.6389136341004664e-05 0 -0.011251405088421547 -4.7047302834489058e-05 0 -0.011422598684066851 -6.5047104283729427e-05 0 -0.011243213865438429 -0.00018656773575736769 0 -0.011422598684066851 -6.5047104283729427e-05 0 -0.011255849324399957 -0.00041704364303044754 0 -0.011564201270898973 0.00012692385007965069 0 -0.011647328210636729 -0.00027201481825613857 0 -0.011765888848991319 0.00027297913118665742 0 -0.011803668164266968 0.00013288062727137093 0 -0.01165438892293144 3.4156782193866213e-05 0 -0.011251405088421547 -4.7047302834489058e-05 0 -0.011174894120144302 -0.00012501332677570921 0 -0.011065061819118451 3.8495018771822153e-05 0 -0.011251405088421547 -4.7047302834489058e-05 0 -0.011174894120144302 -0.00012501332677570921 0 -0.011243213865438429 -0.00018656773575736769 0 -0.011251405088421547 -4.7047302834489058e-05 0 -0.011243213865438429 -0.00018656773575736769 0 -0.011422598684066851 -6.5047104283729427e-05 0 -0.011174894120144302 -0.00012501332677570921 0 -0.011243213865438429 -0.00018656773575736769 0 -0.011078865948515109 -0.00026968907824045669 0 -0.011800219062640109 0.00029602397343370026 0 -0.011828180638932326 0.00021883933630338062 0 -0.011877002490839523 0.00021854526452995827 0 -0.011884000328719316 0.00026687814923974406 0 -0.011800219062640109 0.00029602397343370026 0 -0.011877002490839523 0.00021854526452995827 0 -0.011800219062640109 0.00029602397343370026 0 -0.011828180638932326 0.00021883933630338062 0 -0.011765888848991319 0.00027297913118665742 0 -0.011828180638932326 0.00021883933630338062 0 -0.011765888848991319 0.00027297913118665742 0 -0.011803668164266968 0.00013288062727137093 0 -0.011828180638932326 0.00021883933630338062 0 -0.011881195141574751 0.00015058384714550506 0 -0.011803668164266968 0.00013288062727137093 0 -0.011877002490839523 0.00021854526452995827 0 -0.011881195141574751 0.00015058384714550506 0 -0.011998727576184131 0.00010110135614145253 0 -0.011828180638932326 0.00021883933630338062 0 -0.011877002490839523 0.00021854526452995827 0 -0.011881195141574751 0.00015058384714550506 0 -0.011913079846617896 6.804936752969022e-05 0 -0.012113470403191662 -8.3460759206819872e-06 0 -0.011998727576184131 0.00010110135614145253 0 -0.011881195141574751 0.00015058384714550506 0 -0.011913079846617896 6.804936752969022e-05 0 -0.011998727576184131 0.00010110135614145253 0 -0.011881195141574751 0.00015058384714550506 0 -0.011913079846617896 6.804936752969022e-05 0 -0.011803668164266968 0.00013288062727137093 0 -0.011913079846617896 6.804936752969022e-05 0 -0.011803668164266968 0.00013288062727137093 0 -0.011806359509968866 4.0541553390493671e-05 0 -0.011806359509968866 4.0541553390493671e-05 0 -0.01188543752459763 -6.4370476202503871e-05 0 -0.01165438892293144 3.4156782193866213e-05 0 -0.011913079846617896 6.804936752969022e-05 0 -0.011806359509968866 4.0541553390493671e-05 0 -0.01188543752459763 -6.4370476202503871e-05 0 -0.011913079846617896 6.804936752969022e-05 0 -0.01188543752459763 -6.4370476202503871e-05 0 -0.012113470403191662 -8.3460759206819872e-06 0 -0.011243213865438429 -0.00018656773575736769 0 -0.011255849324399957 -0.00041704364303044754 0 -0.011078865948515109 -0.00026968907824045669 0 -0.011647328210636729 -0.00027201481825613857 0 -0.011109281086030437 -0.00026262628922610939 0 -0.011803668164266968 0.00013288062727137093 0 -0.011806359509968866 4.0541553390493671e-05 0 -0.01165438892293144 3.4156782193866213e-05 0 -0.011412153846019924 -0.00048782519683368157 0 -0.011311133347011306 -0.00073913061884139713 0 -0.011225257080346992 -0.00049222648127875167 0 -0.012155166377490142 -0.00018890014389596276 0 -0.011923344061039955 -0.00075353192177426173 0 -0.012218894405997093 -0.001044836571942631 0 -0.012155166377490142 -0.00018890014389596276 0 -0.012218894405997093 -0.001044836571942631 0 -0.012597027856862069 -0.00094535774624071361 0 -0.011647328210636729 -0.00027201481825613857 0 -0.011975450935874491 -0.00064542105607422325 0 -0.012218894405997093 -0.001044836571942631 0 -0.012597027856862069 -0.00094535774624071361 0 -0.012543870220496026 -0.0013189081717832805 0 -0.011975450935874491 -0.00064542105607422325 0 -0.012167220995244281 -0.00092077948781672857 0 -0.011647328210636729 -0.00027201481825613857 0 -0.012678857484040696 -0.00068666302554865153 0 -0.012155166377490142 -0.00018890014389596276 0 -0.012597027856862069 -0.00094535774624071361 0 -0.013201609888488598 -0.0010153902583967963 0 -0.01188543752459763 -6.4370476202503871e-05 0 -0.01165438892293144 3.4156782193866213e-05 0 -0.011966979711106192 -0.00038922211578717802 0 -0.01188543752459763 -6.4370476202503871e-05 0 -0.012100566049158453 -0.00012338266045398055 0 -0.011966979711106192 -0.00038922211578717802 0 -0.01188543752459763 -6.4370476202503871e-05 0 -0.012100566049158453 -0.00012338266045398055 0 -0.012113470403191662 -8.3460759206819872e-06 0 -0.012597027856862069 -0.00094535774624071361 0 -0.013201609888488598 -0.0010153902583967963 0 -0.012898705423452629 -0.0012447983987493244 0 -0.012100566049158453 -0.00012338266045398055 0 -0.011966979711106192 -0.00038922211578717802 0 -0.012510647337890785 -0.00014462326143773249 0 -0.012510647337890785 -0.00014462326143773249 0 -0.012113470403191662 -8.3460759206819872e-06 0 -0.01227071095602059 -4.9839738885937462e-05 0 -0.012100566049158453 -0.00012338266045398055 0 -0.012510647337890785 -0.00014462326143773249 0 -0.012113470403191662 -8.3460759206819872e-06 0 -0.012113470403191662 -8.3460759206819872e-06 0 -0.01227071095602059 -4.9839738885937462e-05 0 -0.012115761778221584 5.4535497714475691e-05 0 -0.012166577380237126 5.8686558850571207e-05 0 -0.01227071095602059 -4.9839738885937462e-05 0 -0.012115761778221584 5.4535497714475691e-05 0 -0.012113470403191662 -8.3460759206819872e-06 0 -0.012115761778221584 5.4535497714475691e-05 0 -0.011998727576184131 0.00010110135614145253 0 -0.012264386046608252 -9.2424038730742566e-05 0 -0.012166577380237126 5.8686558850571207e-05 0 -0.01227071095602059 -4.9839738885937462e-05 0 -0.012346180000108809 3.6080485414552377e-06 0 -0.012264386046608252 -9.2424038730742566e-05 0 -0.012166577380237126 5.8686558850571207e-05 0 -0.014886075346466422 0.00086728870441202949 0 -0.012510647337890785 -0.00014462326143773249 0 -0.014239637708145176 -0.00047187742100167238 0 -0.012264386046608252 -9.2424038730742566e-05 0 -0.012510647337890785 -0.00014462326143773249 0 -0.01227071095602059 -4.9839738885937462e-05 0 -0.013530328943304257 0.00035558145402505382 0 -0.012565703814880841 -0.00011058103474958762 0 -0.015773812443352107 -0.0014199673569277582 0 -0.014239637708145176 -0.00047187742100167238 0 -0.014303434136302778 -0.0018079959071657802 0 -0.012510647337890785 -0.00014462326143773249 0 -0.014239637708145176 -0.00047187742100167238 0 -0.014303434136302778 -0.0018079959071657802 0 -0.012678857484040696 -0.00068666302554865153 0 -0.014171163188916213 -0.0017676408409498295 0 -0.013377706077254482 -0.0019956997410072396 0 -0.014303434136302778 -0.0018079959071657802 0 -0.013193603069080575 -0.001574638159077811 0 -0.011966979711106192 -0.00038922211578717802 0 -0.012510647337890785 -0.00014462326143773249 0 -0.014303434136302778 -0.0018079959071657802 0 -0.013201609888488598 -0.0010153902583967963 0 -0.014303434136302778 -0.0018079959071657802 0 -0.013193603069080575 -0.001574638159077811 0 -0.013377706077254482 -0.0019956997410072396 0 -0.014303434136302778 -0.0018079959071657802 0 -0.013698909496104644 -0.0028756381748720459 0 -0.013377706077254482 -0.0019956997410072396 0 -0.013698909496104644 -0.0028756381748720459 0 -0.012967624961592957 -0.0020221361509809859 0 -0.015773812443352107 -0.0014199673569277582 0 -0.014303434136302778 -0.0018079959071657802 0 -0.014887954081424853 -0.0026227981642529415 0 -0.014303434136302778 -0.0018079959071657802 0 -0.014887954081424853 -0.0026227981642529415 0 -0.013698909496104644 -0.0028756381748720459 0 -0.015260297160113076 -0.0036750644598181337 0 -0.014351704186287759 -0.0032005987917863789 0 -0.015314180390349869 -0.0036804314422380566 0 -0.014887954081424853 -0.0026227981642529415 0 -0.013698909496104644 -0.0028756381748720459 0 -0.015314180390349869 -0.0036804314422380566 0 -0.014996794806698733 -0.0035911577987636084 0 -0.015087770326112844 -0.0037439038109962179 0 -0.014996794806698733 -0.0035911577987636084 0 -0.014943238310354328 -0.0036982932744089969 0 -0.014956899787511951 -0.003614621381170499 0 -0.014996794806698733 -0.0035911577987636084 0 -0.014943238310354328 -0.0036982932744089969 0 -0.015087770326112844 -0.0037439038109962179 0 -0.019073435878705747 -0.0033002909182852191 0 -0.019045246416601738 -0.0028878316502762126 0 -0.018285749476216657 -0.0027995665945716062 0 -0.014943238310354328 -0.0036982932744089969 0 -0.015087770326112844 -0.0037439038109962179 0 -0.015146135980634726 -0.0040759194403662624 0 -0.016888993582336156 -0.0035458401708794007 0 -0.018133630374487206 -0.0033385032392307503 0 -0.015314180390349869 -0.0036804314422380566 0 -0.015087770326112844 -0.0037439038109962179 0 -0.015146135980634726 -0.0040759194403662624 0 -0.018883318088600814 -0.0028186817010112113 0 -0.019984940055889577 -0.0031602721335835648 0 -0.020037566309623899 -0.0029906240788420075 0 -0.0195807361698127 -0.0033277091088634056 0 -0.019766002212418265 -0.0037234775287211647 0 -0.020276560853024855 -0.0029180800035823245 0 -0.0195807361698127 -0.0033277091088634056 0 -0.019724432930089568 -0.0027032790284443869 0 -0.015893902750775107 -0.0022069648886775448 0 -0.015510086787317849 -0.0030768571267320343 0 -0.015986222902404819 -0.0027882406189094246 0 -0.018883318088600814 -0.0028186817010112113 0 -0.016767357038215757 -0.0032377537887670507 0 -0.019349588537108598 -0.0029736589688541286 0 -0.0195807361698127 -0.0033277091088634056 0 -0.019724432930089568 -0.0027032790284443869 0 -0.019073435878705747 -0.0033002909182852191 0 -0.019045246416601738 -0.0028878316502762126 0 -0.019349588537108598 -0.0029736589688541286 0 -0.019073435878705747 -0.0033002909182852191 0 -0.019349588537108598 -0.0029736589688541286 0 -0.0195807361698127 -0.0033277091088634056 0 -0.014943238310354328 -0.0036982932744089969 0 -0.014956899787511951 -0.003614621381170499 0 -0.014951751107814213 -0.003582838086861522 0 -0.014996794806698733 -0.0035911577987636084 0 -0.014956899787511951 -0.003614621381170499 0 -0.014958818224176459 -0.0035848013083751716 0 -0.019073435878705747 -0.0033002909182852191 0 -0.0195807361698127 -0.0033277091088634056 0 -0.019766002212418265 -0.0037234775287211647 0 -0.016888993582336156 -0.0035458401708794007 0 -0.016767357038215757 -0.0032377537887670507 0 -0.014956899787511951 -0.003614621381170499 0 -0.014951751107814213 -0.003582838086861522 0 -0.014958818224176459 -0.0035848013083751716 0 -0.015248978086025411 -0.0029598613152562949 0 -0.015489182007053038 -0.0033931932457261105 0 -0.015988446219891334 -0.0034289783682133505 0 -0.013847485450470076 -0.0030976719209134039 0 -0.013843750735445543 -0.0013728395552620135 0 -0.01500630432779056 -0.0035453496276439153 0 -0.014941383438696665 -0.003592296774445081 0 -0.016024556895832241 -0.0041491480663590971 0 -0.015489182007053038 -0.0033931932457261105 0 -0.01500630432779056 -0.0035453496276439153 0 -0.016024556895832241 -0.0041491480663590971 0 -0.016767357038215757 -0.0032377537887670507 0 -0.01555203601765761 -0.003157564019484047 0 -0.016767357038215757 -0.0032377537887670507 0 -0.015283159594925304 -0.0037594780332138636 0 -0.015248978086025411 -0.0029598613152562949 0 -0.015489182007053038 -0.0033931932457261105 0 -0.01500630432779056 -0.0035453496276439153 0 -0.012603187031916567 -0.0021632819936837498 0 -0.01260713721721537 -0.0018742576856957329 0 -0.012332935926019278 -0.0015998669408299603 0 -0.014351704186287759 -0.0032005987917863789 0 -0.013847485450470076 -0.0030976719209134039 0 -0.014996794806698733 -0.0035911577987636084 0 -0.014958818224176459 -0.0035848013083751716 0 -0.014941383438696665 -0.003592296774445081 0 -0.013698909496104644 -0.0028756381748720459 0 -0.012603187031916567 -0.0021632819936837498 0 -0.012967624961592957 -0.0020221361509809859 0 -0.01500630432779056 -0.0035453496276439153 0 -0.014958818224176459 -0.0035848013083751716 0 -0.014941383438696665 -0.003592296774445081 0 -0.014951751107814213 -0.003582838086861522 0 -0.01500630432779056 -0.0035453496276439153 0 -0.014958818224176459 -0.0035848013083751716 0 -0.012603187031916567 -0.0021632819936837498 0 -0.01260713721721537 -0.0018742576856957329 0 -0.012967624961592957 -0.0020221361509809859 0 -0.01260713721721537 -0.0018742576856957329 0 -0.012967624961592957 -0.0020221361509809859 0 -0.012677920960379051 -0.0017536026212361289 0 -0.013377706077254482 -0.0019956997410072396 0 -0.012967624961592957 -0.0020221361509809859 0 -0.013033834683480959 -0.0017852729965048525 0 -0.012967624961592957 -0.0020221361509809859 0 -0.013033834683480959 -0.0017852729965048525 0 -0.012871467518252959 -0.0017072427932141396 0 -0.013377706077254482 -0.0019956997410072396 0 -0.013193603069080575 -0.001574638159077811 0 -0.013033834683480959 -0.0017852729965048525 0 -0.013193603069080575 -0.001574638159077811 0 -0.012871467518252959 -0.0017072427932141396 0 -0.012715406105158335 -0.0014869186417729992 0 -0.013193603069080575 -0.001574638159077811 0 -0.013033834683480959 -0.0017852729965048525 0 -0.012871467518252959 -0.0017072427932141396 0 -0.012967624961592957 -0.0020221361509809859 0 -0.012871467518252959 -0.0017072427932141396 0 -0.012677920960379051 -0.0017536026212361289 0 -0.012871467518252959 -0.0017072427932141396 0 -0.012677920960379051 -0.0017536026212361289 0 -0.012715406105158335 -0.0014869186417729992 0 -0.01260713721721537 -0.0018742576856957329 0 -0.012677920960379051 -0.0017536026212361289 0 -0.0125475407025533 -0.0016052838244759824 0 -0.012715406105158335 -0.0014869186417729992 0 -0.0125475407025533 -0.0016052838244759824 0 -0.012543870220496026 -0.0013189081717832805 0 -0.012677920960379051 -0.0017536026212361289 0 -0.012715406105158335 -0.0014869186417729992 0 -0.0125475407025533 -0.0016052838244759824 0 -0.012597027856862069 -0.00094535774624071361 0 -0.012898705423452629 -0.0012447983987493244 0 -0.012543870220496026 -0.0013189081717832805 0 -0.012715406105158335 -0.0014869186417729992 0 -0.012898705423452629 -0.0012447983987493244 0 -0.012543870220496026 -0.0013189081717832805 0 -0.013193603069080575 -0.001574638159077811 0 -0.012715406105158335 -0.0014869186417729992 0 -0.012898705423452629 -0.0012447983987493244 0 -0.013201609888488598 -0.0010153902583967963 0 -0.013193603069080575 -0.001574638159077811 0 -0.012898705423452629 -0.0012447983987493244 0 -0.012603187031916567 -0.0021632819936837498 0 -0.012332935926019278 -0.0015998669408299603 0 -0.011611477570680673 -0.0015633145817333894 0 -0.012218894405997093 -0.001044836571942631 0 -0.012332935926019278 -0.0015998669408299603 0 -0.011611477570680673 -0.0015633145817333894 0 -0.011937441319901052 -0.00076277817325998967 0 -0.012218894405997093 -0.001044836571942631 0 -0.011611477570680673 -0.0015633145817333894 0 -0.01260713721721537 -0.0018742576856957329 0 -0.0125475407025533 -0.0016052838244759824 0 -0.012332935926019278 -0.0015998669408299603 0 -0.0125475407025533 -0.0016052838244759824 0 -0.012332935926019278 -0.0015998669408299603 0 -0.012543870220496026 -0.0013189081717832805 0 -0.012218894405997093 -0.001044836571942631 0 -0.012332935926019278 -0.0015998669408299603 0 -0.012543870220496026 -0.0013189081717832805 0 -0.013207970496347711 -0.00013771968908322821 0 -0.013413964204012535 -0.00023952147936491546 0 -0.013273547018371549 -0.00031170720931678704 0 -0.011975450935874491 -0.00064542105607422325 0 -0.013843750735445543 -0.0013728395552620135 0 -0.013843750735445543 -0.0013728395552620135 0 -0.01351712241387644 -0.00019032269814472149 0 -0.014048166821568559 -0.00047352706911285526 0 -0.013882460118592052 -0.00051032160719596484 0 -0.013818027085029556 -0.00036479401672531085 0 -0.013882460118592052 -0.00051032160719596484 0 -0.013715284758194359 -0.00050086932906514008 0 -0.013818027085029556 -0.00036479401672531085 0 -0.013882460118592052 -0.00051032160719596484 0 -0.013960373426726543 -0.0007172386548197784 0 -0.013715284758194359 -0.00050086932906514008 0 -0.015616651211058319 -0.0022672446308827999 0 -0.01459485926063068 -0.0007349026598351125 0 -0.016421853206350069 -0.0018243152760481923 0 -0.015743830142457227 -0.0018741993394829693 0 -0.015720386295420944 -0.0013131701474035189 0 -0.014048166821568559 -0.00047352706911285526 0 -0.013882460118592052 -0.00051032160719596484 0 -0.013960373426726543 -0.0007172386548197784 0 -0.013843750735445543 -0.0013728395552620135 0 -0.015616651211058319 -0.0022672446308827999 0 -0.016024556895832241 -0.0041491480663590971 0 -0.016390852994040174 -0.003276548250153462 0 -0.015988446219891334 -0.0034289783682133505 0 -0.015489182007053038 -0.0033931932457261105 0 -0.016024556895832241 -0.0041491480663590971 0 -0.015988446219891334 -0.0034289783682133505 0 -0.016390852994040174 -0.003276548250153462 0 -0.015988446219891334 -0.0034289783682133505 0 -0.016170671657424369 -0.0031519179465533714 0 -0.015510086787317849 -0.0030768571267320343 0 -0.015986222902404819 -0.0027882406189094246 0 -0.016170671657424369 -0.0031519179465533714 0 -0.015510086787317849 -0.0030768571267320343 0 -0.015988446219891334 -0.0034289783682133505 0 -0.016170671657424369 -0.0031519179465533714 0 -0.016357812608653179 -0.0032773764895370205 0 -0.016368812865527247 -0.00270881578591056 0 -0.016170671657424369 -0.0031519179465533714 0 -0.015986222902404819 -0.0027882406189094246 0 -0.016368812865527247 -0.00270881578591056 0 -0.016170671657424369 -0.0031519179465533714 0 -0.015616651211058319 -0.0022672446308827999 0 -0.016222789775333278 -0.0028536770056907367 0 -0.016421853206350069 -0.0018243152760481923 0 -0.016054607663944225 -0.0027178228884306597 0 -0.015814877348311076 -0.0022641191294592578 0 -0.015616651211058319 -0.0022672446308827999 0 -0.016109321224734033 -0.0026525279020792407 0 -0.016421853206350069 -0.0018243152760481923 0 -0.015814877348311076 -0.0022641191294592578 0 -0.015743830142457227 -0.0018741993394829693 0 -0.016357812608653179 -0.0032773764895370205 0 -0.016368812865527247 -0.00270881578591056 0 -0.016795968230053998 -0.0023486313427448684 0 -0.016368812865527247 -0.00270881578591056 0 -0.016795968230053998 -0.0023486313427448684 0 -0.016424538212366217 -0.0018983397559412807 0 -0.016121702452565209 -0.0025241929390716522 0 -0.01770882540257443 -0.0022216932166641561 0 -0.015893902750775107 -0.0022069648886775448 0 -0.016368812865527247 -0.00270881578591056 0 -0.016409315940139238 -0.0018548061678388377 0 -0.015893902750775107 -0.0022069648886775448 0 -0.015986222902404819 -0.0027882406189094246 0 -0.016368812865527247 -0.00270881578591056 0 -0.014945028522826609 -0.002406896289520905 0 -0.015192518294470549 -0.0026385318550949883 0 -0.015376874388499676 -0.0022221025466567595 0 -0.015192518294470549 -0.0026385318550949883 0 -0.015484026913743973 -0.0026719318182859193 0 -0.015376874388499676 -0.0022221025466567595 0 -0.014989065042343958 -0.0028476863085296917 0 -0.015236199679730417 -0.0028400274755460112 0 -0.015192518294470549 -0.0026385318550949883 0 -0.014945028522826609 -0.002406896289520905 0 -0.014989065042343958 -0.0028476863085296917 0 -0.015192518294470549 -0.0026385318550949883 0 -0.015236199679730417 -0.0028400274755460112 0 -0.015192518294470549 -0.0026385318550949883 0 -0.015484026913743973 -0.0026719318182859193 0 -0.016054607663944225 -0.0027178228884306597 0 -0.015484026913743973 -0.0026719318182859193 0 -0.015282345355320888 -0.003198839122607228 0 -0.016054607663944225 -0.0027178228884306597 0 -0.015484026913743973 -0.0026719318182859193 0 -0.015814877348311076 -0.0022641191294592578 0 -0.015484026913743973 -0.0026719318182859193 0 -0.015376874388499676 -0.0022221025466567595 0 -0.015814877348311076 -0.0022641191294592578 0 -0.015376874388499676 -0.0022221025466567595 0 -0.015814877348311076 -0.0022641191294592578 0 -0.015743830142457227 -0.0018741993394829693 0 -0.015376874388499676 -0.0022221025466567595 0 -0.015743830142457227 -0.0018741993394829693 0 -0.015357916871342116 -0.0017601924085228929 0 -0.015376874388499676 -0.0022221025466567595 0 -0.01495325946733524 -0.0019173716075472367 0 -0.015357916871342116 -0.0017601924085228929 0 -0.014945028522826609 -0.002406896289520905 0 -0.015376874388499676 -0.0022221025466567595 0 -0.01495325946733524 -0.0019173716075472367 0 -0.01495325946733524 -0.0019173716075472367 0 -0.0150535854424503 -0.0014223091180985577 0 -0.014645094415269493 -0.0015382518021244231 0 -0.01495325946733524 -0.0019173716075472367 0 -0.0150535854424503 -0.0014223091180985577 0 -0.015357916871342116 -0.0017601924085228929 0 -0.0150535854424503 -0.0014223091180985577 0 -0.015357916871342116 -0.0017601924085228929 0 -0.015720386295420944 -0.0013131701474035189 0 -0.015743830142457227 -0.0018741993394829693 0 -0.015357916871342116 -0.0017601924085228929 0 -0.015720386295420944 -0.0013131701474035189 0 -0.013715284758194359 -0.00050086932906514008 0 -0.013695626189600562 -0.00038694848491677185 0 -0.013689334276059593 -0.00032087449934683782 0 -0.01459485926063068 -0.0007349026598351125 0 -0.014354917413672312 -0.00060386269650797135 0 -0.013715284758194359 -0.00050086932906514008 0 -0.013695626189600562 -0.00038694848491677185 0 -0.013818027085029556 -0.00036479401672531085 0 -0.0150535854424503 -0.0014223091180985577 0 -0.014942305481055469 -0.00078496921112632752 0 -0.014615509329075791 -0.0011580161573458282 0 -0.0150535854424503 -0.0014223091180985577 0 -0.015720386295420944 -0.0013131701474035189 0 -0.014942305481055469 -0.00078496921112632752 0 -0.013689334276059593 -0.00032087449934683782 0 -0.013697909830707462 -0.00038987347865529194 0 -0.013796954380356021 -0.00042573944781582626 0 -0.013689334276059593 -0.00032087449934683782 0 -0.013697909830707462 -0.00038987347865529194 0 -0.013645664123111148 -0.00036070863104539129 0 -0.013697909830707462 -0.00038987347865529194 0 -0.013663320812546677 -0.00046632547546369719 0 -0.013645664123111148 -0.00036070863104539129 0 -0.013663320812546677 -0.00046632547546369719 0 -0.013742313686339531 -0.00049292059946850618 0 -0.013654627492030504 -0.00060062610881933532 0 -0.013697909830707462 -0.00038987347865529194 0 -0.013742313686339531 -0.00049292059946850618 0 -0.013796954380356021 -0.00042573944781582626 0 -0.013697909830707462 -0.00038987347865529194 0 -0.013663320812546677 -0.00046632547546369719 0 -0.013742313686339531 -0.00049292059946850618 0 -0.014169103141569177 -0.00038401321467890166 0 -0.011977014436785864 -0.00048778101746204858 0 -0.013663320812546677 -0.00046632547546369719 0 -0.013500426504884006 -0.00047742963227908236 0 -0.013645664123111148 -0.00036070863104539129 0 -0.013663320812546677 -0.00046632547546369719 0 -0.013500426504884006 -0.00047742963227908236 0 -0.013445627237161726 -0.00063624683521655567 0 -0.013695626189600562 -0.00038694848491677185 0 -0.013645664123111148 -0.00036070863104539129 0 -0.013818027085029556 -0.00036479401672531085 0 -0.013500426504884006 -0.00047742963227908236 0 -0.013645664123111148 -0.00036070863104539129 0 -0.013410074670422175 -0.00038738346652724667 0 -0.013695626189600562 -0.00038694848491677185 0 -0.013689334276059593 -0.00032087449934683782 0 -0.013645664123111148 -0.00036070863104539129 0 -0.013697081612439386 -0.00038646435122807803 0 -0.01351712241387644 -0.00019032269814472149 0 -0.013645664123111148 -0.00036070863104539129 0 -0.013413964204012535 -0.00023952147936491546 0 -0.013410074670422175 -0.00038738346652724667 0 -0.013410074670422175 -0.00038738346652724667 0 -0.013273547018371549 -0.00031170720931678704 0 -0.013281335086888623 -0.00048652758795306828 0 -0.013413964204012535 -0.00023952147936491546 0 -0.013410074670422175 -0.00038738346652724667 0 -0.013273547018371549 -0.00031170720931678704 0 -0.013118568785675638 -0.00033114546194876822 0 -0.013273547018371549 -0.00031170720931678704 0 -0.013281335086888623 -0.00048652758795306828 0 -0.013118568785675638 -0.00033114546194876822 0 -0.013207970496347711 -0.00013771968908322821 0 -0.013273547018371549 -0.00031170720931678704 0 -0.011975450935874491 -0.00064542105607422325 0 -0.012183765206950964 -0.00046868074286449487 0 -0.011311133347011306 -0.00073913061884139713 0 -0.011225257080346992 -0.00049222648127875167 0 -0.011015636889231233 -0.00044685131405934381 0 -0.011015636889231233 -0.00044685131405934381 0 -0.011162920289156927 -0.00029956373577064269 0 -0.010962018279755298 -0.00026661688696767906 0 -0.011225257080346992 -0.00049222648127875167 0 -0.011015636889231233 -0.00044685131405934381 0 -0.011162920289156927 -0.00029956373577064269 0 -0.011412153846019924 -0.00048782519683368157 0 -0.011225257080346992 -0.00049222648127875167 0 -0.011162920289156927 -0.00029956373577064269 0 -0.013500426504884006 -0.00047742963227908236 0 -0.013281335086888623 -0.00048652758795306828 0 -0.013445627237161726 -0.00063624683521655567 0 -0.013500426504884006 -0.00047742963227908236 0 -0.013410074670422175 -0.00038738346652724667 0 -0.013281335086888623 -0.00048652758795306828 0 -0.011015636889231233 -0.00044685131405934381 0 -0.010776957865729006 -0.00018314744303451333 0 -0.010962018279755298 -0.00026661688696767906 0 -0.012183765206950964 -0.00046868074286449487 0 -0.011977014436785864 -0.00048778101746204858 0 -0.009875437999598129 -0.00040700153125343278 0 -0.0097226829040989032 -0.00093174650725761808 0 -0.01037200954709094 -0.00090433052938654801 0 -0.010776957865729006 -0.00018314744303451333 0 -0.01091797488181815 -0.00013562304998458066 0 -0.011065061819118451 3.8495018771822153e-05 0 -0.011977014436785864 -0.00048778101746204858 0 -0.0092753051470908562 -0.00070401136612234288 0 -0.010776957865729006 -0.00018314744303451333 0 -0.010962018279755298 -0.00026661688696767906 0 -0.01091797488181815 -0.00013562304998458066 0 -0.011174894120144302 -0.00012501332677570921 0 -0.011078865948515109 -0.00026968907824045669 0 -0.011058132830415776 -0.00012039633608832487 0 -0.011078865948515109 -0.00026968907824045669 0 -0.01091797488181815 -0.00013562304998458066 0 -0.011058132830415776 -0.00012039633608832487 0 -0.011162920289156927 -0.00029956373577064269 0 -0.010962018279755298 -0.00026661688696767906 0 -0.01091797488181815 -0.00013562304998458066 0 -0.011109281086030437 -0.00026262628922610939 0 -0.010954585277622981 -0.00015888633804201919 0 -0.01091797488181815 -0.00013562304998458066 0 -0.011058132830415776 -0.00012039633608832487 0 -0.011065061819118451 3.8495018771822153e-05 0 -0.011174894120144302 -0.00012501332677570921 0 -0.011058132830415776 -0.00012039633608832487 0 -0.011065061819118451 3.8495018771822153e-05 0 -0.0092753051470908562 -0.00070401136612234288 0 -0.0069825391370596946 -0.0014083102143213218 0 -0.0061513732654697008 -0.0010375266106860662 0 -0.0067055315904111425 -0.0018600094902532394 0 -0.0056812260214577368 -0.0018116781747656401 0 -0.006927825018149752 -0.0010252634562910169 0 -0.0061513732654697008 -0.0010375266106860662 0 -0.0067055315904111425 -0.0018600094902532394 0 -0.009875437999598129 -0.00040700153125343278 0 -0.0090775066866816499 -0.00095807311504124296 0 -0.0097226829040989032 -0.00093174650725761808 0 -0.0069825391370596946 -0.0014083102143213218 0 -0.010429712835649333 -0.00077252233837007511 0 -0.0039284957729516122 -0.00090253769805416744 0 -0.0047980538064049099 -0.0011047480468001872 0 -0.0047425400747169869 -0.0017854076876747177 0 -0.0047980538064049099 -0.0011047480468001872 0 -0.0056812260214577368 -0.0018116781747656401 0 -0.0047425400747169869 -0.0017854076876747177 0 -0.0086943617822553675 -0.0010738253209236657 0 -0.010429712835649333 -0.00077252233837007511 0 -0.013492772570842779 -0.00098267756073823183 0 -0.013133704511922336 -0.00067296200152296777 0 -0.013706323013360432 -0.00069082051403268944 0 -0.010429712835649333 -0.00077252233837007511 0 -0.014871757215566635 -0.00064745638746695883 0 -0.013553573762637956 -0.00069907081967637494 0 -0.013654627492030504 -0.00060062610881933532 0 -0.013706323013360432 -0.00069082051403268944 0 -0.013654627492030504 -0.00060062610881933532 0 -0.013805646279352261 -0.0005473353574412549 0 -0.013706323013360432 -0.00069082051403268944 0 -0.013742313686339531 -0.00049292059946850618 0 -0.013654627492030504 -0.00060062610881933532 0 -0.013805646279352261 -0.0005473353574412549 0 -0.013663320812546677 -0.00046632547546369719 0 -0.013430488240575467 -0.0005896104501766276 0 -0.013654627492030504 -0.00060062610881933532 0 -0.013430488240575467 -0.0005896104501766276 0 -0.013553573762637956 -0.00069907081967637494 0 -0.013654627492030504 -0.00060062610881933532 0 -0.011977014436785864 -0.00048778101746204858 0 -0.010429712835649333 -0.00077252233837007511 0 -0.014063103048482914 -0.00037581889537829298 0 -0.013852495363789418 -0.00071178528069860188 0 -0.014102276804242489 -0.00054484767780170972 0 -0.01404687635207282 -0.00054795439911493882 0 -0.013896868849252985 -0.00059253856006077552 0 -0.013942264713099346 -0.00072102192123470871 0 -0.016179953223852586 -0.0005382672690478164 0 -0.013735539952371074 -0.0008672452823319871 0 -0.01404687635207282 -0.00054795439911493882 0 -0.013896868849252985 -0.00059253856006077552 0 -0.013952375673031162 -0.00048352385571322036 0 -0.013896868849252985 -0.00059253856006077552 0 -0.013805646279352261 -0.0005473353574412549 0 -0.013952375673031162 -0.00048352385571322036 0 -0.013896868849252985 -0.00059253856006077552 0 -0.013706323013360432 -0.00069082051403268944 0 -0.013942264713099346 -0.00072102192123470871 0 -0.013896868849252985 -0.00059253856006077552 0 -0.013805646279352261 -0.0005473353574412549 0 -0.013706323013360432 -0.00069082051403268944 0 -0.013724195132441344 -0.00096910114792429444 0 -0.013492772570842779 -0.00098267756073823183 0 -0.013706323013360432 -0.00069082051403268944 0 -0.013724195132441344 -0.00096910114792429444 0 -0.013706323013360432 -0.00069082051403268944 0 -0.013942264713099346 -0.00072102192123470871 0 -0.013790258654209072 -0.00087706495258233462 0 -0.013735539952371074 -0.0008672452823319871 0 -0.013724195132441344 -0.00096910114792429444 0 -0.013852495363789418 -0.00071178528069860188 0 -0.013995762295898977 -0.00090527842128679877 0 -0.013852495363789418 -0.00071178528069860188 0 -0.014092629174851089 -0.0006650671936490331 0 -0.014102276804242489 -0.00054484767780170972 0 -0.013852495363789418 -0.00071178528069860188 0 -0.013995762295898977 -0.00090527842128679877 0 -0.014092629174851089 -0.0006650671936490331 0 -0.0054804482129011617 0.0012711907668754539 0 -0.0056677220456063174 0.0012800626795407006 0 -0.0057207974026392307 0.0015247684160205281 0 -0.013995762295898977 -0.00090527842128679877 0 -0.014092629174851089 -0.0006650671936490331 0 -0.014458938952287805 -0.00050457348109221383 0 -0.010133408163768873 0.00027631452645976548 0 -0.0096493722861466392 0.00037031285120380029 0 -0.005853903425900633 0.0013183712781951521 0 -0.0057207974026392307 0.0015247684160205281 0 -0.0060181877642044787 0.0015370001010679226 0 -0.005853903425900633 0.0013183712781951521 0 -0.0056677220456063174 0.0012800626795407006 0 -0.0057207974026392307 0.0015247684160205281 0 -0.0096493722861466392 0.00037031285120380029 0 -0.012725036103891404 0.00096694451812600289 0 -0.0057207974026392307 0.0015247684160205281 0 -0.0060276240594928487 0.0017869002170021072 0 -0.0060181877642044787 0.0015370001010679226 0 -0.016179953223852586 -0.0005382672690478164 0 -0.01506435814333946 -0.00021978078262898065 0 -0.014092629174851089 -0.0006650671936490331 0 -0.014458938952287805 -0.00050457348109221383 0 -0.014102276804242489 -0.00054484767780170972 0 -0.014458938952287805 -0.00050457348109221383 0 -0.014102276804242489 -0.00054484767780170972 0 -0.014325360961046103 -0.00025286670388068429 0 -0.014458938952287805 -0.00050457348109221383 0 -0.014325360961046103 -0.00025286670388068429 0 -0.014555727806988265 -0.00012537503259197797 0 -0.014047304013766651 -0.00034319621701780118 0 -0.014102276804242489 -0.00054484767780170972 0 -0.014325360961046103 -0.00025286670388068429 0 -0.016179953223852586 -0.0005382672690478164 0 -0.017332835306741807 -0.00022719865692152856 0 -0.020301061906455083 -0.00049458041484500459 0 -0.020258587480936445 -0.00062818050166278867 0 -0.020392142931222833 -0.00063047460889391858 0 -0.014047304013766651 -0.00034319621701780118 0 -0.014325360961046103 -0.00025286670388068429 0 -0.014445796940022666 0.00024372012826406216 0 -0.014325360961046103 -0.00025286670388068429 0 -0.014555727806988265 -0.00012537503259197797 0 -0.014445796940022666 0.00024372012826406216 0 -0.014458938952287805 -0.00050457348109221383 0 -0.014555727806988265 -0.00012537503259197797 0 -0.014995985041696983 1.710752449439094e-05 0 -0.014555727806988265 -0.00012537503259197797 0 -0.014445796940022666 0.00024372012826406216 0 -0.014995985041696983 1.710752449439094e-05 0 -0.020344421159308734 -0.00070920732268770002 0 -0.020258587480936445 -0.00062818050166278867 0 -0.020183648828539624 -0.00077919380270786184 0 -0.017332835306741807 -0.00022719865692152856 0 -0.018618266869701403 0.0003240217102710822 0 -0.014445796940022666 0.00024372012826406216 0 -0.014891663089039253 0.00084886564366065068 0 -0.014944118059560602 0.00043055523779619457 0 -0.014445796940022666 0.00024372012826406216 0 -0.014944118059560602 0.00043055523779619457 0 -0.014995985041696983 1.710752449439094e-05 0 -0.020344421159308734 -0.00070920732268770002 0 -0.020258587480936445 -0.00062818050166278867 0 -0.020392142931222833 -0.00063047460889391858 0 -0.013952163989862038 -0.00043656249333992798 0 -0.014313688661719033 -0.00078703334084957266 0 -0.014147378116383606 -0.001186804304090734 0 -0.017283509586891614 -0.00057373250578484801 0 -0.017353136464047601 -0.00099927337868878233 0 -0.020344421159308734 -0.00070920732268770002 0 -0.020392142931222833 -0.00063047460889391858 0 -0.0205047000800005 -0.00079739738934197493 0 -0.014029223866503437 -0.00041153220990288055 0 -0.013952163989862038 -0.00043656249333992798 0 -0.014313688661719033 -0.00078703334084957266 0 -0.016179953223852586 -0.0005382672690478164 0 -0.017283509586891614 -0.00057373250578484801 0 -0.01404687635207282 -0.00054795439911493882 0 -0.013952163989862038 -0.00043656249333992798 0 -0.013952375673031162 -0.00048352385571322036 0 -0.014029223866503437 -0.00041153220990288055 0 -0.013952163989862038 -0.00043656249333992798 0 -0.013952375673031162 -0.00048352385571322036 0 -0.013742313686339531 -0.00049292059946850618 0 -0.013805646279352261 -0.0005473353574412549 0 -0.013892333189169036 -0.0004678914158918307 0 -0.013805646279352261 -0.0005473353574412549 0 -0.013952375673031162 -0.00048352385571322036 0 -0.013892333189169036 -0.0004678914158918307 0 -0.014029223866503437 -0.00041153220990288055 0 -0.013892333189169036 -0.0004678914158918307 0 -0.013796954380356021 -0.00042573944781582626 0 -0.014029223866503437 -0.00041153220990288055 0 -0.013952375673031162 -0.00048352385571322036 0 -0.013892333189169036 -0.0004678914158918307 0 -0.013742313686339531 -0.00049292059946850618 0 -0.013892333189169036 -0.0004678914158918307 0 -0.013796954380356021 -0.00042573944781582626 0 -0.014354917413672312 -0.00060386269650797135 0 -0.014047976762175491 -0.00040859799850102922 0 -0.013689334276059593 -0.00032087449934683782 0 -0.014029223866503437 -0.00041153220990288055 0 -0.013796954380356021 -0.00042573944781582626 0 -0.014942305481055469 -0.00078496921112632752 0 -0.014029223866503437 -0.00041153220990288055 0 -0.014313688661719033 -0.00078703334084957266 0 -0.014942305481055469 -0.00078496921112632752 0 -0.014313688661719033 -0.00078703334084957266 0 -0.014615509329075791 -0.0011580161573458282 0 -0.014313688661719033 -0.00078703334084957266 0 -0.014615509329075791 -0.0011580161573458282 0 -0.014147378116383606 -0.001186804304090734 0 -0.014615509329075791 -0.0011580161573458282 0 -0.014147378116383606 -0.001186804304090734 0 -0.014645094415269493 -0.0015382518021244231 0 -0.020344421159308734 -0.00070920732268770002 0 -0.0205047000800005 -0.00079739738934197493 0 -0.020365621829397221 -0.00082786239647979687 0 -0.0205047000800005 -0.00079739738934197493 0 -0.020471588556399418 -0.00092655563633412495 0 -0.020365621829397221 -0.00082786239647979687 0 -0.0205047000800005 -0.00079739738934197493 0 -0.020471588556399418 -0.00092655563633412495 0 -0.020636924859498352 -0.0010449870265182085 0 -0.017353136464047601 -0.00099927337868878233 0 -0.017230162083216382 -0.0014895579437975953 0 -0.014147378116383606 -0.001186804304090734 0 -0.014645094415269493 -0.0015382518021244231 0 -0.014454256581027104 -0.0020001763375337559 0 -0.0150535854424503 -0.0014223091180985577 0 -0.014615509329075791 -0.0011580161573458282 0 -0.014645094415269493 -0.0015382518021244231 0 -0.01495325946733524 -0.0019173716075472367 0 -0.014645094415269493 -0.0015382518021244231 0 -0.014454256581027104 -0.0020001763375337559 0 -0.014945028522826609 -0.002406896289520905 0 -0.01495325946733524 -0.0019173716075472367 0 -0.014454256581027104 -0.0020001763375337559 0 -0.020636924859498352 -0.0010449870265182085 0 -0.02054641152205481 -0.0011807366730265975 0 -0.020718358330797944 -0.0013097264496686834 0 -0.020636924859498352 -0.0010449870265182085 0 -0.02054641152205481 -0.0011807366730265975 0 -0.020386822317144088 -0.0010574472041044319 0 -0.02054641152205481 -0.0011807366730265975 0 -0.020446028068262779 -0.0013134445777022259 0 -0.020386822317144088 -0.0010574472041044319 0 -0.020471588556399418 -0.00092655563633412495 0 -0.020636924859498352 -0.0010449870265182085 0 -0.020386822317144088 -0.0010574472041044319 0 -0.025438380186729975 -0.001300580839939025 0 -0.022536011446966625 -0.0023912581153977494 0 -0.02054641152205481 -0.0011807366730265975 0 -0.020446028068262779 -0.0013134445777022259 0 -0.020718358330797944 -0.0013097264496686834 0 -0.017230162083216382 -0.0014895579437975953 0 -0.020721471716111831 -0.0017965013896647747 0 -0.020636924859498352 -0.0010449870265182085 0 -0.020755259986355218 -0.0013394696537071728 0 -0.020718358330797944 -0.0013097264496686834 0 -0.020446028068262779 -0.0013134445777022259 0 -0.020759875681700526 -0.0013621786504907059 0 -0.020718358330797944 -0.0013097264496686834 0 -0.014945028522826609 -0.002406896289520905 0 -0.014454256581027104 -0.0020001763375337559 0 -0.014749717797464141 -0.0027664406580499537 0 -0.020759875681700526 -0.0013621786504907059 0 -0.020752881785851402 -0.0013394259575658901 0 -0.020718358330797944 -0.0013097264496686834 0 -0.014945028522826609 -0.002406896289520905 0 -0.014989065042343958 -0.0028476863085296917 0 -0.014749717797464141 -0.0027664406580499537 0 -0.022536011446966625 -0.0023912581153977494 0 -0.020721471716111831 -0.0017965013896647747 0 -0.017172771456200941 -0.0020836359372806818 0 -0.019927321101853718 -0.002172336642120621 0 -0.014989065042343958 -0.0028476863085296917 0 -0.014749717797464141 -0.0027664406580499537 0 -0.014830766085089955 -0.0028331478042720047 0 -0.022536011446966625 -0.0023912581153977494 0 -0.019927321101853718 -0.002172336642120621 0 -0.020721471716111831 -0.0017965013896647747 0 -0.019927321101853718 -0.002172336642120621 0 -0.020894876608416185 -0.0032886154619408111 0 -0.020699316086092379 -0.0025599728320926133 0 -0.021617198851598123 -0.0033799105204307457 0 -0.020721471716111831 -0.0017965013896647747 0 -0.020661721850073915 -0.001687101103253562 0 -0.025438380186729975 -0.001300580839939025 0 -0.020112567377249792 -0.00092973575990660075 0 -0.025438380186729975 -0.001300580839939025 0 -0.025217955186031898 -0.00055493371950157417 0 -0.029823590744051331 -0.0011532378415593186 0 -0.030009005826574335 -0.0011710617236629145 0 -0.029930046300330887 -0.0010600996106768941 0 -0.02054316295644194 -0.0011863817870368476 0 -0.020342758679428665 -0.0011573248290957191 0 -0.020459558992493701 -0.00098946051844291355 0 -0.025217955186031898 -0.00055493371950157417 0 -0.020234437623088519 -0.00046659354848330463 0 -0.020342758679428665 -0.0011573248290957191 0 -0.020459558992493701 -0.00098946051844291355 0 -0.020253750539628301 -0.00094943209079441013 0 -0.02093033010519545 -0.00076325799211314591 0 -0.02069152245308762 0.00012565123142054376 0 -0.020343336713651961 -0.00025862455063404752 0 -0.020253750539628301 -0.00094943209079441013 0 -0.020365621829397221 -0.00082786239647979687 0 -0.020183648828539624 -0.00077919380270786184 0 -0.020234437623088519 -0.00046659354848330463 0 -0.018618266869701403 0.0003240217102710822 0 -0.02069152245308762 0.00012565123142054376 0 -0.02046715537068787 0.0010321787205286651 0 -0.020047923207902562 0.00038905326596229824 0 -0.020459558992493701 -0.00098946051844291355 0 -0.020253750539628301 -0.00094943209079441013 0 -0.020365621829397221 -0.00082786239647979687 0 -0.020112567377249792 -0.00092973575990660075 0 -0.020418326828120999 -0.00089410690754859886 0 -0.020471588556399418 -0.00092655563633412495 0 -0.020386822317144088 -0.0010574472041044319 0 -0.020365621829397221 -0.00082786239647979687 0 -0.020344421159308734 -0.00070920732268770002 0 -0.020365621829397221 -0.00082786239647979687 0 -0.020183648828539624 -0.00077919380270786184 0 -0.018618266869701403 0.0003240217102710822 0 -0.017407580933674279 0.00062073657571017418 0 -0.020143582477064041 0.0007426098824527891 0 -0.01988195458383183 0.0007535026165185365 0 -0.020021407577736034 0.0010239278707981441 0 -0.020143582477064041 0.0007426098824527891 0 -0.01988195458383183 0.0007535026165185365 0 -0.020047923207902562 0.00038905326596229824 0 -0.019507918174083854 0.0022300960151270524 0 -0.018717849726389936 0.0024606040638932565 0 -0.019449127932164575 0.0032217933065749613 0 -0.019507918174083854 0.0022300960151270524 0 -0.018717849726389936 0.0024606040638932565 0 -0.018847653276319036 0.0016089672050169513 0 -0.019507918174083854 0.0022300960151270524 0 -0.018847653276319036 0.0016089672050169513 0 -0.019588160598799569 0.0010704773209608564 0 -0.018847653276319036 0.0016089672050169513 0 -0.019588160598799569 0.0010704773209608564 0 -0.018960353052142907 0.0010387846328843984 0 -0.018847653276319036 0.0016089672050169513 0 -0.018960353052142907 0.0010387846328843984 0 -0.018490874959457029 0.00088343854995321671 0 -0.01988195458383183 0.0007535026165185365 0 -0.019968206641392351 0.00026461949114719627 0 -0.019963708822939245 0.00020004577553087399 0 -0.019949123620020551 0.0016737742129017727 0 -0.02048673547223331 0.00033657275316101125 0 -0.01988195458383183 0.0007535026165185365 0 -0.020047923207902562 0.00038905326596229824 0 -0.019968206641392351 0.00026461949114719627 0 -0.018618266869701403 0.0003240217102710822 0 -0.02037864225462592 0.00082020211203367782 0 -0.020441194186173007 0.00029145446518970259 0 -0.02048673547223331 0.00033657275316101125 0 -0.020047923207902562 0.00038905326596229824 0 -0.019968206641392351 0.00026461949114719627 0 -0.020193355930812961 0.00013271110724058662 0 -0.02069152245308762 0.00012565123142054376 0 -0.020047923207902562 0.00038905326596229824 0 -0.020193355930812961 0.00013271110724058662 0 -0.02048673547223331 0.00033657275316101125 0 -0.023046654989081285 0.00091313223860894292 0 -0.02048673547223331 0.00033657275316101125 0 -0.025286025485174987 0.00055762670268421288 0 -0.02069152245308762 0.00012565123142054376 0 -0.020193355930812961 0.00013271110724058662 0 -0.020343336713651961 -0.00025862455063404752 0 -0.020343336713651961 -0.00025862455063404752 0 -0.019944588218865987 0.00014266985678619979 0 -0.019987086032410173 -0.0006437385425930416 0 -0.022485857881210148 6.0067082748954599e-05 0 -0.022763020903006088 0.0011590947621392196 0 -0.02252422328493647 0.0011886120149346847 0 -0.020193355930812961 0.00013271110724058662 0 -0.020343336713651961 -0.00025862455063404752 0 -0.019944588218865987 0.00014266985678619979 0 -0.019968206641392351 0.00026461949114719627 0 -0.020193355930812961 0.00013271110724058662 0 -0.019944588218865987 0.00014266985678619979 0 -0.019588160598799569 0.0010704773209608564 0 -0.01901100515269431 0.00057872811556441528 0 -0.019372568774157013 0.00012566931875878751 0 -0.019588160598799569 0.0010704773209608564 0 -0.018960353052142907 0.0010387846328843984 0 -0.01901100515269431 0.00057872811556441528 0 -0.018960353052142907 0.0010387846328843984 0 -0.01901100515269431 0.00057872811556441528 0 -0.018490874959457029 0.00088343854995321671 0 -0.01901100515269431 0.00057872811556441528 0 -0.018586099130936482 0.00023104276979508923 0 -0.018490874959457029 0.00088343854995321671 0 -0.019156810962291392 0.00015411408389605539 0 -0.019255684977752239 0.00013469016770448151 0 -0.018930143393388183 -9.6081542378666777e-05 0 -0.01901100515269431 0.00057872811556441528 0 -0.019156810962291392 0.00015411408389605539 0 -0.019372568774157013 0.00012566931875878751 0 -0.021202114457712754 0.00093822820244160107 0 -0.023046654989081285 0.00091313223860894292 0 -0.01901100515269431 0.00057872811556441528 0 -0.019156810962291392 0.00015411408389605539 0 -0.018586099130936482 0.00023104276979508923 0 -0.019156810962291392 0.00015411408389605539 0 -0.018930143393388183 -9.6081542378666777e-05 0 -0.018586099130936482 0.00023104276979508923 0 -0.02986063568685993 0.00078173438123051468 0 -0.03002466216478554 0.00063521128206154448 0 -0.029900388549157431 0.00058062796773508099 0 -0.030129264621239642 0.00074623273599803042 0 -0.02986063568685993 0.00078173438123051468 0 -0.03002466216478554 0.00063521128206154448 0 -0.025217955186031898 -0.00055493371950157417 0 -0.025286025485174987 0.00055762670268421288 0 -0.02093033010519545 -0.00076325799211314591 0 -0.020343336713651961 -0.00025862455063404752 0 -0.019987086032410173 -0.0006437385425930416 0 -0.025286025485174987 0.00055762670268421288 0 -0.029942135265945077 0.00053592832393843583 0 -0.029725937467372177 0.00051199628181634784 0 -0.029736591895110222 0.00051054815871182883 0 -0.029818056330371764 0.00047092457830225602 0 -0.023046654989081285 0.00091313223860894292 0 -0.025286025485174987 0.00055762670268421288 0 -0.018116600207867629 -6.0168323655188144e-05 0 -0.016004594611033537 2.5529012446479006e-06 0 -0.017893746316835397 -1.1356233043377332e-06 0 -0.018116600207867629 -6.0168323655188144e-05 0 -0.018586099130936482 0.00023104276979508923 0 -0.017771681219829825 0.00041088506361867402 0 -0.018930143393388183 -9.6081542378666777e-05 0 -0.018116600207867629 -6.0168323655188144e-05 0 -0.018586099130936482 0.00023104276979508923 0 -0.017771681219829825 0.00041088506361867402 0 -0.018490874959457029 0.00088343854995321671 0 -0.017783515039794365 0.0017137936980592783 0 -0.018586099130936482 0.00023104276979508923 0 -0.017771681219829825 0.00041088506361867402 0 -0.018490874959457029 0.00088343854995321671 0 -0.016000531082190149 9.1462397792847005e-08 0 -0.015616556730810834 0.00081572067083153196 0 -0.017771681219829825 0.00041088506361867402 0 -0.016004594611033537 2.5529012446479006e-06 0 -0.017783515039794365 0.0017137936980592783 0 -0.018116600207867629 -6.0168323655188144e-05 0 -0.017771681219829825 0.00041088506361867402 0 -0.016004594611033537 2.5529012446479006e-06 0 -0.01599875633726789 1.43561744290476e-06 0 -0.013516702129003242 0.00019477231595288119 0 -0.013907538807750858 -6.2335569390418823e-07 0 -0.018847653276319036 0.0016089672050169513 0 -0.018490874959457029 0.00088343854995321671 0 -0.017783515039794365 0.0017137936980592783 0 -0.018717849726389936 0.0024606040638932565 0 -0.018847653276319036 0.0016089672050169513 0 -0.017783515039794365 0.0017137936980592783 0 -0.0125179584118106 -0.0001063940077753365 0 -0.013516702129003242 0.00019477231595288119 0 -0.012963395863994108 -4.9706264323679665e-05 0 -0.0125179584118106 -0.0001063940077753365 0 -0.012963395863994108 -4.9706264323679665e-05 0 -0.012392030664227158 -8.8251570309495585e-05 0 -0.015687340260217768 0.0012159709692156153 0 -0.015616556730810834 0.00081572067083153196 0 -0.012963395863994108 -4.9706264323679665e-05 0 -0.013907538807750858 -6.2335569390418823e-07 0 -0.012500797244079603 -5.1582117590526362e-05 0 -0.013516702129003242 0.00019477231595288119 0 -0.012963395863994108 -4.9706264323679665e-05 0 -0.013907538807750858 -6.2335569390418823e-07 0 -0.013907538807750858 -6.2335569390418823e-07 0 -0.012500797244079603 -5.1582117590526362e-05 0 -0.011814429302417096 4.2863021518256464e-07 0 -0.012500797244079603 -5.1582117590526362e-05 0 -0.011814429302417096 4.2863021518256464e-07 0 -0.011571533592752353 0.00019973861085339985 0 -0.011814429302417096 4.2863021518256464e-07 0 -0.011571533592752353 0.00019973861085339985 0 -0.0097210232339126137 2.101795213216164e-07 0 -0.011571533592752353 0.00019973861085339985 0 -0.012426423395140366 0.00019643327540782451 0 -0.012132459326283759 0.00080917725725152586 0 -0.011313547576332678 0.00020270315851759511 0 -0.010641997534418355 0.00037645012906301718 0 -0.011571533592752353 0.00019973861085339985 0 -0.012392030664227158 -8.8251570309495585e-05 0 -0.012426423395140366 0.00019643327540782451 0 -0.0125179584118106 -0.0001063940077753365 0 -0.012392030664227158 -8.8251570309495585e-05 0 -0.012426423395140366 0.00019643327540782451 0 -0.012500797244079603 -5.1582117590526362e-05 0 -0.011571533592752353 0.00019973861085339985 0 -0.012392030664227158 -8.8251570309495585e-05 0 -0.012963395863994108 -4.9706264323679665e-05 0 -0.012500797244079603 -5.1582117590526362e-05 0 -0.012392030664227158 -8.8251570309495585e-05 0 -0.015687340260217768 0.0012159709692156153 0 -0.015844319758538946 0.0015526443114340441 0 -0.0125179584118106 -0.0001063940077753365 0 -0.012791356673813691 0.00013985760923932995 0 -0.012426423395140366 0.00019643327540782451 0 -0.020021407577736034 0.0010239278707981441 0 -0.019804246923347243 0.0011474266711768641 0 -0.019904779144327204 0.0012861622321922858 0 -0.019949123620020551 0.0016737742129017727 0 -0.015844319758538946 0.0015526443114340441 0 -0.017407580933674279 0.00062073657571017418 0 -0.012725036103891404 0.00096694451812600289 0 -0.01988195458383183 0.0007535026165185365 0 -0.020021407577736034 0.0010239278707981441 0 -0.019804246923347243 0.0011474266711768641 0 -0.015844319758538946 0.0015526443114340441 0 -0.01222723095118783 0.00089591311925588937 0 -0.012000829366534627 0.0013975375662627486 0 -0.011968900112190742 0.0013889207402178439 0 -0.011939602488875623 0.0013770633487307571 0 -0.015844319758538946 0.0015526443114340441 0 -0.012725036103891404 0.00096694451812600289 0 -0.012791356673813691 0.00013985760923932995 0 -0.012426423395140366 0.00019643327540782451 0 -0.012782068704278763 0.00074196324974698589 0 -0.012426423395140366 0.00019643327540782451 0 -0.012782068704278763 0.00074196324974698589 0 -0.012132459326283759 0.00080917725725152586 0 -0.012782068704278763 0.00074196324974698589 0 -0.012390908631772318 0.0012242383617708484 0 -0.012132459326283759 0.00080917725725152586 0 -0.012725036103891404 0.00096694451812600289 0 -0.0087170463973024487 0.0017025535529410448 0 -0.011968900112190742 0.0013889207402178439 0 -0.011939602488875623 0.0013770633487307571 0 -0.011927098872991275 0.0013774957309639925 0 -0.011939602488875623 0.0013770633487307571 0 -0.011927098872991275 0.0013774957309639925 0 -0.011864320447323785 0.0013838019977294896 0 -0.01222723095118783 0.00089591311925588937 0 -0.01024053237573307 0.0013693686498059217 0 -0.0087170463973024487 0.0017025535529410448 0 -0.01024053237573307 0.0013693686498059217 0 -0.005853903425900633 0.0013183712781951521 0 -0.0060181877642044787 0.0015370001010679226 0 -0.0060056884588082799 0.0013058777555367395 0 -0.005853903425900633 0.0013183712781951521 0 -0.006005016470618206 0.0012895761091929162 0 -0.0060056884588082799 0.0013058777555367395 0 -0.0099858699317065518 0.0014203142525405499 0 -0.01024053237573307 0.0013693686498059217 0 -0.012782068704278763 0.00074196324974698589 0 -0.012692971303570834 0.0013030716317551029 0 -0.012390908631772318 0.0012242383617708484 0 -0.012681178446247807 0.0013335119715513133 0 -0.012692971303570834 0.0013030716317551029 0 -0.012390908631772318 0.0012242383617708484 0 -0.0075264520183328451 0.00011509521218904114 0 -0.0086054395546975113 8.9860166223882081e-05 0 -0.009252622228000093 0.00024645860694566914 0 -0.0078827672423084482 -6.1926490812862576e-06 0 -0.0075264520183328451 0.00011509521218904114 0 -0.0086054395546975113 8.9860166223882081e-05 0 -0.010168423228646323 0.00073953081021758309 0 -0.010641997534418355 0.00037645012906301718 0 -0.0078827672423084482 -6.1926490812862576e-06 0 -0.0086054395546975113 8.9860166223882081e-05 0 -0.0097210232339126137 2.101795213216164e-07 0 -0.0086054395546975113 8.9860166223882081e-05 0 -0.0097210232339126137 2.101795213216164e-07 0 -0.009252622228000093 0.00024645860694566914 0 -0.011571533592752353 0.00019973861085339985 0 -0.0097210232339126137 2.101795213216164e-07 0 -0.009252622228000093 0.00024645860694566914 0 -0.026833177634486931 -0.00028350151323947487 0 -0.026403686142876713 -0.00016688402701070751 0 -0.029681130912737844 -0.00050304148939254599 0 -0.029920676085551306 -0.00036621240200511684 0 -0.029735206581968123 -0.00021462968721589797 0 -0.024231892444213577 5.9475158576139676e-05 0 -0.024548916425368963 0.00017238589916971573 0 -0.023057380013288678 -1.5802656451768566e-05 0 -0.024231892444213577 5.9475158576139676e-05 0 -0.023057380013288678 -1.5802656451768566e-05 0 -0.023629316932286197 -1.5866445718073602e-06 0 -0.025398106002715151 0.00030534690110683521 0 -0.026833177634486931 -0.00028350151323947487 0 -0.024231892444213577 5.9475158576139676e-05 0 -0.024587767843948189 1.6213399940564379e-05 0 -0.023629316932286197 -1.5866445718073602e-06 0 -0.024587767843948189 1.6213399940564379e-05 0 -0.025464901862941699 -3.1029243394471188e-07 0 -0.023571809912613793 4.1211402027008327e-08 0 -0.024587767843948189 1.6213399940564379e-05 0 -0.023571809912613793 4.1211402027008327e-08 0 -0.023629316932286197 -1.5866445718073602e-06 0 -0.024231892444213577 5.9475158576139676e-05 0 -0.024587767843948189 1.6213399940564379e-05 0 -0.024895607554685277 -3.0399539542682506e-05 0 -0.024587767843948189 1.6213399940564379e-05 0 -0.025736683006918178 5.0834166458554673e-06 0 -0.024895607554685277 -3.0399539542682506e-05 0 -0.024587767843948189 1.6213399940564379e-05 0 -0.025464901862941699 -3.1029243394471188e-07 0 -0.025736683006918178 5.0834166458554673e-06 0 -0.026833177634486931 -0.00028350151323947487 0 -0.030528561761524728 0.00044035082482704428 0 -0.029681130912737844 -0.00050304148939254599 0 -0.029894103307261027 -0.00056505321768237206 0 -0.029764124535333069 -0.00075876749466752367 0 -0.029681130912737844 -0.00050304148939254599 0 -0.029894103307261027 -0.00056505321768237206 0 -0.029920676085551306 -0.00036621240200511684 0 -0.029894103307261027 -0.00056505321768237206 0 -0.030077289154630808 -0.00050150492544124073 0 -0.030014319543004337 -0.00071588393565928166 0 -0.029894103307261027 -0.00056505321768237206 0 -0.030077289154630808 -0.00050150492544124073 0 -0.029920676085551306 -0.00036621240200511684 0 -0.030336822170180331 -0.00017225069406647683 0 -0.030554447745722673 -0.00036708823878817836 0 -0.030285477926528952 -0.00039559882623208843 0 -0.03008320468136207 -0.00050358305352146183 0 -0.031829749998819323 -1.5498158417052029e-05 0 -0.03008320468136207 -0.00050358305352146183 0 -0.030289069806208848 -0.00010236071015582738 0 -0.030077289154630808 -0.00050150492544124073 0 -0.029920676085551306 -0.00036621240200511684 0 -0.03016387447362465 -0.00027825014098841741 0 -0.030336822170180331 -0.00017225069406647683 0 -0.030397446122301996 -1.2738945459736931e-05 0 -0.030522580356991902 -8.1192036237426584e-05 0 -0.029920676085551306 -0.00036621240200511684 0 -0.029983674048563849 -0.00010977972886125565 0 -0.029735206581968123 -0.00021462968721589797 0 -0.029920676085551306 -0.00036621240200511684 0 -0.029983674048563849 -0.00010977972886125565 0 -0.03016387447362465 -0.00027825014098841741 0 -0.030289069806208848 -0.00010236071015582738 0 -0.030290528076769001 -1.3884601521471487e-05 0 -0.029983674048563849 -0.00010977972886125565 0 -0.03016387447362465 -0.00027825014098841741 0 -0.030284894427676734 4.2948749910921705e-06 0 -0.03004116670358898 0.00012343271101681924 0 -0.030271886927335751 9.1009334608021055e-05 0 -0.030284894427676734 4.2948749910921705e-06 0 -0.029983674048563849 -0.00010977972886125565 0 -0.03004116670358898 0.00012343271101681924 0 -0.030284894427676734 4.2948749910921705e-06 0 -0.029983674048563849 -0.00010977972886125565 0 -0.029801522336000315 6.2871390435613461e-05 0 -0.029735206581968123 -0.00021462968721589797 0 -0.029983674048563849 -0.00010977972886125565 0 -0.029801522336000315 6.2871390435613461e-05 0 -0.03004116670358898 0.00012343271101681924 0 -0.025604667808420897 -8.3489052145698187e-05 0 -0.026403686142876713 -0.00016688402701070751 0 -0.021419400615467717 -6.2457212566175235e-05 0 -0.023057380013288678 -1.5802656451768566e-05 0 -0.022375867242434053 -3.9054406256070982e-05 0 -0.023057380013288678 -1.5802656451768566e-05 0 -0.023629316932286197 -1.5866445718073602e-06 0 -0.022375867242434053 -3.9054406256070982e-05 0 -0.023571809912613793 4.1211402027008327e-08 0 -0.023629316932286197 -1.5866445718073602e-06 0 -0.022375867242434053 -3.9054406256070982e-05 0 -0.023571809912613793 4.1211402027008327e-08 0 -0.022375867242434053 -3.9054406256070982e-05 0 -0.02167924809103345 -2.5300558131856975e-07 0 -0.022375867242434053 -3.9054406256070982e-05 0 -0.02167924809103345 -2.5300558131856975e-07 0 -0.020778797508977691 -0.00012218488825939229 0 -0.021419400615467717 -6.2457212566175235e-05 0 -0.022375867242434053 -3.9054406256070982e-05 0 -0.020778797508977691 -0.00012218488825939229 0 -0.021419400615467717 -6.2457212566175235e-05 0 -0.020778797508977691 -0.00012218488825939229 0 -0.020091901347344378 -0.00021407825827816568 0 -0.020778797508977691 -0.00012218488825939229 0 -0.01928563261039519 -0.00023866952237844405 0 -0.020091901347344378 -0.00021407825827816568 0 -0.02167924809103345 -2.5300558131856975e-07 0 -0.020778797508977691 -0.00012218488825939229 0 -0.019786873813226698 -2.3523414060276758e-07 0 -0.020778797508977691 -0.00012218488825939229 0 -0.019786873813226698 -2.3523414060276758e-07 0 -0.01928563261039519 -0.00023866952237844405 0 -0.019786873813226698 -2.3523414060276758e-07 0 -0.01928563261039519 -0.00023866952237844405 0 -0.017893746316835397 -1.1356233043377332e-06 0 -0.018930143393388183 -9.6081542378666777e-05 0 -0.018116600207867629 -6.0168323655188144e-05 0 -0.01928563261039519 -0.00023866952237844405 0 -0.018930143393388183 -9.6081542378666777e-05 0 -0.01928563261039519 -0.00023866952237844405 0 -0.019315922307934146 -0.0002514413212835991 0 -0.018116600207867629 -6.0168323655188144e-05 0 -0.01928563261039519 -0.00023866952237844405 0 -0.017893746316835397 -1.1356233043377332e-06 0 -0.03002466216478554 0.00063521128206154448 0 -0.029900388549157431 0.00058062796773508099 0 -0.030042795613342794 0.00049029412019783287 0 -0.023046654989081285 0.00091313223860894292 0 -0.024738568555288259 -7.4636790461364882e-06 0 -0.019255684977752239 0.00013469016770448151 0 -0.018930143393388183 -9.6081542378666777e-05 0 -0.019315922307934146 -0.0002514413212835991 0 -0.029725937467372177 0.00051199628181634784 0 -0.029818056330371764 0.00047092457830225602 0 -0.029810077562148627 0.00045247520670605617 0 -0.024738568555288259 -7.4636790461364882e-06 0 -0.024955855102699133 2.8392340711711996e-06 0 -0.029810077562148627 0.00045247520670605617 0 -0.029934410360829965 0.00038199593533806871 0 -0.029835708393780528 0.00028532447933177652 0 -0.01928563261039519 -0.00023866952237844405 0 -0.019315922307934146 -0.0002514413212835991 0 -0.020091901347344378 -0.00021407825827816568 0 -0.029818056330371764 0.00047092457830225602 0 -0.029810077562148627 0.00045247520670605617 0 -0.029934410360829965 0.00038199593533806871 0 -0.029934410360829965 0.00038199593533806871 0 -0.030042795613342794 0.00049029412019783287 0 -0.030137662211218781 0.00032102156730610899 0 -0.029942135265945077 0.00053592832393843583 0 -0.029908058531308502 0.00038536202860275036 0 -0.029900388549157431 0.00058062796773508099 0 -0.029934410360829965 0.00038199593533806871 0 -0.030042795613342794 0.00049029412019783287 0 -0.029995149221989467 0.00026124739229280988 0 -0.030128475904675635 0.00018181015312286164 0 -0.030137662211218781 0.00032102156730610899 0 -0.029934410360829965 0.00038199593533806871 0 -0.029995149221989467 0.00026124739229280988 0 -0.030137662211218781 0.00032102156730610899 0 -0.029995149221989467 0.00026124739229280988 0 -0.029835708393780528 0.00028532447933177652 0 -0.03004116670358898 0.00012343271101681924 0 -0.029934410360829965 0.00038199593533806871 0 -0.029995149221989467 0.00026124739229280988 0 -0.029835708393780528 0.00028532447933177652 0 -0.029801522336000315 6.2871390435613461e-05 0 -0.029835708393780528 0.00028532447933177652 0 -0.03004116670358898 0.00012343271101681924 0 -0.025604667808420897 -8.3489052145698187e-05 0 -0.024955855102699133 2.8392340711711996e-06 0 -0.029995149221989467 0.00026124739229280988 0 -0.03004116670358898 0.00012343271101681924 0 -0.030128475904675635 0.00018181015312286164 0 -0.03004116670358898 0.00012343271101681924 0 -0.030128475904675635 0.00018181015312286164 0 -0.030271886927335751 9.1009334608021055e-05 0 -0.030271886927335751 9.1009334608021055e-05 0 -0.03030532985274061 9.2229911575127192e-05 0 -0.030371132571336085 6.1591432237544802e-05 0 -0.030271886927335751 9.1009334608021055e-05 0 -0.03030532985274061 9.2229911575127192e-05 0 -0.030246596125432155 0.00017084983872044492 0 -0.03030532985274061 9.2229911575127192e-05 0 -0.030246596125432155 0.00017084983872044492 0 -0.030340433745634644 0.00022915769156455575 0 -0.030128475904675635 0.00018181015312286164 0 -0.030271886927335751 9.1009334608021055e-05 0 -0.030246596125432155 0.00017084983872044492 0 -0.030177984884121409 -0.00011750125070143381 0 -0.030270960556166425 -9.7905996766172719e-06 0 -0.030125839746835928 -0.000534483247558896 0 -0.029897742433880398 -0.0003685885729099211 0 -0.030276264992679953 -8.4623167159351244e-06 0 -0.03030532985274061 9.2229911575127192e-05 0 -0.030340433745634644 0.00022915769156455575 0 -0.030276264992679953 -8.4623167159351244e-06 0 -0.03030532985274061 9.2229911575127192e-05 0 -0.030276264992679953 -8.4623167159351244e-06 0 -0.030371132571336085 6.1591432237544802e-05 0 -0.030125839746835928 -0.000534483247558896 0 -0.029801656171524075 -0.00072364129190129374 0 -0.029897742433880398 -0.0003685885729099211 0 -0.030128475904675635 0.00018181015312286164 0 -0.030246596125432155 0.00017084983872044492 0 -0.030137662211218781 0.00032102156730610899 0 -0.030246596125432155 0.00017084983872044492 0 -0.030340433745634644 0.00022915769156455575 0 -0.030137662211218781 0.00032102156730610899 0 -0.030340433745634644 0.00022915769156455575 0 -0.030137662211218781 0.00032102156730610899 0 -0.030237855274018094 0.00048803999591374558 0 -0.030042795613342794 0.00049029412019783287 0 -0.030137662211218781 0.00032102156730610899 0 -0.030237855274018094 0.00048803999591374558 0 -0.030055754810161373 -0.00093194435840289176 0 -0.029817325934700118 -0.00096372436802448058 0 -0.029801656171524075 -0.00072364129190129374 0 -0.030125839746835928 -0.000534483247558896 0 -0.030055754810161373 -0.00093194435840289176 0 -0.029801656171524075 -0.00072364129190129374 0 -0.030177984884121409 -0.00011750125070143381 0 -0.030631492533767013 -0.00025515412074536022 0 -0.030009005826574335 -0.0011710617236629145 0 -0.030055754810161373 -0.00093194435840289176 0 -0.029930046300330887 -0.0010600996106768941 0 -0.030055754810161373 -0.00093194435840289176 0 -0.029930046300330887 -0.0010600996106768941 0 -0.029817325934700118 -0.00096372436802448058 0 -0.029823590744051331 -0.0011532378415593186 0 -0.029930046300330887 -0.0010600996106768941 0 -0.029817325934700118 -0.00096372436802448058 0 -0.030129264621239642 0.00074623273599803042 0 -0.03002466216478554 0.00063521128206154448 0 -0.030237855274018094 0.00048803999591374558 0 -0.025217955186031898 -0.00055493371950157417 0 -0.030631492533767013 -0.00025515412074536022 0 -0.03002466216478554 0.00063521128206154448 0 -0.030042795613342794 0.00049029412019783287 0 -0.030237855274018094 0.00048803999591374558 0 -0.029060851106430984 -0.0016546200551338119 0 -0.029406667058922222 -0.0013614969612287464 0 -0.028952147029577865 -0.00111805584705215 0 -0.022536011446966625 -0.0023912581153977494 0 -0.026049785921374257 -0.0013664584956224104 0 -0.023026498504612938 -0.0021394498864761714 0 -0.022978816023431336 -0.0021334952032098647 0 -0.022915030817308078 -0.001614732449924137 0 -0.029794863710131483 -0.0017384146033937551 0 -0.029060851106430984 -0.0016546200551338119 0 -0.029406667058922222 -0.0013614969612287464 0 -0.025438380186729975 -0.001300580839939025 0 -0.029889372770976908 -0.0012065174339616614 0 -0.029794863710131483 -0.0017384146033937551 0 -0.029785720404589586 -0.0012494498545899274 0 -0.029406667058922222 -0.0013614969612287464 0 -0.029785720404589586 -0.0012494498545899274 0 -0.029406667058922222 -0.0013614969612287464 0 -0.029427337759578148 -0.001038896917442571 0 -0.029889372770976908 -0.0012065174339616614 0 -0.029784391258419335 -0.00071999426884913475 0 -0.029801656171524075 -0.00072364129190129374 0 -0.029427337759578148 -0.001038896917442571 0 -0.029411650237642025 -0.00060642699953942884 0 -0.029785720404589586 -0.0012494498545899274 0 -0.029801656171524075 -0.00072364129190129374 0 -0.029427337759578148 -0.001038896917442571 0 -0.029427337759578148 -0.001038896917442571 0 -0.029411650237642025 -0.00060642699953942884 0 -0.028952147029577865 -0.00111805584705215 0 -0.029406667058922222 -0.0013614969612287464 0 -0.029427337759578148 -0.001038896917442571 0 -0.028952147029577865 -0.00111805584705215 0 -0.029411650237642025 -0.00060642699953942884 0 -0.028816931594698766 -0.0005550813225409858 0 -0.028952147029577865 -0.00111805584705215 0 -0.029411650237642025 -0.00060642699953942884 0 -0.029600925727218813 -9.7824053547167992e-05 0 -0.028816931594698766 -0.0005550813225409858 0 -0.030429596664264508 -0.00028312579573661929 0 -0.027222700104496806 -0.00069625397401967771 0 -0.029411650237642025 -0.00060642699953942884 0 -0.029897742433880398 -0.0003685885729099211 0 -0.029600925727218813 -9.7824053547167992e-05 0 -0.029801656171524075 -0.00072364129190129374 0 -0.029411650237642025 -0.00060642699953942884 0 -0.029897742433880398 -0.0003685885729099211 0 -0.029897742433880398 -0.0003685885729099211 0 -0.029600925727218813 -9.7824053547167992e-05 0 -0.030276264992679953 -8.4623167159351244e-06 0 -0.030478610679786442 -0.00054252679709651953 0 -0.029890601810094623 -0.00065457148478450394 0 -0.029634374155766453 -0.0012942918543922444 0 -0.030478610679786442 -0.00054252679709651953 0 -0.029890601810094623 -0.00065457148478450394 0 -0.030070174419241442 -0.00027201730592546367 0 -0.030478610679786442 -0.00054252679709651953 0 -0.030070174419241442 -0.00027201730592546367 0 -0.030406849038298798 -7.2966777547272234e-05 0 -0.030070174419241442 -0.00027201730592546367 0 -0.030406849038298798 -7.2966777547272234e-05 0 -0.030243072690507865 0.00029327931765367221 0 -0.030070174419241442 -0.00027201730592546367 0 -0.030243072690507865 0.00029327931765367221 0 -0.029642556138547459 -9.7052392315120411e-06 0 -0.030406849038298798 -7.2966777547272234e-05 0 -0.030243072690507865 0.00029327931765367221 0 -0.030567973433932548 9.1669502942931733e-05 0 -0.030243072690507865 0.00029327931765367221 0 -0.030567973433932548 9.1669502942931733e-05 0 -0.030810026304646465 -6.4430093687775316e-05 0 -0.030567973433932548 9.1669502942931733e-05 0 -0.030598638868071369 2.7635969491433811e-05 0 -0.030706901467258827 7.5222704935218921e-06 0 -0.030567973433932548 9.1669502942931733e-05 0 -0.030539278527882154 -3.4186848149501255e-05 0 -0.030598638868071369 2.7635969491433811e-05 0 -0.030429596664264508 -0.00028312579573661929 0 -0.030284122158163423 -1.7223093890683844e-05 0 -0.030478610679786442 -0.00054252679709651953 0 -0.030539278527882154 -3.4186848149501255e-05 0 -0.030495797477069549 7.5142107838936287e-05 0 -0.030478610679786442 -0.00054252679709651953 0 -0.030406849038298798 -7.2966777547272234e-05 0 -0.030539278527882154 -3.4186848149501255e-05 0 -0.030406849038298798 -7.2966777547272234e-05 0 -0.030567973433932548 9.1669502942931733e-05 0 -0.030539278527882154 -3.4186848149501255e-05 0 -0.029600925727218813 -9.7824053547167992e-05 0 -0.030276264992679953 -8.4623167159351244e-06 0 -0.030495797477069549 7.5142107838936287e-05 0 -0.030276264992679953 -8.4623167159351244e-06 0 -0.030371132571336085 6.1591432237544802e-05 0 -0.030495797477069549 7.5142107838936287e-05 0 -0.030539278527882154 -3.4186848149501255e-05 0 -0.030495797477069549 7.5142107838936287e-05 0 -0.030598638868071369 2.7635969491433811e-05 0 -0.030271886927335751 9.1009334608021055e-05 0 -0.030379688312227895 4.448179722374049e-05 0 -0.030284894427676734 4.2948749910921705e-06 0 -0.030371132571336085 6.1591432237544802e-05 0 -0.030495797477069549 7.5142107838936287e-05 0 -0.030379688312227895 4.448179722374049e-05 0 -0.030271886927335751 9.1009334608021055e-05 0 -0.030371132571336085 6.1591432237544802e-05 0 -0.030379688312227895 4.448179722374049e-05 0 -0.030495797477069549 7.5142107838936287e-05 0 -0.030379688312227895 4.448179722374049e-05 0 -0.030469585665535748 8.0642893091457076e-06 0 -0.030379688312227895 4.448179722374049e-05 0 -0.030284894427676734 4.2948749910921705e-06 0 -0.030469585665535748 8.0642893091457076e-06 0 -0.030397446122301996 -1.2738945459736931e-05 0 -0.030284894427676734 4.2948749910921705e-06 0 -0.030469585665535748 8.0642893091457076e-06 0 -0.030495797477069549 7.5142107838936287e-05 0 -0.030469585665535748 8.0642893091457076e-06 0 -0.030598638868071369 2.7635969491433811e-05 0 -0.030469585665535748 8.0642893091457076e-06 0 -0.030598638868071369 2.7635969491433811e-05 0 -0.030657068317708223 -2.2612064123413003e-05 0 -0.030598638868071369 2.7635969491433811e-05 0 -0.030657068317708223 -2.2612064123413003e-05 0 -0.030706901467258827 7.5222704935218921e-06 0 -0.030657068317708223 -2.2612064123413003e-05 0 -0.030706901467258827 7.5222704935218921e-06 0 -0.030879849226786819 -6.3942935799167681e-05 0 -0.030657068317708223 -2.2612064123413003e-05 0 -0.030522580356991902 -8.1192036237426584e-05 0 -0.030767131944208298 -0.00010878204606267324 0 -0.030657068317708223 -2.2612064123413003e-05 0 -0.030767131944208298 -0.00010878204606267324 0 -0.030879849226786819 -6.3942935799167681e-05 0 -0.030469585665535748 8.0642893091457076e-06 0 -0.030657068317708223 -2.2612064123413003e-05 0 -0.030522580356991902 -8.1192036237426584e-05 0 -0.030397446122301996 -1.2738945459736931e-05 0 -0.030469585665535748 8.0642893091457076e-06 0 -0.030522580356991902 -8.1192036237426584e-05 0 -0.030522580356991902 -8.1192036237426584e-05 0 -0.030767131944208298 -0.00010878204606267324 0 -0.030554447745722673 -0.00036708823878817836 0 -0.030336822170180331 -0.00017225069406647683 0 -0.030522580356991902 -8.1192036237426584e-05 0 -0.030554447745722673 -0.00036708823878817836 0 -0.030767131944208298 -0.00010878204606267324 0 -0.031226650500736836 -0.0002088593831370115 0 -0.030554447745722673 -0.00036708823878817836 0 -0.030767131944208298 -0.00010878204606267324 0 -0.031226650500736836 -0.0002088593831370115 0 -0.030879849226786819 -6.3942935799167681e-05 0 -0.031226650500736836 -0.0002088593831370115 0 -0.030810026304646465 -6.4430093687775316e-05 0 -0.030879849226786819 -6.3942935799167681e-05 0 -0.031226650500736836 -0.0002088593831370115 0 -0.030810026304646465 -6.4430093687775316e-05 0 -0.031227620032142526 7.45907810719418e-05 0 -0.030885064775124468 0.001240589377489528 0 -0.03136510146313623 0.0025991831162418349 0 -0.031038586471087603 0.0027066697138961085 0 -0.029528530731881015 0.0022425490262641401 0 -0.029997296661959768 0.0033835513503066151 0 -0.031038586471087603 0.0027066697138961085 0 -0.030540498588987084 0.0044238857904324155 0 -0.031586028970849445 0.0047163473404366694 0 -0.031038586471087603 0.0027066697138961085 0 -0.029997296661959768 0.0033835513503066151 0 -0.030540498588987084 0.0044238857904324155 0 -0.030243072690507865 0.00029327931765367221 0 -0.031038586471087603 0.0027066697138961085 0 -0.029528530731881015 0.0022425490262641401 0 -0.03030741082332811 0.00032111476101483351 0 -0.030885064775124468 0.001240589377489528 0 -0.030567973433932548 9.1669502942931733e-05 0 -0.030810026304646465 -6.4430093687775316e-05 0 -0.030706901467258827 7.5222704935218921e-06 0 -0.030810026304646465 -6.4430093687775316e-05 0 -0.030706901467258827 7.5222704935218921e-06 0 -0.030879849226786819 -6.3942935799167681e-05 0 -0.02791961353480216 0.0018659566982872117 0 -0.027264184977301997 0.0032201965216414933 0 -0.026847295169821921 0.0025314024838560098 0 -0.02791961353480216 0.0018659566982872117 0 -0.026847295169821921 0.0025314024838560098 0 -0.026753482227083902 0.0017325902767367188 0 -0.02791961353480216 0.0018659566982872117 0 -0.026753482227083902 0.0017325902767367188 0 -0.026987354000793072 0.00083596598804109743 0 -0.02791961353480216 0.0018659566982872117 0 -0.029528530731881015 0.0022425490262641401 0 -0.029205334731968156 0.0010124755877695807 0 -0.02791961353480216 0.0018659566982872117 0 -0.029528530731881015 0.0022425490262641401 0 -0.028739101493299238 0.003660920454193761 0 -0.029528530731881015 0.0022425490262641401 0 -0.029997296661959768 0.0033835513503066151 0 -0.028739101493299238 0.003660920454193761 0 -0.02791961353480216 0.0018659566982872117 0 -0.028739101493299238 0.003660920454193761 0 -0.027264184977301997 0.0032201965216414933 0 -0.028739101493299238 0.003660920454193761 0 -0.027264184977301997 0.0032201965216414933 0 -0.02769124466331677 0.0041547001832888683 0 -0.028287897645006752 0.0029578393950149659 0 -0.030884149374504389 0.0030430387406177152 0 -0.027264184977301997 0.0032201965216414933 0 -0.025733279764336113 0.0025555297114530609 0 -0.026283674335392096 0.004244422399953025 0 -0.027264184977301997 0.0032201965216414933 0 -0.026283674335392096 0.004244422399953025 0 -0.02769124466331677 0.0041547001832888683 0 -0.033136941527935823 0.0028856994157167664 0 -0.032881501320574845 0.003138504631372972 0 -0.032691177163825309 0.0025369729749874768 0 -0.033136941527935823 0.0028856994157167664 0 -0.032881501320574845 0.003138504631372972 0 -0.03336529479485105 0.0028057994758424031 0 -0.028287897645006752 0.0029578393950149659 0 -0.028772021818052555 0.0027906843104432266 0 -0.033173870157564289 0.0027316055074641243 0 -0.033136941527935823 0.0028856994157167664 0 -0.03336529479485105 0.0028057994758424031 0 -0.033173870157564289 0.0027316055074641243 0 -0.03336529479485105 0.0028057994758424031 0 -0.033344943480319127 0.0026939299352556419 0 -0.03345369562836898 0.003082244043118962 0 -0.030884149374504389 0.0030430387406177152 0 -0.033173870157564289 0.0027316055074641243 0 -0.033136941527935823 0.0028856994157167664 0 -0.032902856774838098 0.0026528070514704408 0 -0.025383183697468323 0.0023595098377058392 0 -0.024806705514648711 0.0020294277334893559 0 -0.024366676564197894 0.0027167521828235642 0 -0.025321146069412662 0.0017429305933652393 0 -0.024806705514648711 0.0020294277334893559 0 -0.02498618595826671 0.0016546969937624703 0 -0.025383183697468323 0.0023595098377058392 0 -0.025321146069412662 0.0017429305933652393 0 -0.024806705514648711 0.0020294277334893559 0 -0.028287897645006752 0.0029578393950149659 0 -0.026035255532565488 0.0014895935659736781 0 -0.025712177307183944 0.0025593375295301 0 -0.025321146069412662 0.0017429305933652393 0 -0.025599253489026259 0.001756736349113146 0 -0.024806705514648711 0.0020294277334893559 0 -0.02498618595826671 0.0016546969937624703 0 -0.024642527082042395 0.001587213306355999 0 -0.027264184977301997 0.0032201965216414933 0 -0.025733279764336113 0.0025555297114530609 0 -0.026847295169821921 0.0025314024838560098 0 -0.025712177307183944 0.0025593375295301 0 -0.026014501074898794 0.0024037166615158393 0 -0.025599253489026259 0.001756736349113146 0 -0.026847295169821921 0.0025314024838560098 0 -0.026014501074898794 0.0024037166615158393 0 -0.026210716248308553 0.0019756701774774955 0 -0.025733279764336113 0.0025555297114530609 0 -0.026847295169821921 0.0025314024838560098 0 -0.026014501074898794 0.0024037166615158393 0 -0.028287897645006752 0.0029578393950149659 0 -0.027480707911141634 0.0031512892592860295 0 -0.026014501074898794 0.0024037166615158393 0 -0.026210716248308553 0.0019756701774774955 0 -0.025599253489026259 0.001756736349113146 0 -0.026210716248308553 0.0019756701774774955 0 -0.025599253489026259 0.001756736349113146 0 -0.026316808668895707 0.0013920082460049396 0 -0.026847295169821921 0.0025314024838560098 0 -0.026210716248308553 0.0019756701774774955 0 -0.026753482227083902 0.0017325902767367188 0 -0.026210716248308553 0.0019756701774774955 0 -0.026753482227083902 0.0017325902767367188 0 -0.026316808668895707 0.0013920082460049396 0 -0.026987354000793072 0.00083596598804109743 0 -0.026316808668895707 0.0013920082460049396 0 -0.026076465445394752 0.0006567801200448929 0 -0.026753482227083902 0.0017325902767367188 0 -0.026987354000793072 0.00083596598804109743 0 -0.026316808668895707 0.0013920082460049396 0 -0.025665170756502483 0.001697924717703048 0 -0.025185295263283204 -0.00021531963668227637 0 -0.025599253489026259 0.001756736349113146 0 -0.026076465445394752 0.0006567801200448929 0 -0.025681042940491988 -0.00092178094074602803 0 -0.025599253489026259 0.001756736349113146 0 -0.026316808668895707 0.0013920082460049396 0 -0.026076465445394752 0.0006567801200448929 0 -0.026076465445394752 0.0006567801200448929 0 -0.026568561143534477 0.00033340956242490239 0 -0.026121963420420287 -0.0001897204516161315 0 -0.026987354000793072 0.00083596598804109743 0 -0.026568561143534477 0.00033340956242490239 0 -0.027213416035627481 -0.00017187878312123107 0 -0.026987354000793072 0.00083596598804109743 0 -0.026076465445394752 0.0006567801200448929 0 -0.026568561143534477 0.00033340956242490239 0 -0.025599253489026259 0.001756736349113146 0 -0.025172271651208691 0.0012722945964378936 0 -0.02530381964559596 0.00051461204278283436 0 -0.02498618595826671 0.0016546969937624703 0 -0.024642527082042395 0.001587213306355999 0 -0.025172271651208691 0.0012722945964378936 0 -0.025321146069412662 0.0017429305933652393 0 -0.02498618595826671 0.0016546969937624703 0 -0.025172271651208691 0.0012722945964378936 0 -0.025321146069412662 0.0017429305933652393 0 -0.025599253489026259 0.001756736349113146 0 -0.025172271651208691 0.0012722945964378936 0 -0.025172271651208691 0.0012722945964378936 0 -0.024606688412269612 0.0010620844450735961 0 -0.024965941115386591 0.00084751643020655764 0 -0.024642527082042395 0.001587213306355999 0 -0.025172271651208691 0.0012722945964378936 0 -0.024606688412269612 0.0010620844450735961 0 -0.025172271651208691 0.0012722945964378936 0 -0.024965941115386591 0.00084751643020655764 0 -0.02530381964559596 0.00051461204278283436 0 -0.024747293283813827 0.00054794223471892642 0 -0.024944258293998687 -0.00010585889060356941 0 -0.023865799532716246 0.00047199432286581459 0 -0.024606688412269612 0.0010620844450735961 0 -0.024965941115386591 0.00084751643020655764 0 -0.024747293283813827 0.00054794223471892642 0 -0.024965941115386591 0.00084751643020655764 0 -0.02530381964559596 0.00051461204278283436 0 -0.024747293283813827 0.00054794223471892642 0 -0.02530381964559596 0.00051461204278283436 0 -0.024747293283813827 0.00054794223471892642 0 -0.024944258293998687 -0.00010585889060356941 0 -0.026076465445394752 0.0006567801200448929 0 -0.025681042940491988 -0.00092178094074602803 0 -0.026121963420420287 -0.0001897204516161315 0 -0.026568561143534477 0.00033340956242490239 0 -0.026121963420420287 -0.0001897204516161315 0 -0.027213416035627481 -0.00017187878312123107 0 -0.026121963420420287 -0.0001897204516161315 0 -0.026481930590796326 -0.00078905958755669118 0 -0.027213416035627481 -0.00017187878312123107 0 -0.025736669730166705 -0.00079030010022207778 0 -0.026121963420420287 -0.0001897204516161315 0 -0.026481930590796326 -0.00078905958755669118 0 -0.025185295263283204 -0.00021531963668227637 0 -0.025676960387576036 -0.00020762053209775913 0 -0.025736669730166705 -0.00079030010022207778 0 -0.026481930590796326 -0.00078905958755669118 0 -0.026316471835665021 -0.0015111334232964381 0 -0.026481930590796326 -0.00078905958755669118 0 -0.027213416035627481 -0.00017187878312123107 0 -0.027057365435961236 -0.0012647034694685531 0 -0.026481930590796326 -0.00078905958755669118 0 -0.027057365435961236 -0.0012647034694685531 0 -0.026316471835665021 -0.0015111334232964381 0 -0.027767473582827273 -0.0010810368198244664 0 -0.028262705978676042 2.1124076029035101e-05 0 -0.028681670134673275 -0.0017730951916953108 0 -0.027767473582827273 -0.0010810368198244664 0 -0.027213416035627481 -0.00017187878312123107 0 -0.027057365435961236 -0.0012647034694685531 0 -0.027767473582827273 -0.0010810368198244664 0 -0.028262705978676042 2.1124076029035101e-05 0 -0.027213416035627481 -0.00017187878312123107 0 -0.02791961353480216 0.0018659566982872117 0 -0.028821136585145676 8.4289061301456904e-05 0 -0.029205334731968156 0.0010124755877695807 0 -0.027966119970717521 0.001778769385153063 0 -0.028579321549002903 8.1235480924173915e-05 0 -0.026987354000793072 0.00083596598804109743 0 -0.028262705978676042 2.1124076029035101e-05 0 -0.027213416035627481 -0.00017187878312123107 0 -0.02791961353480216 0.0018659566982872117 0 -0.026987354000793072 0.00083596598804109743 0 -0.028262705978676042 2.1124076029035101e-05 0 -0.030243072690507865 0.00029327931765367221 0 -0.029528530731881015 0.0022425490262641401 0 -0.029205334731968156 0.0010124755877695807 0 -0.028821136585145676 8.4289061301456904e-05 0 -0.029205334731968156 0.0010124755877695807 0 -0.029642556138547459 -9.7052392315120411e-06 0 -0.030243072690507865 0.00029327931765367221 0 -0.029205334731968156 0.0010124755877695807 0 -0.029642556138547459 -9.7052392315120411e-06 0 -0.028821136585145676 8.4289061301456904e-05 0 -0.029531934899908439 -0.00050993610290666258 0 -0.029433620616148966 -0.00085679203608783562 0 -0.028579321549002903 8.1235480924173915e-05 0 -0.028444428664282154 -0.0011950121297591152 0 -0.028821136585145676 8.4289061301456904e-05 0 -0.029642556138547459 -9.7052392315120411e-06 0 -0.029531934899908439 -0.00050993610290666258 0 -0.030070174419241442 -0.00027201730592546367 0 -0.029642556138547459 -9.7052392315120411e-06 0 -0.029531934899908439 -0.00050993610290666258 0 -0.028444428664282154 -0.0011950121297591152 0 -0.025369057425483489 -0.0019226003457123886 0 -0.029890601810094623 -0.00065457148478450394 0 -0.030070174419241442 -0.00027201730592546367 0 -0.029531934899908439 -0.00050993610290666258 0 -0.029890601810094623 -0.00065457148478450394 0 -0.029531934899908439 -0.00050993610290666258 0 -0.029466066830085069 -0.00067228814727387739 0 -0.029890601810094623 -0.00065457148478450394 0 -0.029466066830085069 -0.00067228814727387739 0 -0.029634374155766453 -0.0012942918543922444 0 -0.029103187449681527 -0.00048898556048630206 0 -0.028444428664282154 -0.0011950121297591152 0 -0.028681670134673275 -0.0017730951916953108 0 -0.02761906340083442 -0.0021939962349099371 0 -0.028046767449618634 -0.0032294494243921505 0 -0.027767473582827273 -0.0010810368198244664 0 -0.027057365435961236 -0.0012647034694685531 0 -0.02761906340083442 -0.0021939962349099371 0 -0.027057365435961236 -0.0012647034694685531 0 -0.02761906340083442 -0.0021939962349099371 0 -0.026793809146986085 -0.0018136402465176429 0 -0.027767473582827273 -0.0010810368198244664 0 -0.028681670134673275 -0.0017730951916953108 0 -0.02761906340083442 -0.0021939962349099371 0 -0.022586442029921706 -0.0020542092657091292 0 -0.022487147208089558 -0.0020731387133528282 0 -0.022418318476557033 -0.0019713545141946541 0 -0.02761906340083442 -0.0021939962349099371 0 -0.028046767449618634 -0.0032294494243921505 0 -0.026180534536399475 -0.0022818636339352561 0 -0.025369057425483489 -0.0019226003457123886 0 -0.023770745774689999 -0.0020547780107680502 0 -0.025369057425483489 -0.0019226003457123886 0 -0.021328663206441566 -0.0019174534537219348 0 -0.023533778634184824 -0.00094168704885214474 0 -0.024394075708266617 -0.0013822441657348869 0 -0.022910345619753157 -0.0024087790519850155 0 -0.022586442029921706 -0.0020542092657091292 0 -0.022531918384772451 -0.0021460178518470413 0 -0.022487147208089558 -0.0020731387133528282 0 -0.026617358262608463 -0.0010450835778942535 0 -0.026473294247134786 -0.0013472867352422489 0 -0.026685126128196991 -0.0013492473006537285 0 -0.028444428664282154 -0.0011950121297591152 0 -0.027222700104496806 -0.00069625397401967771 0 -0.02444583770118702 -0.0013505513444167312 0 -0.027222700104496806 -0.00069625397401967771 0 -0.026473294247134786 -0.0013472867352422489 0 -0.026596405836830671 -0.0014092054241746023 0 -0.026685126128196991 -0.0013492473006537285 0 -0.025369057425483489 -0.0019226003457123886 0 -0.02444583770118702 -0.0013505513444167312 0 -0.02444583770118702 -0.0013505513444167312 0 -0.023275164583041744 -0.00097655911674817319 0 -0.022679799469700709 -0.0011503367117583611 0 -0.022814166572452551 -0.0012313516412403417 0 -0.022814013111950332 -0.0010495467751235994 0 -0.022814166572452551 -0.0012313516412403417 0 -0.022814013111950332 -0.0010495467751235994 0 -0.022915030817308078 -0.001614732449924137 0 -0.027222700104496806 -0.00069625397401967771 0 -0.026049785921374257 -0.0013664584956224104 0 -0.022814166572452551 -0.0012313516412403417 0 -0.022915030817308078 -0.001614732449924137 0 -0.022639529514029012 -0.0013643256336886328 0 -0.022915030817308078 -0.001614732449924137 0 -0.02253545517176363 -0.0015258777452195143 0 -0.022618487375765817 -0.0018158355879810211 0 -0.022915030817308078 -0.001614732449924137 0 -0.02253545517176363 -0.0015258777452195143 0 -0.022639529514029012 -0.0013643256336886328 0 -0.022637499169965412 -0.0011401074254189106 0 -0.022814166572452551 -0.0012313516412403417 0 -0.022639529514029012 -0.0013643256336886328 0 -0.022637499169965412 -0.0011401074254189106 0 -0.022639529514029012 -0.0013643256336886328 0 -0.022251465185124331 -0.0014039166429843865 0 -0.02444583770118702 -0.0013505513444167312 0 -0.021328663206441566 -0.0019174534537219348 0 -0.02253545517176363 -0.0015258777452195143 0 -0.022639529514029012 -0.0013643256336886328 0 -0.022251465185124331 -0.0014039166429843865 0 -0.022531918384772451 -0.0021460178518470413 0 -0.022520785521116259 -0.002164825158393341 0 -0.022487147208089558 -0.0020731387133528282 0 -0.021328663206441566 -0.0019174534537219348 0 -0.019247069861339217 -0.0024675463468455984 0 -0.02253545517176363 -0.0015258777452195143 0 -0.022218471483133797 -0.0014808645310019997 0 -0.022618487375765817 -0.0018158355879810211 0 -0.02253545517176363 -0.0015258777452195143 0 -0.022251465185124331 -0.0014039166429843865 0 -0.022218471483133797 -0.0014808645310019997 0 -0.019247069861339217 -0.0024675463468455984 0 -0.018838571893720159 -0.0024392720537699292 0 -0.016109321224734033 -0.0026525279020792407 0 -0.019247069861339217 -0.0024675463468455984 0 -0.016054607663944225 -0.0027178228884306597 0 -0.015729506038821079 -0.0035693926786108513 0 -0.015282345355320888 -0.003198839122607228 0 -0.014989065042343958 -0.0028476863085296917 0 -0.015236199679730417 -0.0028400274755460112 0 -0.015282345355320888 -0.003198839122607228 0 -0.015236199679730417 -0.0028400274755460112 0 -0.015484026913743973 -0.0026719318182859193 0 -0.015282345355320888 -0.003198839122607228 0 -0.022978816023431336 -0.0021334952032098647 0 -0.022915030817308078 -0.001614732449924137 0 -0.022618487375765817 -0.0018158355879810211 0 -0.019927321101853718 -0.002172336642120621 0 -0.018838571893720159 -0.0024392720537699292 0 -0.014989065042343958 -0.0028476863085296917 0 -0.014852146104204067 -0.0028287975867420669 0 -0.015282345355320888 -0.003198839122607228 0 -0.018883318088600814 -0.0028186817010112113 0 -0.019954327922572637 -0.0021708714095776648 0 -0.018997276648512744 -0.0027942086162485846 0 -0.019411551938580535 -0.0025050388916888107 0 -0.019216933403938347 -0.0022728387033867231 0 -0.020276560853024855 -0.0029180800035823245 0 -0.020607485915872668 -0.0022144292573200029 0 -0.020100842100292417 -0.0024098038650944113 0 -0.018883318088600814 -0.0028186817010112113 0 -0.01770882540257443 -0.0022216932166641561 0 -0.016795968230053998 -0.0023486313427448684 0 -0.017223160592497299 -0.0014344099187517277 0 -0.016424538212366217 -0.0018983397559412807 0 -0.019247069861339217 -0.0024675463468455984 0 -0.01770882540257443 -0.0022216932166641561 0 -0.019541124813697998 -0.002280754264060048 0 -0.019383023834682524 -0.0023714471010126957 0 -0.019404684500700618 -0.0022010908778300202 0 -0.019411551938580535 -0.0025050388916888107 0 -0.019216933403938347 -0.0022728387033867231 0 -0.019444365226464859 -0.0017516662280182239 0 -0.01770882540257443 -0.0022216932166641561 0 -0.020515025982411866 -0.0019599864292842483 0 -0.019954327922572637 -0.0021708714095776648 0 -0.020515025982411866 -0.0019599864292842483 0 -0.020607485915872668 -0.0022144292573200029 0 -0.020495778374381223 -0.0017070267574240958 0 -0.020935142216970883 -0.0014950316134011493 0 -0.020607485915872668 -0.0022144292573200029 0 -0.020495778374381223 -0.0017070267574240958 0 -0.020212960763380826 -0.0020065792654067791 0 -0.020495778374381223 -0.0017070267574240958 0 -0.020641818143788584 -0.0013688679679664019 0 -0.020099523537457715 -0.0014835658262157387 0 -0.02072377030176006 -0.00097376918989740659 0 -0.020690696332309504 -0.00063115739406823619 0 -0.020099523537457715 -0.0014835658262157387 0 -0.023524446614502613 -0.00061546600070814519 0 -0.022109314947920091 -0.0015512468381963314 0 -0.020495778374381223 -0.0017070267574240958 0 -0.020641818143788584 -0.0013688679679664019 0 -0.020935142216970883 -0.0014950316134011493 0 -0.020641818143788584 -0.0013688679679664019 0 -0.020935142216970883 -0.0014950316134011493 0 -0.020948282741550698 -0.0011866527651967012 0 -0.020515025982411866 -0.0019599864292842483 0 -0.021285372103220471 -0.0016588228005073335 0 -0.020641818143788584 -0.0013688679679664019 0 -0.020948282741550698 -0.0011866527651967012 0 -0.02072377030176006 -0.00097376918989740659 0 -0.020979689944801479 -0.0019284643183570635 0 -0.020981279279428118 -0.0019334213805744782 0 -0.020979491198401392 -0.001932273198287239 0 -0.021285372103220471 -0.0016588228005073335 0 -0.020783977921896464 -0.0011316637023847643 0 -0.020641818143788584 -0.0013688679679664019 0 -0.02072377030176006 -0.00097376918989740659 0 -0.020099523537457715 -0.0014835658262157387 0 -0.019541124813697998 -0.002280754264060048 0 -0.019404684500700618 -0.0022010908778300202 0 -0.019423580480592964 -0.0021643500108279932 0 -0.019247069861339217 -0.0024675463468455984 0 -0.021476825962498731 -0.0020324963868772377 0 -0.022520785521116259 -0.002164825158393341 0 -0.022487147208089558 -0.0020731387133528282 0 -0.022386198962040974 -0.0020358988937528972 0 -0.020515025982411866 -0.0019599864292842483 0 -0.021476825962498731 -0.0020324963868772377 0 -0.022487147208089558 -0.0020731387133528282 0 -0.022386198962040974 -0.0020358988937528972 0 -0.022418318476557033 -0.0019713545141946541 0 -0.021476825962498731 -0.0020324963868772377 0 -0.023770745774689999 -0.0020547780107680502 0 -0.022559226502764797 -0.0017954121477403804 0 -0.022566186929608347 -0.0018023830732979175 0 -0.022583994393984466 -0.0017719504554809659 0 -0.021285372103220471 -0.0016588228005073335 0 -0.021476825962498731 -0.0020324963868772377 0 -0.02761906340083442 -0.0021939962349099371 0 -0.026180534536399475 -0.0022818636339352561 0 -0.026793809146986085 -0.0018136402465176429 0 -0.022559226502764797 -0.0017954121477403804 0 -0.022583994393984466 -0.0017719504554809659 0 -0.022564555232075421 -0.0017610800576934003 0 -0.026180534536399475 -0.0022818636339352561 0 -0.026316471835665021 -0.0015111334232964381 0 -0.025708071274172708 -0.002039891611446098 0 -0.023770745774689999 -0.0020547780107680502 0 -0.023307850834233496 -0.0013715258525136245 0 -0.025736669730166705 -0.00079030010022207778 0 -0.026316471835665021 -0.0015111334232964381 0 -0.025708071274172708 -0.002039891611446098 0 -0.026180534536399475 -0.0022818636339352561 0 -0.026316471835665021 -0.0015111334232964381 0 -0.026793809146986085 -0.0018136402465176429 0 -0.027057365435961236 -0.0012647034694685531 0 -0.026316471835665021 -0.0015111334232964381 0 -0.026793809146986085 -0.0018136402465176429 0 -0.021285372103220471 -0.0016588228005073335 0 -0.023307850834233496 -0.0013715258525136245 0 -0.02072377030176006 -0.00097376918989740659 0 -0.020994820671652027 -0.00077977805796199432 0 -0.020690696332309504 -0.00063115739406823619 0 -0.02098780306586957 -0.0012087619117132733 0 -0.02072377030176006 -0.00097376918989740659 0 -0.020994820671652027 -0.00077977805796199432 0 -0.023307850834233496 -0.0013715258525136245 0 -0.023524446614502613 -0.00061546600070814519 0 -0.025185295263283204 -0.00021531963668227637 0 -0.023524446614502613 -0.00061546600070814519 0 -0.025185295263283204 -0.00021531963668227637 0 -0.023307850834233496 -0.0013715258525136245 0 -0.024192855443224449 -0.00023096827616423107 0 -0.02416981032150926 -0.0010668600234676946 0 -0.023775144720190464 -0.00086287852146919538 0 -0.024071179413049756 -0.00049132515574848825 0 -0.02325061500696899 -0.0007137568588910174 0 -0.023865799532716246 0.00047199432286581459 0 -0.023524446614502613 -0.00061546600070814519 0 -0.024390419458404155 0.0003646976397634122 0 -0.025034390643624994 -0.00017224906709523307 0 -0.024071179413049756 -0.00049132515574848825 0 -0.023865799532716246 0.00047199432286581459 0 -0.025034390643624994 -0.00017224906709523307 0 -0.024071179413049756 -0.00049132515574848825 0 -0.024117395650584694 -0.0015854551868555785 0 -0.02325061500696899 -0.0007137568588910174 0 -0.022153522889452829 -6.1233470347443247e-06 0 -0.023865799532716246 0.00047199432286581459 0 -0.02325061500696899 -0.0007137568588910174 0 -0.021870591738898288 -0.0016523546487701435 0 -0.022153522889452829 -6.1233470347443247e-06 0 -0.02325061500696899 -0.0007137568588910174 0 -0.024117395650584694 -0.0015854551868555785 0 -0.022940338879751974 -0.0019325839248438414 0 -0.02325061500696899 -0.0007137568588910174 0 -0.022940338879751974 -0.0019325839248438414 0 -0.021870591738898288 -0.0016523546487701435 0 -0.024071179413049756 -0.00049132515574848825 0 -0.02325061500696899 -0.0007137568588910174 0 -0.024117395650584694 -0.0015854551868555785 0 -0.020495778374381223 -0.0017070267574240958 0 -0.020099523537457715 -0.0014835658262157387 0 -0.020212960763380826 -0.0020065792654067791 0 -0.020099523537457715 -0.0014835658262157387 0 -0.020212960763380826 -0.0020065792654067791 0 -0.019750253009333741 -0.0022457833069543113 0 -0.020099523537457715 -0.0014835658262157387 0 -0.019750253009333741 -0.0022457833069543113 0 -0.019527555076392259 -0.002324437875564328 0 -0.022109314947920091 -0.0015512468381963314 0 -0.020589562885581645 -0.0024044742231883968 0 -0.020607485915872668 -0.0022144292573200029 0 -0.020212960763380826 -0.0020065792654067791 0 -0.020100842100292417 -0.0024098038650944113 0 -0.020212960763380826 -0.0020065792654067791 0 -0.019750253009333741 -0.0022457833069543113 0 -0.020100842100292417 -0.0024098038650944113 0 -0.024117395650584694 -0.0015854551868555785 0 -0.022940338879751974 -0.0019325839248438414 0 -0.023088578766974514 -0.0031098818312384011 0 -0.022940338879751974 -0.0019325839248438414 0 -0.023088578766974514 -0.0031098818312384011 0 -0.022131805749434935 -0.0025575774906979932 0 -0.022940338879751974 -0.0019325839248438414 0 -0.022131805749434935 -0.0025575774906979932 0 -0.021870591738898288 -0.0016523546487701435 0 -0.019750253009333741 -0.0022457833069543113 0 -0.01952938681543237 -0.0023267597627300604 0 -0.019724432930089568 -0.0027032790284443869 0 -0.01999065846402923 -0.0024873112264139088 0 -0.020589562885581645 -0.0024044742231883968 0 -0.01952938681543237 -0.0023267597627300604 0 -0.019339221742416358 -0.0026249246149927944 0 -0.019724432930089568 -0.0027032790284443869 0 -0.023088578766974514 -0.0031098818312384011 0 -0.021794398983738861 -0.0035614728611083326 0 -0.022131805749434935 -0.0025575774906979932 0 -0.019524430762046185 -0.0023477699014851274 0 -0.019339221742416358 -0.0026249246149927944 0 -0.018906670675206825 -0.0025739309593279325 0 -0.020589562885581645 -0.0024044742231883968 0 -0.020632023466330758 -0.0029801175867046042 0 -0.020589562885581645 -0.0024044742231883968 0 -0.019749631881286173 -0.0027849943651356486 0 -0.019045246416601738 -0.0028878316502762126 0 -0.019349588537108598 -0.0029736589688541286 0 -0.019339221742416358 -0.0026249246149927944 0 -0.019349588537108598 -0.0029736589688541286 0 -0.019339221742416358 -0.0026249246149927944 0 -0.019724432930089568 -0.0027032790284443869 0 -0.020276560853024855 -0.0029180800035823245 0 -0.019724432930089568 -0.0027032790284443869 0 -0.020100842100292417 -0.0024098038650944113 0 -0.019750253009333741 -0.0022457833069543113 0 -0.019724432930089568 -0.0027032790284443869 0 -0.020100842100292417 -0.0024098038650944113 0 -0.020421131152516637 -0.0040009949552001003 0 -0.020586801157892982 -0.0023664409036331371 0 -0.018900138598688609 -0.0028803330255648767 0 -0.020421131152516637 -0.0040009949552001003 0 -0.021794398983738861 -0.0035614728611083326 0 -0.020586801157892982 -0.0023664409036331371 0 -0.019045246416601738 -0.0028878316502762126 0 -0.018285749476216657 -0.0027995665945716062 0 -0.018906670675206825 -0.0025739309593279325 0 -0.018133630374487206 -0.0033385032392307503 0 -0.020632023466330758 -0.0029801175867046042 0 -0.019045246416601738 -0.0028878316502762126 0 -0.019339221742416358 -0.0026249246149927944 0 -0.018906670675206825 -0.0025739309593279325 0 -0.021794398983738861 -0.0035614728611083326 0 -0.022131805749434935 -0.0025575774906979932 0 -0.020586801157892982 -0.0023664409036331371 0 -0.022131805749434935 -0.0025575774906979932 0 -0.020586801157892982 -0.0023664409036331371 0 -0.021870591738898288 -0.0016523546487701435 0 -0.020586801157892982 -0.0023664409036331371 0 -0.019333402242631526 -0.0020606867724246073 0 -0.019820052296979123 -0.0010082629328069972 0 -0.020586801157892982 -0.0023664409036331371 0 -0.021008849457673513 -0.00096100761362704799 0 -0.019820052296979123 -0.0010082629328069972 0 -0.020586801157892982 -0.0023664409036331371 0 -0.021008849457673513 -0.00096100761362704799 0 -0.021870591738898288 -0.0016523546487701435 0 -0.021008849457673513 -0.00096100761362704799 0 -0.021870591738898288 -0.0016523546487701435 0 -0.022153522889452829 -6.1233470347443247e-06 0 -0.021008849457673513 -0.00096100761362704799 0 -0.022153522889452829 -6.1233470347443247e-06 0 -0.020608389208695559 0.00025701156921628855 0 -0.021008849457673513 -0.00096100761362704799 0 -0.020608389208695559 0.00025701156921628855 0 -0.019820052296979123 -0.0010082629328069972 0 -0.020608389208695559 0.00025701156921628855 0 -0.021401856184013621 0.0016168907647013638 0 -0.019664980415657143 0.0014444738212116982 0 -0.022966633151391923 0.0016661741456109331 0 -0.022789805158874191 0.0019622719298573979 0 -0.022615043320133137 0.0016856656077115482 0 -0.022294829321816131 0.0016344566237373134 0 -0.020691709772301444 0.0015781079221875397 0 -0.022966633151391923 0.0016661741456109331 0 -0.023308991178515277 0.0016119645390045114 0 -0.023213886921334886 0.0021915985839340924 0 -0.022966633151391923 0.0016661741456109331 0 -0.022789805158874191 0.0019622719298573979 0 -0.023213886921334886 0.0021915985839340924 0 -0.022294829321816131 0.0016344566237373134 0 -0.023168266260698164 0.0016402835652853972 0 -0.022153522889452829 -6.1233470347443247e-06 0 -0.021401856184013621 0.0016168907647013638 0 -0.023308991178515277 0.0016119645390045114 0 -0.022153522889452829 -6.1233470347443247e-06 0 -0.020608389208695559 0.00025701156921628855 0 -0.021401856184013621 0.0016168907647013638 0 -0.022153522889452829 -6.1233470347443247e-06 0 -0.023865799532716246 0.00047199432286581459 0 -0.023308991178515277 0.0016119645390045114 0 -0.024606688412269612 0.0010620844450735961 0 -0.023865799532716246 0.00047199432286581459 0 -0.0241228050263863 0.0015044687934761694 0 -0.024606688412269612 0.0010620844450735961 0 -0.024747293283813827 0.00054794223471892642 0 -0.023865799532716246 0.00047199432286581459 0 -0.023865799532716246 0.00047199432286581459 0 -0.0241228050263863 0.0015044687934761694 0 -0.023308991178515277 0.0016119645390045114 0 -0.024642527082042395 0.001587213306355999 0 -0.024606688412269612 0.0010620844450735961 0 -0.0241228050263863 0.0015044687934761694 0 -0.0241228050263863 0.0015044687934761694 0 -0.023308991178515277 0.0016119645390045114 0 -0.024168104950885505 0.0020037932578849207 0 -0.024642527082042395 0.001587213306355999 0 -0.0241228050263863 0.0015044687934761694 0 -0.024168104950885505 0.0020037932578849207 0 -0.023308991178515277 0.0016119645390045114 0 -0.023732169433175684 0.0022766728134630872 0 -0.023213886921334886 0.0021915985839340924 0 -0.023308991178515277 0.0016119645390045114 0 -0.023732169433175684 0.0022766728134630872 0 -0.024168104950885505 0.0020037932578849207 0 -0.024806705514648711 0.0020294277334893559 0 -0.024168104950885505 0.0020037932578849207 0 -0.024366676564197894 0.0027167521828235642 0 -0.023732169433175684 0.0022766728134630872 0 -0.024168104950885505 0.0020037932578849207 0 -0.024366676564197894 0.0027167521828235642 0 -0.024806705514648711 0.0020294277334893559 0 -0.024642527082042395 0.001587213306355999 0 -0.024168104950885505 0.0020037932578849207 0 -0.03336529479485105 0.0028057994758424031 0 -0.033400428455188751 0.0027209240482873169 0 -0.033344943480319127 0.0026939299352556419 0 -0.023732169433175684 0.0022766728134630872 0 -0.024366676564197894 0.0027167521828235642 0 -0.023669742852423521 0.0028864159384105557 0 -0.028772021818052555 0.0027906843104432266 0 -0.029994158511785367 0.0025914529191670768 0 -0.023732169433175684 0.0022766728134630872 0 -0.023213886921334886 0.0021915985839340924 0 -0.023669742852423521 0.0028864159384105557 0 -0.023213886921334886 0.0021915985839340924 0 -0.023143469943428419 0.0027924024585367665 0 -0.023669742852423521 0.0028864159384105557 0 -0.022929450717319923 0.0023487609581929435 0 -0.023213886921334886 0.0021915985839340924 0 -0.023143469943428419 0.0027924024585367665 0 -0.022929450717319923 0.0023487609581929435 0 -0.02269168674185585 0.0027549300934899177 0 -0.022640544282829553 0.0021166954051425302 0 -0.022929450717319923 0.0023487609581929435 0 -0.02269168674185585 0.0027549300934899177 0 -0.023143469943428419 0.0027924024585367665 0 -0.025532130685574129 0.0018327228977023202 0 -0.022084395456182678 0.0023177277082969991 0 -0.022929450717319923 0.0023487609581929435 0 -0.022789805158874191 0.0019622719298573979 0 -0.022640544282829553 0.0021166954051425302 0 -0.022929450717319923 0.0023487609581929435 0 -0.022789805158874191 0.0019622719298573979 0 -0.023213886921334886 0.0021915985839340924 0 -0.034503385374968228 0.0019263440949684549 0 -0.034962722270678107 0.0021411389406994154 0 -0.03449559610031367 0.002407610120310045 0 -0.034503385374968228 0.0019263440949684549 0 -0.03449559610031367 0.002407610120310045 0 -0.034116423868741981 0.0021437414264617225 0 -0.034880546461165209 0.0015875438122920319 0 -0.034858430877580178 0.0013519918507472167 0 -0.035144384268649402 0.0014428180983111767 0 -0.031872523454136048 0.0014721734820816951 0 -0.031975936289091393 0.0021418716294900574 0 -0.034503385374968228 0.0019263440949684549 0 -0.034962722270678107 0.0021411389406994154 0 -0.034895766061077756 0.0016431862755366964 0 -0.031872523454136048 0.0014721734820816951 0 -0.034974434739678338 0.0016501010594132273 0 -0.031872523454136048 0.0014721734820816951 0 -0.025532130685574129 0.0018327228977023202 0 -0.025532130685574129 0.0018327228977023202 0 -0.025462107201886054 0.0023585087665555357 0 -0.028939253032546731 4.7860934729380932e-05 0 -0.028998583523042867 0.00050622349628726658 0 -0.029221569049916799 0.00020012359415385157 0 -0.028805458441238802 0.0019679710978090688 0 -0.028620149419305553 0.0018678953258629888 0 -0.028967112108229793 0.0018585599229233526 0 -0.02870538898291632 0.0021794410971417038 0 -0.028805458441238802 0.0019679710978090688 0 -0.029005190929537836 0.0020188572074516281 0 -0.02870538898291632 0.0021794410971417038 0 -0.028805458441238802 0.0019679710978090688 0 -0.028620149419305553 0.0018678953258629888 0 -0.025462107201886054 0.0023585087665555357 0 -0.029994158511785367 0.0025914529191670768 0 -0.028805458441238802 0.0019679710978090688 0 -0.028967112108229793 0.0018585599229233526 0 -0.029005190929537836 0.0020188572074516281 0 -0.028967112108229793 0.0018585599229233526 0 -0.029005190929537836 0.0020188572074516281 0 -0.029331491342005408 0.0018615676959489785 0 -0.034014647090201008 0.0026808110400713026 0 -0.033790248461568653 0.0021851322285282694 0 -0.034116423868741981 0.0021437414264617225 0 -0.03449559610031367 0.002407610120310045 0 -0.034014647090201008 0.0026808110400713026 0 -0.034116423868741981 0.0021437414264617225 0 -0.031975936289091393 0.0021418716294900574 0 -0.029994158511785367 0.0025914529191670768 0 -0.029994158511785367 0.0025914529191670768 0 -0.034833226799543024 0.0026780272703879082 0 -0.034014647090201008 0.0026808110400713026 0 -0.033577637229602601 0.002402562224269638 0 -0.033344943480319127 0.0026939299352556419 0 -0.034014647090201008 0.0026808110400713026 0 -0.033577637229602601 0.002402562224269638 0 -0.033790248461568653 0.0021851322285282694 0 -0.033577637229602601 0.002402562224269638 0 -0.033297417434151634 0.0023760817149552 0 -0.033344943480319127 0.0026939299352556419 0 -0.033577637229602601 0.002402562224269638 0 -0.033475812085089297 0.0021031958815524356 0 -0.033790248461568653 0.0021851322285282694 0 -0.033577637229602601 0.002402562224269638 0 -0.033475812085089297 0.0021031958815524356 0 -0.033297417434151634 0.0023760817149552 0 -0.033475812085089297 0.0021031958815524356 0 -0.033790248461568653 0.0021851322285282694 0 -0.033801200458423802 0.0019125964133705788 0 -0.033475812085089297 0.0021031958815524356 0 -0.033801200458423802 0.0019125964133705788 0 -0.03349105611951067 0.0017686040599513397 0 -0.033801200458423802 0.0019125964133705788 0 -0.034116423868741981 0.0021437414264617225 0 -0.034139767772726363 0.001731460355345199 0 -0.033790248461568653 0.0021851322285282694 0 -0.033801200458423802 0.0019125964133705788 0 -0.034116423868741981 0.0021437414264617225 0 -0.034503385374968228 0.0019263440949684549 0 -0.034116423868741981 0.0021437414264617225 0 -0.034139767772726363 0.001731460355345199 0 -0.033801200458423802 0.0019125964133705788 0 -0.034139767772726363 0.001731460355345199 0 -0.033824494251165182 0.001597079003768891 0 -0.034139767772726363 0.001731460355345199 0 -0.033824494251165182 0.001597079003768891 0 -0.034121429439263586 0.0013426815365755655 0 -0.034139767772726363 0.001731460355345199 0 -0.034121429439263586 0.0013426815365755655 0 -0.034476362948007613 0.0014837592413605783 0 -0.033801200458423802 0.0019125964133705788 0 -0.03349105611951067 0.0017686040599513397 0 -0.033824494251165182 0.001597079003768891 0 -0.03349105611951067 0.0017686040599513397 0 -0.033824494251165182 0.001597079003768891 0 -0.033550171915343874 0.0014377819726246581 0 -0.033824494251165182 0.001597079003768891 0 -0.033751956194821443 0.0011330072991449643 0 -0.034121429439263586 0.0013426815365755655 0 -0.033824494251165182 0.001597079003768891 0 -0.033550171915343874 0.0014377819726246581 0 -0.033751956194821443 0.0011330072991449643 0 -0.033550171915343874 0.0014377819726246581 0 -0.033751956194821443 0.0011330072991449643 0 -0.03340257745572392 0.0011551102864346627 0 -0.033751956194821443 0.0011330072991449643 0 -0.034121429439263586 0.0013426815365755655 0 -0.034137341262249765 0.0009694729457780689 0 -0.034121429439263586 0.0013426815365755655 0 -0.034449556074265357 0.001142977325587098 0 -0.034137341262249765 0.0009694729457780689 0 -0.034476362948007613 0.0014837592413605783 0 -0.034895766061077756 0.0016431862755366964 0 -0.034812980064580126 0.0011151830570945269 0 -0.034449556074265357 0.001142977325587098 0 -0.034476362948007613 0.0014837592413605783 0 -0.034812980064580126 0.0011151830570945269 0 -0.034121429439263586 0.0013426815365755655 0 -0.034449556074265357 0.001142977325587098 0 -0.034476362948007613 0.0014837592413605783 0 -0.034503385374968228 0.0019263440949684549 0 -0.034476362948007613 0.0014837592413605783 0 -0.034895766061077756 0.0016431862755366964 0 -0.034503385374968228 0.0019263440949684549 0 -0.034139767772726363 0.001731460355345199 0 -0.034476362948007613 0.0014837592413605783 0 -0.034974434739678338 0.0016501010594132273 0 -0.034803959333239355 0.001093425252509689 0 -0.034858430877580178 0.0013519918507472167 0 -0.034812980064580126 0.0011151830570945269 0 -0.035148705412697351 0.0010742440569707541 0 -0.034810870905805091 0.00072963905928523896 0 -0.035148705412697351 0.0010742440569707541 0 -0.035130034030264469 0.00053210727763949807 0 -0.034812980064580126 0.0011151830570945269 0 -0.034810870905805091 0.00072963905928523896 0 -0.035148705412697351 0.0010742440569707541 0 -0.034812980064580126 0.0011151830570945269 0 -0.034810870905805091 0.00072963905928523896 0 -0.034501844297193919 0.00081964525212539481 0 -0.034449556074265357 0.001142977325587098 0 -0.034812980064580126 0.0011151830570945269 0 -0.034501844297193919 0.00081964525212539481 0 -0.034810870905805091 0.00072963905928523896 0 -0.034501844297193919 0.00081964525212539481 0 -0.034507704116043723 0.00050228377861585025 0 -0.034810870905805091 0.00072963905928523896 0 -0.034507704116043723 0.00050228377861585025 0 -0.034842868491492075 0.00033231015272615962 0 -0.034810870905805091 0.00072963905928523896 0 -0.034842868491492075 0.00033231015272615962 0 -0.035130034030264469 0.00053210727763949807 0 -0.034842868491492075 0.00033231015272615962 0 -0.035053000369480954 5.3763635968353406e-05 0 -0.035130034030264469 0.00053210727763949807 0 -0.034842868491492075 0.00033231015272615962 0 -0.035053000369480954 5.3763635968353406e-05 0 -0.034883423007478341 0.00011331558289164738 0 -0.034507704116043723 0.00050228377861585025 0 -0.034842868491492075 0.00033231015272615962 0 -0.034615987380140656 0.00012839065732807105 0 -0.034842868491492075 0.00033231015272615962 0 -0.034615987380140656 0.00012839065732807105 0 -0.034883423007478341 0.00011331558289164738 0 -0.034615987380140656 0.00012839065732807105 0 -0.034999761182706646 -2.6377247477748584e-07 0 -0.034883423007478341 0.00011331558289164738 0 -0.034999923019001893 1.0256905288810597e-08 0 -0.034782346577121329 5.3054701791731428e-05 0 -0.034615987380140656 0.00012839065732807105 0 -0.034999761182706646 -2.6377247477748584e-07 0 -0.034550791908300696 9.3306863316034659e-05 0 -0.034999761182706646 -2.6377247477748584e-07 0 -0.035053000369480954 5.3763635968353406e-05 0 -0.03499967870891476 2.6619650290083696e-07 0 -0.034999761182706646 -2.6377247477748584e-07 0 -0.035053000369480954 5.3763635968353406e-05 0 -0.034883423007478341 0.00011331558289164738 0 -0.034998425351429545 2.2287090635900032e-06 0 -0.035000001972671592 5.1226670854847012e-09 0 -0.034999985869595872 -6.9236765964350501e-09 0 -0.034999998854012074 -2.1293535025371252e-09 0 -0.035000001972671592 5.1226670854847012e-09 0 -0.034999956275228269 1.6099097871396421e-06 0 -0.034998425351429545 2.2287090635900032e-06 0 -0.035000001972671592 5.1226670854847012e-09 0 -0.034999956275228269 1.6099097871396421e-06 0 -0.034576494996823491 0.00012237355645697666 0 -0.034284532881717303 0.00021447189273487969 0 -0.034507704116043723 0.00050228377861585025 0 -0.034615987380140656 0.00012839065732807105 0 -0.033960824410307004 0.00034201947948341043 0 -0.034615987380140656 0.00012839065732807105 0 -0.034550791908300696 9.3306863316034659e-05 0 -0.034591360187518121 7.1626991445853579e-05 0 -0.034782346577121329 5.3054701791731428e-05 0 -0.034847256312093421 5.4953392879056694e-05 0 -0.034998425351429545 2.2287090635900032e-06 0 -0.034999956275228269 1.6099097871396421e-06 0 -0.034994506820053353 7.5972740137092738e-06 0 -0.034550791908300696 9.3306863316034659e-05 0 -0.034591360187518121 7.1626991445853579e-05 0 -0.034695520674328552 0.00011528738660244676 0 -0.034591360187518121 7.1626991445853579e-05 0 -0.034743970956953016 -4.2257572523259262e-05 0 -0.034695520674328552 0.00011528738660244676 0 -0.033960824410307004 0.00034201947948341043 0 -0.033843781084891077 0.0007397548065413706 0 -0.033354825282313261 0.00066590440168722161 0 -0.033960824410307004 0.00034201947948341043 0 -0.034173522340620439 0.00067183964871995669 0 -0.033843781084891077 0.0007397548065413706 0 -0.034284532881717303 0.00021447189273487969 0 -0.034045185565938788 0.00031645779921162583 0 -0.034507704116043723 0.00050228377861585025 0 -0.033960824410307004 0.00034201947948341043 0 -0.034173522340620439 0.00067183964871995669 0 -0.034501844297193919 0.00081964525212539481 0 -0.034507704116043723 0.00050228377861585025 0 -0.034173522340620439 0.00067183964871995669 0 -0.034501844297193919 0.00081964525212539481 0 -0.034173522340620439 0.00067183964871995669 0 -0.034137341262249765 0.0009694729457780689 0 -0.034173522340620439 0.00067183964871995669 0 -0.034137341262249765 0.0009694729457780689 0 -0.033843781084891077 0.0007397548065413706 0 -0.034449556074265357 0.001142977325587098 0 -0.034501844297193919 0.00081964525212539481 0 -0.034137341262249765 0.0009694729457780689 0 -0.033751956194821443 0.0011330072991449643 0 -0.034137341262249765 0.0009694729457780689 0 -0.033843781084891077 0.0007397548065413706 0 -0.033751956194821443 0.0011330072991449643 0 -0.033843781084891077 0.0007397548065413706 0 -0.033354825282313261 0.00066590440168722161 0 -0.033161676896046308 0.0010530977450253448 0 -0.033354825282313261 0.00066590440168722161 0 -0.03340257745572392 0.0011551102864346627 0 -0.033751956194821443 0.0011330072991449643 0 -0.033354825282313261 0.00066590440168722161 0 -0.03340257745572392 0.0011551102864346627 0 -0.034907030704854729 -0.00010629623279646144 0 -0.034922230986232129 -4.8580660903392776e-05 0 -0.034743970956953016 -4.2257572523259262e-05 0 -0.033876713806374449 0.00048325930422820203 0 -0.034045185565938788 0.00031645779921162583 0 -0.033161676896046308 0.0010530977450253448 0 -0.032800453734134913 0.0010334951946122455 0 -0.033354825282313261 0.00066590440168722161 0 -0.034922230986232129 -4.8580660903392776e-05 0 -0.034942438443106363 1.0263509091020682e-05 0 -0.034743970956953016 -4.2257572523259262e-05 0 -0.03493904772684521 1.3937785005081533e-05 0 -0.034847256312093421 5.4953392879056694e-05 0 -0.034942438443106363 1.0263509091020682e-05 0 -0.034743970956953016 -4.2257572523259262e-05 0 -0.034695520674328552 0.00011528738660244676 0 -0.034942438443106363 1.0263509091020682e-05 0 -0.034994506820053353 7.5972740137092738e-06 0 -0.034979056751623459 4.3192516817267931e-06 0 -0.034979056751623459 4.3192516817267931e-06 0 -0.034999985869595872 -6.9236765964350501e-09 0 -0.034999966875343895 1.347425150517037e-08 0 -0.034998425351429545 2.2287090635900032e-06 0 -0.034994506820053353 7.5972740137092738e-06 0 -0.034999985869595872 -6.9236765964350501e-09 0 -0.034994506820053353 7.5972740137092738e-06 0 -0.034979056751623459 4.3192516817267931e-06 0 -0.034999985869595872 -6.9236765964350501e-09 0 -0.034999966875343895 1.347425150517037e-08 0 -0.034993173081695049 5.3028929593368685e-06 0 -0.035000000693393832 -2.0882636424688277e-09 0 -0.034999966875343895 1.347425150517037e-08 0 -0.034988002815140876 6.1035517942738599e-06 0 -0.034993173081695049 5.3028929593368685e-06 0 -0.034979056751623459 4.3192516817267931e-06 0 -0.034999966875343895 1.347425150517037e-08 0 -0.034988002815140876 6.1035517942738599e-06 0 -0.034973470666077422 8.5575385805788873e-06 0 -0.034988002815140876 6.1035517942738599e-06 0 -0.034991452209043296 2.8861759505555967e-06 0 -0.034942438443106363 1.0263509091020682e-05 0 -0.034979056751623459 4.3192516817267931e-06 0 -0.034973470666077422 8.5575385805788873e-06 0 -0.034979056751623459 4.3192516817267931e-06 0 -0.034973470666077422 8.5575385805788873e-06 0 -0.034988002815140876 6.1035517942738599e-06 0 -0.034991443810875794 6.1587488012059098e-06 0 -0.035006393107375966 -5.0057241753308607e-05 0 -0.034988002815140876 6.1035517942738599e-06 0 -0.034993173081695049 5.3028929593368685e-06 0 -0.034989576537697638 -1.3631711909258881e-06 0 -0.034986659608639954 -1.7433645483612867e-06 0 -0.034975731007486785 -8.2178609803388657e-06 0 -0.034990768589288609 -8.6615227312468961e-06 0 -0.034985179718251505 2.175698378068617e-05 0 -0.035006393107375966 -5.0057241753308607e-05 0 -0.03500088309070512 1.716236008880203e-05 0 -0.034964784235796936 -5.532576585185912e-05 0 -0.035016505338415042 -5.0993695448143346e-05 0 -0.034975731007486785 -8.2178609803388657e-06 0 -0.034972550963867664 -1.5512046757807122e-05 0 -0.034990768589288609 -8.6615227312468961e-06 0 -0.035006393107375966 -5.0057241753308607e-05 0 -0.034134797638377234 0.00032481533562610341 0 -0.034942438443106363 1.0263509091020682e-05 0 -0.034991452209043296 2.8861759505555967e-06 0 -0.034964784235796936 -5.532576585185912e-05 0 -0.034942438443106363 1.0263509091020682e-05 0 -0.034973470666077422 8.5575385805788873e-06 0 -0.034991452209043296 2.8861759505555967e-06 0 -0.035006393107375966 -5.0057241753308607e-05 0 -0.034972392691157969 -3.2244485544167777e-05 0 -0.034922230986232129 -4.8580660903392776e-05 0 -0.034942438443106363 1.0263509091020682e-05 0 -0.034964784235796936 -5.532576585185912e-05 0 -0.034964784235796936 -5.532576585185912e-05 0 -0.035016505338415042 -5.0993695448143346e-05 0 -0.034938929135094186 -0.00011996873969295534 0 -0.032380195190195478 0.00089169126703955942 0 -0.032465506748829455 0.0011387767504179749 0 -0.032715603983029654 0.0011616650311157891 0 -0.034134797638377234 0.00032481533562610341 0 -0.033507566279397522 0.00087782326420191275 0 -0.034907030704854729 -0.00010629623279646144 0 -0.034922230986232129 -4.8580660903392776e-05 0 -0.034964784235796936 -5.532576585185912e-05 0 -0.034907030704854729 -0.00010629623279646144 0 -0.034964784235796936 -5.532576585185912e-05 0 -0.034938929135094186 -0.00011996873969295534 0 -0.032380195190195478 0.00089169126703955942 0 -0.032300612368282265 0.0012528336665556554 0 -0.032465506748829455 0.0011387767504179749 0 -0.034134797638377234 0.00032481533562610341 0 -0.033366791733354342 0.00088491203810534089 0 -0.034522309274030015 0.00025529232102832128 0 -0.034474725673874419 0.0005102425550900366 0 -0.034344649700320272 0.00043824712695910247 0 -0.032300612368282265 0.0012528336665556554 0 -0.032465506748829455 0.0011387767504179749 0 -0.032455444564693986 0.0013230028645506296 0 -0.032300612368282265 0.0012528336665556554 0 -0.032455444564693986 0.0013230028645506296 0 -0.032423634780861098 0.0015071892758699876 0 -0.034474725673874419 0.0005102425550900366 0 -0.034413490247535691 0.00077016360513695598 0 -0.034362725004144473 0.00059861980886953678 0 -0.032423634780861098 0.0015071892758699876 0 -0.032236622385964975 0.0015583044374598354 0 -0.032487329227951452 0.001777750395115685 0 -0.033366791733354342 0.00088491203810534089 0 -0.033213864654951547 0.0014888468737284753 0 -0.032300612368282265 0.0012528336665556554 0 -0.032423634780861098 0.0015071892758699876 0 -0.032236622385964975 0.0015583044374598354 0 -0.032596922886606351 0.0014380797955677431 0 -0.032738992661758198 0.0015642995204205572 0 -0.032487329227951452 0.001777750395115685 0 -0.032423634780861098 0.0015071892758699876 0 -0.032596922886606351 0.0014380797955677431 0 -0.032487329227951452 0.001777750395115685 0 -0.032596922886606351 0.0014380797955677431 0 -0.032658648895701491 0.0012640904145990452 0 -0.032738992661758198 0.0015642995204205572 0 -0.032662438960817754 0.0013111364982075998 0 -0.03275400482104953 0.0016463709428231801 0 -0.032455444564693986 0.0013230028645506296 0 -0.032423634780861098 0.0015071892758699876 0 -0.032596922886606351 0.0014380797955677431 0 -0.032455444564693986 0.0013230028645506296 0 -0.032596922886606351 0.0014380797955677431 0 -0.032658648895701491 0.0012640904145990452 0 -0.032455444564693986 0.0013230028645506296 0 -0.032658648895701491 0.0012640904145990452 0 -0.032626985226834167 0.0011799055874165828 0 -0.032465506748829455 0.0011387767504179749 0 -0.032455444564693986 0.0013230028645506296 0 -0.032715603983029654 0.0011616650311157891 0 -0.032292532270884522 0.0014553237353470429 0 -0.033507566279397522 0.00087782326420191275 0 -0.032800453734134913 0.0010334951946122455 0 -0.032658648895701491 0.0012640904145990452 0 -0.032626985226834167 0.0011799055874165828 0 -0.033876713806374449 0.00048325930422820203 0 -0.033507566279397522 0.00087782326420191275 0 -0.032800453734134913 0.0010334951946122455 0 -0.032658648895701491 0.0012640904145990452 0 -0.03297068510640272 0.0012622716674200972 0 -0.033161676896046308 0.0010530977450253448 0 -0.032800453734134913 0.0010334951946122455 0 -0.03297068510640272 0.0012622716674200972 0 -0.03297068510640272 0.0012622716674200972 0 -0.033249258635799805 0.0014172962885323325 0 -0.032952938748671098 0.0015134928698028909 0 -0.032658648895701491 0.0012640904145990452 0 -0.03297068510640272 0.0012622716674200972 0 -0.032952938748671098 0.0015134928698028909 0 -0.033161676896046308 0.0010530977450253448 0 -0.03340257745572392 0.0011551102864346627 0 -0.033249258635799805 0.0014172962885323325 0 -0.033161676896046308 0.0010530977450253448 0 -0.03297068510640272 0.0012622716674200972 0 -0.033249258635799805 0.0014172962885323325 0 -0.033550171915343874 0.0014377819726246581 0 -0.03340257745572392 0.0011551102864346627 0 -0.033249258635799805 0.0014172962885323325 0 -0.03349105611951067 0.0017686040599513397 0 -0.033249258635799805 0.0014172962885323325 0 -0.033158405427816603 0.0018492341196996111 0 -0.033249258635799805 0.0014172962885323325 0 -0.033158405427816603 0.0018492341196996111 0 -0.032952938748671098 0.0015134928698028909 0 -0.03349105611951067 0.0017686040599513397 0 -0.033550171915343874 0.0014377819726246581 0 -0.033249258635799805 0.0014172962885323325 0 -0.032658648895701491 0.0012640904145990452 0 -0.032737429108619029 0.0017757873339002172 0 -0.032952938748671098 0.0015134928698028909 0 -0.033158405427816603 0.0018492341196996111 0 -0.032737429108619029 0.0017757873339002172 0 -0.032952938748671098 0.0015134928698028909 0 -0.032737429108619029 0.0017757873339002172 0 -0.032982820886847009 0.0020832161046505262 0 -0.032826302933273717 0.002285116744637983 0 -0.03275400482104953 0.0016463709428231801 0 -0.032411932544950874 0.0022582200765529723 0 -0.033158405427816603 0.0018492341196996111 0 -0.032737429108619029 0.0017757873339002172 0 -0.032982820886847009 0.0020832161046505262 0 -0.032982820886847009 0.0020832161046505262 0 -0.032826302933273717 0.002285116744637983 0 -0.03300270717273919 0.0023470369617106272 0 -0.033475812085089297 0.0021031958815524356 0 -0.03349105611951067 0.0017686040599513397 0 -0.033158405427816603 0.0018492341196996111 0 -0.033475812085089297 0.0021031958815524356 0 -0.033158405427816603 0.0018492341196996111 0 -0.033188135937963617 0.0021556256734866813 0 -0.033158405427816603 0.0018492341196996111 0 -0.032982820886847009 0.0020832161046505262 0 -0.033188135937963617 0.0021556256734866813 0 -0.033188135937963617 0.0021556256734866813 0 -0.033297417434151634 0.0023760817149552 0 -0.03300270717273919 0.0023470369617106272 0 -0.032982820886847009 0.0020832161046505262 0 -0.033188135937963617 0.0021556256734866813 0 -0.03300270717273919 0.0023470369617106272 0 -0.033475812085089297 0.0021031958815524356 0 -0.033188135937963617 0.0021556256734866813 0 -0.033297417434151634 0.0023760817149552 0 -0.033297417434151634 0.0023760817149552 0 -0.0331096438007914 0.0025664277142455343 0 -0.03300270717273919 0.0023470369617106272 0 -0.033173870157564289 0.0027316055074641243 0 -0.0331096438007914 0.0025664277142455343 0 -0.032902856774838098 0.0026528070514704408 0 -0.033297417434151634 0.0023760817149552 0 -0.0331096438007914 0.0025664277142455343 0 -0.033344943480319127 0.0026939299352556419 0 -0.033173870157564289 0.0027316055074641243 0 -0.0331096438007914 0.0025664277142455343 0 -0.033344943480319127 0.0026939299352556419 0 -0.026283674335392096 0.004244422399953025 0 -0.02769124466331677 0.0041547001832888683 0 -0.027376569133876899 0.0050924736318167154 0 -0.030872141247158182 0.0030518533326028027 0 -0.030904475734416483 0.0031892394852415244 0 -0.030785765241697134 0.0030950564863684222 0 -0.032809895305182746 0.00229257699973528 0 -0.03300270717273919 0.0023470369617106272 0 -0.032902856774838098 0.0026528070514704408 0 -0.032411932544950874 0.0022582200765529723 0 -0.030884149374504389 0.0030430387406177152 0 -0.032411932544950874 0.0022582200765529723 0 -0.032899410288395763 0.0023614106274514259 0 -0.0331096438007914 0.0025664277142455343 0 -0.03300270717273919 0.0023470369617106272 0 -0.032902856774838098 0.0026528070514704408 0 -0.030884149374504389 0.0030430387406177152 0 -0.028964189708135742 0.0038703119115438018 0 -0.02769124466331677 0.0041547001832888683 0 -0.027376569133876899 0.0050924736318167154 0 -0.028360050196117363 0.0047946387235521032 0 -0.027376569133876899 0.0050924736318167154 0 -0.028360050196117363 0.0047946387235521032 0 -0.028462041607807312 0.0059498083518356743 0 -0.028739101493299238 0.003660920454193761 0 -0.02769124466331677 0.0041547001832888683 0 -0.028360050196117363 0.0047946387235521032 0 -0.028739101493299238 0.003660920454193761 0 -0.028360050196117363 0.0047946387235521032 0 -0.029502517620969271 0.0051325571321153927 0 -0.029997296661959768 0.0033835513503066151 0 -0.028739101493299238 0.003660920454193761 0 -0.029502517620969271 0.0051325571321153927 0 -0.028360050196117363 0.0047946387235521032 0 -0.029502517620969271 0.0051325571321153927 0 -0.028462041607807312 0.0059498083518356743 0 -0.032158819591210835 0.003308917013446737 0 -0.031414007845034286 0.0027073677104936579 0 -0.032239100743559394 0.0029356545974515923 0 -0.030743519356373782 0.0033022789139050298 0 -0.031681740957107768 0.004195623018748324 0 -0.029502517620969271 0.0051325571321153927 0 -0.028462041607807312 0.0059498083518356743 0 -0.030124356802477402 0.0064147353988053372 0 -0.033213864654951547 0.0014888468737284753 0 -0.030743519356373782 0.0033022789139050298 0 -0.030872141247158182 0.0030518533326028027 0 -0.030785765241697134 0.0030950564863684222 0 -0.030667950114103719 0.0030035414909958167 0 -0.032411932544950874 0.0022582200765529723 0 -0.030743519356373782 0.0033022789139050298 0 -0.032738992661758198 0.0015642995204205572 0 -0.032808578131283905 0.0018730355196515086 0 -0.032487329227951452 0.001777750395115685 0 -0.028964189708135742 0.0038703119115438018 0 -0.030743519356373782 0.0033022789139050298 0 -0.03136510146313623 0.0025991831162418349 0 -0.03265248642352294 0.0025007071992526617 0 -0.031227620032142526 7.45907810719418e-05 0 -0.032244539928343911 0.00042093855396122047 0 -0.032043120132661924 0.0010811971120292148 0 -0.031586028970849445 0.0047163473404366694 0 -0.031227345347760026 0.0059684387136601383 0 -0.032074571711460498 0.0061828416084738439 0 -0.030941237652591019 0.0052358208676928841 0 -0.031586028970849445 0.0047163473404366694 0 -0.031227345347760026 0.0059684387136601383 0 -0.03035872168140881 0.0057396167661305916 0 -0.030941237652591019 0.0052358208676928841 0 -0.031227345347760026 0.0059684387136601383 0 -0.031681740957107768 0.004195623018748324 0 -0.032863452712864651 0.0035714836494203737 0 -0.031681740957107768 0.004195623018748324 0 -0.030191102951577172 0.0053319984409549888 0 -0.03035872168140881 0.0057396167661305916 0 -0.030941237652591019 0.0052358208676928841 0 -0.030540498588987084 0.0044238857904324155 0 -0.029502517620969271 0.0051325571321153927 0 -0.030124356802477402 0.0064147353988053372 0 -0.030540498588987084 0.0044238857904324155 0 -0.029997296661959768 0.0033835513503066151 0 -0.029502517620969271 0.0051325571321153927 0 -0.030540498588987084 0.0044238857904324155 0 -0.030941237652591019 0.0052358208676928841 0 -0.030540498588987084 0.0044238857904324155 0 -0.031586028970849445 0.0047163473404366694 0 -0.031227620032142526 7.45907810719418e-05 0 -0.031718627883192844 0.00010386713937312951 0 -0.032244539928343911 0.00042093855396122047 0 -0.031226650500736836 -0.0002088593831370115 0 -0.031227620032142526 7.45907810719418e-05 0 -0.031718627883192844 0.00010386713937312951 0 -0.031271164743440924 -0.00022411474496008833 0 -0.031678391227296293 -0.00021493541667051165 0 -0.031718627883192844 0.00010386713937312951 0 -0.032839271440746061 -9.0493426960164736e-05 0 -0.032244539928343911 0.00042093855396122047 0 -0.031226650500736836 -0.0002088593831370115 0 -0.031718627883192844 0.00010386713937312951 0 -0.032839271440746061 -9.0493426960164736e-05 0 -0.032839271440746061 -9.0493426960164736e-05 0 -0.032874505086411918 0.00065883193876447926 0 -0.032244539928343911 0.00042093855396122047 0 -0.032839271440746061 -9.0493426960164736e-05 0 -0.032874505086411918 0.00065883193876447926 0 -0.033140316815944496 0.00052975310709832185 0 -0.032874505086411918 0.00065883193876447926 0 -0.033219051400351536 0.00081972279317383601 0 -0.033140316815944496 0.00052975310709832185 0 -0.032244539928343911 0.00042093855396122047 0 -0.032594982132762407 0.00079359305589528633 0 -0.032043120132661924 0.0010811971120292148 0 -0.032874505086411918 0.00065883193876447926 0 -0.032244539928343911 0.00042093855396122047 0 -0.032594982132762407 0.00079359305589528633 0 -0.033067091387706783 0.001079552913087801 0 -0.03265248642352294 0.0025007071992526617 0 -0.032594982132762407 0.00079359305589528633 0 -0.033151249790665492 0.00097478950388970513 0 -0.032043120132661924 0.0010811971120292148 0 -0.033151249790665492 0.00097478950388970513 0 -0.033777497325994305 0.00067947359558252947 0 -0.033962153335989516 0.0012805313017178262 0 -0.032874505086411918 0.00065883193876447926 0 -0.032594982132762407 0.00079359305589528633 0 -0.033151249790665492 0.00097478950388970513 0 -0.03352258570226288 0.00060037508533739936 0 -0.03265248642352294 0.0025007071992526617 0 -0.032874505086411918 0.00065883193876447926 0 -0.033151249790665492 0.00097478950388970513 0 -0.033219051400351536 0.00081972279317383601 0 -0.033151249790665492 0.00097478950388970513 0 -0.033219051400351536 0.00081972279317383601 0 -0.033493012869271407 0.00060164043571162798 0 -0.033219051400351536 0.00081972279317383601 0 -0.033493012869271407 0.00060164043571162798 0 -0.033420260635336284 0.00059004091447508421 0 -0.033493012869271407 0.00060164043571162798 0 -0.033420260635336284 0.00059004091447508421 0 -0.0336512935141502 0.00033020460018978168 0 -0.033493012869271407 0.00060164043571162798 0 -0.033777497325994305 0.00067947359558252947 0 -0.033789226612591011 0.00049536321014673191 0 -0.033151249790665492 0.00097478950388970513 0 -0.033493012869271407 0.00060164043571162798 0 -0.033777497325994305 0.00067947359558252947 0 -0.033493012869271407 0.00060164043571162798 0 -0.033789226612591011 0.00049536321014673191 0 -0.03385296595449927 0.0002996201002206618 0 -0.033777497325994305 0.00067947359558252947 0 -0.033789226612591011 0.00049536321014673191 0 -0.033994822531727489 0.00043293785459762324 0 -0.033994822531727489 0.00043293785459762324 0 -0.034192616431545531 0.00039844441827858491 0 -0.034224618097077587 0.00060075607834410294 0 -0.033976400472334384 0.00043227735843032509 0 -0.034337655341468598 0.00069658750003156057 0 -0.033994822531727489 0.00043293785459762324 0 -0.034022493100647373 0.00079005317018560289 0 -0.034237815950252777 0.00073323438607922808 0 -0.033777497325994305 0.00067947359558252947 0 -0.033994822531727489 0.00043293785459762324 0 -0.034022493100647373 0.00079005317018560289 0 -0.034022493100647373 0.00079005317018560289 0 -0.034191472284062684 0.0010898376922655721 0 -0.034237815950252777 0.00073323438607922808 0 -0.033777497325994305 0.00067947359558252947 0 -0.034022493100647373 0.00079005317018560289 0 -0.033891150285409462 0.0010040593955760175 0 -0.032863452712864651 0.0035714836494203737 0 -0.03265248642352294 0.0025007071992526617 0 -0.034022493100647373 0.00079005317018560289 0 -0.034191472284062684 0.0010898376922655721 0 -0.033891150285409462 0.0010040593955760175 0 -0.034507653817235931 0.00100701976029977 0 -0.034463450798534058 0.0011834406069245408 0 -0.034191472284062684 0.0010898376922655721 0 -0.034507653817235931 0.00100701976029977 0 -0.034191472284062684 0.0010898376922655721 0 -0.034237815950252777 0.00073323438607922808 0 -0.033213864654951547 0.0014888468737284753 0 -0.031681740957107768 0.004195623018748324 0 -0.033213864654951547 0.0014888468737284753 0 -0.034337655341468598 0.00069658750003156057 0 -0.034413490247535691 0.00077016360513695598 0 -0.034362725004144473 0.00059861980886953678 0 -0.034224618097077587 0.00060075607834410294 0 -0.034362725004144473 0.00059861980886953678 0 -0.034224618097077587 0.00060075607834410294 0 -0.034344649700320272 0.00043824712695910247 0 -0.034474725673874419 0.0005102425550900366 0 -0.034362725004144473 0.00059861980886953678 0 -0.034344649700320272 0.00043824712695910247 0 -0.034192616431545531 0.00039844441827858491 0 -0.034224618097077587 0.00060075607834410294 0 -0.034344649700320272 0.00043824712695910247 0 -0.034522309274030015 0.00025529232102832128 0 -0.034344649700320272 0.00043824712695910247 0 -0.034279529813715633 0.0002785436954796543 0 -0.034192616431545531 0.00039844441827858491 0 -0.034344649700320272 0.00043824712695910247 0 -0.034279529813715633 0.0002785436954796543 0 -0.033994822531727489 0.00043293785459762324 0 -0.034192616431545531 0.00039844441827858491 0 -0.034127917044685797 0.00021973348429841057 0 -0.034192616431545531 0.00039844441827858491 0 -0.034279529813715633 0.0002785436954796543 0 -0.034127917044685797 0.00021973348429841057 0 -0.034279529813715633 0.0002785436954796543 0 -0.034127917044685797 0.00021973348429841057 0 -0.034245004719819727 5.2425841128626548e-05 0 -0.034127917044685797 0.00021973348429841057 0 -0.034245004719819727 5.2425841128626548e-05 0 -0.034094286364039231 8.1616057896335877e-05 0 -0.034134797638377234 0.00032481533562610341 0 -0.034728930111294798 1.648787377848078e-05 0 -0.034522309274030015 0.00025529232102832128 0 -0.034279529813715633 0.0002785436954796543 0 -0.034245004719819727 5.2425841128626548e-05 0 -0.034986659608639954 -1.7433645483612867e-06 0 -0.034990768589288609 -8.6615227312468961e-06 0 -0.0349961976118753 -1.5417291278040753e-06 0 -0.034990768589288609 -8.6615227312468961e-06 0 -0.0349961976118753 -1.5417291278040753e-06 0 -0.034998726564618644 -2.401963226185301e-06 0 -0.034728930111294798 1.648787377848078e-05 0 -0.034598948966879602 -4.4313895994701902e-05 0 -0.034245004719819727 5.2425841128626548e-05 0 -0.034235745028445043 -4.5977920952303131e-05 0 -0.034094286364039231 8.1616057896335877e-05 0 -0.0349961976118753 -1.5417291278040753e-06 0 -0.03499997564615176 4.1025472719675886e-09 0 -0.035000001100258034 -2.6013128871975082e-09 0 -0.0349961976118753 -1.5417291278040753e-06 0 -0.035000001100258034 -2.6013128871975082e-09 0 -0.034998726564618644 -2.401963226185301e-06 0 -0.034991443810875794 6.1587488012059098e-06 0 -0.034999992759004124 -3.167819161557138e-09 0 -0.034986659608639954 -1.7433645483612867e-06 0 -0.0349961976118753 -1.5417291278040753e-06 0 -0.03499997564615176 4.1025472719675886e-09 0 -0.034235745028445043 -4.5977920952303131e-05 0 -0.033974178438212599 5.4147752297910146e-05 0 -0.034173063709719516 -6.7776802069648934e-05 0 -0.034995970592992344 -2.8416871034278446e-07 0 -0.034235745028445043 -4.5977920952303131e-05 0 -0.034173063709719516 -6.7776802069648934e-05 0 -0.034999998638487143 6.0930583020953868e-10 0 -0.035000001100258034 -2.6013128871975082e-09 0 -0.034998726564618644 -2.401963226185301e-06 0 -0.03499985077524928 -1.2687440816857772e-08 0 -0.034598948966879602 -4.4313895994701902e-05 0 -0.033974178438212599 5.4147752297910146e-05 0 -0.034094286364039231 8.1616057896335877e-05 0 -0.03385296595449927 0.0002996201002206618 0 -0.034235745028445043 -4.5977920952303131e-05 0 -0.033974178438212599 5.4147752297910146e-05 0 -0.034094286364039231 8.1616057896335877e-05 0 -0.034127917044685797 0.00021973348429841057 0 -0.034094286364039231 8.1616057896335877e-05 0 -0.03385296595449927 0.0002996201002206618 0 -0.033994822531727489 0.00043293785459762324 0 -0.034127917044685797 0.00021973348429841057 0 -0.03385296595449927 0.0002996201002206618 0 -0.033789226612591011 0.00049536321014673191 0 -0.033994822531727489 0.00043293785459762324 0 -0.03385296595449927 0.0002996201002206618 0 -0.033974178438212599 5.4147752297910146e-05 0 -0.03385296595449927 0.0002996201002206618 0 -0.0336512935141502 0.00033020460018978168 0 -0.033493012869271407 0.00060164043571162798 0 -0.03385296595449927 0.0002996201002206618 0 -0.0336512935141502 0.00033020460018978168 0 -0.033974178438212599 5.4147752297910146e-05 0 -0.0336512935141502 0.00033020460018978168 0 -0.033678725439143978 8.5374366301606248e-05 0 -0.034995970592992344 -2.8416871034278446e-07 0 -0.033862330768528626 -0.00017346503094025321 0 -0.034998204582380267 -1.0909214685104121e-07 0 -0.033022860861373224 0.00014690434991610572 0 -0.033678725439143978 8.5374366301606248e-05 0 -0.033347688428572497 0.00050886344488642872 0 -0.0336512935141502 0.00033020460018978168 0 -0.033678725439143978 8.5374366301606248e-05 0 -0.033347688428572497 0.00050886344488642872 0 -0.032894989948671877 6.0849223712044569e-05 0 -0.032435228676475546 0.00025833078131410416 0 -0.033022860861373224 0.00014690434991610572 0 -0.032090002588270133 3.2084732670775571e-05 0 -0.031660402636125795 0.00011571922227046001 0 -0.033022860861373224 0.00014690434991610572 0 -0.033590322893388321 -9.3422310219228101e-05 0 -0.032090002588270133 3.2084732670775571e-05 0 -0.033022860861373224 0.00014690434991610572 0 -0.033590322893388321 -9.3422310219228101e-05 0 -0.033678725439143978 8.5374366301606248e-05 0 -0.033974178438212599 5.4147752297910146e-05 0 -0.033678725439143978 8.5374366301606248e-05 0 -0.034173063709719516 -6.7776802069648934e-05 0 -0.033590322893388321 -9.3422310219228101e-05 0 -0.033678725439143978 8.5374366301606248e-05 0 -0.034173063709719516 -6.7776802069648934e-05 0 -0.034995970592992344 -2.8416871034278446e-07 0 -0.034173063709719516 -6.7776802069648934e-05 0 -0.033862330768528626 -0.00017346503094025321 0 -0.033590322893388321 -9.3422310219228101e-05 0 -0.034173063709719516 -6.7776802069648934e-05 0 -0.033862330768528626 -0.00017346503094025321 0 -0.033862330768528626 -0.00017346503094025321 0 -0.034998204582380267 -1.0909214685104121e-07 0 -0.031745405646651292 -9.9585490365639999e-07 0 -0.033590322893388321 -9.3422310219228101e-05 0 -0.033862330768528626 -0.00017346503094025321 0 -0.032090002588270133 3.2084732670775571e-05 0 -0.033862330768528626 -0.00017346503094025321 0 -0.031745405646651292 -9.9585490365639999e-07 0 -0.032090002588270133 3.2084732670775571e-05 0 -0.031745405646651292 -9.9585490365639999e-07 0 -0.032090002588270133 3.2084732670775571e-05 0 -0.028971298952691307 0.00010579406989176545 0 -0.032090002588270133 3.2084732670775571e-05 0 -0.031660402636125795 0.00011571922227046001 0 -0.028971298952691307 0.00010579406989176545 0 -0.031745405646651292 -9.9585490365639999e-07 0 -0.027362547196146135 2.7898246914592353e-06 0 -0.028971298952691307 0.00010579406989176545 0 -0.030576113062431475 0.00033944120951627911 0 -0.031660402636125795 0.00011571922227046001 0 -0.028971298952691307 0.00010579406989176545 0 -0.033121899081507859 0.00061706265350785876 0 -0.033347688428572497 0.00050886344488642872 0 -0.033255571222596543 0.00068482282555855139 0 -0.033022860861373224 0.00014690434991610572 0 -0.033121899081507859 0.00061706265350785876 0 -0.033347688428572497 0.00050886344488642872 0 -0.033420260635336284 0.00059004091447508421 0 -0.0336512935141502 0.00033020460018978168 0 -0.033347688428572497 0.00050886344488642872 0 -0.033347688428572497 0.00050886344488642872 0 -0.033298563741822898 0.00069214383460212514 0 -0.033255571222596543 0.00068482282555855139 0 -0.033219051400351536 0.00081972279317383601 0 -0.033420260635336284 0.00059004091447508421 0 -0.033298563741822898 0.00069214383460212514 0 -0.033420260635336284 0.00059004091447508421 0 -0.033347688428572497 0.00050886344488642872 0 -0.033298563741822898 0.00069214383460212514 0 -0.033219051400351536 0.00081972279317383601 0 -0.033298563741822898 0.00069214383460212514 0 -0.033262376305821101 0.00068081543884902112 0 -0.033298563741822898 0.00069214383460212514 0 -0.033262376305821101 0.00068081543884902112 0 -0.033255571222596543 0.00068482282555855139 0 -0.03200739317173449 0.00060534007612288762 0 -0.032435228676475546 0.00025833078131410416 0 -0.033121899081507859 0.00061706265350785876 0 -0.033255571222596543 0.00068482282555855139 0 -0.033291301148687384 0.00069165538149215308 0 -0.033238501850513448 0.0006934197060027025 0 -0.033121899081507859 0.00061706265350785876 0 -0.033291301148687384 0.00069165538149215308 0 -0.033262376305821101 0.00068081543884902112 0 -0.033255571222596543 0.00068482282555855139 0 -0.033291301148687384 0.00069165538149215308 0 -0.033700301118434979 0.00094559054769159071 0 -0.031829749998819323 -1.5498158417052029e-05 0 -0.033238501850513448 0.0006934197060027025 0 -0.033291301148687384 0.00069165538149215308 0 -0.033249090293818666 0.00072183634940707609 0 -0.033262376305821101 0.00068081543884902112 0 -0.033291301148687384 0.00069165538149215308 0 -0.033417692237485433 0.00025230844152041075 0 -0.033291301148687384 0.00069165538149215308 0 -0.033249090293818666 0.00072183634940707609 0 -0.033251155775469721 0.0007429696547683911 0 -0.033262376305821101 0.00068081543884902112 0 -0.033140316815944496 0.00052975310709832185 0 -0.033417692237485433 0.00025230844152041075 0 -0.033219051400351536 0.00081972279317383601 0 -0.033262376305821101 0.00068081543884902112 0 -0.033140316815944496 0.00052975310709832185 0 -0.031678391227296293 -0.00021493541667051165 0 -0.031829749998819323 -1.5498158417052029e-05 0 -0.032839271440746061 -9.0493426960164736e-05 0 -0.033140316815944496 0.00052975310709832185 0 -0.033417692237485433 0.00025230844152041075 0 -0.029894103307261027 -0.00056505321768237206 0 -0.030014319543004337 -0.00071588393565928166 0 -0.029764124535333069 -0.00075876749466752367 0 -0.031829749998819323 -1.5498158417052029e-05 0 -0.030528561761524728 0.00044035082482704428 0 -0.033249090293818666 0.00072183634940707609 0 -0.033251155775469721 0.0007429696547683911 0 -0.033212067374058726 0.00073852782240771842 0 -0.02828223443104395 -7.2354864752536646e-05 0 -0.028203619393069132 0.0003331781138848731 0 -0.028393498566391492 0.00036961685900271219 0 -0.026833177634486931 -0.00028350151323947487 0 -0.028001778130995292 0.00035070311251200292 0 -0.030106395804000052 0.0015289978237313063 0 -0.029283197263125591 0.0014720931408341155 0 -0.029773041671647311 0.00086560122786331006 0 -0.030528561761524728 0.00044035082482704428 0 -0.028001778130995292 0.00035070311251200292 0 -0.025464901862941699 -3.1029243394471188e-07 0 -0.025736683006918178 5.0834166458554673e-06 0 -0.027355504958469511 1.1803032977513453e-06 0 -0.025736683006918178 5.0834166458554673e-06 0 -0.024895607554685277 -3.0399539542682506e-05 0 -0.026116542401374898 0.00025002849041799382 0 -0.025736683006918178 5.0834166458554673e-06 0 -0.026116542401374898 0.00025002849041799382 0 -0.027355504958469511 1.1803032977513453e-06 0 -0.028001778130995292 0.00035070311251200292 0 -0.027357446819479461 1.5773199194283806e-07 0 -0.029283197263125591 0.0014720931408341155 0 -0.028971298952691307 0.00010579406989176545 0 -0.029773041671647311 0.00086560122786331006 0 -0.028001778130995292 0.00035070311251200292 0 -0.028863026334757812 0.0004266203408306474 0 -0.028522252358257127 0.00046300476229196023 0 -0.027362547196146135 2.7898246914592353e-06 0 -0.028971298952691307 0.00010579406989176545 0 -0.03200739317173449 0.00060534007612288762 0 -0.030528561761524728 0.00044035082482704428 0 -0.030576113062431475 0.00033944120951627911 0 -0.030106395804000052 0.0015289978237313063 0 -0.029773041671647311 0.00086560122786331006 0 -0.033238501850513448 0.0006934197060027025 0 -0.033249090293818666 0.00072183634940707609 0 -0.033212067374058726 0.00073852782240771842 0 -0.030576113062431475 0.00033944120951627911 0 -0.028971298952691307 0.00010579406989176545 0 -0.029773041671647311 0.00086560122786331006 0 -0.017476436692478146 0.00091036350006639766 0 -0.017280956096442854 0.00086784721510182908 0 -0.017359951841549558 0.00094565236483918767 0 -0.020415935980996995 0.00086731826536209195 0 -0.023931182666257985 0.0010174905615617199 0 -0.020415935980996995 0.00086731826536209195 0 -0.020082908852149067 0.0012228452199715151 0 -0.017507878561512317 0.00090853117497280964 0 -0.017837425572965904 0.00095815899728858187 0 -0.017476436692478146 0.00091036350006639766 0 -0.018259710776358622 0.00083284049710645295 0 -0.018211616633308569 0.0010850064299491051 0 -0.02220199172137443 0.0014487189120603533 0 -0.022468775009378539 0.0014426070271166709 0 -0.022417910650761898 0.0016341351804851885 0 -0.021992774836022994 0.0016284522365674131 0 -0.02220199172137443 0.0014487189120603533 0 -0.022417910650761898 0.0016341351804851885 0 -0.017476436692478146 0.00091036350006639766 0 -0.017280956096442854 0.00086784721510182908 0 -0.018259710776358622 0.00083284049710645295 0 -0.017476436692478146 0.00091036350006639766 0 -0.017420912268586167 0.00088955988547882541 0 -0.017400444375222208 0.00092733367651506068 0 -0.017476436692478146 0.00091036350006639766 0 -0.017420912268586167 0.00088955988547882541 0 -0.01744677831077654 0.00082530444885166331 0 -0.017420912268586167 0.00088955988547882541 0 -0.017437804850601927 0.0008873821652529599 0 -0.01744677831077654 0.00082530444885166331 0 -0.017420912268586167 0.00088955988547882541 0 -0.017426148759908965 0.00093846993389107541 0 -0.017365405764137934 0.00093076567804506287 0 -0.017420912268586167 0.00088955988547882541 0 -0.017437804850601927 0.0008873821652529599 0 -0.017426148759908965 0.00093846993389107541 0 -0.017420912268586167 0.00088955988547882541 0 -0.017365405764137934 0.00093076567804506287 0 -0.017400444375222208 0.00092733367651506068 0 -0.017365405764137934 0.00093076567804506287 0 -0.017400444375222208 0.00092733367651506068 0 -0.017358687466805769 0.00094450178588215475 0 -0.017365405764137934 0.00093076567804506287 0 -0.017358687466805769 0.00094450178588215475 0 -0.017312853850579811 0.00090997478039497892 0 -0.017400444375222208 0.00092733367651506068 0 -0.017359951841549558 0.00094565236483918767 0 -0.017358687466805769 0.00094450178588215475 0 -0.017476436692478146 0.00091036350006639766 0 -0.017400444375222208 0.00092733367651506068 0 -0.017359951841549558 0.00094565236483918767 0 -0.017280956096442854 0.00086784721510182908 0 -0.017359951841549558 0.00094565236483918767 0 -0.017434867597071836 0.00099190788374149338 0 -0.020415935980996995 0.00086731826536209195 0 -0.017657945082092549 0.0010263534414222794 0 -0.017359951841549558 0.00094565236483918767 0 -0.017358687466805769 0.00094450178588215475 0 -0.017434867597071836 0.00099190788374149338 0 -0.017358687466805769 0.00094450178588215475 0 -0.017434867597071836 0.00099190788374149338 0 -0.017451965563498862 0.0008937102338569667 0 -0.017434867597071836 0.00099190788374149338 0 -0.017660951192822592 0.00088863173360608611 0 -0.017451965563498862 0.0008937102338569667 0 -0.017818981462536545 0.00069383757900409759 0 -0.018126879919508582 0.00068205168554851252 0 -0.017660951192822592 0.00088863173360608611 0 -0.017657945082092549 0.0010263534414222794 0 -0.01775426783751561 0.00082950938899262281 0 -0.017818981462536545 0.00069383757900409759 0 -0.018126879919508582 0.00068205168554851252 0 -0.017902980409429642 0.00031839058977123195 0 -0.017818981462536545 0.00069383757900409759 0 -0.017613591525343825 0.00081643178807029289 0 -0.017660951192822592 0.00088863173360608611 0 -0.029518556606107339 0.0011368980028570658 0 -0.029789128425048769 0.00052684097659530906 0 -0.030028454755030874 0.00053052514672192845 0 -0.024188820468549681 0.00072929442504025485 0 -0.025132250808589211 0.00087644967976296983 0 -0.017818981462536545 0.00069383757900409759 0 -0.017613591525343825 0.00081643178807029289 0 -0.017902980409429642 0.00031839058977123195 0 -0.026585964158429932 -0.00083731476983999148 0 -0.026140754695075669 -0.00073498535993325742 0 -0.0262971221751046 -0.0004650707690503632 0 -0.026504767324644841 -0.00010195768232095566 0 -0.026585964158429932 -0.00083731476983999148 0 -0.0262971221751046 -0.0004650707690503632 0 -0.029518556606107339 0.0011368980028570658 0 -0.029789128425048769 0.00052684097659530906 0 -0.029677455635352668 6.5860491867126886e-05 0 -0.029416973149018279 -0.00072002384095240979 0 -0.02843480417079431 -0.0011130350679048756 0 -0.024188820468549681 0.00072929442504025485 0 -0.029416973149018279 -0.00072002384095240979 0 -0.029789128425048769 0.00052684097659530906 0 -0.029962126394749062 0.00024126834951434116 0 -0.029677455635352668 6.5860491867126886e-05 0 -0.025118211929236557 0.00105230692185275 0 -0.024832194694883923 0.0010479694289257948 0 -0.025127648431303336 0.00068503130588846897 0 -0.020415935980996995 0.00086731826536209195 0 -0.025132250808589211 0.00087644967976296983 0 -0.018557720728980012 0.00030826433620993038 0 -0.018126879919508582 0.00068205168554851252 0 -0.017902980409429642 0.00031839058977123195 0 -0.029789128425048769 0.00052684097659530906 0 -0.030087038083079953 0.00049581479240892853 0 -0.029962126394749062 0.00024126834951434116 0 -0.028692864717283391 0.00079453033184576126 0 -0.025132250808589211 0.00087644967976296983 0 -0.030087038083079953 0.00049581479240892853 0 -0.029962126394749062 0.00024126834951434116 0 -0.030354199537389825 -1.0759039785450926e-05 0 -0.030362162834976496 -9.8888293958539398e-06 0 -0.029416973149018279 -0.00072002384095240979 0 -0.029962126394749062 0.00024126834951434116 0 -0.030354199537389825 -1.0759039785450926e-05 0 -0.029677455635352668 6.5860491867126886e-05 0 -0.030097121672497174 -0.0001234805110425958 0 -0.030495053830780203 -0.00042732261782715559 0 -0.03093555252553494 -0.00016904382781923903 0 -0.030354199537389825 -1.0759039785450926e-05 0 -0.030097121672497174 -0.0001234805110425958 0 -0.030609604755017648 -0.00022164565678279685 0 -0.030087038083079953 0.00049581479240892853 0 -0.030354199537389825 -1.0759039785450926e-05 0 -0.030609604755017648 -0.00022164565678279685 0 -0.025132250808589211 0.00087644967976296983 0 -0.029137041435099507 0.00023762940348645995 0 -0.030827539053280562 -0.00025145347303472186 0 -0.029137041435099507 0.00023762940348645995 0 -0.029416973149018279 -0.00072002384095240979 0 -0.03051484332226297 -0.0010455299329035527 0 -0.03055584675455409 -0.0014775427396652094 0 -0.030566730962120051 -0.0014455901825356037 0 -0.030585101568466215 -0.0014627750838503376 0 -0.030097121672497174 -0.0001234805110425958 0 -0.030010366518097849 0.000126087295172318 0 -0.030219281258357395 -0.00067700741297940217 0 -0.030354199537389825 -1.0759039785450926e-05 0 -0.030097121672497174 -0.0001234805110425958 0 -0.030010366518097849 0.000126087295172318 0 -0.030566730962120051 -0.0014455901825356037 0 -0.030585101568466215 -0.0014627750838503376 0 -0.030607657037561794 -0.0014357774152946191 0 -0.030097121672497174 -0.0001234805110425958 0 -0.030219281258357395 -0.00067700741297940217 0 -0.030495053830780203 -0.00042732261782715559 0 -0.030495053830780203 -0.00042732261782715559 0 -0.03074610968884996 -0.00070774510825617591 0 -0.03093555252553494 -0.00016904382781923903 0 -0.030219281258357395 -0.00067700741297940217 0 -0.030495053830780203 -0.00042732261782715559 0 -0.03074610968884996 -0.00070774510825617591 0 -0.03074610968884996 -0.00070774510825617591 0 -0.03093555252553494 -0.00016904382781923903 0 -0.031256026115078987 -0.00061184885688414536 0 -0.029637313647827925 0.00031969155752129902 0 -0.02891407451116355 0.00089445257807927705 0 -0.029049915373569327 0.0010972853711114304 0 -0.029137041435099507 0.00023762940348645995 0 -0.031504441950497161 0.00010151727692722376 0 -0.025118211929236557 0.00105230692185275 0 -0.025127648431303336 0.00068503130588846897 0 -0.025340221902951911 0.00085089599742881094 0 -0.02220199172137443 0.0014487189120603533 0 -0.022468775009378539 0.0014426070271166709 0 -0.02240643993741755 0.0012834519242977348 0 -0.025127648431303336 0.00068503130588846897 0 -0.025340221902951911 0.00085089599742881094 0 -0.025550051997233789 0.00065854858822594333 0 -0.029137041435099507 0.00023762940348645995 0 -0.025371573492698016 0.0013774472076554282 0 -0.023931182666257985 0.0010174905615617199 0 -0.025371573492698016 0.0013774472076554282 0 -0.028464135886979113 0.00084209827001473681 0 -0.02891407451116355 0.00089445257807927705 0 -0.028226670995694168 0.00043850652228129224 0 -0.029637313647827925 0.00031969155752129902 0 -0.02891407451116355 0.00089445257807927705 0 -0.028226670995694168 0.00043850652228129224 0 -0.028464135886979113 0.00084209827001473681 0 -0.02891407451116355 0.00089445257807927705 0 -0.028732180177739181 0.00099526112192187505 0 -0.029051224637813389 0.0010959908359933327 0 -0.0286599902118055 0.0011509266238627274 0 -0.028653243115711352 0.0016235939104712368 0 -0.030878141984144583 6.6455751848974287e-05 0 -0.031504441950497161 0.00010151727692722376 0 -0.02891407451116355 0.00089445257807927705 0 -0.029051224637813389 0.0010959908359933327 0 -0.028732180177739181 0.00099526112192187505 0 -0.029051224637813389 0.0010959908359933327 0 -0.028732180177739181 0.00099526112192187505 0 -0.0286599902118055 0.0011509266238627274 0 -0.028419825147071091 0.0010333239934955587 0 -0.028570761484075773 0.00099203772579695734 0 -0.0286599902118055 0.0011509266238627274 0 -0.028464135886979113 0.00084209827001473681 0 -0.028732180177739181 0.00099526112192187505 0 -0.028570761484075773 0.00099203772579695734 0 -0.028464135886979113 0.00084209827001473681 0 -0.028419825147071091 0.0010333239934955587 0 -0.028570761484075773 0.00099203772579695734 0 -0.028732180177739181 0.00099526112192187505 0 -0.028570761484075773 0.00099203772579695734 0 -0.0286599902118055 0.0011509266238627274 0 -0.028419825147071091 0.0010333239934955587 0 -0.028503519808720047 0.001283245322339185 0 -0.0286599902118055 0.0011509266238627274 0 -0.028419825147071091 0.0010333239934955587 0 -0.028503519808720047 0.001283245322339185 0 -0.028392052525727886 0.0013117042985590971 0 -0.026702114298225027 0.0022427378538069269 0 -0.026772930397426481 0.0023490139641651549 0 -0.026806771451478043 0.0022370735041205934 0 -0.025931927650012284 0.0024700746009373416 0 -0.025852183458662737 0.0032024812166773311 0 -0.02881832416309971 0.0012345820294190871 0 -0.025931927650012284 0.0024700746009373416 0 -0.028419825147071091 0.0010333239934955587 0 -0.028392052525727886 0.0013117042985590971 0 -0.027912950198022844 0.00073936321291439818 0 -0.026772930397426481 0.0023490139641651549 0 -0.026911963541193042 0.0021940835140809882 0 -0.026806771451478043 0.0022370735041205934 0 -0.028464135886979113 0.00084209827001473681 0 -0.028419825147071091 0.0010333239934955587 0 -0.027912950198022844 0.00073936321291439818 0 -0.028464135886979113 0.00084209827001473681 0 -0.027912950198022844 0.00073936321291439818 0 -0.028226670995694168 0.00043850652228129224 0 -0.025358441431115659 0.0022670163714178476 0 -0.025509983207103158 0.0021200311825501704 0 -0.025259018185041018 0.0021431604442986732 0 -0.025931927650012284 0.0024700746009373416 0 -0.025371573492698016 0.0013774472076554282 0 -0.024524507981598029 0.0045653530404122953 0 -0.024853865804046044 0.0045512424011713865 0 -0.024630786277439264 0.0047302434544953887 0 -0.024524507981598029 0.0045653530404122953 0 -0.024842213484640933 0.0043817890744174276 0 -0.024853865804046044 0.0045512424011713865 0 -0.025931927650012284 0.0024700746009373416 0 -0.024732429722091189 0.0027185093601932329 0 -0.024842213484640933 0.0043817890744174276 0 -0.025111806590231649 0.0042057666421739179 0 -0.024887530345550555 0.0039306413528821067 0 -0.024524507981598029 0.0045653530404122953 0 -0.024842213484640933 0.0043817890744174276 0 -0.024887530345550555 0.0039306413528821067 0 -0.024842213484640933 0.0043817890744174276 0 -0.025137442531110839 0.0043907420940595826 0 -0.025084186198794975 0.0044925366397165533 0 -0.024842213484640933 0.0043817890744174276 0 -0.025111806590231649 0.0042057666421739179 0 -0.025137442531110839 0.0043907420940595826 0 -0.025111806590231649 0.0042057666421739179 0 -0.025137442531110839 0.0043907420940595826 0 -0.025443159369115929 0.004225595782829529 0 -0.025111806590231649 0.0042057666421739179 0 -0.025443159369115929 0.004225595782829529 0 -0.025448537411397663 0.0039050093836825953 0 -0.025137442531110839 0.0043907420940595826 0 -0.025197048569829711 0.0045382531142046031 0 -0.025443159369115929 0.004225595782829529 0 -0.025197048569829711 0.0045382531142046031 0 -0.025253175682551719 0.0046087483981211213 0 -0.024683516118163787 0.0046320148672664534 0 -0.025137442531110839 0.0043907420940595826 0 -0.025197048569829711 0.0045382531142046031 0 -0.025084186198794975 0.0044925366397165533 0 -0.025197048569829711 0.0045382531142046031 0 -0.025253175682551719 0.0046087483981211213 0 -0.025084186198794975 0.0044925366397165533 0 -0.025253175682551719 0.0046087483981211213 0 -0.025084186198794975 0.0044925366397165533 0 -0.024853865804046044 0.0045512424011713865 0 -0.025253175682551719 0.0046087483981211213 0 -0.024853865804046044 0.0045512424011713865 0 -0.024630786277439264 0.0047302434544953887 0 -0.024842213484640933 0.0043817890744174276 0 -0.025084186198794975 0.0044925366397165533 0 -0.024853865804046044 0.0045512424011713865 0 -0.025253175682551719 0.0046087483981211213 0 -0.025849440077474018 0.0031607496162898464 0 -0.026818415894785425 0.0044754855192743904 0 -0.025538526591272554 0.0044184966383849517 0 -0.024732429722091189 0.0027185093601932329 0 -0.024372514841800322 0.002475665313561077 0 -0.024732429722091189 0.0027185093601932329 0 -0.025253175682551719 0.0046087483981211213 0 -0.024862537951421512 0.003460638142892642 0 -0.024683516118163787 0.0046320148672664534 0 -0.025253175682551719 0.0046087483981211213 0 -0.024862537951421512 0.003460638142892642 0 -0.025849440077474018 0.0031607496162898464 0 -0.022671287026002608 0.0014628314621866825 0 -0.022468775009378539 0.0014426070271166709 0 -0.022544733149084902 0.0012810419934340274 0 -0.025371573492698016 0.0013774472076554282 0 -0.024732429722091189 0.0027185093601932329 0 -0.022468775009378539 0.0014426070271166709 0 -0.02240643993741755 0.0012834519242977348 0 -0.022544733149084902 0.0012810419934340274 0 -0.024480413457222159 0.0047985724931814428 0 -0.024815130233425735 0.0045808900302035764 0 -0.02108775181870436 0.0052297823540343241 0 -0.024683516118163787 0.0046320148672664534 0 -0.021317840667934757 0.0036681565440324177 0 -0.027755869820588579 0.0045787038756248339 0 -0.025743339419613365 0.0043110486065190698 0 -0.024683516118163787 0.0046320148672664534 0 -0.025197048569829711 0.0045382531142046031 0 -0.025743339419613365 0.0043110486065190698 0 -0.025443159369115929 0.004225595782829529 0 -0.025743339419613365 0.0043110486065190698 0 -0.025443159369115929 0.004225595782829529 0 -0.025789143401847042 0.0039736705814671378 0 -0.025197048569829711 0.0045382531142046031 0 -0.025743339419613365 0.0043110486065190698 0 -0.024683516118163787 0.0046320148672664534 0 -0.024683516118163787 0.0046320148672664534 0 -0.023574714192185358 0.0029666372310912805 0 -0.021317840667934757 0.0036681565440324177 0 -0.024862537951421512 0.003460638142892642 0 -0.024683516118163787 0.0046320148672664534 0 -0.023574714192185358 0.0029666372310912805 0 -0.019341036164439072 0.0021710616852448103 0 -0.019291772570838701 0.0021231867405693077 0 -0.019560001575369558 0.0022496585185436137 0 -0.023574714192185358 0.0029666372310912805 0 -0.021317840667934757 0.0036681565440324177 0 -0.022156294969281735 0.0016173958351059275 0 -0.021317840667934757 0.0036681565440324177 0 -0.022156294969281735 0.0016173958351059275 0 -0.019560001575369558 0.0022496585185436137 0 -0.020869650885489793 0.001953032020739293 0 -0.019675220013196517 0.0021418716239319535 0 -0.024862537951421512 0.003460638142892642 0 -0.023574714192185358 0.0029666372310912805 0 -0.02473972293822907 0.0015613837060389304 0 -0.020869650885489793 0.001953032020739293 0 -0.021612962621276502 0.0017039597235116782 0 -0.023574714192185358 0.0029666372310912805 0 -0.022156294969281735 0.0016173958351059275 0 -0.02473972293822907 0.0015613837060389304 0 -0.019576323970652704 0.0008418822785259901 0 -0.020122632939226299 0.0015443084457535902 0 -0.019165385687838869 0.0013264669805160341 0 -0.018642589677100252 0.0011917980291326015 0 -0.017950150690873957 0.00085993320655023537 0 -0.018364758382013079 0.0013834938319209598 0 -0.019341036164439072 0.0021710616852448103 0 -0.019598196929611605 0.0021876723563021634 0 -0.019455704959966451 0.0020309603797062977 0 -0.019155344072416772 0.0014475550675667724 0 -0.018595131435812054 0.0011074157141908656 0 -0.021612962621276502 0.0017039597235116782 0 -0.019155344072416772 0.0014475550675667724 0 -0.019155344072416772 0.0014475550675667724 0 -0.018917715627965809 0.0013702574260313553 0 -0.019155344072416772 0.0014475550675667724 0 -0.019034638016960374 0.0019073322265431146 0 -0.018726855529814134 0.0013642272216857821 0 -0.019068696851103059 0.0019791108263593239 0 -0.018811058747320381 0.0015739413583860551 0 -0.019455704959966451 0.0020309603797062977 0 -0.019291772570838701 0.0021231867405693077 0 -0.019068696851103059 0.0019791108263593239 0 -0.019341036164439072 0.0021710616852448103 0 -0.019455704959966451 0.0020309603797062977 0 -0.019291772570838701 0.0021231867405693077 0 -0.022671287026002608 0.0014628314621866825 0 -0.022468775009378539 0.0014426070271166709 0 -0.022417910650761898 0.0016341351804851885 0 -0.019576323970652704 0.0008418822785259901 0 -0.018259710776358622 0.00083284049710645295 0 -0.019165385687838869 0.0013264669805160341 0 -0.022671287026002608 0.0014628314621866825 0 -0.022797908130134898 0.0016369964392060181 0 -0.022417910650761898 0.0016341351804851885 0 -0.024862537951421512 0.003460638142892642 0 -0.025849440077474018 0.0031607496162898464 0 -0.02473972293822907 0.0015613837060389304 0 -0.021612962621276502 0.0017039597235116782 0 -0.020082908852149067 0.0012228452199715151 0 -0.024372514841800322 0.002475665313561077 0 -0.021612962621276502 0.0017039597235116782 0 -0.017950150690873957 0.00085993320655023537 0 -0.017943522173427831 0.0012097513478272648 0 -0.018364758382013079 0.0013834938319209598 0 -0.017950150690873957 0.00085993320655023537 0 -0.0175848504767093 0.00095622712277396106 0 -0.017943522173427831 0.0012097513478272648 0 -0.018259710776358622 0.00083284049710645295 0 -0.019165385687838869 0.0013264669805160341 0 -0.018211616633308569 0.0010850064299491051 0 -0.018595131435812054 0.0011074157141908656 0 -0.017837425572965904 0.00095815899728858187 0 -0.017950150690873957 0.00085993320655023537 0 -0.0175848504767093 0.00095622712277396106 0 -0.01744677831077654 0.00082530444885166331 0 -0.017437804850601927 0.0008873821652529599 0 -0.0175848504767093 0.00095622712277396106 0 -0.01744677831077654 0.00082530444885166331 0 -0.017437804850601927 0.0008873821652529599 0 -0.017426148759908965 0.00093846993389107541 0 -0.0175848504767093 0.00095622712277396106 0 -0.017571239401833961 0.0010940766197890142 0 -0.017335647748699057 0.0010774622078037683 0 -0.01732603359959356 0.00096440652869344168 0 -0.017426148759908965 0.00093846993389107541 0 -0.0175848504767093 0.00095622712277396106 0 -0.017571239401833961 0.0010940766197890142 0 -0.0175848504767093 0.00095622712277396106 0 -0.017571239401833961 0.0010940766197890142 0 -0.017943522173427831 0.0012097513478272648 0 -0.017571239401833961 0.0010940766197890142 0 -0.017943522173427831 0.0012097513478272648 0 -0.0181529105683053 0.0017656473398574607 0 -0.017943522173427831 0.0012097513478272648 0 -0.0181529105683053 0.0017656473398574607 0 -0.018364758382013079 0.0013834938319209598 0 -0.017413072822267311 0.0011054943475050879 0 -0.017335535854292185 0.0010327107463249331 0 -0.017335647748699057 0.0010774622078037683 0 -0.017571239401833961 0.0010940766197890142 0 -0.0181529105683053 0.0017656473398574607 0 -0.017335647748699057 0.0010774622078037683 0 -0.017794315875194037 0.0014100072088163381 0 -0.017385936980941569 0.0011395100734044106 0 -0.018938614137000043 0.0018450332592495654 0 -0.018955340572855028 0.0018421103882288563 0 -0.018672273929255013 0.0020140024614379434 0 -0.018938614137000043 0.0018450332592495654 0 -0.019068696851103059 0.0019791108263593239 0 -0.018811058747320381 0.0015739413583860551 0 -0.018938614137000043 0.0018450332592495654 0 -0.018811058747320381 0.0015739413583860551 0 -0.018684789125693838 0.0016855361021854824 0 -0.0181529105683053 0.0017656473398574607 0 -0.018684789125693838 0.0016855361021854824 0 -0.018364758382013079 0.0013834938319209598 0 -0.018642589677100252 0.0011917980291326015 0 -0.018811058747320381 0.0015739413583860551 0 -0.018364758382013079 0.0013834938319209598 0 -0.018811058747320381 0.0015739413583860551 0 -0.018684789125693838 0.0016855361021854824 0 -0.018364758382013079 0.0013834938319209598 0 -0.017413072822267311 0.0011054943475050879 0 -0.017593910324887847 0.001338548691367306 0 -0.017477320891357114 0.0012129589200395932 0 -0.0181529105683053 0.0017656473398574607 0 -0.018684789125693838 0.0016855361021854824 0 -0.018955340572855028 0.0018421103882288563 0 -0.017794315875194037 0.0014100072088163381 0 -0.018235305643463935 0.0016061915689532028 0 -0.018938614137000043 0.0018450332592495654 0 -0.018684789125693838 0.0016855361021854824 0 -0.018955340572855028 0.0018421103882288563 0 -0.017593910324887847 0.001338548691367306 0 -0.017562078255271493 0.0013608455011525815 0 -0.017684695694384245 0.0016161458490725534 0 -0.017593910324887847 0.001338548691367306 0 -0.017477320891357114 0.0012129589200395932 0 -0.017562078255271493 0.0013608455011525815 0 -0.017477320891357114 0.0012129589200395932 0 -0.017562078255271493 0.0013608455011525815 0 -0.017449147850719059 0.0011333846426185641 0 -0.017413072822267311 0.0011054943475050879 0 -0.017477320891357114 0.0012129589200395932 0 -0.017335535854292185 0.0010327107463249331 0 -0.017477320891357114 0.0012129589200395932 0 -0.017335535854292185 0.0010327107463249331 0 -0.017449147850719059 0.0011333846426185641 0 -0.017335535854292185 0.0010327107463249331 0 -0.017449147850719059 0.0011333846426185641 0 -0.017318014794993657 0.0010570041996826672 0 -0.017335535854292185 0.0010327107463249331 0 -0.017318014794993657 0.0010570041996826672 0 -0.017107973912804376 0.00088961127198883326 0 -0.016909603143238826 0.0007238753840117611 0 -0.017107973912804376 0.00088961127198883326 0 -0.016929263084363644 0.0007471926058935372 0 -0.017229022821917392 0.0010538354041051655 0 -0.017318014794993657 0.0010570041996826672 0 -0.017107973912804376 0.00088961127198883326 0 -0.016829476007453666 0.00054181481222296255 0 -0.017103503264799796 0.00098127968385550482 0 -0.016929263084363644 0.0007471926058935372 0 -0.016986139073760231 0.000772981864616383 0 -0.016791897557540812 0.00062468176726899484 0 -0.017107973912804376 0.00088961127198883326 0 -0.016929263084363644 0.0007471926058935372 0 -0.016986139073760231 0.000772981864616383 0 -0.017107973912804376 0.00088961127198883326 0 -0.016986139073760231 0.000772981864616383 0 -0.017192138438666658 0.00089765936146659025 0 -0.016986139073760231 0.000772981864616383 0 -0.017192138438666658 0.00089765936146659025 0 -0.01707828396291668 0.00079830048422419107 0 -0.016986139073760231 0.000772981864616383 0 -0.01707828396291668 0.00079830048422419107 0 -0.01692417231176312 0.00072848179055689643 0 -0.017335535854292185 0.0010327107463249331 0 -0.017107973912804376 0.00088961127198883326 0 -0.017192138438666658 0.00089765936146659025 0 -0.017335535854292185 0.0010327107463249331 0 -0.017192138438666658 0.00089765936146659025 0 -0.017335647748699057 0.0010774622078037683 0 -0.017192138438666658 0.00089765936146659025 0 -0.017335647748699057 0.0010774622078037683 0 -0.017222281937750474 0.00080794083472423672 0 -0.017192138438666658 0.00089765936146659025 0 -0.01707828396291668 0.00079830048422419107 0 -0.017222281937750474 0.00080794083472423672 0 -0.017291255035946897 0.00078263514269934274 0 -0.01700060950375951 0.00070617758737844981 0 -0.01707828396291668 0.00079830048422419107 0 -0.017222281937750474 0.00080794083472423672 0 -0.01693279806655499 0.00064930580683220291 0 -0.017222281937750474 0.00080794083472423672 0 -0.017312853850579811 0.00090997478039497892 0 -0.017513790520830606 0.00077403553118730927 0 -0.017222281937750474 0.00080794083472423672 0 -0.017312853850579811 0.00090997478039497892 0 -0.01732603359959356 0.00096440652869344168 0 -0.017358687466805769 0.00094450178588215475 0 -0.017312853850579811 0.00090997478039497892 0 -0.017451965563498862 0.0008937102338569667 0 -0.017365405764137934 0.00093076567804506287 0 -0.017312853850579811 0.00090997478039497892 0 -0.01732603359959356 0.00096440652869344168 0 -0.017335647748699057 0.0010774622078037683 0 -0.017222281937750474 0.00080794083472423672 0 -0.01732603359959356 0.00096440652869344168 0 -0.017426148759908965 0.00093846993389107541 0 -0.017571239401833961 0.0010940766197890142 0 -0.01732603359959356 0.00096440652869344168 0 -0.017426148759908965 0.00093846993389107541 0 -0.017365405764137934 0.00093076567804506287 0 -0.01732603359959356 0.00096440652869344168 0 -0.021930082053301422 0.00024052914284325422 0 -0.021892100050460859 0.00047739142377978695 0 -0.021791903640658476 0.00040187586376760816 0 -0.017687872055526615 0.00083564698847815382 0 -0.017660951192822592 0.00088863173360608611 0 -0.017513790520830606 0.00077403553118730927 0 -0.017613591525343825 0.00081643178807029289 0 -0.017687872055526615 0.00083564698847815382 0 -0.017660951192822592 0.00088863173360608611 0 -0.024188820468549681 0.00072929442504025485 0 -0.01858612511534849 0.00034855242864103322 0 -0.01858612511534849 0.00034855242864103322 0 -0.01700060950375951 0.00070617758737844981 0 -0.01858612511534849 0.00034855242864103322 0 -0.021343745064180554 0.00022848080942817532 0 -0.024188820468549681 0.00072929442504025485 0 -0.023639476054804601 1.0206281003524946e-06 0 -0.017312853850579811 0.00090997478039497892 0 -0.017451965563498862 0.0008937102338569667 0 -0.017513790520830606 0.00077403553118730927 0 -0.017660951192822592 0.00088863173360608611 0 -0.017451965563498862 0.0008937102338569667 0 -0.017513790520830606 0.00077403553118730927 0 -0.01693279806655499 0.00064930580683220291 0 -0.01692417231176312 0.00072848179055689643 0 -0.016864133169468037 0.00068250752396369259 0 -0.01707828396291668 0.00079830048422419107 0 -0.01693279806655499 0.00064930580683220291 0 -0.01692417231176312 0.00072848179055689643 0 -0.01692417231176312 0.00072848179055689643 0 -0.016864133169468037 0.00068250752396369259 0 -0.016826307163166181 0.00067443279403192667 0 -0.018631946042149815 1.9358106916748295e-05 0 -0.018635858906915138 -0.00019814856674683432 0 -0.018720108416890445 -8.3930469056624465e-05 0 -0.01858612511534849 0.00034855242864103322 0 -0.017204536615984464 0.00014091672605213946 0 -0.016848272174015289 0.00064251969324435941 0 -0.01693279806655499 0.00064930580683220291 0 -0.016864133169468037 0.00068250752396369259 0 -0.016848272174015289 0.00064251969324435941 0 -0.016864133169468037 0.00068250752396369259 0 -0.016836605910301158 0.00068711989159540529 0 -0.017204536615984464 0.00014091672605213946 0 -0.016567805451606073 0.00050596683778017222 0 -0.016859498592693898 0.00067097138150553368 0 -0.016767840915870989 0.00060210980389244684 0 -0.016591038596071802 0.0004211678159336097 0 -0.016611556020079618 -6.6088347263579933e-05 0 -0.016591038596071802 0.0004211678159336097 0 -0.016332115815114595 0.0001199998092448142 0 -0.017204536615984464 0.00014091672605213946 0 -0.016924369383254732 0.000311479712602945 0 -0.016864133169468037 0.00068250752396369259 0 -0.016836605910301158 0.00068711989159540529 0 -0.016826307163166181 0.00067443279403192667 0 -0.016859498592693898 0.00067097138150553368 0 -0.016826307163166181 0.00067443279403192667 0 -0.016767840915870989 0.00060210980389244684 0 -0.016986139073760231 0.000772981864616383 0 -0.01692417231176312 0.00072848179055689643 0 -0.016849200535647132 0.00067869972451847034 0 -0.016826307163166181 0.00067443279403192667 0 -0.016767840915870989 0.00060210980389244684 0 -0.016849200535647132 0.00067869972451847034 0 -0.01692417231176312 0.00072848179055689643 0 -0.016826307163166181 0.00067443279403192667 0 -0.016849200535647132 0.00067869972451847034 0 -0.016767840915870989 0.00060210980389244684 0 -0.016849200535647132 0.00067869972451847034 0 -0.016791897557540812 0.00062468176726899484 0 -0.016986139073760231 0.000772981864616383 0 -0.016849200535647132 0.00067869972451847034 0 -0.016791897557540812 0.00062468176726899484 0 -0.016782014920976345 0.00064129323601265736 0 -0.016929263084363644 0.0007471926058935372 0 -0.016791897557540812 0.00062468176726899484 0 -0.016614651179385438 0.000535472496722643 0 -0.016782014920976345 0.00064129323601265736 0 -0.016791897557540812 0.00062468176726899484 0 -0.016767840915870989 0.00060210980389244684 0 -0.016791897557540812 0.00062468176726899484 0 -0.016591038596071802 0.0004211678159336097 0 -0.016614651179385438 0.000535472496722643 0 -0.016791897557540812 0.00062468176726899484 0 -0.016591038596071802 0.0004211678159336097 0 -0.016591038596071802 0.0004211678159336097 0 -0.016332115815114595 0.0001199998092448142 0 -0.016142600883303656 0.00024844605673868015 0 -0.016324967762903441 0.000435227417244259 0 -0.016591038596071802 0.0004211678159336097 0 -0.016142600883303656 0.00024844605673868015 0 -0.017204536615984464 0.00014091672605213946 0 -0.018224680585133921 -0.000462340537663732 0 -0.016611556020079618 -6.6088347263579933e-05 0 -0.016332115815114595 0.0001199998092448142 0 -0.016144143301296501 -7.6054240464495051e-05 0 -0.018224680585133921 -0.000462340537663732 0 -0.015964920800191316 -0.00036390251409617621 0 -0.016144143301296501 -7.6054240464495051e-05 0 -0.016142600883303656 0.00024844605673868015 0 -0.015990927273302289 0.00014856460842307745 0 -0.016332115815114595 0.0001199998092448142 0 -0.016144143301296501 -7.6054240464495051e-05 0 -0.016142600883303656 0.00024844605673868015 0 -0.015868685740304506 0.00023273655944610952 0 -0.016142600883303656 0.00024844605673868015 0 -0.015990927273302289 0.00014856460842307745 0 -0.01641358255952708 -0.00089542361154112255 0 -0.016341095866108792 -0.0011283050619487216 0 -0.016267781567800441 -0.0012045167872102324 0 -0.016138801385151724 -0.00033940837662990573 0 -0.015964920800191316 -0.00036390251409617621 0 -0.01641358255952708 -0.00089542361154112255 0 -0.016267781567800441 -0.0012045167872102324 0 -0.016181270781150812 -0.0014225631027604602 0 -0.015937184669652164 -0.00065080235130689484 0 -0.01641358255952708 -0.00089542361154112255 0 -0.016181270781150812 -0.0014225631027604602 0 -0.016267781567800441 -0.0012045167872102324 0 -0.016276020625433051 -0.0010581378700975893 0 -0.016494899026448209 -0.00078587098480623779 0 -0.016267781567800441 -0.0012045167872102324 0 -0.016181270781150812 -0.0014225631027604602 0 -0.016494899026448209 -0.00078587098480623779 0 -0.016324428207438665 -0.0010902189704466579 0 -0.016341095866108792 -0.0011283050619487216 0 -0.016276020625433051 -0.0010581378700975893 0 -0.016341095866108792 -0.0011283050619487216 0 -0.016267781567800441 -0.0012045167872102324 0 -0.016276020625433051 -0.0010581378700975893 0 -0.021460429388807559 6.3167687108215418e-05 0 -0.020375847070409205 2.1543170682421996e-05 0 -0.021005401402139624 -9.0897016778232375e-05 0 -0.020375847070409205 2.1543170682421996e-05 0 -0.02057873674314065 -0.00069335419614571781 0 -0.021005401402139624 -9.0897016778232375e-05 0 -0.018224680585133921 -0.000462340537663732 0 -0.018463282190825429 -0.00050489040384397586 0 -0.020375847070409205 2.1543170682421996e-05 0 -0.02057873674314065 -0.00069335419614571781 0 -0.019696018073546137 -0.00068610603061470881 0 -0.021109334634110445 -0.00082153794983759248 0 -0.02111368432422546 -0.00019724517223841082 0 -0.021189613747743169 -0.00034198729707903691 0 -0.021086626555145982 -0.00019761590397920746 0 -0.021005401402139624 -9.0897016778232375e-05 0 -0.021188056875576445 -0.00028343881562097647 0 -0.021210456122488095 -0.00030291036922044094 0 -0.021086626555145982 -0.00019761590397920746 0 -0.021109334634110445 -0.00082153794983759248 0 -0.021256435293708829 -0.00041339812643799987 0 -0.018463282190825429 -0.00050489040384397586 0 -0.017701781274771209 -0.00050815256989839865 0 -0.020375847070409205 2.1543170682421996e-05 0 -0.019696018073546137 -0.00068610603061470881 0 -0.018888606133592015 -0.00015854196155315993 0 -0.019696018073546137 -0.00068610603061470881 0 -0.018888606133592015 -0.00015854196155315993 0 -0.01888294970763954 -0.0010436901180729682 0 -0.019696018073546137 -0.00068610603061470881 0 -0.019688938856273812 -0.001579863283933393 0 -0.01888294970763954 -0.0010436901180729682 0 -0.02057873674314065 -0.00069335419614571781 0 -0.019696018073546137 -0.00068610603061470881 0 -0.019688938856273812 -0.001579863283933393 0 -0.021194854683034076 -0.0021155883589952622 0 -0.022156427793521137 -0.0011989554047438476 0 -0.022036755672266661 -0.0011693601075683953 0 -0.021109334634110445 -0.00082153794983759248 0 -0.02126928124196684 -0.0010501768628505359 0 -0.021188056875576445 -0.00028343881562097647 0 -0.021207261870577879 -0.00043362303995715879 0 -0.021237320917132315 -0.00033716502916045189 0 -0.021188056875576445 -0.00028343881562097647 0 -0.021210456122488095 -0.00030291036922044094 0 -0.021237320917132315 -0.00033716502916045189 0 -0.021109334634110445 -0.00082153794983759248 0 -0.02046011046174933 -0.0017242505100106935 0 -0.021207261870577879 -0.00043362303995715879 0 -0.021237320917132315 -0.00033716502916045189 0 -0.021322272015420168 -0.00046956108294171666 0 -0.021237320917132315 -0.00033716502916045189 0 -0.021459114491901722 -0.00040142892954655491 0 -0.021322272015420168 -0.00046956108294171666 0 -0.021210456122488095 -0.00030291036922044094 0 -0.021237320917132315 -0.00033716502916045189 0 -0.02132309763484691 -0.00039611505223225351 0 -0.021237320917132315 -0.00033716502916045189 0 -0.021459114491901722 -0.00040142892954655491 0 -0.021551378871190317 -0.00025714498027554997 0 -0.02132309763484691 -0.00039611505223225351 0 -0.021674358057849622 -0.00039447411785506107 0 -0.02128996882714345 -0.00024090614775224058 0 -0.021253906348406879 -0.00033866716654039179 0 -0.021500296056034603 -0.00030818236022727222 0 -0.021459114491901722 -0.00040142892954655491 0 -0.021551378871190317 -0.00025714498027554997 0 -0.021695842135989987 -0.00037586641837534992 0 -0.021551378871190317 -0.00025714498027554997 0 -0.021695842135989987 -0.00037586641837534992 0 -0.021808508047307426 -0.00022883419228709504 0 -0.021695842135989987 -0.00037586641837534992 0 -0.021867777566758503 -0.00030586962196173787 0 -0.021713148816459093 -0.00054582425255633889 0 -0.021500296056034603 -0.00030818236022727222 0 -0.021343745064180554 0.00022848080942817532 0 -0.021695842135989987 -0.00037586641837534992 0 -0.021867777566758503 -0.00030586962196173787 0 -0.021808508047307426 -0.00022883419228709504 0 -0.021892100050460859 0.00047739142377978695 0 -0.021791903640658476 0.00040187586376760816 0 -0.021745175919135929 0.00046073413948247849 0 -0.023639476054804601 1.0206281003524946e-06 0 -0.021343745064180554 0.00022848080942817532 0 -0.018224680585133921 -0.000462340537663732 0 -0.021343745064180554 0.00022848080942817532 0 -0.018635858906915138 -0.00019814856674683432 0 -0.018917009558925391 -0.00017289327684435595 0 -0.018720108416890445 -8.3930469056624465e-05 0 -0.018917009558925391 -0.00017289327684435595 0 -0.018772866479328063 3.2197125952596528e-05 0 -0.018720108416890445 -8.3930469056624465e-05 0 -0.018631946042149815 1.9358106916748295e-05 0 -0.018772866479328063 3.2197125952596528e-05 0 -0.018720108416890445 -8.3930469056624465e-05 0 -0.021460429388807559 6.3167687108215418e-05 0 -0.021674358057849622 -0.00039447411785506107 0 -0.02128996882714345 -0.00024090614775224058 0 -0.021460429388807559 6.3167687108215418e-05 0 -0.021005401402139624 -9.0897016778232375e-05 0 -0.02128996882714345 -0.00024090614775224058 0 -0.021086626555145982 -0.00019761590397920746 0 -0.021005401402139624 -9.0897016778232375e-05 0 -0.02128996882714345 -0.00024090614775224058 0 -0.021210456122488095 -0.00030291036922044094 0 -0.021086626555145982 -0.00019761590397920746 0 -0.02128996882714345 -0.00024090614775224058 0 -0.021210456122488095 -0.00030291036922044094 0 -0.02132309763484691 -0.00039611505223225351 0 -0.02128996882714345 -0.00024090614775224058 0 -0.020586801157892982 -0.0023664409036331371 0 -0.019333402242631526 -0.0020606867724246073 0 -0.018900138598688609 -0.0028803330255648767 0 -0.019333402242631526 -0.0020606867724246073 0 -0.018411386278760784 -0.0023135687478300997 0 -0.018816820918142723 -0.001569277229491005 0 -0.019333402242631526 -0.0020606867724246073 0 -0.018900138598688609 -0.0028803330255648767 0 -0.018411386278760784 -0.0023135687478300997 0 -0.018133630374487206 -0.0033385032392307503 0 -0.019549589026442788 -0.0032261142365447369 0 -0.018682316370529462 -0.0035044419643617728 0 -0.019388660383804397 -0.0032742820001284076 0 -0.018900138598688609 -0.0028803330255648767 0 -0.018682316370529462 -0.0035044419643617728 0 -0.018900138598688609 -0.0028803330255648767 0 -0.017999925221786107 -0.0030153989298235882 0 -0.018900138598688609 -0.0028803330255648767 0 -0.017999925221786107 -0.0030153989298235882 0 -0.018411386278760784 -0.0023135687478300997 0 -0.017999925221786107 -0.0030153989298235882 0 -0.017465239504004134 -0.0025359058808049916 0 -0.01757404752281598 -0.0030854632457753286 0 -0.017999925221786107 -0.0030153989298235882 0 -0.018411386278760784 -0.0023135687478300997 0 -0.017465239504004134 -0.0025359058808049916 0 -0.018411386278760784 -0.0023135687478300997 0 -0.017465239504004134 -0.0025359058808049916 0 -0.018187672707576538 -0.0016240266843159056 0 -0.018411386278760784 -0.0023135687478300997 0 -0.018187672707576538 -0.0016240266843159056 0 -0.018816820918142723 -0.001569277229491005 0 -0.017631923965586327 -0.0011699578275788077 0 -0.017068110554670932 -0.0019665607857132007 0 -0.016999195899551189 -0.0010096543553648192 0 -0.017631923965586327 -0.0011699578275788077 0 -0.016999195899551189 -0.0010096543553648192 0 -0.017555913036067138 -0.00067232539844180406 0 -0.017424454865504056 -0.0032201532038778433 0 -0.017465239504004134 -0.0025359058808049916 0 -0.01757404752281598 -0.0030854632457753286 0 -0.01741073253966265 -0.0031623544996368276 0 -0.017573697630423289 -0.0018473950923069294 0 -0.017424454865504056 -0.0032201532038778433 0 -0.017631923965586327 -0.0011699578275788077 0 -0.017068110554670932 -0.0019665607857132007 0 -0.017068110554670932 -0.0019665607857132007 0 -0.016181270781150812 -0.0014225631027604602 0 -0.016999195899551189 -0.0010096543553648192 0 -0.017182509436862579 -0.0033973312966439654 0 -0.017068110554670932 -0.0019665607857132007 0 -0.016181270781150812 -0.0014225631027604602 0 -0.016181270781150812 -0.0014225631027604602 0 -0.016999195899551189 -0.0010096543553648192 0 -0.016494899026448209 -0.00078587098480623779 0 -0.016999195899551189 -0.0010096543553648192 0 -0.016494899026448209 -0.00078587098480623779 0 -0.017555913036067138 -0.00067232539844180406 0 -0.018888606133592015 -0.00015854196155315993 0 -0.01888294970763954 -0.0010436901180729682 0 -0.018016363262262965 -0.00087202427546309797 0 -0.017701781274771209 -0.00050815256989839865 0 -0.017588610557696446 -0.00062129470326679624 0 -0.019688938856273812 -0.001579863283933393 0 -0.01888294970763954 -0.0010436901180729682 0 -0.018719116856079229 -0.0016185609437235399 0 -0.018331992089150522 -0.0012775827231006297 0 -0.018067800911316788 -0.0016801023828192877 0 -0.018719116856079229 -0.0016185609437235399 0 -0.01888294970763954 -0.0010436901180729682 0 -0.018331992089150522 -0.0012775827231006297 0 -0.018719116856079229 -0.0016185609437235399 0 -0.01888294970763954 -0.0010436901180729682 0 -0.018331992089150522 -0.0012775827231006297 0 -0.018016363262262965 -0.00087202427546309797 0 -0.017776698307895057 -0.0011360432364359992 0 -0.017566934722080877 -0.0006171916439858886 0 -0.017270323574708174 -0.001924872752504906 0 -0.018331992089150522 -0.0012775827231006297 0 -0.018016363262262965 -0.00087202427546309797 0 -0.017967740765477414 -0.001255414261374222 0 -0.018016363262262965 -0.00087202427546309797 0 -0.017967740765477414 -0.001255414261374222 0 -0.017776698307895057 -0.0011360432364359992 0 -0.018331992089150522 -0.0012775827231006297 0 -0.017967740765477414 -0.001255414261374222 0 -0.018067800911316788 -0.0016801023828192877 0 -0.017967740765477414 -0.001255414261374222 0 -0.017823067637674366 -0.0015733695950890657 0 -0.018067800911316788 -0.0016801023828192877 0 -0.017776698307895057 -0.0011360432364359992 0 -0.017270323574708174 -0.001924872752504906 0 -0.017823067637674366 -0.0015733695950890657 0 -0.017967740765477414 -0.001255414261374222 0 -0.017776698307895057 -0.0011360432364359992 0 -0.017823067637674366 -0.0015733695950890657 0 -0.018016363262262965 -0.00087202427546309797 0 -0.017776698307895057 -0.0011360432364359992 0 -0.017566934722080877 -0.0006171916439858886 0 -0.018888606133592015 -0.00015854196155315993 0 -0.018016363262262965 -0.00087202427546309797 0 -0.017555913036067138 -0.00067232539844180406 0 -0.017573697630423289 -0.0018473950923069294 0 -0.017443654257954428 -0.00081511118694201079 0 -0.017631923965586327 -0.0011699578275788077 0 -0.017555913036067138 -0.00067232539844180406 0 -0.017566934722080877 -0.0006171916439858886 0 -0.018016363262262965 -0.00087202427546309797 0 -0.017555913036067138 -0.00067232539844180406 0 -0.017566934722080877 -0.0006171916439858886 0 -0.017465239504004134 -0.0025359058808049916 0 -0.018187672707576538 -0.0016240266843159056 0 -0.017695048850801403 -0.00078122701957148832 0 -0.018187672707576538 -0.0016240266843159056 0 -0.018623856002820745 -0.00082049595832595502 0 -0.018816820918142723 -0.001569277229491005 0 -0.018187672707576538 -0.0016240266843159056 0 -0.018623856002820745 -0.00082049595832595502 0 -0.017695048850801403 -0.00078122701957148832 0 -0.017695048850801403 -0.00078122701957148832 0 -0.018248469906431034 -0.00013541429282530175 0 -0.017985264164245722 0.00085180866688792814 0 -0.018623856002820745 -0.00082049595832595502 0 -0.017695048850801403 -0.00078122701957148832 0 -0.018248469906431034 -0.00013541429282530175 0 -0.017443654257954428 -0.00081511118694201079 0 -0.019823478463766191 -0.00028151670988348619 0 -0.018248469906431034 -0.00013541429282530175 0 -0.019213245887374483 4.5094967914449063e-05 0 -0.018680412195157266 0.00060801399339800851 0 -0.018623856002820745 -0.00082049595832595502 0 -0.018248469906431034 -0.00013541429282530175 0 -0.019213245887374483 4.5094967914449063e-05 0 -0.018623856002820745 -0.00082049595832595502 0 -0.019213245887374483 4.5094967914449063e-05 0 -0.019820052296979123 -0.0010082629328069972 0 -0.020608389208695559 0.00025701156921628855 0 -0.019213245887374483 4.5094967914449063e-05 0 -0.019820052296979123 -0.0010082629328069972 0 -0.018623856002820745 -0.00082049595832595502 0 -0.019820052296979123 -0.0010082629328069972 0 -0.018816820918142723 -0.001569277229491005 0 -0.019333402242631526 -0.0020606867724246073 0 -0.019820052296979123 -0.0010082629328069972 0 -0.018816820918142723 -0.001569277229491005 0 -0.022554792602359684 0.0018940641748196551 0 -0.022615043320133137 0.0016856656077115482 0 -0.022323908830728253 0.0016532572421999504 0 -0.022789805158874191 0.0019622719298573979 0 -0.022554792602359684 0.0018940641748196551 0 -0.022615043320133137 0.0016856656077115482 0 -0.020691709772301444 0.0015781079221875397 0 -0.022478300842794983 0.00061821502657625875 0 -0.019213245887374483 4.5094967914449063e-05 0 -0.019664980415657143 0.0014444738212116982 0 -0.018680412195157266 0.00060801399339800851 0 -0.020608389208695559 0.00025701156921628855 0 -0.019213245887374483 4.5094967914449063e-05 0 -0.019664980415657143 0.0014444738212116982 0 -0.019664980415657143 0.0014444738212116982 0 -0.018680412195157266 0.00060801399339800851 0 -0.01805056937492713 0.0012008361945947217 0 -0.018248469906431034 -0.00013541429282530175 0 -0.017985264164245722 0.00085180866688792814 0 -0.01805056937492713 0.0012008361945947217 0 -0.018248469906431034 -0.00013541429282530175 0 -0.018680412195157266 0.00060801399339800851 0 -0.01805056937492713 0.0012008361945947217 0 -0.02115177507950846 -0.00034420047165755331 0 -0.021083749793067628 -0.00075722282650671332 0 -0.0222211089297846 -0.00059868144747447392 0 -0.019823478463766191 -0.00028151670988348619 0 -0.022478300842794983 0.00061821502657625875 0 -0.028365369601403744 -0.00077101503677636711 0 -0.028410075583085035 -0.00067548616245411189 0 -0.02840451069831838 -0.00064597266626414073 0 -0.022478300842794983 0.00061821502657625875 0 -0.02552902320667878 0.00082204932312116724 0 -0.022554792602359684 0.0018940641748196551 0 -0.022323908830728253 0.0016532572421999504 0 -0.022436075318628429 0.0020453850514480622 0 -0.028365369601403744 -0.00077101503677636711 0 -0.02834370887892208 -0.00073155191580143901 0 -0.028410075583085035 -0.00067548616245411189 0 -0.028341899345576474 -0.00069048649601181748 0 -0.028285505752127491 -0.00065018254945065144 0 -0.028410075583085035 -0.00067548616245411189 0 -0.028341899345576474 -0.00069048649601181748 0 -0.02834370887892208 -0.00073155191580143901 0 -0.028410075583085035 -0.00067548616245411189 0 -0.028341899345576474 -0.00069048649601181748 0 -0.028288207863186799 -0.00071751229762204789 0 -0.02834370887892208 -0.00073155191580143901 0 -0.028285505752127491 -0.00065018254945065144 0 -0.028288207863186799 -0.00071751229762204789 0 -0.028213087804333917 -0.00075959004263765923 0 -0.028341899345576474 -0.00069048649601181748 0 -0.028285505752127491 -0.00065018254945065144 0 -0.028288207863186799 -0.00071751229762204789 0 -0.028288207863186799 -0.00071751229762204789 0 -0.02834370887892208 -0.00073155191580143901 0 -0.028281985983902906 -0.00082781384489916067 0 -0.028288207863186799 -0.00071751229762204789 0 -0.028281985983902906 -0.00082781384489916067 0 -0.028213087804333917 -0.00075959004263765923 0 -0.017963280979610283 -0.0020825736670430665 0 -0.018094123016333268 -0.0020675803582689196 0 -0.018931842616251207 -0.0023436055925627202 0 -0.028365369601403744 -0.00077101503677636711 0 -0.02834370887892208 -0.00073155191580143901 0 -0.028281985983902906 -0.00082781384489916067 0 -0.019823478463766191 -0.00028151670988348619 0 -0.02242670898052989 -0.0010650419148526046 0 -0.022478300842794983 0.00061821502657625875 0 -0.02242670898052989 -0.0010650419148526046 0 -0.017270323574708174 -0.001924872752504906 0 -0.017823067637674366 -0.0015733695950890657 0 -0.017958964733895424 -0.0020847966140045858 0 -0.017823067637674366 -0.0015733695950890657 0 -0.018067800911316788 -0.0016801023828192877 0 -0.017958964733895424 -0.0020847966140045858 0 -0.018067800911316788 -0.0016801023828192877 0 -0.017958964733895424 -0.0020847966140045858 0 -0.018094123016333268 -0.0020675803582689196 0 -0.018067800911316788 -0.0016801023828192877 0 -0.018094123016333268 -0.0020675803582689196 0 -0.018445721518255007 -0.0018889520762695774 0 -0.02242670898052989 -0.0010650419148526046 0 -0.021421342070868789 -0.0012364969878231942 0 -0.019688938856273812 -0.001579863283933393 0 -0.018719116856079229 -0.0016185609437235399 0 -0.018931842616251207 -0.0023436055925627202 0 -0.028281985983902906 -0.00082781384489916067 0 -0.028067694579358649 -0.00080771380349478985 0 -0.028213087804333917 -0.00075959004263765923 0 -0.02242670898052989 -0.0010650419148526046 0 -0.024406813430926339 -0.00090901207329520753 0 -0.018094123016333268 -0.0020675803582689196 0 -0.018445721518255007 -0.0018889520762695774 0 -0.018931842616251207 -0.0023436055925627202 0 -0.018067800911316788 -0.0016801023828192877 0 -0.018445721518255007 -0.0018889520762695774 0 -0.018719116856079229 -0.0016185609437235399 0 -0.018445721518255007 -0.0018889520762695774 0 -0.018719116856079229 -0.0016185609437235399 0 -0.018931842616251207 -0.0023436055925627202 0 -0.024406813430926339 -0.00090901207329520753 0 -0.025579119099136904 -0.00049794023243195031 0 -0.028951863588536512 -0.0003741780924092135 0 -0.024406813430926339 -0.00090901207329520753 0 -0.02957967031588362 -7.4469735995609369e-05 0 -0.029533694155759758 -0.00037684259726030811 0 -0.029276035524522379 -0.00041337018446740851 0 -0.028652714835350646 -0.00063306742259203077 0 -0.028418381956214211 -0.0008273089801669164 0 -0.028647151432029325 -0.00061623152788136304 0 -0.025579119099136904 -0.00049794023243195031 0 -0.029406257150678294 -0.00031859924798238894 0 -0.028285505752127491 -0.00065018254945065144 0 -0.028067694579358649 -0.00080771380349478985 0 -0.028213087804333917 -0.00075959004263765923 0 -0.028418381956214211 -0.0008273089801669164 0 -0.028365253127778191 -0.00081417286446729803 0 -0.028647151432029325 -0.00061623152788136304 0 -0.029533694155759758 -0.00037684259726030811 0 -0.029520176816808623 -0.00061769663768413059 0 -0.029754175971173292 -0.00050353544112798163 0 -0.029533694155759758 -0.00037684259726030811 0 -0.029423127095367509 -0.00049786886954661413 0 -0.029520176816808623 -0.00061769663768413059 0 -0.029533694155759758 -0.00037684259726030811 0 -0.029276035524522379 -0.00041337018446740851 0 -0.029423127095367509 -0.00049786886954661413 0 -0.029276035524522379 -0.00041337018446740851 0 -0.029423127095367509 -0.00049786886954661413 0 -0.029349046483571388 -0.00064505554196880703 0 -0.029349046483571388 -0.00064505554196880703 0 -0.029520176816808623 -0.00061769663768413059 0 -0.029448893735595134 -0.00092016615633037718 0 -0.029276035524522379 -0.00041337018446740851 0 -0.029349046483571388 -0.00064505554196880703 0 -0.029148945266161099 -0.00080851991304471563 0 -0.029423127095367509 -0.00049786886954661413 0 -0.029349046483571388 -0.00064505554196880703 0 -0.029520176816808623 -0.00061769663768413059 0 -0.029448893735595134 -0.00092016615633037718 0 -0.02918621689388631 -0.0010913931683713925 0 -0.029760766251531449 -0.0013582173597129141 0 -0.029520176816808623 -0.00061769663768413059 0 -0.029448893735595134 -0.00092016615633037718 0 -0.029748898089767956 -0.00090668756954807752 0 -0.029448893735595134 -0.00092016615633037718 0 -0.029748898089767956 -0.00090668756954807752 0 -0.029760766251531449 -0.0013582173597129141 0 -0.029448893735595134 -0.00092016615633037718 0 -0.029148945266161099 -0.00080851991304471563 0 -0.02918621689388631 -0.0010913931683713925 0 -0.029349046483571388 -0.00064505554196880703 0 -0.029448893735595134 -0.00092016615633037718 0 -0.029148945266161099 -0.00080851991304471563 0 -0.029148945266161099 -0.00080851991304471563 0 -0.02918621689388631 -0.0010913931683713925 0 -0.028676151975811463 -0.00088642199434141127 0 -0.02918621689388631 -0.0010913931683713925 0 -0.028676151975811463 -0.00088642199434141127 0 -0.028864725946328218 -0.0014084331923531108 0 -0.028652714835350646 -0.00063306742259203077 0 -0.028647151432029325 -0.00061623152788136304 0 -0.02856196202019648 -0.00074754597486858317 0 -0.029276035524522379 -0.00041337018446740851 0 -0.029148945266161099 -0.00080851991304471563 0 -0.028676151975811463 -0.00088642199434141127 0 -0.029406257150678294 -0.00031859924798238894 0 -0.028540455916090873 -0.00099653974729662026 0 -0.028951863588536512 -0.0003741780924092135 0 -0.028372952829414034 -0.00087303228794785928 0 -0.028285505752127491 -0.00065018254945065144 0 -0.028410075583085035 -0.00067548616245411189 0 -0.02856196202019648 -0.00074754597486858317 0 -0.028647151432029325 -0.00061623152788136304 0 -0.028676151975811463 -0.00088642199434141127 0 -0.02856196202019648 -0.00074754597486858317 0 -0.028410075583085035 -0.00067548616245411189 0 -0.02840451069831838 -0.00064597266626414073 0 -0.02856196202019648 -0.00074754597486858317 0 -0.02552902320667878 0.00082204932312116724 0 -0.02747020742254673 -0.00027716681977339654 0 -0.028676151975811463 -0.00088642199434141127 0 -0.028228388666652331 -0.0012916591563501818 0 -0.028864725946328218 -0.0014084331923531108 0 -0.028676151975811463 -0.00088642199434141127 0 -0.02856196202019648 -0.00074754597486858317 0 -0.028228388666652331 -0.0012916591563501818 0 -0.02840451069831838 -0.00064597266626414073 0 -0.02856196202019648 -0.00074754597486858317 0 -0.028228388666652331 -0.0012916591563501818 0 -0.022436075318628429 0.0020453850514480622 0 -0.022616278533853371 0.002201051905701155 0 -0.022565857550048075 0.0022837532510058484 0 -0.022712009623306662 0.0022721543388072732 0 -0.022616278533853371 0.002201051905701155 0 -0.022640544282829553 0.0021166954051425302 0 -0.022554792602359684 0.0018940641748196551 0 -0.022436075318628429 0.0020453850514480622 0 -0.022640544282829553 0.0021166954051425302 0 -0.022436075318628429 0.0020453850514480622 0 -0.022616278533853371 0.002201051905701155 0 -0.022640544282829553 0.0021166954051425302 0 -0.022789805158874191 0.0019622719298573979 0 -0.022554792602359684 0.0018940641748196551 0 -0.022640544282829553 0.0021166954051425302 0 -0.021589532622518452 -0.00075029057297171318 0 -0.021492241353563476 -0.00053788714294134672 0 -0.021314889134119597 -0.00065786304040555462 0 -0.026972711196278726 -0.00082204475107133801 0 -0.023645966040595167 -0.00054769097972849883 0 -0.030595533013390883 -0.0014957630638435006 0 -0.030575236528693935 -0.0014863032404221169 0 -0.030603022596264694 -0.0014729677521000207 0 -0.026972711196278726 -0.00082204475107133801 0 -0.02843480417079431 -0.0011130350679048756 0 -0.026140754695075669 -0.00073498535993325742 0 -0.0262971221751046 -0.0004650707690503632 0 -0.02596202076493135 -0.00019018837286114874 0 -0.025710783100226856 -0.00063400768575809854 0 -0.026140754695075669 -0.00073498535993325742 0 -0.02596202076493135 -0.00019018837286114874 0 -0.026504767324644841 -0.00010195768232095566 0 -0.0262971221751046 -0.0004650707690503632 0 -0.02596202076493135 -0.00019018837286114874 0 -0.023639476054804601 1.0206281003524946e-06 0 -0.023645966040595167 -0.00054769097972849883 0 -0.026504767324644841 -0.00010195768232095566 0 -0.026213623050796879 0.00025543763536185478 0 -0.02596202076493135 -0.00019018837286114874 0 -0.021695842135989987 -0.00037586641837534992 0 -0.021713148816459093 -0.00054582425255633889 0 -0.021492241353563476 -0.00053788714294134672 0 -0.021459114491901722 -0.00040142892954655491 0 -0.021695842135989987 -0.00037586641837534992 0 -0.021492241353563476 -0.00053788714294134672 0 -0.021589532622518452 -0.00075029057297171318 0 -0.021713148816459093 -0.00054582425255633889 0 -0.021492241353563476 -0.00053788714294134672 0 -0.021459114491901722 -0.00040142892954655491 0 -0.021492241353563476 -0.00053788714294134672 0 -0.021322272015420168 -0.00046956108294171666 0 -0.021207261870577879 -0.00043362303995715879 0 -0.021322272015420168 -0.00046956108294171666 0 -0.021314889134119597 -0.00065786304040555462 0 -0.021492241353563476 -0.00053788714294134672 0 -0.021322272015420168 -0.00046956108294171666 0 -0.021314889134119597 -0.00065786304040555462 0 -0.02126928124196684 -0.0010501768628505359 0 -0.025579119099136904 -0.00049794023243195031 0 -0.022156427793521137 -0.0011989554047438476 0 -0.022036755672266661 -0.0011693601075683953 0 -0.022961831085333825 -2.0083006769721638e-05 0 -0.022156427793521137 -0.0011989554047438476 0 -0.023218836428531099 -8.1730494377273757e-05 0 -0.022961831085333825 -2.0083006769721638e-05 0 -0.021207261870577879 -0.00043362303995715879 0 -0.021150126559747989 -0.00059137139342616083 0 -0.021314889134119597 -0.00065786304040555462 0 -0.02046011046174933 -0.0017242505100106935 0 -0.024406813430926339 -0.00090901207329520753 0 -0.02957967031588362 -7.4469735995609369e-05 0 -0.029711142481864308 -0.0002719706424909397 0 -0.030020986463691692 -0.00019260701446627496 0 -0.025579119099136904 -0.00049794023243195031 0 -0.025439397566379862 -0.00036072002189820734 0 -0.02957967031588362 -7.4469735995609369e-05 0 -0.029533694155759758 -0.00037684259726030811 0 -0.029711142481864308 -0.0002719706424909397 0 -0.029711142481864308 -0.0002719706424909397 0 -0.030020986463691692 -0.00019260701446627496 0 -0.029754175971173292 -0.00050353544112798163 0 -0.029533694155759758 -0.00037684259726030811 0 -0.029711142481864308 -0.0002719706424909397 0 -0.029754175971173292 -0.00050353544112798163 0 -0.026972711196278726 -0.00082204475107133801 0 -0.025439397566379862 -0.00036072002189820734 0 -0.030436839968279294 -0.00031137355238531293 0 -0.030020986463691692 -0.00019260701446627496 0 -0.030228815980523616 -0.00076277887976082385 0 -0.030020986463691692 -0.00019260701446627496 0 -0.030228815980523616 -0.00076277887976082385 0 -0.029952200756175929 -0.00071999931614637332 0 -0.030020986463691692 -0.00019260701446627496 0 -0.029952200756175929 -0.00071999931614637332 0 -0.029754175971173292 -0.00050353544112798163 0 -0.029520176816808623 -0.00061769663768413059 0 -0.029754175971173292 -0.00050353544112798163 0 -0.029748898089767956 -0.00090668756954807752 0 -0.029952200756175929 -0.00071999931614637332 0 -0.029754175971173292 -0.00050353544112798163 0 -0.029748898089767956 -0.00090668756954807752 0 -0.029748898089767956 -0.00090668756954807752 0 -0.029990612946038699 -0.0012741846556099123 0 -0.029760766251531449 -0.0013582173597129141 0 -0.029952200756175929 -0.00071999931614637332 0 -0.029748898089767956 -0.00090668756954807752 0 -0.029990612946038699 -0.0012741846556099123 0 -0.030912143463207354 -0.00095261291869168504 0 -0.030268912614381055 -0.0013865521341191185 0 -0.030654904380899302 -0.0014586612515279202 0 -0.030647561604360621 -0.0014270125604510632 0 -0.03069659882314613 -0.0014087641419448735 0 -0.030228815980523616 -0.00076277887976082385 0 -0.029952200756175929 -0.00071999931614637332 0 -0.029990612946038699 -0.0012741846556099123 0 -0.030654904380899302 -0.0014586612515279202 0 -0.030611772848435928 -0.0014519270412305173 0 -0.030647561604360621 -0.0014270125604510632 0 -0.026972711196278726 -0.00082204475107133801 0 -0.030912143463207354 -0.00095261291869168504 0 -0.030654904380899302 -0.0014586612515279202 0 -0.030603022596264694 -0.0014729677521000207 0 -0.030611772848435928 -0.0014519270412305173 0 -0.030595533013390883 -0.0014957630638435006 0 -0.030654904380899302 -0.0014586612515279202 0 -0.030603022596264694 -0.0014729677521000207 0 -0.03055584675455409 -0.0014775427396652094 0 -0.030575236528693935 -0.0014863032404221169 0 -0.030585101568466215 -0.0014627750838503376 0 -0.030575236528693935 -0.0014863032404221169 0 -0.030603022596264694 -0.0014729677521000207 0 -0.030585101568466215 -0.0014627750838503376 0 -0.030603022596264694 -0.0014729677521000207 0 -0.030585101568466215 -0.0014627750838503376 0 -0.030611772848435928 -0.0014519270412305173 0 -0.030585101568466215 -0.0014627750838503376 0 -0.030611772848435928 -0.0014519270412305173 0 -0.030607657037561794 -0.0014357774152946191 0 -0.030611772848435928 -0.0014519270412305173 0 -0.030607657037561794 -0.0014357774152946191 0 -0.030647561604360621 -0.0014270125604510632 0 -0.030607657037561794 -0.0014357774152946191 0 -0.030636550771069988 -0.0014123484134722644 0 -0.030647561604360621 -0.0014270125604510632 0 -0.030607657037561794 -0.0014357774152946191 0 -0.030636550771069988 -0.0014123484134722644 0 -0.030593424732743537 -0.0014071178183166094 0 -0.030636550771069988 -0.0014123484134722644 0 -0.030593424732743537 -0.0014071178183166094 0 -0.030603727509530172 -0.0013901256595987342 0 -0.030636550771069988 -0.0014123484134722644 0 -0.03064375641365906 -0.0014072741882428846 0 -0.030669505304879999 -0.0014132544267544777 0 -0.030636550771069988 -0.0014123484134722644 0 -0.03064375641365906 -0.0014072741882428846 0 -0.030603727509530172 -0.0013901256595987342 0 -0.030636550771069988 -0.0014123484134722644 0 -0.030669505304879999 -0.0014132544267544777 0 -0.03068031438621217 -0.0014026971952327237 0 -0.030669505304879999 -0.0014132544267544777 0 -0.03068031438621217 -0.0014026971952327237 0 -0.030700391890466323 -0.001429030138495153 0 -0.03064375641365906 -0.0014072741882428846 0 -0.030669505304879999 -0.0014132544267544777 0 -0.030700391890466323 -0.001429030138495153 0 -0.030636550771069988 -0.0014123484134722644 0 -0.03068031438621217 -0.0014026971952327237 0 -0.030647561604360621 -0.0014270125604510632 0 -0.03068031438621217 -0.0014026971952327237 0 -0.030647561604360621 -0.0014270125604510632 0 -0.03069659882314613 -0.0014087641419448735 0 -0.03068031438621217 -0.0014026971952327237 0 -0.03069659882314613 -0.0014087641419448735 0 -0.030694922792411952 -0.0013798583395541039 0 -0.030268912614381055 -0.0013865521341191185 0 -0.030304963286503686 -0.0013750031144806685 0 -0.029990612946038699 -0.0012741846556099123 0 -0.029933349273902937 -0.0014069181190791973 0 -0.029760766251531449 -0.0013582173597129141 0 -0.03069659882314613 -0.0014087641419448735 0 -0.03066049198631483 -0.0013252431163434358 0 -0.030694922792411952 -0.0013798583395541039 0 -0.03066049198631483 -0.0013252431163434358 0 -0.030694922792411952 -0.0013798583395541039 0 -0.030727412932561541 -0.001417259728120253 0 -0.03068031438621217 -0.0014026971952327237 0 -0.030727412932561541 -0.001417259728120253 0 -0.030700391890466323 -0.001429030138495153 0 -0.03068031438621217 -0.0014026971952327237 0 -0.030694922792411952 -0.0013798583395541039 0 -0.030727412932561541 -0.001417259728120253 0 -0.030727412932561541 -0.001417259728120253 0 -0.030768800655611946 -0.0014849325028856574 0 -0.030700391890466323 -0.001429030138495153 0 -0.030727412932561541 -0.001417259728120253 0 -0.030745107288009305 -0.0014961574707749265 0 -0.030768800655611946 -0.0014849325028856574 0 -0.03066049198631483 -0.0013252431163434358 0 -0.030727412932561541 -0.001417259728120253 0 -0.030745107288009305 -0.0014961574707749265 0 -0.031318077371362947 -0.0020262957000843564 0 -0.031029453658351115 -0.0017467917063846111 0 -0.030745107288009305 -0.0014961574707749265 0 -0.030768800655611946 -0.0014849325028856574 0 -0.031018650553086575 -0.0016825558424309612 0 -0.030745107288009305 -0.0014961574707749265 0 -0.030313854187208864 -0.0016200966991494724 0 -0.031018650553086575 -0.0016825558424309612 0 -0.030768800655611946 -0.0014849325028856574 0 -0.030780740332843694 -0.0013950718083808546 0 -0.031018650553086575 -0.0016825558424309612 0 -0.030768800655611946 -0.0014849325028856574 0 -0.030703098982170194 -0.0014146956008995852 0 -0.030653201100421714 -0.0014171891514795391 0 -0.030768800655611946 -0.0014849325028856574 0 -0.030703098982170194 -0.0014146956008995852 0 -0.030780740332843694 -0.0013950718083808546 0 -0.030768800655611946 -0.0014849325028856574 0 -0.030653201100421714 -0.0014171891514795391 0 -0.030700391890466323 -0.001429030138495153 0 -0.03063695012895128 -0.0014045871432291372 0 -0.030653201100421714 -0.0014171891514795391 0 -0.030628490289134482 -0.0013916752617787651 0 -0.030653201100421714 -0.0014171891514795391 0 -0.030626453803366677 -0.0013504510436619594 0 -0.030628490289134482 -0.0013916752617787651 0 -0.03063695012895128 -0.0014045871432291372 0 -0.030653201100421714 -0.0014171891514795391 0 -0.030647966368796735 -0.0014114381769603633 0 -0.030653201100421714 -0.0014171891514795391 0 -0.030647966368796735 -0.0014114381769603633 0 -0.030700391890466323 -0.001429030138495153 0 -0.03063695012895128 -0.0014045871432291372 0 -0.030647966368796735 -0.0014114381769603633 0 -0.0306206382815555 -0.0014040749547898914 0 -0.03064375641365906 -0.0014072741882428846 0 -0.0306206382815555 -0.0014040749547898914 0 -0.030603727509530172 -0.0013901256595987342 0 -0.03064375641365906 -0.0014072741882428846 0 -0.030647966368796735 -0.0014114381769603633 0 -0.0306206382815555 -0.0014040749547898914 0 -0.03064375641365906 -0.0014072741882428846 0 -0.030647966368796735 -0.0014114381769603633 0 -0.030700391890466323 -0.001429030138495153 0 -0.028939253032546731 4.7860934729380932e-05 0 -0.029221569049916799 0.00020012359415385157 0 -0.029432495004827471 -0.00022978509529293531 0 -0.02747020742254673 -0.00027716681977339654 0 -0.032205823465475264 -0.00088742522714464951 0 -0.031872523454136048 0.0014721734820816951 0 -0.032205823465475264 -0.00088742522714464951 0 -0.029221569049916799 0.00020012359415385157 0 -0.029516090633827749 0.0004764972037489655 0 -0.029432495004827471 -0.00022978509529293531 0 -0.025532130685574129 0.0018327228977023202 0 -0.02747020742254673 -0.00027716681977339654 0 -0.028998583523042867 0.00050622349628726658 0 -0.029221569049916799 0.00020012359415385157 0 -0.029516090633827749 0.0004764972037489655 0 -0.022712009623306662 0.0022721543388072732 0 -0.022616278533853371 0.002201051905701155 0 -0.022565857550048075 0.0022837532510058484 0 -0.02747020742254673 -0.00027716681977339654 0 -0.029762500699282629 -0.0014581026260894474 0 -0.029968536582897703 -0.0013783161366185573 0 -0.029984918477768185 -0.0013804864084291961 0 -0.029967921316386349 -0.0014063886908250356 0 -0.029968536582897703 -0.0013783161366185573 0 -0.029984918477768185 -0.0013804864084291961 0 -0.029968240647403898 -0.0013993468403224317 0 -0.029984918477768185 -0.0013804864084291961 0 -0.030037794127413312 -0.0013906674074441968 0 -0.029926463157536713 -0.0013686425622736016 0 -0.029984918477768185 -0.0013804864084291961 0 -0.029967921316386349 -0.0014063886908250356 0 -0.029926463157536713 -0.0013686425622736016 0 -0.029762500699282629 -0.0014581026260894474 0 -0.029597099906127196 -0.0013641565519811223 0 -0.029967921316386349 -0.0014063886908250356 0 -0.029760766251531449 -0.0013582173597129141 0 -0.029926463157536713 -0.0013686425622736016 0 -0.02918621689388631 -0.0010913931683713925 0 -0.028864725946328218 -0.0014084331923531108 0 -0.029760766251531449 -0.0013582173597129141 0 -0.029933349273902937 -0.0014069181190791973 0 -0.030037794127413312 -0.0013906674074441968 0 -0.029926463157536713 -0.0013686425622736016 0 -0.029933349273902937 -0.0014069181190791973 0 -0.029760766251531449 -0.0013582173597129141 0 -0.029926463157536713 -0.0013686425622736016 0 -0.03066049198631483 -0.0013252431163434358 0 -0.030745107288009305 -0.0014961574707749265 0 -0.030265166700042843 -0.0014907615800638506 0 -0.029933349273902937 -0.0014069181190791973 0 -0.030037794127413312 -0.0013906674074441968 0 -0.030265166700042843 -0.0014907615800638506 0 -0.030304963286503686 -0.0013750031144806685 0 -0.030239737097704899 -0.0015135404795449396 0 -0.030745107288009305 -0.0014961574707749265 0 -0.030265166700042843 -0.0014907615800638506 0 -0.030313854187208864 -0.0016200966991494724 0 -0.032378334540883472 -0.00255954753357715 0 -0.032074511738641287 -0.0019238087102101079 0 -0.031018650553086575 -0.0016825558424309612 0 -0.032378334540883472 -0.00255954753357715 0 -0.033006936327406519 -0.0024303912446104266 0 -0.032720054102811778 -0.0019632222626678447 0 -0.032378334540883472 -0.00255954753357715 0 -0.032720054102811778 -0.0019632222626678447 0 -0.032074511738641287 -0.0019238087102101079 0 -0.032378334540883472 -0.00255954753357715 0 -0.033006936327406519 -0.0024303912446104266 0 -0.033504357635541472 -0.0030607142748826743 0 -0.030265166700042843 -0.0014907615800638506 0 -0.030313854187208864 -0.0016200966991494724 0 -0.029997256246777109 -0.0014490060955497819 0 -0.031318077371362947 -0.0020262957000843564 0 -0.031842526653382199 -0.0024428676576337635 0 -0.033006936327406519 -0.0024303912446104266 0 -0.033406486851145438 -0.0021112131310580349 0 -0.033504357635541472 -0.0030607142748826743 0 -0.033006936327406519 -0.0024303912446104266 0 -0.033406486851145438 -0.0021112131310580349 0 -0.032720054102811778 -0.0019632222626678447 0 -0.029984918477768185 -0.0013804864084291961 0 -0.030037794127413312 -0.0013906674074441968 0 -0.029997256246777109 -0.0014490060955497819 0 -0.030037794127413312 -0.0013906674074441968 0 -0.030265166700042843 -0.0014907615800638506 0 -0.029997256246777109 -0.0014490060955497819 0 -0.031842526653382199 -0.0024428676576337635 0 -0.032205823465475264 -0.00088742522714464951 0 -0.029984918477768185 -0.0013804864084291961 0 -0.029997256246777109 -0.0014490060955497819 0 -0.029968240647403898 -0.0013993468403224317 0 -0.033504357635541472 -0.0030607142748826743 0 -0.034049346143377193 -0.0024825629343759922 0 -0.034511950762366156 -0.0035800230709720645 0 -0.034049346143377193 -0.0024825629343759922 0 -0.034781498539335806 -0.002206349071217281 0 -0.034124385762631992 -0.0013789511859424843 0 -0.033406486851145438 -0.0021112131310580349 0 -0.033504357635541472 -0.0030607142748826743 0 -0.034049346143377193 -0.0024825629343759922 0 -0.034049346143377193 -0.0024825629343759922 0 -0.034781498539335806 -0.002206349071217281 0 -0.034511950762366156 -0.0035800230709720645 0 -0.034858430877580178 0.0013519918507472167 0 -0.035148705412697351 0.0010742440569707541 0 -0.035144384268649402 0.0014428180983111767 0 -0.035303961154258094 -0.00056839092769119545 0 -0.032205823465475264 -0.00088742522714464951 0 -0.034993763639850586 -0.00082214695361684147 0 -0.034124385762631992 -0.0013789511859424843 0 -0.034272111750838496 -0.00049516253508340245 0 -0.035303961154258094 -0.00056839092769119545 0 -0.035008685391687416 -0.00015829946204667938 0 -0.034781498539335806 -0.002206349071217281 0 -0.034993763639850586 -0.00082214695361684147 0 -0.034124385762631992 -0.0013789511859424843 0 -0.033406486851145438 -0.0021112131310580349 0 -0.034049346143377193 -0.0024825629343759922 0 -0.034124385762631992 -0.0013789511859424843 0 -0.034124385762631992 -0.0013789511859424843 0 -0.033604049064313656 -0.00081503048922758206 0 -0.034272111750838496 -0.00049516253508340245 0 -0.034124385762631992 -0.0013789511859424843 0 -0.033604049064313656 -0.00081503048922758206 0 -0.033056634298985289 -0.0013344924065230585 0 -0.033604049064313656 -0.00081503048922758206 0 -0.03289310219810912 -0.00063486204825151838 0 -0.033056634298985289 -0.0013344924065230585 0 -0.03289310219810912 -0.00063486204825151838 0 -0.033056634298985289 -0.0013344924065230585 0 -0.032305224097908244 -0.00094629238435293766 0 -0.033406486851145438 -0.0021112131310580349 0 -0.034124385762631992 -0.0013789511859424843 0 -0.033056634298985289 -0.0013344924065230585 0 -0.033406486851145438 -0.0021112131310580349 0 -0.032720054102811778 -0.0019632222626678447 0 -0.033056634298985289 -0.0013344924065230585 0 -0.032720054102811778 -0.0019632222626678447 0 -0.033056634298985289 -0.0013344924065230585 0 -0.032139517581441533 -0.0015001340672968714 0 -0.032074511738641287 -0.0019238087102101079 0 -0.032139517581441533 -0.0015001340672968714 0 -0.031018650553086575 -0.0016825558424309612 0 -0.033056634298985289 -0.0013344924065230585 0 -0.032139517581441533 -0.0015001340672968714 0 -0.032305224097908244 -0.00094629238435293766 0 -0.032720054102811778 -0.0019632222626678447 0 -0.032074511738641287 -0.0019238087102101079 0 -0.032139517581441533 -0.0015001340672968714 0 -0.032305224097908244 -0.00094629238435293766 0 -0.031888509927405433 -0.00026706216623001379 0 -0.031536547964398982 -0.0011151288458873521 0 -0.03289310219810912 -0.00063486204825151838 0 -0.032305224097908244 -0.00094629238435293766 0 -0.031888509927405433 -0.00026706216623001379 0 -0.032139517581441533 -0.0015001340672968714 0 -0.032305224097908244 -0.00094629238435293766 0 -0.031536547964398982 -0.0011151288458873521 0 -0.034993931785959415 -2.5631958398630517e-06 0 -0.03500321592171949 1.4311756980873269e-05 0 -0.034990728508730362 4.1334504486317834e-06 0 -0.033305294131293253 -0.00018585091406435157 0 -0.034195462886899487 6.3532009712150559e-05 0 -0.03289310219810912 -0.00063486204825151838 0 -0.031888509927405433 -0.00026706216623001379 0 -0.033344272912659602 0.00010158654326187232 0 -0.034993931785959415 -2.5631958398630517e-06 0 -0.03500321592171949 1.4311756980873269e-05 0 -0.03501076176904562 4.5396590568457862e-05 0 -0.03500321592171949 1.4311756980873269e-05 0 -0.035000031515023303 -5.0460985705323895e-08 0 -0.034999989217222666 3.1136150551571507e-08 0 -0.035000031515023303 -5.0460985705323895e-08 0 -0.03501076176904562 4.5396590568457862e-05 0 -0.034958089857476664 2.0970634132302266e-05 0 -0.03500321592171949 1.4311756980873269e-05 0 -0.035000031515023303 -5.0460985705323895e-08 0 -0.03501076176904562 4.5396590568457862e-05 0 -0.033604049064313656 -0.00081503048922758206 0 -0.03289310219810912 -0.00063486204825151838 0 -0.033344272912659602 0.00010158654326187232 0 -0.033604049064313656 -0.00081503048922758206 0 -0.033344272912659602 0.00010158654326187232 0 -0.034272111750838496 -0.00049516253508340245 0 -0.034195462886899487 6.3532009712150559e-05 0 -0.034698700373135327 0.00011793182568991816 0 -0.033344272912659602 0.00010158654326187232 0 -0.034272111750838496 -0.00049516253508340245 0 -0.034790794932513677 0.00011129332202217578 0 -0.03501076176904562 4.5396590568457862e-05 0 -0.034958089857476664 2.0970634132302266e-05 0 -0.034790794932513677 0.00011129332202217578 0 -0.035000031515023303 -5.0460985705323895e-08 0 -0.034958089857476664 2.0970634132302266e-05 0 -0.03499967870891476 2.6619650290083696e-07 0 -0.034958089857476664 2.0970634132302266e-05 0 -0.034790794932513677 0.00011129332202217578 0 -0.03499967870891476 2.6619650290083696e-07 0 -0.035053000369480954 5.3763635968353406e-05 0 -0.034790794932513677 0.00011129332202217578 0 -0.03499967870891476 2.6619650290083696e-07 0 -0.035071388906696137 4.4938670710827212e-05 0 -0.035008685391687416 -0.00015829946204667938 0 -0.034993763639850586 -0.00082214695361684147 0 -0.034272111750838496 -0.00049516253508340245 0 -0.034790794932513677 0.00011129332202217578 0 -0.035053000369480954 5.3763635968353406e-05 0 -0.034993763639850586 -0.00082214695361684147 0 -0.034790794932513677 0.00011129332202217578 0 -0.032475831854959697 -0.00078620821196443748 0 -0.033609131067218308 -0.00033801717934348237 0 -0.034968637800875245 -1.5776924429854269e-05 0 -0.034964755012334259 -3.5445841562593433e-05 0 -0.034970760467203682 -1.3562449824772926e-05 0 -0.030626453803366677 -0.0013504510436619594 0 -0.030788840428791955 -0.0012104336672975563 0 -0.030838792896263966 -0.00087788592622551535 0 -0.034968637800875245 -1.5776924429854269e-05 0 -0.034955431612223309 -1.4405858739019938e-05 0 -0.034964755012334259 -3.5445841562593433e-05 0 -0.034973586900309848 -1.0858505400034862e-05 0 -0.034968637800875245 -1.5776924429854269e-05 0 -0.034970760467203682 -1.3562449824772926e-05 0 -0.034973586900309848 -1.0858505400034862e-05 0 -0.034968637800875245 -1.5776924429854269e-05 0 -0.034969402045575866 -5.3339311621513013e-06 0 -0.034968637800875245 -1.5776924429854269e-05 0 -0.034955431612223309 -1.4405858739019938e-05 0 -0.034969402045575866 -5.3339311621513013e-06 0 -0.034955431612223309 -1.4405858739019938e-05 0 -0.034969402045575866 -5.3339311621513013e-06 0 -0.034944733811723139 -6.7403545626494261e-06 0 -0.034955431612223309 -1.4405858739019938e-05 0 -0.034930695336743131 -2.4273218496917936e-05 0 -0.034944733811723139 -6.7403545626494261e-06 0 -0.034930695336743131 -2.4273218496917936e-05 0 -0.034964755012334259 -3.5445841562593433e-05 0 -0.034859475295670725 -0.00012202591921383639 0 -0.034955431612223309 -1.4405858739019938e-05 0 -0.034930695336743131 -2.4273218496917936e-05 0 -0.034964755012334259 -3.5445841562593433e-05 0 -0.032475831854959697 -0.00078620821196443748 0 -0.033673805112598224 -0.00057040477161413158 0 -0.030703098982170194 -0.0014146956008995852 0 -0.030626453803366677 -0.0013504510436619594 0 -0.030780740332843694 -0.0013950718083808546 0 -0.030626453803366677 -0.0013504510436619594 0 -0.030780740332843694 -0.0013950718083808546 0 -0.030788840428791955 -0.0012104336672975563 0 -0.030703098982170194 -0.0014146956008995852 0 -0.030653201100421714 -0.0014171891514795391 0 -0.030626453803366677 -0.0013504510436619594 0 -0.030780740332843694 -0.0013950718083808546 0 -0.030975143888093214 -0.001225347051555325 0 -0.031018650553086575 -0.0016825558424309612 0 -0.030780740332843694 -0.0013950718083808546 0 -0.030975143888093214 -0.001225347051555325 0 -0.030788840428791955 -0.0012104336672975563 0 -0.032139517581441533 -0.0015001340672968714 0 -0.031018650553086575 -0.0016825558424309612 0 -0.031536547964398982 -0.0011151288458873521 0 -0.030975143888093214 -0.001225347051555325 0 -0.031018650553086575 -0.0016825558424309612 0 -0.031536547964398982 -0.0011151288458873521 0 -0.031888509927405433 -0.00026706216623001379 0 -0.031536547964398982 -0.0011151288458873521 0 -0.031298724745242319 -0.00088756217727190782 0 -0.034993931785959415 -2.5631958398630517e-06 0 -0.034942966858341779 -3.4654919957542887e-05 0 -0.034972636368758567 -9.509150023610571e-06 0 -0.033305294131293253 -0.00018585091406435157 0 -0.033609131067218308 -0.00033801717934348237 0 -0.031888509927405433 -0.00026706216623001379 0 -0.031298724745242319 -0.00088756217727190782 0 -0.030838792896263966 -0.00087788592622551535 0 -0.030975143888093214 -0.001225347051555325 0 -0.031536547964398982 -0.0011151288458873521 0 -0.031298724745242319 -0.00088756217727190782 0 -0.034964755012334259 -3.5445841562593433e-05 0 -0.034971132165013449 -1.0477813179783975e-05 0 -0.034970760467203682 -1.3562449824772926e-05 0 -0.030975143888093214 -0.001225347051555325 0 -0.031298724745242319 -0.00088756217727190782 0 -0.030838792896263966 -0.00087788592622551535 0 -0.030975143888093214 -0.001225347051555325 0 -0.030788840428791955 -0.0012104336672975563 0 -0.030838792896263966 -0.00087788592622551535 0 -0.033609131067218308 -0.00033801717934348237 0 -0.035199884905730054 0.00022644928854648238 0 -0.034974955472471404 -1.043020257353539e-05 0 -0.034975535895990444 -9.3498132728383827e-06 0 -0.034978055475884264 -7.8719495373683428e-06 0 -0.034974955472471404 -1.043020257353539e-05 0 -0.034978055475884264 -7.8719495373683428e-06 0 -0.034972636368758567 -9.509150023610571e-06 0 -0.034974955472471404 -1.043020257353539e-05 0 -0.034975535895990444 -9.3498132728383827e-06 0 -0.034970760467203682 -1.3562449824772926e-05 0 -0.033609131067218308 -0.00033801717934348237 0 -0.034275834242155807 -0.00012704832837592397 0 -0.034973586900309848 -1.0858505400034862e-05 0 -0.034975535895990444 -9.3498132728383827e-06 0 -0.034970760467203682 -1.3562449824772926e-05 0 -0.034973586900309848 -1.0858505400034862e-05 0 -0.034975535895990444 -9.3498132728383827e-06 0 -0.034979742345624787 -5.9162017961081843e-06 0 -0.034975535895990444 -9.3498132728383827e-06 0 -0.034979742345624787 -5.9162017961081843e-06 0 -0.034978055475884264 -7.8719495373683428e-06 0 -0.034978055475884264 -7.8719495373683428e-06 0 -0.03498707264120883 -8.7117864927503178e-07 0 -0.034972636368758567 -9.509150023610571e-06 0 -0.034979742345624787 -5.9162017961081843e-06 0 -0.034978055475884264 -7.8719495373683428e-06 0 -0.03498707264120883 -8.7117864927503178e-07 0 -0.034979742345624787 -5.9162017961081843e-06 0 -0.03498707264120883 -8.7117864927503178e-07 0 -0.034986024489301361 -1.4577665087818501e-06 0 -0.034993931785959415 -2.5631958398630517e-06 0 -0.034972636368758567 -9.509150023610571e-06 0 -0.034990728508730362 4.1334504486317834e-06 0 -0.03498707264120883 -8.7117864927503178e-07 0 -0.034972636368758567 -9.509150023610571e-06 0 -0.034990728508730362 4.1334504486317834e-06 0 -0.03498707264120883 -8.7117864927503178e-07 0 -0.034990728508730362 4.1334504486317834e-06 0 -0.034999989217222666 3.1136150551571507e-08 0 -0.03500321592171949 1.4311756980873269e-05 0 -0.034990728508730362 4.1334504486317834e-06 0 -0.034999989217222666 3.1136150551571507e-08 0 -0.03498707264120883 -8.7117864927503178e-07 0 -0.034999975332190465 -8.8679984339225031e-09 0 -0.034986024489301361 -1.4577665087818501e-06 0 -0.03498707264120883 -8.7117864927503178e-07 0 -0.034999989217222666 3.1136150551571507e-08 0 -0.034999975332190465 -8.8679984339225031e-09 0 -0.034999975332190465 -8.8679984339225031e-09 0 -0.034984780524674949 5.06256411588328e-07 0 -0.034999960182992722 8.3106189607881649e-09 0 -0.034999975332190465 -8.8679984339225031e-09 0 -0.034984780524674949 5.06256411588328e-07 0 -0.034986024489301361 -1.4577665087818501e-06 0 -0.034979742345624787 -5.9162017961081843e-06 0 -0.034986024489301361 -1.4577665087818501e-06 0 -0.034978004752919706 -4.3931218359255987e-06 0 -0.034984780524674949 5.06256411588328e-07 0 -0.034986024489301361 -1.4577665087818501e-06 0 -0.034978004752919706 -4.3931218359255987e-06 0 -0.034984780524674949 5.06256411588328e-07 0 -0.034969402045575866 -5.3339311621513013e-06 0 -0.034978004752919706 -4.3931218359255987e-06 0 -0.034973586900309848 -1.0858505400034862e-05 0 -0.034969402045575866 -5.3339311621513013e-06 0 -0.034978004752919706 -4.3931218359255987e-06 0 -0.034973586900309848 -1.0858505400034862e-05 0 -0.034979742345624787 -5.9162017961081843e-06 0 -0.034978004752919706 -4.3931218359255987e-06 0 -0.034969402045575866 -5.3339311621513013e-06 0 -0.034970842547066464 1.9452613753141637e-06 0 -0.034944733811723139 -6.7403545626494261e-06 0 -0.034984780524674949 5.06256411588328e-07 0 -0.034969402045575866 -5.3339311621513013e-06 0 -0.034970842547066464 1.9452613753141637e-06 0 -0.034984780524674949 5.06256411588328e-07 0 -0.034970842547066464 1.9452613753141637e-06 0 -0.034999960182992722 8.3106189607881649e-09 0 -0.034970842547066464 1.9452613753141637e-06 0 -0.034999960182992722 8.3106189607881649e-09 0 -0.034975853362112869 3.9430654926698787e-06 0 -0.034999960182992722 8.3106189607881649e-09 0 -0.034975853362112869 3.9430654926698787e-06 0 -0.034999934853883939 6.8156718796076976e-09 0 -0.034975853362112869 3.9430654926698787e-06 0 -0.034999934853883939 6.8156718796076976e-09 0 -0.034958567475675759 5.572787199185308e-06 0 -0.034999934853883939 6.8156718796076976e-09 0 -0.034958567475675759 5.572787199185308e-06 0 -0.034960679032685918 4.1820562409020721e-06 0 -0.034975853362112869 3.9430654926698787e-06 0 -0.034958567475675759 5.572787199185308e-06 0 -0.034946479362739064 3.5495490329592695e-06 0 -0.034958567475675759 5.572787199185308e-06 0 -0.034946479362739064 3.5495490329592695e-06 0 -0.034915288068467262 9.6948613221417995e-06 0 -0.034970842547066464 1.9452613753141637e-06 0 -0.034946479362739064 3.5495490329592695e-06 0 -0.034944733811723139 -6.7403545626494261e-06 0 -0.034970842547066464 1.9452613753141637e-06 0 -0.034975853362112869 3.9430654926698787e-06 0 -0.034946479362739064 3.5495490329592695e-06 0 -0.034968913872054946 1.9248389771894868e-06 0 -0.034999932966607306 1.0575344266470201e-09 0 -0.034960679032685918 4.1820562409020721e-06 0 -0.034999934853883939 6.8156718796076976e-09 0 -0.034999932966607306 1.0575344266470201e-09 0 -0.034960679032685918 4.1820562409020721e-06 0 -0.034960679032685918 4.1820562409020721e-06 0 -0.034930380592737904 7.8632875016219856e-06 0 -0.034915288068467262 9.6948613221417995e-06 0 -0.034958567475675759 5.572787199185308e-06 0 -0.034960679032685918 4.1820562409020721e-06 0 -0.034915288068467262 9.6948613221417995e-06 0 -0.034968913872054946 1.9248389771894868e-06 0 -0.034960679032685918 4.1820562409020721e-06 0 -0.034930380592737904 7.8632875016219856e-06 0 -0.034930380592737904 7.8632875016219856e-06 0 -0.034921661796125401 1.507682205884845e-05 0 -0.034957761851901532 6.1287347566197339e-06 0 -0.034968913872054946 1.9248389771894868e-06 0 -0.034930380592737904 7.8632875016219856e-06 0 -0.034957761851901532 6.1287347566197339e-06 0 -0.034930380592737904 7.8632875016219856e-06 0 -0.034921661796125401 1.507682205884845e-05 0 -0.03487775767471199 1.513374170014125e-05 0 -0.034905914731852991 3.3825082049322532e-05 0 -0.034921661796125401 1.507682205884845e-05 0 -0.03487775767471199 1.513374170014125e-05 0 -0.034930380592737904 7.8632875016219856e-06 0 -0.03487775767471199 1.513374170014125e-05 0 -0.034915288068467262 9.6948613221417995e-06 0 -0.03487775767471199 1.513374170014125e-05 0 -0.034915288068467262 9.6948613221417995e-06 0 -0.0348656038606492 1.2744208481629001e-05 0 -0.03487775767471199 1.513374170014125e-05 0 -0.0348656038606492 1.2744208481629001e-05 0 -0.034781739994618636 2.2270622623947335e-05 0 -0.0348656038606492 1.2744208481629001e-05 0 -0.034781739994618636 2.2270622623947335e-05 0 -0.034876634466354396 -2.1252644247985081e-05 0 -0.035534035598661626 -0.0002516803568687925 0 -0.032751365934496901 0.00081553189500828578 0 -0.03487775767471199 1.513374170014125e-05 0 -0.034781739994618636 2.2270622623947335e-05 0 -0.034897660540090775 4.5224732892260368e-05 0 -0.034905914731852991 3.3825082049322532e-05 0 -0.03487775767471199 1.513374170014125e-05 0 -0.034897660540090775 4.5224732892260368e-05 0 -0.033542860997544117 0.00013897738951689298 0 -0.032751365934496901 0.00081553189500828578 0 -0.034946479362739064 3.5495490329592695e-06 0 -0.034944733811723139 -6.7403545626494261e-06 0 -0.034911761483863928 3.4503885464976786e-07 0 -0.034944733811723139 -6.7403545626494261e-06 0 -0.034911761483863928 3.4503885464976786e-07 0 -0.034921777020442774 -1.8119560849555204e-05 0 -0.034930695336743131 -2.4273218496917936e-05 0 -0.034944733811723139 -6.7403545626494261e-06 0 -0.034921777020442774 -1.8119560849555204e-05 0 -0.034915288068467262 9.6948613221417995e-06 0 -0.0348656038606492 1.2744208481629001e-05 0 -0.034911761483863928 3.4503885464976786e-07 0 -0.034946479362739064 3.5495490329592695e-06 0 -0.034915288068467262 9.6948613221417995e-06 0 -0.034911761483863928 3.4503885464976786e-07 0 -0.034911761483863928 3.4503885464976786e-07 0 -0.034876634466354396 -2.1252644247985081e-05 0 -0.034921777020442774 -1.8119560849555204e-05 0 -0.0348656038606492 1.2744208481629001e-05 0 -0.034911761483863928 3.4503885464976786e-07 0 -0.034876634466354396 -2.1252644247985081e-05 0 -0.034876634466354396 -2.1252644247985081e-05 0 -0.034921777020442774 -1.8119560849555204e-05 0 -0.034925800098364004 -5.2066120231840027e-05 0 -0.034930695336743131 -2.4273218496917936e-05 0 -0.034921777020442774 -1.8119560849555204e-05 0 -0.034925800098364004 -5.2066120231840027e-05 0 -0.035237623428757324 0.00026219326814220286 0 -0.033673805112598224 -0.00057040477161413158 0 -0.03063695012895128 -0.0014045871432291372 0 -0.030628490289134482 -0.0013916752617787651 0 -0.0306206382815555 -0.0014040749547898914 0 -0.033673805112598224 -0.00057040477161413158 0 -0.032595074111732465 -0.00087632895985435355 0 -0.033673805112598224 -0.00057040477161413158 0 -0.035188949502041093 0.00012960484922221768 0 -0.030628490289134482 -0.0013916752617787651 0 -0.0306206382815555 -0.0014040749547898914 0 -0.030594758422512587 -0.0014026459806839545 0 -0.030628490289134482 -0.0013916752617787651 0 -0.030594758422512587 -0.0014026459806839545 0 -0.030617023548234076 -0.0014248794713879733 0 -0.030594758422512587 -0.0014026459806839545 0 -0.030617023548234076 -0.0014248794713879733 0 -0.030542160062842386 -0.0013567612949990659 0 -0.0306206382815555 -0.0014040749547898914 0 -0.030594758422512587 -0.0014026459806839545 0 -0.030603727509530172 -0.0013901256595987342 0 -0.03486547744999989 -0.00019449129768212101 0 -0.034871802458894971 -0.00010404293493836597 0 -0.03478480339660231 -0.00010501570910095913 0 -0.034876634466354396 -2.1252644247985081e-05 0 -0.034925800098364004 -5.2066120231840027e-05 0 -0.034871802458894971 -0.00010404293493836597 0 -0.034928890766833857 -5.5017354095204064e-05 0 -0.03486547744999989 -0.00019449129768212101 0 -0.034871802458894971 -0.00010404293493836597 0 -0.034876634466354396 -2.1252644247985081e-05 0 -0.034871802458894971 -0.00010404293493836597 0 -0.03478480339660231 -0.00010501570910095913 0 -0.034781739994618636 2.2270622623947335e-05 0 -0.034876634466354396 -2.1252644247985081e-05 0 -0.03478480339660231 -0.00010501570910095913 0 -0.034781739994618636 2.2270622623947335e-05 0 -0.03478480339660231 -0.00010501570910095913 0 -0.034496184411134681 -0.00017034653968549959 0 -0.034781739994618636 2.2270622623947335e-05 0 -0.034509002052928804 0.0001407034687589039 0 -0.034496184411134681 -0.00017034653968549959 0 -0.032751365934496901 0.00081553189500828578 0 -0.030730348546500065 0.0006044958322303218 0 -0.03486547744999989 -0.00019449129768212101 0 -0.03478480339660231 -0.00010501570910095913 0 -0.034692364987433291 -0.00023748545366541503 0 -0.03478480339660231 -0.00010501570910095913 0 -0.034496184411134681 -0.00017034653968549959 0 -0.034692364987433291 -0.00023748545366541503 0 -0.03486547744999989 -0.00019449129768212101 0 -0.034692364987433291 -0.00023748545366541503 0 -0.034718976075870954 -0.00038963217219209077 0 -0.034692364987433291 -0.00023748545366541503 0 -0.034718976075870954 -0.00038963217219209077 0 -0.034581826593537132 -0.00038156897168398435 0 -0.034496184411134681 -0.00017034653968549959 0 -0.034692364987433291 -0.00023748545366541503 0 -0.034581826593537132 -0.00038156897168398435 0 -0.030730348546500065 0.0006044958322303218 0 -0.029324118529024775 0.00095712862494772813 0 -0.034496184411134681 -0.00017034653968549959 0 -0.034581826593537132 -0.00038156897168398435 0 -0.03444782457915635 -0.000406486094340905 0 -0.034536966949587383 -0.00060826002373088348 0 -0.034581826593537132 -0.00038156897168398435 0 -0.034456808661067581 -0.00049532220144152305 0 -0.029324118529024775 0.00095712862494772813 0 -0.031493346711850279 0.00027438114358559548 0 -0.034408762394365577 0.00013143725188970477 0 -0.031493346711850279 0.00027438114358559548 0 -0.034581826593537132 -0.00038156897168398435 0 -0.03444782457915635 -0.000406486094340905 0 -0.034486529584574807 -0.00046243825531846301 0 -0.031504441950497161 0.00010151727692722376 0 -0.031493346711850279 0.00027438114358559548 0 -0.029517689705029007 0.00089802500385350627 0 -0.029521835406757752 0.0007242575296926712 0 -0.029455010429877852 0.00081434758963270235 0 -0.028503519808720047 0.001283245322339185 0 -0.0286599902118055 0.0011509266238627274 0 -0.028653243115711352 0.0016235939104712368 0 -0.02881832416309971 0.0012345820294190871 0 -0.029324118529024775 0.00095712862494772813 0 -0.02881832416309971 0.0012345820294190871 0 -0.031493346711850279 0.00027438114358559548 0 -0.028503519808720047 0.001283245322339185 0 -0.028392052525727886 0.0013117042985590971 0 -0.028653243115711352 0.0016235939104712368 0 -0.034536966949587383 -0.00060826002373088348 0 -0.034718976075870954 -0.00038963217219209077 0 -0.034581826593537132 -0.00038156897168398435 0 -0.03074610968884996 -0.00070774510825617591 0 -0.031256026115078987 -0.00061184885688414536 0 -0.030868168105547118 -0.0011730007892035768 0 -0.031504441950497161 0.00010151727692722376 0 -0.032973492390573768 -0.00081389497693208483 0 -0.030219281258357395 -0.00067700741297940217 0 -0.03074610968884996 -0.00070774510825617591 0 -0.030608477660373792 -0.0010509548014012171 0 -0.03074610968884996 -0.00070774510825617591 0 -0.030868168105547118 -0.0011730007892035768 0 -0.030608477660373792 -0.0010509548014012171 0 -0.030566730962120051 -0.0014455901825356037 0 -0.030593424732743537 -0.0014071178183166094 0 -0.030542160062842386 -0.0013567612949990659 0 -0.030219281258357395 -0.00067700741297940217 0 -0.030608477660373792 -0.0010509548014012171 0 -0.030542160062842386 -0.0013567612949990659 0 -0.030566730962120051 -0.0014455901825356037 0 -0.030607657037561794 -0.0014357774152946191 0 -0.030593424732743537 -0.0014071178183166094 0 -0.03051484332226297 -0.0010455299329035527 0 -0.030487661451911594 -0.0013304330854485224 0 -0.030593424732743537 -0.0014071178183166094 0 -0.030603727509530172 -0.0013901256595987342 0 -0.030542160062842386 -0.0013567612949990659 0 -0.030594758422512587 -0.0014026459806839545 0 -0.030603727509530172 -0.0013901256595987342 0 -0.030542160062842386 -0.0013567612949990659 0 -0.030617023548234076 -0.0014248794713879733 0 -0.030542160062842386 -0.0013567612949990659 0 -0.030658508569270826 -0.0012687465805164457 0 -0.032595074111732465 -0.00087632895985435355 0 -0.032973492390573768 -0.00081389497693208483 0 -0.030617023548234076 -0.0014248794713879733 0 -0.030868168105547118 -0.0011730007892035768 0 -0.030658508569270826 -0.0012687465805164457 0 -0.030868168105547118 -0.0011730007892035768 0 -0.030608477660373792 -0.0010509548014012171 0 -0.030658508569270826 -0.0012687465805164457 0 -0.030608477660373792 -0.0010509548014012171 0 -0.030542160062842386 -0.0013567612949990659 0 -0.030658508569270826 -0.0012687465805164457 0 -0.027493546642923982 0.0020825207018513297 0 -0.027102903689710949 0.0020883179079303638 0 -0.027195709212211972 0.0019488004153117957 0 -0.027493546642923982 0.0020825207018513297 0 -0.026912854894756418 0.0022730236165986848 0 -0.027102903689710949 0.0020883179079303638 0 -0.026912854894756418 0.0022730236165986848 0 -0.026994760986865846 0.0020937646671897337 0 -0.026930984757896171 0.0021918639530289696 0 -0.026912854894756418 0.0022730236165986848 0 -0.026994760986865846 0.0020937646671897337 0 -0.027102903689710949 0.0020883179079303638 0 -0.026994760986865846 0.0020937646671897337 0 -0.027102903689710949 0.0020883179079303638 0 -0.027195709212211972 0.0019488004153117957 0 -0.027195709212211972 0.0019488004153117957 0 -0.027080023630456855 0.001926305563260348 0 -0.027161269769873195 0.0017634172550615675 0 -0.026994760986865846 0.0020937646671897337 0 -0.027195709212211972 0.0019488004153117957 0 -0.027080023630456855 0.001926305563260348 0 -0.027493546642923982 0.0020825207018513297 0 -0.027195709212211972 0.0019488004153117957 0 -0.027445356387562767 0.0017971063657352298 0 -0.027075232646662478 0.0025140244052804005 0 -0.027845231520483481 0.0020431518338304114 0 -0.027493546642923982 0.0020825207018513297 0 -0.027445356387562767 0.0017971063657352298 0 -0.027742161129276289 0.0017450351650583683 0 -0.026677765582103486 0.002869232466525437 0 -0.027648428528833986 0.0029172567644098067 0 -0.028508599842568177 0.0020374693596470631 0 -0.027648428528833986 0.0029172567644098067 0 -0.028508599842568177 0.0020374693596470631 0 -0.028549574865821478 0.0031058847970191657 0 -0.027648428528833986 0.0029172567644098067 0 -0.027391120499457838 0.003548680434726731 0 -0.028549574865821478 0.0031058847970191657 0 -0.027648428528833986 0.0029172567644098067 0 -0.026976848961302154 0.0032489032631846907 0 -0.027391120499457838 0.003548680434726731 0 -0.026677765582103486 0.002869232466525437 0 -0.027648428528833986 0.0029172567644098067 0 -0.026976848961302154 0.0032489032631846907 0 -0.027755869820588579 0.0045787038756248339 0 -0.027391120499457838 0.003548680434726731 0 -0.026214669946519598 0.0036378070244943552 0 -0.027755869820588579 0.0045787038756248339 0 -0.027391120499457838 0.003548680434726731 0 -0.028549574865821478 0.0031058847970191657 0 -0.026976848961302154 0.0032489032631846907 0 -0.027391120499457838 0.003548680434726731 0 -0.026214669946519598 0.0036378070244943552 0 -0.027493546642923982 0.0020825207018513297 0 -0.026912854894756418 0.0022730236165986848 0 -0.025448537411397663 0.0039050093836825953 0 -0.026677765582103486 0.002869232466525437 0 -0.026214669946519598 0.0036378070244943552 0 -0.025448537411397663 0.0039050093836825953 0 -0.027755869820588579 0.0045787038756248339 0 -0.025743339419613365 0.0043110486065190698 0 -0.026214669946519598 0.0036378070244943552 0 -0.027075232646662478 0.0025140244052804005 0 -0.025597635608402728 0.003820555084120342 0 -0.026677765582103486 0.002869232466525437 0 -0.026976848961302154 0.0032489032631846907 0 -0.026214669946519598 0.0036378070244943552 0 -0.025743339419613365 0.0043110486065190698 0 -0.026214669946519598 0.0036378070244943552 0 -0.025789143401847042 0.0039736705814671378 0 -0.026214669946519598 0.0036378070244943552 0 -0.025789143401847042 0.0039736705814671378 0 -0.025448537411397663 0.0039050093836825953 0 -0.025443159369115929 0.004225595782829529 0 -0.025789143401847042 0.0039736705814671378 0 -0.025448537411397663 0.0039050093836825953 0 -0.026912854894756418 0.0022730236165986848 0 -0.025448537411397663 0.0039050093836825953 0 -0.024887530345550555 0.0039306413528821067 0 -0.026846793940708078 0.0022801886920575179 0 -0.025852183458662737 0.0032024812166773311 0 -0.026912854894756418 0.0022730236165986848 0 -0.026911963541193042 0.0021940835140809882 0 -0.026930984757896171 0.0021918639530289696 0 -0.025111806590231649 0.0042057666421739179 0 -0.025448537411397663 0.0039050093836825953 0 -0.024887530345550555 0.0039306413528821067 0 -0.026911963541193042 0.0021940835140809882 0 -0.026806771451478043 0.0022370735041205934 0 -0.026851339570588516 0.0021897169187115009 0 -0.026911963541193042 0.0021940835140809882 0 -0.026900869120962699 0.0021774838704792339 0 -0.026851339570588516 0.0021897169187115009 0 -0.026900869120962699 0.0021774838704792339 0 -0.026844235642917751 0.002140055073834685 0 -0.026919975983741715 0.0021149116949763344 0 -0.026900869120962699 0.0021774838704792339 0 -0.026851339570588516 0.0021897169187115009 0 -0.026844235642917751 0.002140055073834685 0 -0.026900869120962699 0.0021774838704792339 0 -0.026930984757896171 0.0021918639530289696 0 -0.026919975983741715 0.0021149116949763344 0 -0.026911963541193042 0.0021940835140809882 0 -0.026900869120962699 0.0021774838704792339 0 -0.026930984757896171 0.0021918639530289696 0 -0.026702114298225027 0.0022427378538069269 0 -0.026806771451478043 0.0022370735041205934 0 -0.026775346481478522 0.0021673236930301386 0 -0.026702114298225027 0.0022427378538069269 0 -0.026699198608060415 0.0021330747433845575 0 -0.026775346481478522 0.0021673236930301386 0 -0.026806771451478043 0.0022370735041205934 0 -0.026851339570588516 0.0021897169187115009 0 -0.026775346481478522 0.0021673236930301386 0 -0.026851339570588516 0.0021897169187115009 0 -0.026844235642917751 0.002140055073834685 0 -0.026775346481478522 0.0021673236930301386 0 -0.026844235642917751 0.002140055073834685 0 -0.026775346481478522 0.0021673236930301386 0 -0.026757019573217987 0.0019881157231445507 0 -0.026699198608060415 0.0021330747433845575 0 -0.026775346481478522 0.0021673236930301386 0 -0.026757019573217987 0.0019881157231445507 0 -0.027098382447674953 0.0016362169994073358 0 -0.027178430062949364 0.0014832211514479233 0 -0.027087581788243199 0.0015636966585859684 0 -0.029324118529024775 0.00095712862494772813 0 -0.026683802266529635 0.0020670505686117831 0 -0.026757019573217987 0.0019881157231445507 0 -0.026919975983741715 0.0021149116949763344 0 -0.026994201077363462 0.001926072576345464 0 -0.026994760986865846 0.0020937646671897337 0 -0.026930984757896171 0.0021918639530289696 0 -0.026919975983741715 0.0021149116949763344 0 -0.026844235642917751 0.002140055073834685 0 -0.026757019573217987 0.0019881157231445507 0 -0.026919975983741715 0.0021149116949763344 0 -0.026994760986865846 0.0020937646671897337 0 -0.026919975983741715 0.0021149116949763344 0 -0.026994201077363462 0.001926072576345464 0 -0.026994760986865846 0.0020937646671897337 0 -0.027080023630456855 0.001926305563260348 0 -0.026994201077363462 0.001926072576345464 0 -0.027080023630456855 0.001926305563260348 0 -0.026994201077363462 0.001926072576345464 0 -0.027161269769873195 0.0017634172550615675 0 -0.026994201077363462 0.001926072576345464 0 -0.027014096598454135 0.0016403055837277299 0 -0.027161269769873195 0.0017634172550615675 0 -0.026757019573217987 0.0019881157231445507 0 -0.026994201077363462 0.001926072576345464 0 -0.027014096598454135 0.0016403055837277299 0 -0.027014096598454135 0.0016403055837277299 0 -0.027105285762592548 0.0016064685556418969 0 -0.027072820856564324 0.0015690967379449661 0 -0.027014096598454135 0.0016403055837277299 0 -0.027149236497895291 0.0015953086678536245 0 -0.027072820856564324 0.0015690967379449661 0 -0.027014096598454135 0.0016403055837277299 0 -0.027149236497895291 0.0015953086678536245 0 -0.027161269769873195 0.0017634172550615675 0 -0.027087581788243199 0.0015636966585859684 0 -0.027014096598454135 0.0016403055837277299 0 -0.027105285762592548 0.0016064685556418969 0 -0.027098382447674953 0.0016362169994073358 0 -0.027087581788243199 0.0015636966585859684 0 -0.027105285762592548 0.0016064685556418969 0 -0.026683802266529635 0.0020670505686117831 0 -0.027084457072385673 0.0015532496125960716 0 -0.027049304540173701 0.0012488441501226195 0 -0.027098382447674953 0.0016362169994073358 0 -0.027172517784476168 0.0015110439734497304 0 -0.027098382447674953 0.0016362169994073358 0 -0.027105285762592548 0.0016064685556418969 0 -0.027172517784476168 0.0015110439734497304 0 -0.027105285762592548 0.0016064685556418969 0 -0.027172517784476168 0.0015110439734497304 0 -0.027072820856564324 0.0015690967379449661 0 -0.027172517784476168 0.0015110439734497304 0 -0.027534660191578731 0.0015704787753405437 0 -0.027373853022452797 0.0012644189805492622 0 -0.026995425907533448 0.0015821790549315287 0 -0.028536038691847294 0.0017921133920038501 0 -0.027149236497895291 0.0015953086678536245 0 -0.027072820856564324 0.0015690967379449661 0 -0.027176965883236658 0.0014509843974864626 0 -0.027072820856564324 0.0015690967379449661 0 -0.027097568674160685 0.0015225736714895993 0 -0.027176965883236658 0.0014509843974864626 0 -0.027172517784476168 0.0015110439734497304 0 -0.027072820856564324 0.0015690967379449661 0 -0.027097568674160685 0.0015225736714895993 0 -0.028536038691847294 0.0017921133920038501 0 -0.029811530174442828 0.0013653964905086524 0 -0.027176965883236658 0.0014509843974864626 0 -0.027374187614456921 0.001576054457567182 0 -0.027614238528244909 0.0013650454709815453 0 -0.029811530174442828 0.0013653964905086524 0 -0.030222427225425372 0.0011763710131713952 0 -0.03233137173175759 0.0010849292790810171 0 -0.032924602955094633 0.0010287950528686135 0 -0.032680982699747084 0.00074488955662969697 0 -0.027149236497895291 0.0015953086678536245 0 -0.027176965883236658 0.0014509843974864626 0 -0.027374187614456921 0.001576054457567182 0 -0.027149236497895291 0.0015953086678536245 0 -0.027374187614456921 0.001576054457567182 0 -0.027161269769873195 0.0017634172550615675 0 -0.027374187614456921 0.001576054457567182 0 -0.027445356387562767 0.0017971063657352298 0 -0.027161269769873195 0.0017634172550615675 0 -0.027195709212211972 0.0019488004153117957 0 -0.027445356387562767 0.0017971063657352298 0 -0.027161269769873195 0.0017634172550615675 0 -0.027374187614456921 0.001576054457567182 0 -0.027445356387562767 0.0017971063657352298 0 -0.027742161129276289 0.0017450351650583683 0 -0.027374187614456921 0.001576054457567182 0 -0.027742161129276289 0.0017450351650583683 0 -0.027614238528244909 0.0013650454709815453 0 -0.027742161129276289 0.0017450351650583683 0 -0.027614238528244909 0.0013650454709815453 0 -0.028141437048185287 0.0013630561719718845 0 -0.033095303361760413 0.00080846195597248879 0 -0.032680982699747084 0.00074488955662969697 0 -0.032945935226825748 0.00053901760487837258 0 -0.032924602955094633 0.0010287950528686135 0 -0.033095303361760413 0.00080846195597248879 0 -0.032680982699747084 0.00074488955662969697 0 -0.033095303361760413 0.00080846195597248879 0 -0.032945935226825748 0.00053901760487837258 0 -0.033277106003000566 0.00065783824961625833 0 -0.03233137173175759 0.0010849292790810171 0 -0.032680982699747084 0.00074488955662969697 0 -0.032303892290674686 0.00038537150777767204 0 -0.032680982699747084 0.00074488955662969697 0 -0.032945935226825748 0.00053901760487837258 0 -0.032303892290674686 0.00038537150777767204 0 -0.034162112759155677 -8.7256663219534541e-05 0 -0.032637612239980747 3.3435009460573236e-05 0 -0.032637612239980747 3.3435009460573236e-05 0 -0.035232624256627272 -0.00017925223531528313 0 -0.032936270809032664 0.00013164862104880231 0 -0.032945935226825748 0.00053901760487837258 0 -0.032303892290674686 0.00038537150777767204 0 -0.034913045989899721 -0.0002623346435075029 0 -0.035093753727353641 -0.00030453755799003895 0 -0.035060050902631715 -0.00012102556285157214 0 -0.032936270809032664 0.00013164862104880231 0 -0.032945935226825748 0.00053901760487837258 0 -0.033516206790732743 0.00039912711111807572 0 -0.034905914731852991 3.3825082049322532e-05 0 -0.034896421658438016 5.4823834747804875e-05 0 -0.034931143389071363 4.156997502211532e-05 0 -0.032751365934496901 0.00081553189500828578 0 -0.030757661186055964 0.00071059460604165625 0 -0.027049304540173701 0.0012488441501226195 0 -0.027172517784476168 0.0015110439734497304 0 -0.027373853022452797 0.0012644189805492622 0 -0.027049304540173701 0.0012488441501226195 0 -0.027373853022452797 0.0012644189805492622 0 -0.027390464636066633 0.0010095488474604251 0 -0.028536038691847294 0.0017921133920038501 0 -0.032637612239980747 3.3435009460573236e-05 0 -0.032048996363069834 0.0010800101263829811 0 -0.03233137173175759 0.0010849292790810171 0 -0.032303892290674686 0.00038537150777767204 0 -0.027534660191578731 0.0015704787753405437 0 -0.027373853022452797 0.0012644189805492622 0 -0.027860298222881819 0.00082828504505307759 0 -0.027373853022452797 0.0012644189805492622 0 -0.027390464636066633 0.0010095488474604251 0 -0.027860298222881819 0.00082828504505307759 0 -0.034931143389071363 4.156997502211532e-05 0 -0.034958399676584435 3.1306246262188194e-05 0 -0.034959149542124951 1.5580110423754088e-05 0 -0.034958399676584435 3.1306246262188194e-05 0 -0.034959149542124951 1.5580110423754088e-05 0 -0.03498654384612878 5.8382995204856773e-06 0 -0.030757661186055964 0.00071059460604165625 0 -0.032637612239980747 3.3435009460573236e-05 0 -0.034931143389071363 4.156997502211532e-05 0 -0.034935566418380963 2.0993482949388258e-05 0 -0.034959149542124951 1.5580110423754088e-05 0 -0.034921661796125401 1.507682205884845e-05 0 -0.034935566418380963 2.0993482949388258e-05 0 -0.034957761851901532 6.1287347566197339e-06 0 -0.034905914731852991 3.3825082049322532e-05 0 -0.034921661796125401 1.507682205884845e-05 0 -0.034935566418380963 2.0993482949388258e-05 0 -0.034905914731852991 3.3825082049322532e-05 0 -0.034931143389071363 4.156997502211532e-05 0 -0.034935566418380963 2.0993482949388258e-05 0 -0.034935566418380963 2.0993482949388258e-05 0 -0.034957761851901532 6.1287347566197339e-06 0 -0.034959149542124951 1.5580110423754088e-05 0 -0.034981317597330003 2.9359366645057567e-06 0 -0.034959149542124951 1.5580110423754088e-05 0 -0.03498654384612878 5.8382995204856773e-06 0 -0.034957761851901532 6.1287347566197339e-06 0 -0.034981317597330003 2.9359366645057567e-06 0 -0.034959149542124951 1.5580110423754088e-05 0 -0.034981317597330003 2.9359366645057567e-06 0 -0.034999955771853435 -2.9437465921747871e-09 0 -0.035000004100052919 -1.6729590221726562e-09 0 -0.034968913872054946 1.9248389771894868e-06 0 -0.034999932966607306 1.0575344266470201e-09 0 -0.034999955771853435 -2.9437465921747871e-09 0 -0.034968913872054946 1.9248389771894868e-06 0 -0.034957761851901532 6.1287347566197339e-06 0 -0.034999955771853435 -2.9437465921747871e-09 0 -0.034957761851901532 6.1287347566197339e-06 0 -0.034981317597330003 2.9359366645057567e-06 0 -0.034999955771853435 -2.9437465921747871e-09 0 -0.034913045989899721 -0.0002623346435075029 0 -0.035060050902631715 -0.00012102556285157214 0 -0.034895754582874555 -1.9729427304385913e-05 0 -0.035232624256627272 -0.00017925223531528313 0 -0.034999894161134824 1.80039604725241e-07 0 -0.035060050902631715 -0.00012102556285157214 0 -0.035000289393091272 4.2812968092971439e-08 0 -0.034895754582874555 -1.9729427304385913e-05 0 -0.034981317597330003 2.9359366645057567e-06 0 -0.03498654384612878 5.8382995204856773e-06 0 -0.035000004100052919 -1.6729590221726562e-09 0 -0.035000289393091272 4.2812968092971439e-08 0 -0.034895754582874555 -1.9729427304385913e-05 0 -0.034999102772529093 4.5667373537771052e-08 0 -0.034895754582874555 -1.9729427304385913e-05 0 -0.034999102772529093 4.5667373537771052e-08 0 -0.034337102927060784 -6.1617027384818158e-05 0 -0.034913045989899721 -0.0002623346435075029 0 -0.034895754582874555 -1.9729427304385913e-05 0 -0.034337102927060784 -6.1617027384818158e-05 0 -0.034162112759155677 -8.7256663219534541e-05 0 -0.034191575126561957 -5.0917756472424714e-05 0 -0.034337102927060784 -6.1617027384818158e-05 0 -0.034537952066008147 -2.1075716190721204e-05 0 -0.033977375084796105 0.00028382920308709275 0 -0.034999102772529093 4.5667373537771052e-08 0 -0.034999561006681099 -1.5037419871777085e-07 0 -0.034537952066008147 -2.1075716190721204e-05 0 -0.034999102772529093 4.5667373537771052e-08 0 -0.034337102927060784 -6.1617027384818158e-05 0 -0.034537952066008147 -2.1075716190721204e-05 0 -0.034999561006681099 -1.5037419871777085e-07 0 -0.034860223546331351 -2.6888477901975806e-05 0 -0.034537952066008147 -2.1075716190721204e-05 0 -0.034999561006681099 -1.5037419871777085e-07 0 -0.034860223546331351 -2.6888477901975806e-05 0 -0.03499994453424448 -9.1433764087950032e-09 0 -0.034860223546331351 -2.6888477901975806e-05 0 -0.034537952066008147 -2.1075716190721204e-05 0 -0.03461693025541783 0.00021086067394055874 0 -0.034537952066008147 -2.1075716190721204e-05 0 -0.034169219847448383 0.00038846563864856361 0 -0.033977375084796105 0.00028382920308709275 0 -0.034537952066008147 -2.1075716190721204e-05 0 -0.034169219847448383 0.00038846563864856361 0 -0.03461693025541783 0.00021086067394055874 0 -0.034169219847448383 0.00038846563864856361 0 -0.03461693025541783 0.00021086067394055874 0 -0.034600568025105236 0.00050162699213312199 0 -0.034860223546331351 -2.6888477901975806e-05 0 -0.03461693025541783 0.00021086067394055874 0 -0.035033467533200864 0.00039053622727025207 0 -0.034845500411906767 -1.0761221752466244e-05 0 -0.035126492177162454 0.00012644114456342493 0 -0.03461693025541783 0.00021086067394055874 0 -0.034600568025105236 0.00050162699213312199 0 -0.035033467533200864 0.00039053622727025207 0 -0.034600568025105236 0.00050162699213312199 0 -0.034788396409484466 0.00079434834208605084 0 -0.035033467533200864 0.00039053622727025207 0 -0.034788396409484466 0.00079434834208605084 0 -0.03500990320414335 0.0010113020098047253 0 -0.035033467533200864 0.00039053622727025207 0 -0.034600568025105236 0.00050162699213312199 0 -0.034788396409484466 0.00079434834208605084 0 -0.034339496485403256 0.00073297683906036425 0 -0.034788396409484466 0.00079434834208605084 0 -0.034628241172339383 0.0010728686193758811 0 -0.034339496485403256 0.00073297683906036425 0 -0.034628241172339383 0.0010728686193758811 0 -0.03500990320414335 0.0010113020098047253 0 -0.034997341692417527 0.0014900658765733094 0 -0.034788396409484466 0.00079434834208605084 0 -0.034628241172339383 0.0010728686193758811 0 -0.03500990320414335 0.0010113020098047253 0 -0.034169219847448383 0.00038846563864856361 0 -0.034339496485403256 0.00073297683906036425 0 -0.033592204697151053 0.00067620342254856114 0 -0.034169219847448383 0.00038846563864856361 0 -0.034600568025105236 0.00050162699213312199 0 -0.034339496485403256 0.00073297683906036425 0 -0.034339496485403256 0.00073297683906036425 0 -0.034092540069540371 0.0010441484559741204 0 -0.033592204697151053 0.00067620342254856114 0 -0.034628241172339383 0.0010728686193758811 0 -0.034339496485403256 0.00073297683906036425 0 -0.034092540069540371 0.0010441484559741204 0 -0.034092540069540371 0.0010441484559741204 0 -0.033592204697151053 0.00067620342254856114 0 -0.033544267514780665 0.0010774937897709011 0 -0.033592204697151053 0.00067620342254856114 0 -0.032918499226734566 0.0010655334051165428 0 -0.033544267514780665 0.0010774937897709011 0 -0.033592204697151053 0.00067620342254856114 0 -0.032942957033200874 0.00085311475381300082 0 -0.032918499226734566 0.0010655334051165428 0 -0.033592204697151053 0.00067620342254856114 0 -0.033422636800446485 0.00063203654600725112 0 -0.032942957033200874 0.00085311475381300082 0 -0.033422636800446485 0.00063203654600725112 0 -0.032942957033200874 0.00085311475381300082 0 -0.033235071634631262 0.00080186815078359976 0 -0.033095303361760413 0.00080846195597248879 0 -0.033235071634631262 0.00080186815078359976 0 -0.033223503088880425 0.00083769153712561948 0 -0.033095303361760413 0.00080846195597248879 0 -0.033235071634631262 0.00080186815078359976 0 -0.033277106003000566 0.00065783824961625833 0 -0.033422636800446485 0.00063203654600725112 0 -0.033235071634631262 0.00080186815078359976 0 -0.033277106003000566 0.00065783824961625833 0 -0.034337102927060784 -6.1617027384818158e-05 0 -0.033516206790732743 0.00039912711111807572 0 -0.033977375084796105 0.00028382920308709275 0 -0.032936270809032664 0.00013164862104880231 0 -0.034337102927060784 -6.1617027384818158e-05 0 -0.033516206790732743 0.00039912711111807572 0 -0.033422636800446485 0.00063203654600725112 0 -0.033516206790732743 0.00039912711111807572 0 -0.033977375084796105 0.00028382920308709275 0 -0.033422636800446485 0.00063203654600725112 0 -0.033277106003000566 0.00065783824961625833 0 -0.033516206790732743 0.00039912711111807572 0 -0.032945935226825748 0.00053901760487837258 0 -0.033277106003000566 0.00065783824961625833 0 -0.033516206790732743 0.00039912711111807572 0 -0.033592204697151053 0.00067620342254856114 0 -0.033422636800446485 0.00063203654600725112 0 -0.033977375084796105 0.00028382920308709275 0 -0.034169219847448383 0.00038846563864856361 0 -0.033592204697151053 0.00067620342254856114 0 -0.033977375084796105 0.00028382920308709275 0 -0.034834676732006555 -0.00014168747205479964 0 -0.034817388384748495 -0.000122035304861099 0 -0.034829966889039901 -0.00016923590326410259 0 -0.034996949635041415 -2.1434168139685157e-07 0 -0.034999970619842072 -2.2207235959280606e-08 0 -0.035000004296844862 5.6195890690346598e-09 0 -0.034996949635041415 -2.1434168139685157e-07 0 -0.034999970619842072 -2.2207235959280606e-08 0 -0.034977493999216805 -3.1274363238502602e-06 0 -0.034834676732006555 -0.00014168747205479964 0 -0.034816628870602245 -9.4591884596852965e-05 0 -0.034817388384748495 -0.000122035304861099 0 -0.034915960487519757 -6.8492353649503448e-05 0 -0.034902653329787765 -5.0341317105867516e-05 0 -0.034977493999216805 -3.1274363238502602e-06 0 -0.034957273673998028 -1.7113848739087692e-05 0 -0.034891441992734556 -2.6065341471673886e-05 0 -0.034999970619842072 -2.2207235959280606e-08 0 -0.034977493999216805 -3.1274363238502602e-06 0 -0.034957273673998028 -1.7113848739087692e-05 0 -0.034999970619842072 -2.2207235959280606e-08 0 -0.034957273673998028 -1.7113848739087692e-05 0 -0.03499994453424448 -9.1433764087950032e-09 0 -0.034860223546331351 -2.6888477901975806e-05 0 -0.034957273673998028 -1.7113848739087692e-05 0 -0.03499994453424448 -9.1433764087950032e-09 0 -0.034860223546331351 -2.6888477901975806e-05 0 -0.034957273673998028 -1.7113848739087692e-05 0 -0.034891441992734556 -2.6065341471673886e-05 0 -0.034860223546331351 -2.6888477901975806e-05 0 -0.034891441992734556 -2.6065341471673886e-05 0 -0.034895195336531674 -4.0137589757617883e-05 0 -0.034891441992734556 -2.6065341471673886e-05 0 -0.034895195336531674 -4.0137589757617883e-05 0 -0.034849763798666514 -7.3675475116531718e-05 0 -0.035126492177162454 0.00012644114456342493 0 -0.033105155160618994 0.0013453650527108225 0 -0.034895195336531674 -4.0137589757617883e-05 0 -0.034849763798666514 -7.3675475116531718e-05 0 -0.034853963831261339 -0.00010072146245530746 0 -0.03500990320414335 0.0010113020098047253 0 -0.035033467533200864 0.00039053622727025207 0 -0.03546036053774048 0.0012802108218832285 0 -0.034849763798666514 -7.3675475116531718e-05 0 -0.034798281853271204 -9.8012546083526539e-05 0 -0.034853963831261339 -0.00010072146245530746 0 -0.034849763798666514 -7.3675475116531718e-05 0 -0.034822842212059654 -8.3891409334973754e-05 0 -0.034798281853271204 -9.8012546083526539e-05 0 -0.031303420357266236 -2.0722971992249745e-05 0 -0.033105155160618994 0.0013453650527108225 0 -0.034816628870602245 -9.4591884596852965e-05 0 -0.034891441992734556 -2.6065341471673886e-05 0 -0.034822842212059654 -8.3891409334973754e-05 0 -0.034891441992734556 -2.6065341471673886e-05 0 -0.034849763798666514 -7.3675475116531718e-05 0 -0.034822842212059654 -8.3891409334973754e-05 0 -0.034902653329787765 -5.0341317105867516e-05 0 -0.034898449765560231 -3.3361383328472352e-05 0 -0.034817388384748495 -0.000122035304861099 0 -0.034798281853271204 -9.8012546083526539e-05 0 -0.034815187924373381 -0.00015002002742874447 0 -0.034822842212059654 -8.3891409334973754e-05 0 -0.034817388384748495 -0.000122035304861099 0 -0.034798281853271204 -9.8012546083526539e-05 0 -0.034816628870602245 -9.4591884596852965e-05 0 -0.034822842212059654 -8.3891409334973754e-05 0 -0.034817388384748495 -0.000122035304861099 0 -0.031303420357266236 -2.0722971992249745e-05 0 -0.032582133451116442 -0.00018993857612336208 0 -0.028623730460849317 0.00021817706541569845 0 -0.030196177079093021 -0.00023641615103272331 0 -0.029708232387780475 0.0010975631794853656 0 -0.034817388384748495 -0.000122035304861099 0 -0.034815187924373381 -0.00015002002742874447 0 -0.034829966889039901 -0.00016923590326410259 0 -0.023973101069677923 0.0017610539123108261 0 -0.025352226580376763 0.0020529569536496791 0 -0.029708232387780475 0.0010975631794853656 0 -0.028962339572934342 0.0021062270915699925 0 -0.030426915891735486 0.0023656869392018388 0 -0.028623730460849317 0.00021817706541569845 0 -0.029708232387780475 0.0010975631794853656 0 -0.028446197368973164 0.0013870050852666732 0 -0.029708232387780475 0.0010975631794853656 0 -0.028446197368973164 0.0013870050852666732 0 -0.028962339572934342 0.0021062270915699925 0 -0.023973101069677923 0.0017610539123108261 0 -0.022279641768878197 0.0023265753981562801 0 -0.028446197368973164 0.0013870050852666732 0 -0.028962339572934342 0.0021062270915699925 0 -0.027616774794765694 0.001813813540408712 0 -0.028446197368973164 0.0013870050852666732 0 -0.027616774794765694 0.001813813540408712 0 -0.027538484725834995 0.0012730499923822467 0 -0.028623730460849317 0.00021817706541569845 0 -0.027538484725834995 0.0012730499923822467 0 -0.027252968773585788 0.00069079003110403736 0 -0.028623730460849317 0.00021817706541569845 0 -0.028446197368973164 0.0013870050852666732 0 -0.027538484725834995 0.0012730499923822467 0 -0.027461775931404812 0.0013239462832591643 0 -0.027538484725834995 0.0012730499923822467 0 -0.027252968773585788 0.00069079003110403736 0 -0.035502588496212767 0.0018325164727015894 0 -0.035348237156524347 0.0013938055397392992 0 -0.035248600153667986 0.0017032598578257442 0 -0.028660357675690987 0.0012951228638397674 0 -0.028554019593457769 0.0013404238464825784 0 -0.028660357675690987 0.0012951228638397674 0 -0.033105155160618994 0.0013453650527108225 0 -0.033105155160618994 0.0013453650527108225 0 -0.035313528609970231 0.0011294139706885251 0 -0.03500990320414335 0.0010113020098047253 0 -0.03546036053774048 0.0012802108218832285 0 -0.034997341692417527 0.0014900658765733094 0 -0.035348237156524347 0.0013938055397392992 0 -0.035248600153667986 0.0017032598578257442 0 -0.034997341692417527 0.0014900658765733094 0 -0.035248600153667986 0.0017032598578257442 0 -0.03513113820756214 0.0021240099105709616 0 -0.034997341692417527 0.0014900658765733094 0 -0.035502588496212767 0.0018325164727015894 0 -0.035248600153667986 0.0017032598578257442 0 -0.03513113820756214 0.0021240099105709616 0 -0.028660357675690987 0.0012951228638397674 0 -0.027343457225828594 0.0030628448090749636 0 -0.022279641768878197 0.0023265753981562801 0 -0.027343457225828594 0.0030628448090749636 0 -0.025471905388179956 0.0020988397106022549 0 -0.025864560586355299 0.0031219399755907876 0 -0.026975974147865647 0.0024090855501837215 0 -0.027616774794765694 0.001813813540408712 0 -0.027459112686505662 0.0013232690486201927 0 -0.027538484725834995 0.0012730499923822467 0 -0.022279641768878197 0.0023265753981562801 0 -0.028660357675690987 0.0012951228638397674 0 -0.018510183505281448 0.0044298988249606725 0 -0.018828700200861522 0.0043960850685425268 0 -0.01866976879454341 0.0042923648553727612 0 -0.018639703915392086 0.0041706099893770339 0 -0.01866976879454341 0.0042923648553727612 0 -0.018240334019899208 0.0040970243049707486 0 -0.018510183505281448 0.0044298988249606725 0 -0.01866976879454341 0.0042923648553727612 0 -0.018240334019899208 0.0040970243049707486 0 -0.018639703915392086 0.0041706099893770339 0 -0.018388724225959718 0.0038775959196901003 0 -0.018240334019899208 0.0040970243049707486 0 -0.018135448217597081 0.0035782110759064257 0 -0.017717383743525338 0.003143763664811049 0 -0.018388724225959718 0.0038775959196901003 0 -0.018074739689928728 0.0035331239594919243 0 -0.018240334019899208 0.0040970243049707486 0 -0.022279641768878197 0.0023265753981562801 0 -0.017717383743525338 0.003143763664811049 0 -0.018853809410396005 0.0016045985530898342 0 -0.017504863385956842 0.0013709221003635618 0 -0.017787320487309161 0.0023744001058638663 0 -0.018853809410396005 0.0016045985530898342 0 -0.017787320487309161 0.0023744001058638663 0 -0.018706956300312959 0.0026752116259531216 0 -0.018074739689928728 0.0035331239594919243 0 -0.017787320487309161 0.0023744001058638663 0 -0.018706956300312959 0.0026752116259531216 0 -0.018074739689928728 0.0035331239594919243 0 -0.018706956300312959 0.0026752116259531216 0 -0.018983862767202753 0.0032255398415110934 0 -0.018706956300312959 0.0026752116259531216 0 -0.019540505888228005 0.0024763852957722359 0 -0.018983862767202753 0.0032255398415110934 0 -0.019540505888228005 0.0024763852957722359 0 -0.018983862767202753 0.0032255398415110934 0 -0.020405322922484977 0.002996059674834811 0 -0.018853809410396005 0.0016045985530898342 0 -0.019540505888228005 0.0024763852957722359 0 -0.020355644163761951 0.0017239666006948222 0 -0.018853809410396005 0.0016045985530898342 0 -0.018706956300312959 0.0026752116259531216 0 -0.019540505888228005 0.0024763852957722359 0 -0.030522625768101597 0.0022233470726338461 0 -0.030318418291632978 0.002471623996560487 0 -0.030236538684490562 0.0027201855363478489 0 -0.030522625768101597 0.0022233470726338461 0 -0.031069932046278798 0.0019167916165496316 0 -0.030236538684490562 0.0027201855363478489 0 -0.030522625768101597 0.0022233470726338461 0 -0.030005632934224761 0.0019513298969033956 0 -0.031069932046278798 0.0019167916165496316 0 -0.030522625768101597 0.0022233470726338461 0 -0.030318418291632978 0.002471623996560487 0 -0.029690365171208145 0.002542502517148612 0 -0.030522625768101597 0.0022233470726338461 0 -0.029758448346996366 0.0021645031114736475 0 -0.029690365171208145 0.002542502517148612 0 -0.028508599842568177 0.0020374693596470631 0 -0.029758448346996366 0.0021645031114736475 0 -0.029690365171208145 0.002542502517148612 0 -0.027845231520483481 0.0020431518338304114 0 -0.030810282091207425 0.0012453473691572249 0 -0.028508599842568177 0.0020374693596470631 0 -0.030005632934224761 0.0019513298969033956 0 -0.029758448346996366 0.0021645031114736475 0 -0.028508599842568177 0.0020374693596470631 0 -0.030005632934224761 0.0019513298969033956 0 -0.030029257280948601 0.0013535746152416998 0 -0.030522625768101597 0.0022233470726338461 0 -0.030005632934224761 0.0019513298969033956 0 -0.029758448346996366 0.0021645031114736475 0 -0.032924602955094633 0.0010287950528686135 0 -0.033095303361760413 0.00080846195597248879 0 -0.033223503088880425 0.00083769153712561948 0 -0.030222427225425372 0.0011763710131713952 0 -0.030810282091207425 0.0012453473691572249 0 -0.030005632934224761 0.0019513298969033956 0 -0.030029257280948601 0.0013535746152416998 0 -0.031069932046278798 0.0019167916165496316 0 -0.032942957033200874 0.00085311475381300082 0 -0.033235071634631262 0.00080186815078359976 0 -0.033223503088880425 0.00083769153712561948 0 -0.032887767209472667 0.000577476632755731 0 -0.030810282091207425 0.0012453473691572249 0 -0.031069932046278798 0.0019167916165496316 0 -0.034315174253407479 0.0021854682392084064 0 -0.033132249294760267 0.0015426046539855781 0 -0.030682124407827936 0.0019298043952187505 0 -0.033182535133142496 0.0024691969379567738 0 -0.032942957033200874 0.00085311475381300082 0 -0.031781130457358774 0.0014256583608753127 0 -0.032053356792440799 0.0014777409409622495 0 -0.030029257280948601 0.0013535746152416998 0 -0.031069932046278798 0.0019167916165496316 0 -0.032053356792440799 0.0014777409409622495 0 -0.030810282091207425 0.0012453473691572249 0 -0.03181514859807319 0.0014004951500847162 0 -0.031069932046278798 0.0019167916165496316 0 -0.032053356792440799 0.0014777409409622495 0 -0.033132249294760267 0.0015426046539855781 0 -0.032942957033200874 0.00085311475381300082 0 -0.032053356792440799 0.0014777409409622495 0 -0.032918499226734566 0.0010655334051165428 0 -0.032053356792440799 0.0014777409409622495 0 -0.032918499226734566 0.0010655334051165428 0 -0.033132249294760267 0.0015426046539855781 0 -0.032918499226734566 0.0010655334051165428 0 -0.033544267514780665 0.0010774937897709011 0 -0.033132249294760267 0.0015426046539855781 0 -0.033544267514780665 0.0010774937897709011 0 -0.033925197529514749 0.0014048564725482246 0 -0.033132249294760267 0.0015426046539855781 0 -0.034092540069540371 0.0010441484559741204 0 -0.033544267514780665 0.0010774937897709011 0 -0.033925197529514749 0.0014048564725482246 0 -0.034092540069540371 0.0010441484559741204 0 -0.033925197529514749 0.0014048564725482246 0 -0.034430410185859753 0.0013981568947187245 0 -0.033925197529514749 0.0014048564725482246 0 -0.034315174253407479 0.0021854682392084064 0 -0.034430410185859753 0.0013981568947187245 0 -0.033925197529514749 0.0014048564725482246 0 -0.034315174253407479 0.0021854682392084064 0 -0.033132249294760267 0.0015426046539855781 0 -0.03513113820756214 0.0021240099105709616 0 -0.034315174253407479 0.0021854682392084064 0 -0.034997341692417527 0.0014900658765733094 0 -0.034315174253407479 0.0021854682392084064 0 -0.034997341692417527 0.0014900658765733094 0 -0.034430410185859753 0.0013981568947187245 0 -0.034628241172339383 0.0010728686193758811 0 -0.034997341692417527 0.0014900658765733094 0 -0.034430410185859753 0.0013981568947187245 0 -0.034628241172339383 0.0010728686193758811 0 -0.034092540069540371 0.0010441484559741204 0 -0.034430410185859753 0.0013981568947187245 0 -0.018828700200861522 0.0043960850685425268 0 -0.01866976879454341 0.0042923648553727612 0 -0.019050837603643518 0.0043926401681081252 0 -0.027343457225828594 0.0030628448090749636 0 -0.033182535133142496 0.0024691969379567738 0 -0.029220004105218043 0.0028715760308382562 0 -0.030236538684490562 0.0027201855363478489 0 -0.030251433984077279 0.0024680203806865617 0 -0.027343457225828594 0.0030628448090749636 0 -0.023969290271344083 0.0037157312511677961 0 -0.030318418291632978 0.002471623996560487 0 -0.030236538684490562 0.0027201855363478489 0 -0.030251433984077279 0.0024680203806865617 0 -0.019050837603643518 0.0043926401681081252 0 -0.018794940263374211 0.0042095255399484744 0 -0.019451673306114605 0.004806234453905385 0 -0.018639703915392086 0.0041706099893770339 0 -0.01866976879454341 0.0042923648553727612 0 -0.019050837603643518 0.0043926401681081252 0 -0.018639703915392086 0.0041706099893770339 0 -0.019050837603643518 0.0043926401681081252 0 -0.018794940263374211 0.0042095255399484744 0 -0.018388724225959718 0.0038775959196901003 0 -0.018794940263374211 0.0042095255399484744 0 -0.018491360691631004 0.0038604876842335588 0 -0.018639703915392086 0.0041706099893770339 0 -0.018388724225959718 0.0038775959196901003 0 -0.018794940263374211 0.0042095255399484744 0 -0.018794940263374211 0.0042095255399484744 0 -0.019451673306114605 0.004806234453905385 0 -0.018940761394476906 0.0040791511001284893 0 -0.023969290271344083 0.0037157312511677961 0 -0.024842286392188134 0.0040308792960468617 0 -0.030318418291632978 0.002471623996560487 0 -0.030251433984077279 0.0024680203806865617 0 -0.029927107873323675 0.0034116922857141342 0 -0.030318418291632978 0.002471623996560487 0 -0.029927107873323675 0.0034116922857141342 0 -0.029690365171208145 0.002542502517148612 0 -0.028508599842568177 0.0020374693596470631 0 -0.029690365171208145 0.002542502517148612 0 -0.028549574865821478 0.0031058847970191657 0 -0.029927107873323675 0.0034116922857141342 0 -0.029690365171208145 0.002542502517148612 0 -0.028549574865821478 0.0031058847970191657 0 -0.024480413457222159 0.0047985724931814428 0 -0.024842286392188134 0.0040308792960468617 0 -0.02108775181870436 0.0052297823540343241 0 -0.019451673306114605 0.004806234453905385 0 -0.019730137959257057 0.0044731410371305893 0 -0.027755869820588579 0.0045787038756248339 0 -0.029927107873323675 0.0034116922857141342 0 -0.028549574865821478 0.0031058847970191657 0 -0.02108775181870436 0.0052297823540343241 0 -0.021317840667934757 0.0036681565440324177 0 -0.019730137959257057 0.0044731410371305893 0 -0.019451673306114605 0.004806234453905385 0 -0.019730137959257057 0.0044731410371305893 0 -0.018940761394476906 0.0040791511001284893 0 -0.019730137959257057 0.0044731410371305893 0 -0.019456420085241014 0.0034896441051923558 0 -0.018940761394476906 0.0040791511001284893 0 -0.019456420085241014 0.0034896441051923558 0 -0.018741446705282258 0.0033075340184285347 0 -0.018940761394476906 0.0040791511001284893 0 -0.021317840667934757 0.0036681565440324177 0 -0.019730137959257057 0.0044731410371305893 0 -0.019456420085241014 0.0034896441051923558 0 -0.021317840667934757 0.0036681565440324177 0 -0.019456420085241014 0.0034896441051923558 0 -0.019560001575369558 0.0022496585185436137 0 -0.019456420085241014 0.0034896441051923558 0 -0.018842282849484256 0.0026364197960876234 0 -0.018741446705282258 0.0033075340184285347 0 -0.019456420085241014 0.0034896441051923558 0 -0.019560001575369558 0.0022496585185436137 0 -0.018842282849484256 0.0026364197960876234 0 -0.018842282849484256 0.0026364197960876234 0 -0.018923836086169883 0.002211152833074775 0 -0.018316227302261755 0.0023427090903499299 0 -0.019560001575369558 0.0022496585185436137 0 -0.018842282849484256 0.0026364197960876234 0 -0.018923836086169883 0.002211152833074775 0 -0.019291772570838701 0.0021231867405693077 0 -0.019068696851103059 0.0019791108263593239 0 -0.019560001575369558 0.0022496585185436137 0 -0.019068696851103059 0.0019791108263593239 0 -0.019560001575369558 0.0022496585185436137 0 -0.018923836086169883 0.002211152833074775 0 -0.017917967619574211 0.0026924815231871443 0 -0.018335203090255985 0.0028753650349432865 0 -0.018037648342688759 0.0030821807603564817 0 -0.018842282849484256 0.0026364197960876234 0 -0.018335203090255985 0.0028753650349432865 0 -0.018316227302261755 0.0023427090903499299 0 -0.017917967619574211 0.0026924815231871443 0 -0.018335203090255985 0.0028753650349432865 0 -0.018316227302261755 0.0023427090903499299 0 -0.018842282849484256 0.0026364197960876234 0 -0.018335203090255985 0.0028753650349432865 0 -0.018741446705282258 0.0033075340184285347 0 -0.018335203090255985 0.0028753650349432865 0 -0.018309703623366001 0.0034649387014204004 0 -0.018741446705282258 0.0033075340184285347 0 -0.018335203090255985 0.0028753650349432865 0 -0.018037648342688759 0.0030821807603564817 0 -0.018309703623366001 0.0034649387014204004 0 -0.018309703623366001 0.0034649387014204004 0 -0.018741446705282258 0.0033075340184285347 0 -0.018940761394476906 0.0040791511001284893 0 -0.018794940263374211 0.0042095255399484744 0 -0.018940761394476906 0.0040791511001284893 0 -0.018491360691631004 0.0038604876842335588 0 -0.018309703623366001 0.0034649387014204004 0 -0.018940761394476906 0.0040791511001284893 0 -0.018491360691631004 0.0038604876842335588 0 -0.018309703623366001 0.0034649387014204004 0 -0.018491360691631004 0.0038604876842335588 0 -0.018218585918837255 0.0036630398595247104 0 -0.018388724225959718 0.0038775959196901003 0 -0.018491360691631004 0.0038604876842335588 0 -0.018218585918837255 0.0036630398595247104 0 -0.018388724225959718 0.0038775959196901003 0 -0.018074739689928728 0.0035331239594919243 0 -0.018218585918837255 0.0036630398595247104 0 -0.018074739689928728 0.0035331239594919243 0 -0.018017543677872516 0.0035459262565850423 0 -0.018188033002587835 0.0037442168100888721 0 -0.018074739689928728 0.0035331239594919243 0 -0.018218585918837255 0.0036630398595247104 0 -0.018017543677872516 0.0035459262565850423 0 -0.018037648342688759 0.0030821807603564817 0 -0.018309703623366001 0.0034649387014204004 0 -0.018017543677872516 0.0035459262565850423 0 -0.018309703623366001 0.0034649387014204004 0 -0.018218585918837255 0.0036630398595247104 0 -0.018017543677872516 0.0035459262565850423 0 -0.018983862767202753 0.0032255398415110934 0 -0.018188033002587835 0.0037442168100888721 0 -0.018469204440687264 0.0041154409348688999 0 -0.018983862767202753 0.0032255398415110934 0 -0.018469204440687264 0.0041154409348688999 0 -0.019905130261414293 0.0038180990806891812 0 -0.018074739689928728 0.0035331239594919243 0 -0.018983862767202753 0.0032255398415110934 0 -0.018188033002587835 0.0037442168100888721 0 -0.018017543677872516 0.0035459262565850423 0 -0.018188033002587835 0.0037442168100888721 0 -0.018058948028246497 0.0036960534758920783 0 -0.018188033002587835 0.0037442168100888721 0 -0.018058948028246497 0.0036960534758920783 0 -0.018469204440687264 0.0041154409348688999 0 -0.018058948028246497 0.0036960534758920783 0 -0.018469204440687264 0.0041154409348688999 0 -0.017906225388322209 0.0037144160949631353 0 -0.018469204440687264 0.0041154409348688999 0 -0.017906225388322209 0.0037144160949631353 0 -0.017229293199256698 0.0038191776991979083 0 -0.018058948028246497 0.0036960534758920783 0 -0.017906225388322209 0.0037144160949631353 0 -0.017771582901756608 0.0034502236117516507 0 -0.017906225388322209 0.0037144160949631353 0 -0.017771582901756608 0.0034502236117516507 0 -0.017456866758081443 0.0034780563250944958 0 -0.018058948028246497 0.0036960534758920783 0 -0.017771582901756608 0.0034502236117516507 0 -0.017842801017344631 0.0033029330944844876 0 -0.017771582901756608 0.0034502236117516507 0 -0.017842801017344631 0.0033029330944844876 0 -0.017594750130603895 0.003112711620963114 0 -0.017842801017344631 0.0033029330944844876 0 -0.017594750130603895 0.003112711620963114 0 -0.017652939083587619 0.0029457594828561353 0 -0.017771582901756608 0.0034502236117516507 0 -0.017594750130603895 0.003112711620963114 0 -0.017402186734134392 0.0032380492552250631 0 -0.017594750130603895 0.003112711620963114 0 -0.017402186734134392 0.0032380492552250631 0 -0.017294728979614954 0.0030048394268132475 0 -0.017771582901756608 0.0034502236117516507 0 -0.017402186734134392 0.0032380492552250631 0 -0.017456866758081443 0.0034780563250944958 0 -0.018037648342688759 0.0030821807603564817 0 -0.018017543677872516 0.0035459262565850423 0 -0.017780380444786473 0.0030016878219117824 0 -0.018017543677872516 0.0035459262565850423 0 -0.017842801017344631 0.0033029330944844876 0 -0.017780380444786473 0.0030016878219117824 0 -0.018017543677872516 0.0035459262565850423 0 -0.018058948028246497 0.0036960534758920783 0 -0.017842801017344631 0.0033029330944844876 0 -0.017842801017344631 0.0033029330944844876 0 -0.017780380444786473 0.0030016878219117824 0 -0.017652939083587619 0.0029457594828561353 0 -0.017917967619574211 0.0026924815231871443 0 -0.017780380444786473 0.0030016878219117824 0 -0.01754853614998346 0.0026557438669267009 0 -0.017917967619574211 0.0026924815231871443 0 -0.018037648342688759 0.0030821807603564817 0 -0.017780380444786473 0.0030016878219117824 0 -0.017482330280180258 0.0026627056956141904 0 -0.017479921023384911 0.0025994561418757945 0 -0.016933583231301636 0.0026328050597563104 0 -0.017780380444786473 0.0030016878219117824 0 -0.01754853614998346 0.0026557438669267009 0 -0.017652939083587619 0.0029457594828561353 0 -0.01754853614998346 0.0026557438669267009 0 -0.017652939083587619 0.0029457594828561353 0 -0.017482330280180258 0.0026627056956141904 0 -0.01754853614998346 0.0026557438669267009 0 -0.017482330280180258 0.0026627056956141904 0 -0.016933583231301636 0.0026328050597563104 0 -0.017294728979614954 0.0030048394268132475 0 -0.01744569616310053 0.0027903063863168572 0 -0.017097821605565382 0.002731528302832369 0 -0.017594750130603895 0.003112711620963114 0 -0.017294728979614954 0.0030048394268132475 0 -0.01744569616310053 0.0027903063863168572 0 -0.017594750130603895 0.003112711620963114 0 -0.017652939083587619 0.0029457594828561353 0 -0.01744569616310053 0.0027903063863168572 0 -0.017652939083587619 0.0029457594828561353 0 -0.017482330280180258 0.0026627056956141904 0 -0.01744569616310053 0.0027903063863168572 0 -0.017482330280180258 0.0026627056956141904 0 -0.01744569616310053 0.0027903063863168572 0 -0.017479921023384911 0.0025994561418757945 0 -0.01744569616310053 0.0027903063863168572 0 -0.01723989220656626 0.0025324269922982483 0 -0.017097821605565382 0.002731528302832369 0 -0.01744569616310053 0.0027903063863168572 0 -0.01723989220656626 0.0025324269922982483 0 -0.017479921023384911 0.0025994561418757945 0 -0.01723989220656626 0.0025324269922982483 0 -0.017479921023384911 0.0025994561418757945 0 -0.017332426332306861 0.0023515941200054537 0 -0.01723989220656626 0.0025324269922982483 0 -0.017332426332306861 0.0023515941200054537 0 -0.017136020473525214 0.0022896834111055999 0 -0.017479921023384911 0.0025994561418757945 0 -0.017332426332306861 0.0023515941200054537 0 -0.017426037184938698 0.0025685869670694322 0 -0.014398069887789595 0.0030992493878680416 0 -0.014048585697954879 0.0019281234755797903 0 -0.011864677338574003 0.0027197540921127402 0 -0.014398069887789595 0.0030992493878680416 0 -0.011864677338574003 0.0027197540921127402 0 -0.011065563908745711 0.0031848599962818014 0 -0.015838700851530267 0.00277014443589969 0 -0.014053283310091782 0.002518088306830243 0 -0.017332426332306861 0.0023515941200054537 0 -0.017426037184938698 0.0025685869670694322 0 -0.017257776561943057 0.0019522345215327308 0 -0.017332426332306861 0.0023515941200054537 0 -0.017207046598830853 0.0021724699810280238 0 -0.017136020473525214 0.0022896834111055999 0 -0.017332426332306861 0.0023515941200054537 0 -0.017207046598830853 0.0021724699810280238 0 -0.017257776561943057 0.0019522345215327308 0 -0.017086371070141673 0.0020769343278710566 0 -0.017207046598830853 0.0021724699810280238 0 -0.017257776561943057 0.0019522345215327308 0 -0.017086371070141673 0.0020769343278710566 0 -0.017207046598830853 0.0021724699810280238 0 -0.017136020473525214 0.0022896834111055999 0 -0.017479921023384911 0.0025994561418757945 0 -0.016933583231301636 0.0026328050597563104 0 -0.017426037184938698 0.0025685869670694322 0 -0.016933583231301636 0.0026328050597563104 0 -0.015447887872546064 0.0020706705564522963 0 -0.016248675532571609 0.001555148701878612 0 -0.016782173154609063 0.002671612121585325 0 -0.015838700851530267 0.00277014443589969 0 -0.016933583231301636 0.0026328050597563104 0 -0.014398069887789595 0.0030992493878680416 0 -0.015447887872546064 0.0020706705564522963 0 -0.014398069887789595 0.0030992493878680416 0 -0.015447887872546064 0.0020706705564522963 0 -0.014048585697954879 0.0019281234755797903 0 -0.016933583231301636 0.0026328050597563104 0 -0.017393890728004877 0.0018816922375616254 0 -0.016248675532571609 0.001555148701878612 0 -0.016933583231301636 0.0026328050597563104 0 -0.017393890728004877 0.0018816922375616254 0 -0.017646531214825189 0.0023361889515198029 0 -0.017393890728004877 0.0018816922375616254 0 -0.016248675532571609 0.001555148701878612 0 -0.016990159055379567 0.0013553164996858002 0 -0.017393890728004877 0.0018816922375616254 0 -0.017684695694384245 0.0016161458490725534 0 -0.017425031375899631 0.001444474332358889 0 -0.017393890728004877 0.0018816922375616254 0 -0.016990159055379567 0.0013553164996858002 0 -0.017425031375899631 0.001444474332358889 0 -0.017562078255271493 0.0013608455011525815 0 -0.017684695694384245 0.0016161458490725534 0 -0.017425031375899631 0.001444474332358889 0 -0.017593910324887847 0.001338548691367306 0 -0.017684695694384245 0.0016161458490725534 0 -0.018025648106699849 0.0018093930164251807 0 -0.017393890728004877 0.0018816922375616254 0 -0.017684695694384245 0.0016161458490725534 0 -0.018025648106699849 0.0018093930164251807 0 -0.018955340572855028 0.0018421103882288563 0 -0.018025648106699849 0.0018093930164251807 0 -0.018672273929255013 0.0020140024614379434 0 -0.018235305643463935 0.0016061915689532028 0 -0.018031350125456876 0.0017667483622441666 0 -0.019068696851103059 0.0019791108263593239 0 -0.018923836086169883 0.002211152833074775 0 -0.018672273929255013 0.0020140024614379434 0 -0.018938614137000043 0.0018450332592495654 0 -0.019068696851103059 0.0019791108263593239 0 -0.018672273929255013 0.0020140024614379434 0 -0.018923836086169883 0.002211152833074775 0 -0.018672273929255013 0.0020140024614379434 0 -0.018316227302261755 0.0023427090903499299 0 -0.018025648106699849 0.0018093930164251807 0 -0.018672273929255013 0.0020140024614379434 0 -0.018316227302261755 0.0023427090903499299 0 -0.017917967619574211 0.0026924815231871443 0 -0.018316227302261755 0.0023427090903499299 0 -0.017646531214825189 0.0023361889515198029 0 -0.017917967619574211 0.0026924815231871443 0 -0.01754853614998346 0.0026557438669267009 0 -0.017646531214825189 0.0023361889515198029 0 -0.01754853614998346 0.0026557438669267009 0 -0.016933583231301636 0.0026328050597563104 0 -0.017646531214825189 0.0023361889515198029 0 -0.018025648106699849 0.0018093930164251807 0 -0.018316227302261755 0.0023427090903499299 0 -0.017646531214825189 0.0023361889515198029 0 -0.017393890728004877 0.0018816922375616254 0 -0.018025648106699849 0.0018093930164251807 0 -0.017646531214825189 0.0023361889515198029 0 -0.020806686730263521 0.00089722112007651917 0 -0.02198917380939985 0.0019222204994399396 0 -0.021041273350393158 0.0020777659141253376 0 -0.020806686730263521 0.00089722112007651917 0 -0.021041273350393158 0.0020777659141253376 0 -0.020408900314117701 0.0015816692450346971 0 -0.014305573755485928 0.0048140953299490377 0 -0.0051982530073896565 0.0057642430223756183 0 -0.0050532507706998221 0.0059102411689207907 0 -0.0066878905315104348 0.0070294795774128119 0 -0.0060341178833089419 0.0053687006863265491 0 -0.006925081896372959 0.0064276943374593914 0 -0.0066399594219102871 0.0075261397951691998 0 -0.0059822954733355976 0.0056374742927653059 0 -0.012914520756569157 0.0033489689412791036 0 -0.014305573755485928 0.0048140953299490377 0 -0.02198917380939985 0.0019222204994399396 0 -0.021041273350393158 0.0020777659141253376 0 -0.021627443272754978 0.0028475246427675537 0 -0.021041273350393158 0.0020777659141253376 0 -0.020408900314117701 0.0015816692450346971 0 -0.020624444065988925 0.0025461239841838013 0 -0.019833460408169627 0.0021765038695464077 0 -0.020408900314117701 0.0015816692450346971 0 -0.020624444065988925 0.0025461239841838013 0 -0.019833460408169627 0.0021765038695464077 0 -0.018918959047453918 0.0018394627940863952 0 -0.019709029725931703 0.0011357077074707585 0 -0.018918959047453918 0.0018394627940863952 0 -0.019062460044245229 0.002645695190925812 0 -0.018494074146272958 0.0022626163827457546 0 -0.019833460408169627 0.0021765038695464077 0 -0.018918959047453918 0.0018394627940863952 0 -0.019062460044245229 0.002645695190925812 0 -0.018918959047453918 0.0018394627940863952 0 -0.01894046225304483 0.00074817944860274953 0 -0.019709029725931703 0.0011357077074707585 0 -0.018918959047453918 0.0018394627940863952 0 -0.01894046225304483 0.00074817944860274953 0 -0.01834611060087879 0.0011679034139925957 0 -0.019833460408169627 0.0021765038695464077 0 -0.020408900314117701 0.0015816692450346971 0 -0.019709029725931703 0.0011357077074707585 0 -0.020806686730263521 0.00089722112007651917 0 -0.020408900314117701 0.0015816692450346971 0 -0.019709029725931703 0.0011357077074707585 0 -0.020806686730263521 0.00089722112007651917 0 -0.019709029725931703 0.0011357077074707585 0 -0.019473960226797697 -7.9812083631535427e-05 0 -0.0050532507706998221 0.0059102411689207907 0 -0.00360328396679449 0.0048031531804715319 0 -0.0048327232562149604 0.0047372602072747625 0 -0.012914520756569157 0.0033489689412791036 0 -0.011548455768878429 0.0023769935938671464 0 -0.01894046225304483 0.00074817944860274953 0 -0.019473960226797697 -7.9812083631535427e-05 0 -0.018162379985662083 0.00013952460190072579 0 -0.01894046225304483 0.00074817944860274953 0 -0.019709029725931703 0.0011357077074707585 0 -0.019473960226797697 -7.9812083631535427e-05 0 -0.00360328396679449 0.0048031531804715319 0 -0.0023240591537851013 0.0037379482848168013 0 -0.0038909651337762602 0.0035980912995374078 0 -0.011548455768878429 0.0023769935938671464 0 -0.010228313970695237 0.0014026680325184345 0 -0.00360328396679449 0.0048031531804715319 0 -0.0048327232562149604 0.0047372602072747625 0 -0.0038909651337762602 0.0035980912995374078 0 -0.0053746665187011881 0.0038876411162505997 0 -0.0048327232562149604 0.0047372602072747625 0 -0.0038909651337762602 0.0035980912995374078 0 -0.0053746665187011881 0.0038876411162505997 0 -0.0048327232562149604 0.0047372602072747625 0 -0.0060341178833089419 0.0053687006863265491 0 -0.0050532507706998221 0.0059102411689207907 0 -0.0048327232562149604 0.0047372602072747625 0 -0.0060341178833089419 0.0053687006863265491 0 -0.006925081896372959 0.0064276943374593914 0 -0.0059822954733355976 0.0056374742927653059 0 -0.0072452987133085683 0.0054885124187499593 0 -0.0059822954733355976 0.0056374742927653059 0 -0.0066797403358175456 0.0040003367180988479 0 -0.0072452987133085683 0.0054885124187499593 0 -0.0055971576879545069 0.0039278915280769834 0 -0.0051982530073896565 0.0057642430223756183 0 -0.0053746665187011881 0.0038876411162505997 0 -0.0059822954733355976 0.0056374742927653059 0 -0.0066797403358175456 0.0040003367180988479 0 -0.0067440421458988247 0.004110616756314087 0 -0.007236914430165998 0.0053870701749741297 0 -0.0085025956885105697 0.0052906788913966545 0 -0.0071920719931561784 0.0053296387444394548 0 -0.0078828414675221736 0.0034713984736239678 0 -0.0066797403358175456 0.0040003367180988479 0 -0.0071920719931561784 0.0053296387444394548 0 -0.0078828414675221736 0.0034713984736239678 0 -0.016187561306227484 0.0021361998839554692 0 -0.016212523197683047 0.0017761273917995411 0 -0.015391244964653789 0.0016256738698992976 0 -0.016025687699290178 0.0024921491989761892 0 -0.016187561306227484 0.0021361998839554692 0 -0.015391244964653789 0.0016256738698992976 0 -0.012251707895336405 0.0038685878414078008 0 -0.011989865369446856 0.0026659416314019453 0 -0.0085025956885105697 0.0052906788913966545 0 -0.0071920719931561784 0.0053296387444394548 0 -0.0081229179801180287 0.0061206602835587251 0 -0.017086371070141673 0.0020769343278710566 0 -0.017136020473525214 0.0022896834111055999 0 -0.016914235760222544 0.0021779798995145011 0 -0.017086371070141673 0.0020769343278710566 0 -0.017257776561943057 0.0019522345215327308 0 -0.016879586027555078 0.0017942633875132105 0 -0.017086371070141673 0.0020769343278710566 0 -0.016861202297208781 0.0019725422220374387 0 -0.016879586027555078 0.0017942633875132105 0 -0.017086371070141673 0.0020769343278710566 0 -0.016914235760222544 0.0021779798995145011 0 -0.016861202297208781 0.0019725422220374387 0 -0.016914235760222544 0.0021779798995145011 0 -0.016861202297208781 0.0019725422220374387 0 -0.016605360787217503 0.0020936015961751106 0 -0.016861202297208781 0.0019725422220374387 0 -0.016605360787217503 0.0020936015961751106 0 -0.016606361824972472 0.0017234041979687592 0 -0.016914235760222544 0.0021779798995145011 0 -0.016605360787217503 0.0020936015961751106 0 -0.016850171438921195 0.0024320610227865085 0 -0.016605360787217503 0.0020936015961751106 0 -0.016212523197683047 0.0017761273917995411 0 -0.016606361824972472 0.0017234041979687592 0 -0.016605360787217503 0.0020936015961751106 0 -0.016187561306227484 0.0021361998839554692 0 -0.016212523197683047 0.0017761273917995411 0 -0.016605360787217503 0.0020936015961751106 0 -0.016187561306227484 0.0021361998839554692 0 -0.016492523445044246 0.0024120615025821062 0 -0.016025687699290178 0.0024921491989761892 0 -0.016492523445044246 0.0024120615025821062 0 -0.016431265708872229 0.0026442482074972048 0 -0.016025687699290178 0.0024921491989761892 0 -0.016187561306227484 0.0021361998839554692 0 -0.016492523445044246 0.0024120615025821062 0 -0.016492523445044246 0.0024120615025821062 0 -0.016749883713273735 0.0026624206102214246 0 -0.016431265708872229 0.0026442482074972048 0 -0.016492523445044246 0.0024120615025821062 0 -0.016850171438921195 0.0024320610227865085 0 -0.016749883713273735 0.0026624206102214246 0 -0.016605360787217503 0.0020936015961751106 0 -0.016492523445044246 0.0024120615025821062 0 -0.016850171438921195 0.0024320610227865085 0 -0.01723989220656626 0.0025324269922982483 0 -0.017136020473525214 0.0022896834111055999 0 -0.016850171438921195 0.0024320610227865085 0 -0.01723989220656626 0.0025324269922982483 0 -0.016850171438921195 0.0024320610227865085 0 -0.017097821605565382 0.002731528302832369 0 -0.017136020473525214 0.0022896834111055999 0 -0.016914235760222544 0.0021779798995145011 0 -0.016850171438921195 0.0024320610227865085 0 -0.016850171438921195 0.0024320610227865085 0 -0.017097821605565382 0.002731528302832369 0 -0.016749883713273735 0.0026624206102214246 0 -0.017097821605565382 0.002731528302832369 0 -0.016749883713273735 0.0026624206102214246 0 -0.016926817808933077 0.0029322828331273219 0 -0.016749883713273735 0.0026624206102214246 0 -0.016926817808933077 0.0029322828331273219 0 -0.016461174657135362 0.0029814092276440685 0 -0.016749883713273735 0.0026624206102214246 0 -0.016431265708872229 0.0026442482074972048 0 -0.016461174657135362 0.0029814092276440685 0 -0.016926817808933077 0.0029322828331273219 0 -0.016461174657135362 0.0029814092276440685 0 -0.016793162293552183 0.003175264357198033 0 -0.017294728979614954 0.0030048394268132475 0 -0.017097821605565382 0.002731528302832369 0 -0.016926817808933077 0.0029322828331273219 0 -0.016926817808933077 0.0029322828331273219 0 -0.017066773709327229 0.003130842797954793 0 -0.016793162293552183 0.003175264357198033 0 -0.017294728979614954 0.0030048394268132475 0 -0.016926817808933077 0.0029322828331273219 0 -0.017066773709327229 0.003130842797954793 0 -0.006925081896372959 0.0064276943374593914 0 -0.0072452987133085683 0.0054885124187499593 0 -0.0078418154053813399 0.0070819566996656843 0 -0.007236914430165998 0.0053870701749741297 0 -0.00733433391594284 0.0069933582029467652 0 -0.0071920719931561784 0.0053296387444394548 0 -0.0076870323416411467 0.0066950074327397366 0 -0.0081229179801180287 0.0061206602835587251 0 -0.006925081896372959 0.0064276943374593914 0 -0.0066399594219102871 0.0075261397951691998 0 -0.0078418154053813399 0.0070819566996656843 0 -0.012251707895336405 0.0038685878414078008 0 -0.012467609973667334 0.0050029387207968685 0 -0.0076870323416411467 0.0066950074327397366 0 -0.0081229179801180287 0.0061206602835587251 0 -0.0091255513257314184 0.0071775967570981676 0 -0.016025687699290178 0.0024921491989761892 0 -0.016431265708872229 0.0026442482074972048 0 -0.016461174657135362 0.0029814092276440685 0 -0.0085025956885105697 0.0052906788913966545 0 -0.0081229179801180287 0.0061206602835587251 0 -0.0091255513257314184 0.0071775967570981676 0 -0.0076870323416411467 0.0066950074327397366 0 -0.0091255513257314184 0.0071775967570981676 0 -0.0081778221126226052 0.008108629071157487 0 -0.014305573755485928 0.0048140953299490377 0 -0.015211285319046348 0.0066138835190670637 0 -0.00733433391594284 0.0069933582029467652 0 -0.015211285319046348 0.0066138835190670637 0 -0.0066399594219102871 0.0075261397951691998 0 -0.0078418154053813399 0.0070819566996656843 0 -0.0084100278025256523 0.008754466885211136 0 -0.022119704862765689 0.0034840244697314552 0 -0.02224955719854433 0.0033174605170233217 0 -0.022293373184938826 0.0039093511548295694 0 -0.021826292089485597 0.0030839114951955377 0 -0.022119704862765689 0.0034840244697314552 0 -0.02224955719854433 0.0033174605170233217 0 -0.021834163846957279 0.0063255348089412029 0 -0.021431313061710335 0.0056864035250378184 0 -0.021687699310821592 0.005326465443012276 0 -0.0091255513257314184 0.0071775967570981676 0 -0.0081778221126226052 0.008108629071157487 0 -0.0097109484819940615 0.009139738682677364 0 -0.021834163846957279 0.0063255348089412029 0 -0.021431313061710335 0.0056864035250378184 0 -0.02110350546046335 0.005774939333690673 0 -0.015211285319046348 0.0066138835190670637 0 -0.015486655532806762 0.0065025921010661821 0 -0.015211285319046348 0.0066138835190670637 0 -0.022731018035174536 0.0043896788926187646 0 -0.021431313061710335 0.0056864035250378184 0 -0.021687699310821592 0.005326465443012276 0 -0.02130062317204251 0.005387377860408795 0 -0.021687699310821592 0.005326465443012276 0 -0.02130062317204251 0.005387377860408795 0 -0.021225285886460884 0.0050705014631062988 0 -0.022119704862765689 0.0034840244697314552 0 -0.022293373184938826 0.0039093511548295694 0 -0.022106528636330051 0.0039002111236210307 0 -0.017402186734134392 0.0032380492552250631 0 -0.017176040711615846 0.0033264011468312361 0 -0.017456866758081443 0.0034780563250944958 0 -0.017402186734134392 0.0032380492552250631 0 -0.017294728979614954 0.0030048394268132475 0 -0.017066773709327229 0.003130842797954793 0 -0.017402186734134392 0.0032380492552250631 0 -0.017066773709327229 0.003130842797954793 0 -0.017176040711615846 0.0033264011468312361 0 -0.017066773709327229 0.003130842797954793 0 -0.017176040711615846 0.0033264011468312361 0 -0.016959188641511667 0.0033166923719514787 0 -0.017176040711615846 0.0033264011468312361 0 -0.017065020765428585 0.0034978119759119073 0 -0.017456866758081443 0.0034780563250944958 0 -0.017176040711615846 0.0033264011468312361 0 -0.016959188641511667 0.0033166923719514787 0 -0.017065020765428585 0.0034978119759119073 0 -0.016461174657135362 0.0029814092276440685 0 -0.016793162293552183 0.003175264357198033 0 -0.016716986723994361 0.0035019716866481888 0 -0.012467609973667334 0.0050029387207968685 0 -0.015486655532806762 0.0065025921010661821 0 -0.016959188641511667 0.0033166923719514787 0 -0.016793162293552183 0.003175264357198033 0 -0.016716986723994361 0.0035019716866481888 0 -0.016959188641511667 0.0033166923719514787 0 -0.016716986723994361 0.0035019716866481888 0 -0.017065020765428585 0.0034978119759119073 0 -0.017066773709327229 0.003130842797954793 0 -0.016959188641511667 0.0033166923719514787 0 -0.016793162293552183 0.003175264357198033 0 -0.016716986723994361 0.0035019716866481888 0 -0.017065020765428585 0.0034978119759119073 0 -0.017229293199256698 0.0038191776991979083 0 -0.015486655532806762 0.0065025921010661821 0 -0.019039297658186044 0.0045414713828629671 0 -0.02110350546046335 0.005774939333690673 0 -0.020937579797546065 0.0054364824420216184 0 -0.020080725729114287 0.0052968081973157992 0 -0.021431313061710335 0.0056864035250378184 0 -0.02110350546046335 0.005774939333690673 0 -0.021180051057237595 0.0056141921331521964 0 -0.02110350546046335 0.005774939333690673 0 -0.021180051057237595 0.0056141921331521964 0 -0.020937579797546065 0.0054364824420216184 0 -0.021431313061710335 0.0056864035250378184 0 -0.021180051057237595 0.0056141921331521964 0 -0.02130062317204251 0.005387377860408795 0 -0.021180051057237595 0.0056141921331521964 0 -0.02130062317204251 0.005387377860408795 0 -0.020937579797546065 0.0054364824420216184 0 -0.02130062317204251 0.005387377860408795 0 -0.020881941388681477 0.0051701681830288101 0 -0.021225285886460884 0.0050705014631062988 0 -0.02130062317204251 0.005387377860408795 0 -0.020937579797546065 0.0054364824420216184 0 -0.020881941388681477 0.0051701681830288101 0 -0.020937579797546065 0.0054364824420216184 0 -0.020881941388681477 0.0051701681830288101 0 -0.020080725729114287 0.0052968081973157992 0 -0.017065020765428585 0.0034978119759119073 0 -0.017229293199256698 0.0038191776991979083 0 -0.017456866758081443 0.0034780563250944958 0 -0.017906225388322209 0.0037144160949631353 0 -0.017229293199256698 0.0038191776991979083 0 -0.017456866758081443 0.0034780563250944958 0 -0.020080725729114287 0.0052968081973157992 0 -0.020667747950188168 0.0045425186146439058 0 -0.019905130261414293 0.0038180990806891812 0 -0.018317862313801513 0.0041174207815196217 0 -0.019039297658186044 0.0045414713828629671 0 -0.018469204440687264 0.0041154409348688999 0 -0.020080725729114287 0.0052968081973157992 0 -0.019905130261414293 0.0038180990806891812 0 -0.020881941388681477 0.0051701681830288101 0 -0.020080725729114287 0.0052968081973157992 0 -0.020667747950188168 0.0045425186146439058 0 -0.020881941388681477 0.0051701681830288101 0 -0.020667747950188168 0.0045425186146439058 0 -0.021225285886460884 0.0050705014631062988 0 -0.020667747950188168 0.0045425186146439058 0 -0.021225285886460884 0.0050705014631062988 0 -0.02136145215844204 0.0047681529603825767 0 -0.020667747950188168 0.0045425186146439058 0 -0.02136145215844204 0.0047681529603825767 0 -0.021635787082066767 0.0041657441560399014 0 -0.021108016880499753 0.0043529612296061768 0 -0.021099167210115982 0.003918538247120313 0 -0.020667747950188168 0.0045425186146439058 0 -0.021635787082066767 0.0041657441560399014 0 -0.021993020392350182 0.0038607887385430128 0 -0.020667747950188168 0.0045425186146439058 0 -0.020898629414955357 0.0034550717172651081 0 -0.022132211265603507 0.003370074498604274 0 -0.018983862767202753 0.0032255398415110934 0 -0.019905130261414293 0.0038180990806891812 0 -0.020405322922484977 0.002996059674834811 0 -0.020898629414955357 0.0034550717172651081 0 -0.019905130261414293 0.0038180990806891812 0 -0.020405322922484977 0.002996059674834811 0 -0.020667747950188168 0.0045425186146439058 0 -0.020898629414955357 0.0034550717172651081 0 -0.019905130261414293 0.0038180990806891812 0 -0.022106528636330051 0.0039002111236210307 0 -0.022116997904833444 0.0041056112835879954 0 -0.02209351863113123 0.0042139299585323316 0 -0.022293373184938826 0.0039093511548295694 0 -0.022106528636330051 0.0039002111236210307 0 -0.022110068231858983 0.004075052606766676 0 -0.022116997904833444 0.0041056112835879954 0 -0.022110068231858983 0.004075052606766676 0 -0.022040308345689496 0.0040598154498141794 0 -0.022106528636330051 0.0039002111236210307 0 -0.022116997904833444 0.0041056112835879954 0 -0.022110068231858983 0.004075052606766676 0 -0.022293373184938826 0.0039093511548295694 0 -0.022110068231858983 0.004075052606766676 0 -0.021635787082066767 0.0041657441560399014 0 -0.021687699310821592 0.005326465443012276 0 -0.02136145215844204 0.0047681529603825767 0 -0.021635787082066767 0.0041657441560399014 0 -0.022731018035174536 0.0043896788926187646 0 -0.021502076684020942 0.0041723533260033278 0 -0.021687699310821592 0.005326465443012276 0 -0.021225285886460884 0.0050705014631062988 0 -0.02136145215844204 0.0047681529603825767 0 -0.022110068231858983 0.004075052606766676 0 -0.022040308345689496 0.0040598154498141794 0 -0.021635787082066767 0.0041657441560399014 0 -0.022040308345689496 0.0040598154498141794 0 -0.021993020392350182 0.0038607887385430128 0 -0.022175032223458794 0.0040117641253604435 0 -0.022040308345689496 0.0040598154498141794 0 -0.021635787082066767 0.0041657441560399014 0 -0.021993020392350182 0.0038607887385430128 0 -0.022116997904833444 0.0041056112835879954 0 -0.022040308345689496 0.0040598154498141794 0 -0.022175032223458794 0.0040117641253604435 0 -0.022116997904833444 0.0041056112835879954 0 -0.022175032223458794 0.0040117641253604435 0 -0.02209351863113123 0.0042139299585323316 0 -0.022175032223458794 0.0040117641253604435 0 -0.02209351863113123 0.0042139299585323316 0 -0.022283308469517916 0.004058765781839441 0 -0.022264265479368071 0.0043861552085691785 0 -0.02209351863113123 0.0042139299585323316 0 -0.022283308469517916 0.004058765781839441 0 -0.022264265479368071 0.0043861552085691785 0 -0.021722340722996131 0.0041880935393359157 0 -0.02209351863113123 0.0042139299585323316 0 -0.022318439953682351 0.0047523550035143717 0 -0.022396524419966129 0.0030714270788477663 0 -0.022264265479368071 0.0043861552085691785 0 -0.021722340722996131 0.0041880935393359157 0 -0.021084752875725275 0.0043377036772507321 0 -0.021722340722996131 0.0041880935393359157 0 -0.021789537611423195 0.0039406124532638271 0 -0.021406043050139684 0.0039455212323287712 0 -0.021722340722996131 0.0041880935393359157 0 -0.020996381664263254 0.0041190077066782889 0 -0.021084752875725275 0.0043377036772507321 0 -0.021722340722996131 0.0041880935393359157 0 -0.021406043050139684 0.0039455212323287712 0 -0.020996381664263254 0.0041190077066782889 0 -0.022106528636330051 0.0039002111236210307 0 -0.02209351863113123 0.0042139299585323316 0 -0.021789537611423195 0.0039406124532638271 0 -0.021722340722996131 0.0041880935393359157 0 -0.02209351863113123 0.0042139299585323316 0 -0.021789537611423195 0.0039406124532638271 0 -0.022106528636330051 0.0039002111236210307 0 -0.021789537611423195 0.0039406124532638271 0 -0.021756930875278142 0.0034923542561430803 0 -0.022119704862765689 0.0034840244697314552 0 -0.022106528636330051 0.0039002111236210307 0 -0.021756930875278142 0.0034923542561430803 0 -0.021789537611423195 0.0039406124532638271 0 -0.021756930875278142 0.0034923542561430803 0 -0.021415629772762814 0.0036518357581602785 0 -0.021789537611423195 0.0039406124532638271 0 -0.021406043050139684 0.0039455212323287712 0 -0.021415629772762814 0.0036518357581602785 0 -0.021062350120887564 0.0036301535738577592 0 -0.021124992533375672 0.0030960612860314158 0 -0.020317367789418748 0.003311701391393551 0 -0.021406043050139684 0.0039455212323287712 0 -0.021062350120887564 0.0036301535738577592 0 -0.021415629772762814 0.0036518357581602785 0 -0.021406043050139684 0.0039455212323287712 0 -0.021062350120887564 0.0036301535738577592 0 -0.020996381664263254 0.0041190077066782889 0 -0.021062350120887564 0.0036301535738577592 0 -0.021415629772762814 0.0036518357581602785 0 -0.021124992533375672 0.0030960612860314158 0 -0.021756930875278142 0.0034923542561430803 0 -0.021415629772762814 0.0036518357581602785 0 -0.021124992533375672 0.0030960612860314158 0 -0.021041273350393158 0.0020777659141253376 0 -0.021124992533375672 0.0030960612860314158 0 -0.020624444065988925 0.0025461239841838013 0 -0.021041273350393158 0.0020777659141253376 0 -0.021124992533375672 0.0030960612860314158 0 -0.021627443272754978 0.0028475246427675537 0 -0.014305573755485928 0.0048140953299490377 0 -0.02411913111086917 0.0028025849804385705 0 -0.02198917380939985 0.0019222204994399396 0 -0.022119704862765689 0.0034840244697314552 0 -0.021627443272754978 0.0028475246427675537 0 -0.022119704862765689 0.0034840244697314552 0 -0.021756930875278142 0.0034923542561430803 0 -0.021627443272754978 0.0028475246427675537 0 -0.021756930875278142 0.0034923542561430803 0 -0.021124992533375672 0.0030960612860314158 0 -0.021627443272754978 0.0028475246427675537 0 -0.019833460408169627 0.0021765038695464077 0 -0.019062460044245229 0.002645695190925812 0 -0.020317367789418748 0.003311701391393551 0 -0.019062460044245229 0.002645695190925812 0 -0.020317367789418748 0.003311701391393551 0 -0.019256812922190256 0.0037689026029273766 0 -0.019062460044245229 0.002645695190925812 0 -0.019256812922190256 0.0037689026029273766 0 -0.018434109728124051 0.0026047027999999044 0 -0.021124992533375672 0.0030960612860314158 0 -0.020624444065988925 0.0025461239841838013 0 -0.020317367789418748 0.003311701391393551 0 -0.019833460408169627 0.0021765038695464077 0 -0.020624444065988925 0.0025461239841838013 0 -0.020317367789418748 0.003311701391393551 0 -0.020317367789418748 0.003311701391393551 0 -0.019256812922190256 0.0037689026029273766 0 -0.020996381664263254 0.0041190077066782889 0 -0.021062350120887564 0.0036301535738577592 0 -0.020317367789418748 0.003311701391393551 0 -0.020996381664263254 0.0041190077066782889 0 -0.025006353352360639 -0.0011107222827429594 0 -0.025173351203584347 -0.00028917858338776698 0 -0.024653140674233433 -0.00054082884290506609 0 -0.025006353352360639 -0.0011107222827429594 0 -0.025673119524231972 -0.00053936051655479982 0 -0.025173351203584347 -0.00028917858338776698 0 -0.019256812922190256 0.0037689026029273766 0 -0.020996381664263254 0.0041190077066782889 0 -0.020859079125026762 0.0046505825428557138 0 -0.02235078211972379 0.0010775540817614712 0 -0.022396524419966129 0.0030714270788477663 0 -0.02147601302552311 0.0043838030392137862 0 -0.022396524419966129 0.0030714270788477663 0 -0.022264265479368071 0.0043861552085691785 0 -0.023217157825498397 0.0051263420614404906 0 -0.023789585126149784 0.0037121229843141723 0 -0.022396524419966129 0.0030714270788477663 0 -0.027576717890444781 0.0011199011297177482 0 -0.025673119524231972 -0.00053936051655479982 0 -0.025173351203584347 -0.00028917858338776698 0 -0.025473489436778639 0.00024015503968511458 0 -0.025173351203584347 -0.00028917858338776698 0 -0.024893206422676242 0.00010428401796499038 0 -0.024782572615808993 -0.00020861069055789214 0 -0.025082303389718626 0.00025973130369205476 0 -0.02553288354848076 0.00023284792535980671 0 -0.024893206422676242 0.00010428401796499038 0 -0.025173351203584347 -0.00028917858338776698 0 -0.025473489436778639 0.00024015503968511458 0 -0.024893206422676242 0.00010428401796499038 0 -0.027576717890444781 0.0011199011297177482 0 -0.024085261967664424 -0.00013541775942824724 0 -0.025082303389718626 0.00025973130369205476 0 -0.025091886980529422 0.00055179130033777151 0 -0.02553288354848076 0.00023284792535980671 0 -0.025091886980529422 0.00055179130033777151 0 -0.02553288354848076 0.00023284792535980671 0 -0.025378408984316855 0.00070460152991322659 0 -0.034062614025879116 0.0021562214406003338 0 -0.034023850261392111 0.0015996096126691776 0 -0.03447442954237559 0.0015669254203479676 0 -0.027576717890444781 0.0011199011297177482 0 -0.030031196328145847 0.0010329607173336845 0 -0.027576717890444781 0.0011199011297177482 0 -0.02842070815114604 0.0031127997376110277 0 -0.022264265479368071 0.0043861552085691785 0 -0.023789585126149784 0.0037121229843141723 0 -0.022717526763862156 0.0037039560643201269 0 -0.022717526763862156 0.0037039560643201269 0 -0.022283308469517916 0.004058765781839441 0 -0.022290774213307777 0.0038282555843559643 0 -0.02842070815114604 0.0031127997376110277 0 -0.027538829144363439 0.0026862102304360228 0 -0.022264265479368071 0.0043861552085691785 0 -0.022717526763862156 0.0037039560643201269 0 -0.022283308469517916 0.004058765781839441 0 -0.035116378322219602 0.00089948004038093289 0 -0.027538829144363439 0.0026862102304360228 0 -0.033642198215963287 0.0016052809489513402 0 -0.033229485762072616 0.0024028194000048023 0 -0.03305871624424056 0.0016649485995635137 0 -0.033505210273418004 0.0020933506018598991 0 -0.033642198215963287 0.0016052809489513402 0 -0.032619350935894964 0.002000586558639726 0 -0.033505210273418004 0.0020933506018598991 0 -0.034023850261392111 0.0015996096126691776 0 -0.033642198215963287 0.0016052809489513402 0 -0.034062614025879116 0.0021562214406003338 0 -0.033505210273418004 0.0020933506018598991 0 -0.034023850261392111 0.0015996096126691776 0 -0.034023850261392111 0.0015996096126691776 0 -0.034070851324364382 0.0010864381989308196 0 -0.034398243473565918 0.0011096423100690456 0 -0.034023850261392111 0.0015996096126691776 0 -0.033642198215963287 0.0016052809489513402 0 -0.034070851324364382 0.0010864381989308196 0 -0.033642198215963287 0.0016052809489513402 0 -0.033659352018926031 0.0010781173306320863 0 -0.034070851324364382 0.0010864381989308196 0 -0.033642198215963287 0.0016052809489513402 0 -0.033659352018926031 0.0010781173306320863 0 -0.03305871624424056 0.0016649485995635137 0 -0.033659352018926031 0.0010781173306320863 0 -0.034070851324364382 0.0010864381989308196 0 -0.034156217468105612 0.00057462311092287052 0 -0.034070851324364382 0.0010864381989308196 0 -0.034398243473565918 0.0011096423100690456 0 -0.034412783437349784 0.00069780302635513182 0 -0.034070851324364382 0.0010864381989308196 0 -0.034412783437349784 0.00069780302635513182 0 -0.034156217468105612 0.00057462311092287052 0 -0.034398243473565918 0.0011096423100690456 0 -0.034610406611543479 0.00087135104562295347 0 -0.034522437828919963 0.00058843251489791928 0 -0.034436847961040191 0.0010610088756964297 0 -0.034682880749541491 0.00051579576526814257 0 -0.034398243473565918 0.0011096423100690456 0 -0.034610406611543479 0.00087135104562295347 0 -0.034694469169780404 0.0010141430228953153 0 -0.025091886980529422 0.00055179130033777151 0 -0.025378408984316855 0.00070460152991322659 0 -0.025102245009493707 0.000853964793276315 0 -0.034398243473565918 0.0011096423100690456 0 -0.034694469169780404 0.0010141430228953153 0 -0.03447442954237559 0.0015669254203479676 0 -0.031219061487749462 0.0014711389172678449 0 -0.030031196328145847 0.0010329607173336845 0 -0.025277399366082941 0.0011399133323134168 0 -0.025378408984316855 0.00070460152991322659 0 -0.025102245009493707 0.000853964793276315 0 -0.034023850261392111 0.0015996096126691776 0 -0.034398243473565918 0.0011096423100690456 0 -0.03447442954237559 0.0015669254203479676 0 -0.019540505888228005 0.0024763852957722359 0 -0.020355644163761951 0.0017239666006948222 0 -0.020405322922484977 0.002996059674834811 0 -0.020355644163761951 0.0017239666006948222 0 -0.020405322922484977 0.002996059674834811 0 -0.021364241390041876 0.0026459463994759117 0 -0.020898629414955357 0.0034550717172651081 0 -0.022132211265603507 0.003370074498604274 0 -0.021364241390041876 0.0026459463994759117 0 -0.020898629414955357 0.0034550717172651081 0 -0.020405322922484977 0.002996059674834811 0 -0.021364241390041876 0.0026459463994759117 0 -0.025352226580376763 0.0020529569536496791 0 -0.027116482326446645 0.0021475513004187248 0 -0.020355644163761951 0.0017239666006948222 0 -0.021364241390041876 0.0026459463994759117 0 -0.021912519563918015 0.0019002533683122938 0 -0.027116482326446645 0.0021475513004187248 0 -0.027538829144363439 0.0026862102304360228 0 -0.021912519563918015 0.0019002533683122938 0 -0.022271638536528346 0.0025311826133687983 0 -0.023481074552819767 0.0021895181911121106 0 -0.021364241390041876 0.0026459463994759117 0 -0.021912519563918015 0.0019002533683122938 0 -0.022271638536528346 0.0025311826133687983 0 -0.022132211265603507 0.003370074498604274 0 -0.022271638536528346 0.0025311826133687983 0 -0.023481074552819767 0.0021895181911121106 0 -0.022132211265603507 0.003370074498604274 0 -0.021364241390041876 0.0026459463994759117 0 -0.022271638536528346 0.0025311826133687983 0 -0.021993020392350182 0.0038607887385430128 0 -0.022175032223458794 0.0040117641253604435 0 -0.022290774213307777 0.0038282555843559643 0 -0.022175032223458794 0.0040117641253604435 0 -0.022283308469517916 0.004058765781839441 0 -0.022290774213307777 0.0038282555843559643 0 -0.021099167210115982 0.003918538247120313 0 -0.027538829144363439 0.0026862102304360228 0 -0.032007061013953703 0.0024703215247869571 0 -0.033229485762072616 0.0024028194000048023 0 -0.03305871624424056 0.0016649485995635137 0 -0.033659352018926031 0.0010781173306320863 0 -0.03305871624424056 0.0016649485995635137 0 -0.033063453524456839 0.0010699163837648428 0 -0.033659352018926031 0.0010781173306320863 0 -0.033063453524456839 0.0010699163837648428 0 -0.033751112312273776 0.00043194517404234525 0 -0.033063453524456839 0.0010699163837648428 0 -0.032112591271423796 0.0015343884504445246 0 -0.032689136828817682 0.00049622469616454569 0 -0.03305871624424056 0.0016649485995635137 0 -0.033063453524456839 0.0010699163837648428 0 -0.032112591271423796 0.0015343884504445246 0 -0.032007061013953703 0.0024703215247869571 0 -0.03305871624424056 0.0016649485995635137 0 -0.032112591271423796 0.0015343884504445246 0 -0.030426915891735486 0.0023656869392018388 0 -0.032112591271423796 0.0015343884504445246 0 -0.03126387989862027 0.00086174677138433351 0 -0.030426915891735486 0.0023656869392018388 0 -0.032007061013953703 0.0024703215247869571 0 -0.032112591271423796 0.0015343884504445246 0 -0.032112591271423796 0.0015343884504445246 0 -0.03126387989862027 0.00086174677138433351 0 -0.032689136828817682 0.00049622469616454569 0 -0.029708232387780475 0.0010975631794853656 0 -0.030426915891735486 0.0023656869392018388 0 -0.03126387989862027 0.00086174677138433351 0 -0.032582133451116442 -0.00018993857612336208 0 -0.033320649023077575 -0.00035583675126704993 0 -0.034815187924373381 -0.00015002002742874447 0 -0.034776922225689295 -0.0002971293196383687 0 -0.034829966889039901 -0.00016923590326410259 0 -0.030196177079093021 -0.00023641615103272331 0 -0.029708232387780475 0.0010975631794853656 0 -0.03126387989862027 0.00086174677138433351 0 -0.030196177079093021 -0.00023641615103272331 0 -0.03126387989862027 0.00086174677138433351 0 -0.03194556416231166 -0.0005024778758722445 0 -0.03126387989862027 0.00086174677138433351 0 -0.03194556416231166 -0.0005024778758722445 0 -0.032689136828817682 0.00049622469616454569 0 -0.03194556416231166 -0.0005024778758722445 0 -0.032689136828817682 0.00049622469616454569 0 -0.034130733565541048 -0.0002767510978069535 0 -0.033320649023077575 -0.00035583675126704993 0 -0.034031998580164244 -0.00031513375186294348 0 -0.033063453524456839 0.0010699163837648428 0 -0.032689136828817682 0.00049622469616454569 0 -0.033751112312273776 0.00043194517404234525 0 -0.033751112312273776 0.00043194517404234525 0 -0.034130733565541048 -0.0002767510978069535 0 -0.034342200616618003 0.00012262949123919312 0 -0.032689136828817682 0.00049622469616454569 0 -0.033751112312273776 0.00043194517404234525 0 -0.034130733565541048 -0.0002767510978069535 0 -0.034130733565541048 -0.0002767510978069535 0 -0.034999342928523365 -1.9398002205792612e-07 0 -0.034584946130921418 -9.5403622899216847e-05 0 -0.034130733565541048 -0.0002767510978069535 0 -0.034999342928523365 -1.9398002205792612e-07 0 -0.034999213007782956 1.4641352674725872e-07 0 -0.034130733565541048 -0.0002767510978069535 0 -0.034999213007782956 1.4641352674725872e-07 0 -0.034769627659839583 -0.00012350092677618384 0 -0.034776922225689295 -0.0002971293196383687 0 -0.034130733565541048 -0.0002767510978069535 0 -0.034769627659839583 -0.00012350092677618384 0 -0.034776922225689295 -0.0002971293196383687 0 -0.034769627659839583 -0.00012350092677618384 0 -0.034829966889039901 -0.00016923590326410259 0 -0.034999940344972329 -1.5365846051463499e-08 0 -0.034907129901899932 -4.3194067033362239e-05 0 -0.034999213007782956 1.4641352674725872e-07 0 -0.034769627659839583 -0.00012350092677618384 0 -0.034817848834346896 -0.00010227847570950633 0 -0.034999997264800013 -2.8787815566121604e-09 0 -0.035000004296844862 5.6195890690346598e-09 0 -0.034999809072146081 1.0142621360260018e-07 0 -0.034996949635041415 -2.1434168139685157e-07 0 -0.035000004296844862 5.6195890690346598e-09 0 -0.034999809072146081 1.0142621360260018e-07 0 -0.034915960487519757 -6.8492353649503448e-05 0 -0.034907129901899932 -4.3194067033362239e-05 0 -0.034834676732006555 -0.00014168747205479964 0 -0.034817848834346896 -0.00010227847570950633 0 -0.034829966889039901 -0.00016923590326410259 0 -0.034769627659839583 -0.00012350092677618384 0 -0.034817848834346896 -0.00010227847570950633 0 -0.034829966889039901 -0.00016923590326410259 0 -0.034808203510405096 0.00014226149296821768 0 -0.03487134133257095 0.00043571729823994908 0 -0.034544669519409613 0.00031043844109242529 0 -0.034808203510405096 0.00014226149296821768 0 -0.03487134133257095 0.00043571729823994908 0 -0.034990268756196076 4.647135129407448e-05 0 -0.034808203510405096 0.00014226149296821768 0 -0.034544669519409613 0.00031043844109242529 0 -0.034669600489126984 7.7922083049179557e-05 0 -0.034522437828919963 0.00058843251489791928 0 -0.034686298723880279 0.00018456877763635556 0 -0.034798187381321906 0.0002875386829723609 0 -0.034873540777214565 0.00028649881883702959 0 -0.03474748905140701 0.00042035833918385051 0 -0.034760796212831076 0.00062521161067050589 0 -0.034522437828919963 0.00058843251489791928 0 -0.034798187381321906 0.0002875386829723609 0 -0.034682880749541491 0.00051579576526814257 0 -0.034847683113127387 0.00012960325267551715 0 -0.034610406611543479 0.00087135104562295347 0 -0.034694469169780404 0.0010141430228953153 0 -0.034760796212831076 0.00062521161067050589 0 -0.031219061487749462 0.0014711389172678449 0 -0.034873540777214565 0.00028649881883702959 0 -0.034610406611543479 0.00087135104562295347 0 -0.034760796212831076 0.00062521161067050589 0 -0.034522437828919963 0.00058843251489791928 0 -0.034398243473565918 0.0011096423100690456 0 -0.03487134133257095 0.00043571729823994908 0 -0.034412783437349784 0.00069780302635513182 0 -0.03487134133257095 0.00043571729823994908 0 -0.034412783437349784 0.00069780302635513182 0 -0.034544669519409613 0.00031043844109242529 0 -0.034412783437349784 0.00069780302635513182 0 -0.034156217468105612 0.00057462311092287052 0 -0.034544669519409613 0.00031043844109242529 0 -0.033659352018926031 0.0010781173306320863 0 -0.033751112312273776 0.00043194517404234525 0 -0.034156217468105612 0.00057462311092287052 0 -0.033751112312273776 0.00043194517404234525 0 -0.034156217468105612 0.00057462311092287052 0 -0.034342200616618003 0.00012262949123919312 0 -0.034156217468105612 0.00057462311092287052 0 -0.034342200616618003 0.00012262949123919312 0 -0.034544669519409613 0.00031043844109242529 0 -0.034342200616618003 0.00012262949123919312 0 -0.034544669519409613 0.00031043844109242529 0 -0.034669600489126984 7.7922083049179557e-05 0 -0.034669600489126984 7.7922083049179557e-05 0 -0.034788841613897913 -2.3521044317103075e-05 0 -0.034584946130921418 -9.5403622899216847e-05 0 -0.034669600489126984 7.7922083049179557e-05 0 -0.034788841613897913 -2.3521044317103075e-05 0 -0.034891706142328748 -1.606017947041257e-05 0 -0.034342200616618003 0.00012262949123919312 0 -0.034669600489126984 7.7922083049179557e-05 0 -0.034584946130921418 -9.5403622899216847e-05 0 -0.034130733565541048 -0.0002767510978069535 0 -0.034342200616618003 0.00012262949123919312 0 -0.034584946130921418 -9.5403622899216847e-05 0 -0.034999342928523365 -1.9398002205792612e-07 0 -0.034584946130921418 -9.5403622899216847e-05 0 -0.034999673155950296 -6.579974935888996e-08 0 -0.034788841613897913 -2.3521044317103075e-05 0 -0.034584946130921418 -9.5403622899216847e-05 0 -0.034999673155950296 -6.579974935888996e-08 0 -0.034788841613897913 -2.3521044317103075e-05 0 -0.034999673155950296 -6.579974935888996e-08 0 -0.034891706142328748 -1.606017947041257e-05 0 -0.034999673155950296 -6.579974935888996e-08 0 -0.034891706142328748 -1.606017947041257e-05 0 -0.034999954522024347 3.7364024491439504e-09 0 -0.034891706142328748 -1.606017947041257e-05 0 -0.034975756728694692 2.7616068219794632e-06 0 -0.034999954522024347 3.7364024491439504e-09 0 -0.034808203510405096 0.00014226149296821768 0 -0.034669600489126984 7.7922083049179557e-05 0 -0.034891706142328748 -1.606017947041257e-05 0 -0.034808203510405096 0.00014226149296821768 0 -0.034891706142328748 -1.606017947041257e-05 0 -0.034990268756196076 4.647135129407448e-05 0 -0.034891706142328748 -1.606017947041257e-05 0 -0.034990268756196076 4.647135129407448e-05 0 -0.034975756728694692 2.7616068219794632e-06 0 -0.034686298723880279 0.00018456877763635556 0 -0.034871558900081714 0.00012593433134274045 0 -0.034798187381321906 0.0002875386829723609 0 -0.034847683113127387 0.00012960325267551715 0 -0.03497073651982581 1.2232847391828818e-05 0 -0.034990268756196076 4.647135129407448e-05 0 -0.034975756728694692 2.7616068219794632e-06 0 -0.035000018721520768 -4.8054810194084247e-08 0 -0.034686298723880279 0.00018456877763635556 0 -0.034999681015327397 -3.5656682658791512e-08 0 -0.034871558900081714 0.00012593433134274045 0 -0.034975756728694692 2.7616068219794632e-06 0 -0.034999954522024347 3.7364024491439504e-09 0 -0.035000018721520768 -4.8054810194084247e-08 0 -0.034999681015327397 -3.5656682658791512e-08 0 -0.034999971617829834 6.1864392682709386e-08 0 -0.034946719191435577 5.775299664784801e-05 0 -0.034999681015327397 -3.5656682658791512e-08 0 -0.034946719191435577 5.775299664784801e-05 0 -0.034871558900081714 0.00012593433134274045 0 -0.034999971617829834 6.1864392682709386e-08 0 -0.034946719191435577 5.775299664784801e-05 0 -0.034937445945621225 0.00011384791377879412 0 -0.034946719191435577 5.775299664784801e-05 0 -0.034937445945621225 0.00011384791377879412 0 -0.034871558900081714 0.00012593433134274045 0 -0.034999971617829834 6.1864392682709386e-08 0 -0.034988974752721849 4.9020772750170766e-05 0 -0.035000004969489205 3.5278147681469754e-08 0 -0.034999971617829834 6.1864392682709386e-08 0 -0.034988974752721849 4.9020772750170766e-05 0 -0.034937445945621225 0.00011384791377879412 0 -0.034988974752721849 4.9020772750170766e-05 0 -0.034937445945621225 0.00011384791377879412 0 -0.035007581515923078 0.00018985379909829841 0 -0.034937445945621225 0.00011384791377879412 0 -0.034918441398129052 0.00024962110974765487 0 -0.035007581515923078 0.00018985379909829841 0 -0.034937445945621225 0.00011384791377879412 0 -0.034876232537608201 0.00022941268040828171 0 -0.034918441398129052 0.00024962110974765487 0 -0.034937445945621225 0.00011384791377879412 0 -0.034871558900081714 0.00012593433134274045 0 -0.034876232537608201 0.00022941268040828171 0 -0.034871558900081714 0.00012593433134274045 0 -0.034876232537608201 0.00022941268040828171 0 -0.034798187381321906 0.0002875386829723609 0 -0.034644129111504718 0.0004457160175806749 0 -0.034798187381321906 0.0002875386829723609 0 -0.034844781988020983 0.00035679753811728002 0 -0.034876232537608201 0.00022941268040828171 0 -0.034798187381321906 0.0002875386829723609 0 -0.034844781988020983 0.00035679753811728002 0 -0.034876232537608201 0.00022941268040828171 0 -0.034918441398129052 0.00024962110974765487 0 -0.034844781988020983 0.00035679753811728002 0 -0.034918441398129052 0.00024962110974765487 0 -0.034844781988020983 0.00035679753811728002 0 -0.034956556671696989 0.00030654000370620418 0 -0.034844781988020983 0.00035679753811728002 0 -0.03494829556757531 0.0004671559379792376 0 -0.034956556671696989 0.00030654000370620418 0 -0.034918441398129052 0.00024962110974765487 0 -0.034956556671696989 0.00030654000370620418 0 -0.035007581515923078 0.00018985379909829841 0 -0.028822564872260537 0.00062409779801714509 0 -0.029707014500614158 0.00088800710105450646 0 -0.034844781988020983 0.00035679753811728002 0 -0.03494829556757531 0.0004671559379792376 0 -0.034767366606654686 0.00054814503263936592 0 -0.024344463093779016 0.0012404396228590468 0 -0.024310546390129174 0.001341947887824277 0 -0.0248168419163565 0.0012675516112176835 0 -0.034644129111504718 0.0004457160175806749 0 -0.034844781988020983 0.00035679753811728002 0 -0.034767366606654686 0.00054814503263936592 0 -0.034547717973554395 0.0006346918506474128 0 -0.034644129111504718 0.0004457160175806749 0 -0.034767366606654686 0.00054814503263936592 0 -0.028822564872260537 0.00062409779801714509 0 -0.026881136448989304 0.00085634309929452299 0 -0.024024264512894487 0.00095441889459064457 0 -0.023967303951926932 0.0012738564617818758 0 -0.024108409256974019 0.0011735759958367987 0 -0.024251136810205826 0.0012626445357318782 0 -0.024024264512894487 0.00095441889459064457 0 -0.024108409256974019 0.0011735759958367987 0 -0.024344463093779016 0.0012404396228590468 0 -0.024251136810205826 0.0012626445357318782 0 -0.024108409256974019 0.0011735759958367987 0 -0.027031248202418118 0.0018018410008729569 0 -0.028822564872260537 0.00062409779801714509 0 -0.03494829556757531 0.0004671559379792376 0 -0.034956556671696989 0.00030654000370620418 0 -0.035072107692238216 0.00027997067382595336 0 -0.028822564872260537 0.00062409779801714509 0 -0.032885371827290802 0.00029862876358384736 0 -0.034956556671696989 0.00030654000370620418 0 -0.035072107692238216 0.00027997067382595336 0 -0.035007581515923078 0.00018985379909829841 0 -0.030160800138212703 0.00064429803392696981 0 -0.030185164016067693 0.00063299183227079076 0 -0.030172146848505537 0.00063710989595413073 0 -0.030185164016067693 0.00063299183227079076 0 -0.030172146848505537 0.00063710989595413073 0 -0.030188301705893723 0.00063527064105493858 0 -0.032885371827290802 0.00029862876358384736 0 -0.033378333646816499 0.00038025540251736761 0 -0.030188301705893723 0.00063527064105493858 0 -0.030211823852905221 0.00063963611442151107 0 -0.03018455846956071 0.00063630569483075791 0 -0.030185164016067693 0.00063299183227079076 0 -0.030188301705893723 0.00063527064105493858 0 -0.030211823852905221 0.00063963611442151107 0 -0.035072107692238216 0.00027997067382595336 0 -0.035130052955096552 0.00013631295820524392 0 -0.035007581515923078 0.00018985379909829841 0 -0.035130052955096552 0.00013631295820524392 0 -0.035007581515923078 0.00018985379909829841 0 -0.035043855593446908 0.00010739133219423795 0 -0.034988974752721849 4.9020772750170766e-05 0 -0.035007581515923078 0.00018985379909829841 0 -0.035043855593446908 0.00010739133219423795 0 -0.034998941678754232 1.668575117219357e-05 0 -0.035000004969489205 3.5278147681469754e-08 0 -0.034999999888404604 -2.2003836213759039e-09 0 -0.034915061269875793 3.5905026716740564e-05 0 -0.035249636889421843 0.00014214568547340055 0 -0.034988974752721849 4.9020772750170766e-05 0 -0.034998941678754232 1.668575117219357e-05 0 -0.035000004969489205 3.5278147681469754e-08 0 -0.034995984067132606 1.3806536529093924e-05 0 -0.034998941678754232 1.668575117219357e-05 0 -0.034999999888404604 -2.2003836213759039e-09 0 -0.033378333646816499 0.00038025540251736761 0 -0.035000436984506243 -8.2158440371957404e-07 0 -0.033378333646816499 0.00038025540251736761 0 -0.035249636889421843 0.00014214568547340055 0 -0.034988295782851578 -9.0717697835996293e-06 0 -0.034999977794341032 4.2326056970073571e-09 0 -0.034981186845691709 -2.829929707690781e-05 0 -0.034999977794341032 4.2326056970073571e-09 0 -0.035000019347915287 -1.6975520205599472e-08 0 -0.034981186845691709 -2.829929707690781e-05 0 -0.035000019347915287 -1.6975520205599472e-08 0 -0.034981186845691709 -2.829929707690781e-05 0 -0.0349644492094476 -1.3343742810062242e-05 0 -0.035000019347915287 -1.6975520205599472e-08 0 -0.03499983033964104 3.6955047308997243e-08 0 -0.0349644492094476 -1.3343742810062242e-05 0 -0.030181146534575164 0.00064174641692459566 0 -0.03018455846956071 0.00063630569483075791 0 -0.030164033152380476 0.00063141957220633411 0 -0.033378333646816499 0.00038025540251736761 0 -0.032878704697344496 0.00031903973903123266 0 -0.030211823852905221 0.00063963611442151107 0 -0.030181146534575164 0.00064174641692459566 0 -0.03018455846956071 0.00063630569483075791 0 -0.034997611099375506 -3.8914711521807885e-06 0 -0.034993285732995878 -4.7288774402564884e-06 0 -0.034984707571457961 -1.4495421212214451e-05 0 -0.03500000280296104 -3.2571796190430145e-10 0 -0.034997611099375506 -3.8914711521807885e-06 0 -0.034993285732995878 -4.7288774402564884e-06 0 -0.034999552848419137 4.6386131499803187e-08 0 -0.034363052940080227 0.00013699298280302481 0 -0.034363052940080227 0.00013699298280302481 0 -0.035000205360856997 2.0384879886092976e-07 0 -0.034904491168231661 -3.7738694351192467e-06 0 -0.03499983033964104 3.6955047308997243e-08 0 -0.0349644492094476 -1.3343742810062242e-05 0 -0.034999993664257899 8.4663519356454239e-10 0 -0.034997340850553595 5.5730370559116053e-07 0 -0.035000001243938969 -1.4417766584363156e-10 0 -0.030181146534575164 0.00064174641692459566 0 -0.030152008056377029 0.00062708530473442876 0 -0.030164033152380476 0.00063141957220633411 0 -0.032878704697344496 0.00031903973903123266 0 -0.030326424331910701 0.00029506589231074348 0 -0.034981186845691709 -2.829929707690781e-05 0 -0.0349644492094476 -1.3343742810062242e-05 0 -0.034873642087176804 -7.4369088432528192e-05 0 -0.034904491168231661 -3.7738694351192467e-06 0 -0.0349644492094476 -1.3343742810062242e-05 0 -0.034873642087176804 -7.4369088432528192e-05 0 -0.029711965963037667 -5.1795744063493817e-07 0 -0.033317189496195929 -4.6098821051375141e-05 0 -0.034363052940080227 0.00013699298280302481 0 -0.033317189496195929 -4.6098821051375141e-05 0 -0.032564561886286432 4.2139833388892053e-05 0 -0.032546237104809965 1.2115457032371577e-05 0 -0.032531166595388197 1.9214434752815568e-05 0 -0.034363052940080227 0.00013699298280302481 0 -0.029711965963037667 -5.1795744063493817e-07 0 -0.034904491168231661 -3.7738694351192467e-06 0 -0.034873642087176804 -7.4369088432528192e-05 0 -0.034863385931835154 -7.1763888409748827e-05 0 -0.030326424331910701 0.00029506589231074348 0 -0.029711965963037667 -5.1795744063493817e-07 0 -0.025763190067024117 -7.3107497298510629e-05 0 -0.025934478759338173 0.00053230851417539605 0 -0.025299468485702824 0.00080580929693605397 0 -0.025763190067024117 -7.3107497298510629e-05 0 -0.025852042797374776 -0.00010275464222964907 0 -0.025934478759338173 0.00053230851417539605 0 -0.029711965963037667 -5.1795744063493817e-07 0 -0.026134721042214523 0.0002142260860234309 0 -0.025862256026288777 -0.00025679968843245838 0 -0.025934478759338173 0.00053230851417539605 0 -0.026780182689449133 3.6309348071689161e-06 0 -0.029711965963037667 -5.1795744063493817e-07 0 -0.02817371463721853 -6.1106727940733225e-05 0 -0.025763190067024117 -7.3107497298510629e-05 0 -0.025299468485702824 0.00080580929693605397 0 -0.024701553865358609 0.00039717412088476696 0 -0.030326424331910701 0.00029506589231074348 0 -0.027022463178137418 0.00057066088348658203 0 -0.025299468485702824 0.00080580929693605397 0 -0.024556077233182882 0.0010515043116327365 0 -0.025182944598974164 0.0013911422333771242 0 -0.025435659332689986 0.0011305345921254874 0 -0.025834475136935948 0.0011885780375217164 0 -0.025506109700601718 0.0014705533021743334 0 -0.025435659332689986 0.0011305345921254874 0 -0.025299468485702824 0.00080580929693605397 0 -0.025182944598974164 0.0013911422333771242 0 -0.025435659332689986 0.0011305345921254874 0 -0.025299468485702824 0.00080580929693605397 0 -0.025834475136935948 0.0011885780375217164 0 -0.025834475136935948 0.0011885780375217164 0 -0.026816870780762343 0.0011795688384795579 0 -0.026490177518575568 0.00070629248798172921 0 -0.025934478759338173 0.00053230851417539605 0 -0.025299468485702824 0.00080580929693605397 0 -0.025834475136935948 0.0011885780375217164 0 -0.025934478759338173 0.00053230851417539605 0 -0.025834475136935948 0.0011885780375217164 0 -0.026490177518575568 0.00070629248798172921 0 -0.026881136448989304 0.00085634309929452299 0 -0.027022463178137418 0.00057066088348658203 0 -0.030172146848505537 0.00063710989595413073 0 -0.03018455846956071 0.00063630569483075791 0 -0.030164033152380476 0.00063141957220633411 0 -0.030172146848505537 0.00063710989595413073 0 -0.030188301705893723 0.00063527064105493858 0 -0.03018455846956071 0.00063630569483075791 0 -0.025299468485702824 0.00080580929693605397 0 -0.024701553865358609 0.00039717412088476696 0 -0.024556077233182882 0.0010515043116327365 0 -0.024024264512894487 0.00095441889459064457 0 -0.024556077233182882 0.0010515043116327365 0 -0.023967303951926932 0.0012738564617818758 0 -0.024024264512894487 0.00095441889459064457 0 -0.024701553865358609 0.00039717412088476696 0 -0.024556077233182882 0.0010515043116327365 0 -0.023967303951926932 0.0012738564617818758 0 -0.023400526488108839 0.001249224118508175 0 -0.023590106426074245 0.0010498803140721836 0 -0.023976467436541984 0.0013133119030570971 0 -0.02404285370284362 0.0013930274732765805 0 -0.024556077233182882 0.0010515043116327365 0 -0.024627372281803585 0.0015515182136059799 0 -0.025182944598974164 0.0013911422333771242 0 -0.024556077233182882 0.0010515043116327365 0 -0.023967303951926932 0.0012738564617818758 0 -0.024627372281803585 0.0015515182136059799 0 -0.023400526488108839 0.001249224118508175 0 -0.023283923436712015 0.0010386399550385049 0 -0.023164875412014643 0.0011203690885340126 0 -0.023400526488108839 0.001249224118508175 0 -0.023283923436712015 0.0010386399550385049 0 -0.023590106426074245 0.0010498803140721836 0 -0.023283923436712015 0.0010386399550385049 0 -0.023423439931585171 0.0007977639614499155 0 -0.023590106426074245 0.0010498803140721836 0 -0.023283923436712015 0.0010386399550385049 0 -0.023423439931585171 0.0007977639614499155 0 -0.023118041935553186 0.0010061831611488431 0 -0.0231207220593771 0.00094667369940445252 0 -0.022402463799929932 0.00097990080180473428 0 -0.023423439931585171 0.0007977639614499155 0 -0.023709955554648447 0.00091363058960652454 0 -0.023590106426074245 0.0010498803140721836 0 -0.023967303951926932 0.0012738564617818758 0 -0.023709955554648447 0.00091363058960652454 0 -0.023950687721496902 0.0010255129524942301 0 -0.023967303951926932 0.0012738564617818758 0 -0.023709955554648447 0.00091363058960652454 0 -0.023590106426074245 0.0010498803140721836 0 -0.02403934827608719 -5.7718823782679555e-05 0 -0.026183571143936529 0.00030560089052402876 0 -0.02403934827608719 -5.7718823782679555e-05 0 -0.023395936686503138 -0.0012487143886271133 0 -0.025834475136935948 0.0011885780375217164 0 -0.025714321314278633 0.0018544174948210857 0 -0.026816870780762343 0.0011795688384795579 0 -0.020464363340425444 -0.0012687211173247066 0 -0.020660643236855375 -0.0011447335306508488 0 -0.021034598789982459 -0.0012682186072210321 0 -0.025834475136935948 0.0011885780375217164 0 -0.025714321314278633 0.0018544174948210857 0 -0.025506109700601718 0.0014705533021743334 0 -0.020464363340425444 -0.0012687211173247066 0 -0.020497384777515476 -0.0011606629550772159 0 -0.020660643236855375 -0.0011447335306508488 0 -0.020464363340425444 -0.0012687211173247066 0 -0.020327673090272495 -0.0011601384142974952 0 -0.020497384777515476 -0.0011606629550772159 0 -0.024627372281803585 0.0015515182136059799 0 -0.025317861456414389 0.0016903478499364594 0 -0.025182944598974164 0.0013911422333771242 0 -0.023400526488108839 0.001249224118508175 0 -0.023034864529126883 0.001191188671863154 0 -0.023164875412014643 0.0011203690885340126 0 -0.02404285370284362 0.0013930274732765805 0 -0.024144088985432376 0.0010508868807233645 0 -0.023034864529126883 0.001191188671863154 0 -0.023164875412014643 0.0011203690885340126 0 -0.022990194953207043 0.0010964765481647409 0 -0.025714321314278633 0.0018544174948210857 0 -0.025358040111143062 0.0018137750859887917 0 -0.025506109700601718 0.0014705533021743334 0 -0.023597508569954857 0.00026498750077150911 0 -0.023281376553887234 0.00023683687365638878 0 -0.023368700283228561 0.00042696561122633529 0 -0.02403934827608719 -5.7718823782679555e-05 0 -0.022599991204214492 0.00023833122896311403 0 -0.024144088985432376 0.0010508868807233645 0 -0.022599991204214492 0.00023833122896311403 0 -0.02403934827608719 -5.7718823782679555e-05 0 -0.024144088985432376 0.0010508868807233645 0 -0.025358040111143062 0.0018137750859887917 0 -0.025506109700601718 0.0014705533021743334 0 -0.025182944598974164 0.0013911422333771242 0 -0.025435659332689986 0.0011305345921254874 0 -0.025506109700601718 0.0014705533021743334 0 -0.025182944598974164 0.0013911422333771242 0 -0.024144088985432376 0.0010508868807233645 0 -0.024918353116117245 0.0016982167991958211 0 -0.021838692333519458 0.00069954030649162756 0 -0.021664933140678192 0.00082117481460731632 0 -0.021404188199379011 0.00028240839096841172 0 -0.023164875412014643 0.0011203690885340126 0 -0.023118041935553186 0.0010061831611488431 0 -0.022990194953207043 0.0010964765481647409 0 -0.023283923436712015 0.0010386399550385049 0 -0.023164875412014643 0.0011203690885340126 0 -0.023118041935553186 0.0010061831611488431 0 -0.022402463799929932 0.00097990080180473428 0 -0.022599991204214492 0.00023833122896311403 0 -0.022599991204214492 0.00023833122896311403 0 -0.020856451807125836 -0.00035185412473894213 0 -0.020327673090272495 -0.0011601384142974952 0 -0.020568345135813359 -0.0010042046991276504 0 -0.020646708836546967 -0.00064958852456273568 0 -0.020327673090272495 -0.0011601384142974952 0 -0.020497384777515476 -0.0011606629550772159 0 -0.020568345135813359 -0.0010042046991276504 0 -0.020497384777515476 -0.0011606629550772159 0 -0.020568345135813359 -0.0010042046991276504 0 -0.020660643236855375 -0.0011447335306508488 0 -0.020568345135813359 -0.0010042046991276504 0 -0.020799450446175392 -0.00082501930685024722 0 -0.020646708836546967 -0.00064958852456273568 0 -0.020778927352415433 -0.0010536238974635645 0 -0.020660643236855375 -0.0011447335306508488 0 -0.021034598789982459 -0.0012682186072210321 0 -0.020568345135813359 -0.0010042046991276504 0 -0.020778927352415433 -0.0010536238974635645 0 -0.020660643236855375 -0.0011447335306508488 0 -0.020568345135813359 -0.0010042046991276504 0 -0.020799450446175392 -0.00082501930685024722 0 -0.020778927352415433 -0.0010536238974635645 0 -0.020799450446175392 -0.00082501930685024722 0 -0.020778927352415433 -0.0010536238974635645 0 -0.020938404376717262 -0.0009917463046094986 0 -0.020646708836546967 -0.00064958852456273568 0 -0.020860393607319217 -0.00053607111972304175 0 -0.020861780477509452 -0.00058173467050101331 0 -0.020856451807125836 -0.00035185412473894213 0 -0.021014483114150852 -0.00038368314630859534 0 -0.021404188199379011 0.00028240839096841172 0 -0.021781987779423997 -6.0099405037294525e-05 0 -0.02114138096187566 -0.00026015572627176786 0 -0.020799450446175392 -0.00082501930685024722 0 -0.020646708836546967 -0.00064958852456273568 0 -0.020861780477509452 -0.00058173467050101331 0 -0.02278912320974022 0.0011186162893550549 0 -0.022207045050434606 0.0015241553421159212 0 -0.022128759580080822 0.00044580434803688263 0 -0.021838692333519458 0.00069954030649162756 0 -0.021404188199379011 0.00028240839096841172 0 -0.021781987779423997 -6.0099405037294525e-05 0 -0.022402463799929932 0.00097990080180473428 0 -0.021904750797259773 0.00022283608874766467 0 -0.021904750797259773 0.00022283608874766467 0 -0.021873234023268923 -0.00067474159656026589 0 -0.021781987779423997 -6.0099405037294525e-05 0 -0.02114138096187566 -0.00026015572627176786 0 -0.021740884859753284 -0.00082482629675283462 0 -0.023709955554648447 0.00091363058960652454 0 -0.023479302978186362 0.00064207196296858858 0 -0.023982380266363689 0.00083082827224227054 0 -0.023423439931585171 0.0007977639614499155 0 -0.023709955554648447 0.00091363058960652454 0 -0.023479302978186362 0.00064207196296858858 0 -0.0231207220593771 0.00094667369940445252 0 -0.023449395651446013 0.00067957983170834004 0 -0.02278912320974022 0.0011186162893550549 0 -0.023479302978186362 0.00064207196296858858 0 -0.022824749678444285 0.00043955180793617385 0 -0.02278912320974022 0.0011186162893550549 0 -0.022128759580080822 0.00044580434803688263 0 -0.022824749678444285 0.00043955180793617385 0 -0.022128759580080822 0.00044580434803688263 0 -0.022824749678444285 0.00043955180793617385 0 -0.02269973525138088 -0.00020010879883607943 0 -0.022824749678444285 0.00043955180793617385 0 -0.023472925905512837 8.0139717012991433e-05 0 -0.02269973525138088 -0.00020010879883607943 0 -0.023479302978186362 0.00064207196296858858 0 -0.022824749678444285 0.00043955180793617385 0 -0.023472925905512837 8.0139717012991433e-05 0 -0.023479302978186362 0.00064207196296858858 0 -0.023472925905512837 8.0139717012991433e-05 0 -0.024032937520096737 0.00019865729743003162 0 -0.023479302978186362 0.00064207196296858858 0 -0.02410449506696585 0.00055866592976958204 0 -0.023982380266363689 0.00083082827224227054 0 -0.023479302978186362 0.00064207196296858858 0 -0.024032937520096737 0.00019865729743003162 0 -0.02410449506696585 0.00055866592976958204 0 -0.024293931432050268 0.00069380519151014024 0 -0.024424691250912702 0.00042611678038668592 0 -0.024569298735765164 0.00074658398204004574 0 -0.024032937520096737 0.00019865729743003162 0 -0.02410449506696585 0.00055866592976958204 0 -0.024424691250912702 0.00042611678038668592 0 -0.024293931432050268 0.00069380519151014024 0 -0.02410449506696585 0.00055866592976958204 0 -0.023982380266363689 0.00083082827224227054 0 -0.024293931432050268 0.00069380519151014024 0 -0.02410449506696585 0.00055866592976958204 0 -0.024424691250912702 0.00042611678038668592 0 -0.024032937520096737 0.00019865729743003162 0 -0.024424691250912702 0.00042611678038668592 0 -0.024620376254055051 -1.7744414186814056e-05 0 -0.024424691250912702 0.00042611678038668592 0 -0.024791030784630519 0.00043739849023671947 0 -0.024620376254055051 -1.7744414186814056e-05 0 -0.025043226845976298 0.00024594460627419367 0 -0.024394170451702654 -3.4407947353344105e-05 0 -0.025082303389718626 0.00025973130369205476 0 -0.024791030784630519 0.00043739849023671947 0 -0.024620376254055051 -1.7744414186814056e-05 0 -0.025082303389718626 0.00025973130369205476 0 -0.024893206422676242 0.00010428401796499038 0 -0.024160612052328442 -3.9231864828155708e-05 0 -0.025082303389718626 0.00025973130369205476 0 -0.025091886980529422 0.00055179130033777151 0 -0.024791030784630519 0.00043739849023671947 0 -0.025091886980529422 0.00055179130033777151 0 -0.024791030784630519 0.00043739849023671947 0 -0.024877856982878033 0.00069822514649731213 0 -0.024424691250912702 0.00042611678038668592 0 -0.024791030784630519 0.00043739849023671947 0 -0.024569298735765164 0.00074658398204004574 0 -0.024791030784630519 0.00043739849023671947 0 -0.024569298735765164 0.00074658398204004574 0 -0.024877856982878033 0.00069822514649731213 0 -0.024569298735765164 0.00074658398204004574 0 -0.024877856982878033 0.00069822514649731213 0 -0.024808913426583156 0.00097185933845306532 0 -0.024569298735765164 0.00074658398204004574 0 -0.024479490651135718 0.00098329185194019381 0 -0.024808913426583156 0.00097185933845306532 0 -0.024569298735765164 0.00074658398204004574 0 -0.024479490651135718 0.00098329185194019381 0 -0.024274955617691323 0.00091363241434362435 0 -0.025091886980529422 0.00055179130033777151 0 -0.025102245009493707 0.000853964793276315 0 -0.024877856982878033 0.00069822514649731213 0 -0.025102245009493707 0.000853964793276315 0 -0.024877856982878033 0.00069822514649731213 0 -0.024808913426583156 0.00097185933845306532 0 -0.025277399366082941 0.0011399133323134168 0 -0.024808913426583156 0.00097185933845306532 0 -0.0248168419163565 0.0012675516112176835 0 -0.025277399366082941 0.0011399133323134168 0 -0.025102245009493707 0.000853964793276315 0 -0.024808913426583156 0.00097185933845306532 0 -0.031219061487749462 0.0014711389172678449 0 -0.029707014500614158 0.00088800710105450646 0 -0.024344463093779016 0.0012404396228590468 0 -0.0248168419163565 0.0012675516112176835 0 -0.024539451285716416 0.0011129154905902424 0 -0.024808913426583156 0.00097185933845306532 0 -0.0248168419163565 0.0012675516112176835 0 -0.024539451285716416 0.0011129154905902424 0 -0.024479490651135718 0.00098329185194019381 0 -0.024539451285716416 0.0011129154905902424 0 -0.024278086519626384 0.0011026653169559936 0 -0.024479490651135718 0.00098329185194019381 0 -0.024808913426583156 0.00097185933845306532 0 -0.024539451285716416 0.0011129154905902424 0 -0.024344463093779016 0.0012404396228590468 0 -0.024539451285716416 0.0011129154905902424 0 -0.024278086519626384 0.0011026653169559936 0 -0.024479490651135718 0.00098329185194019381 0 -0.024278086519626384 0.0011026653169559936 0 -0.024274955617691323 0.00091363241434362435 0 -0.024278086519626384 0.0011026653169559936 0 -0.024108409256974019 0.0011735759958367987 0 -0.024112745386827096 0.0010550321560129159 0 -0.024278086519626384 0.0011026653169559936 0 -0.024112745386827096 0.0010550321560129159 0 -0.024274955617691323 0.00091363241434362435 0 -0.024344463093779016 0.0012404396228590468 0 -0.024278086519626384 0.0011026653169559936 0 -0.024108409256974019 0.0011735759958367987 0 -0.023967303951926932 0.0012738564617818758 0 -0.024108409256974019 0.0011735759958367987 0 -0.024112745386827096 0.0010550321560129159 0 -0.023967303951926932 0.0012738564617818758 0 -0.024112745386827096 0.0010550321560129159 0 -0.023950687721496902 0.0010255129524942301 0 -0.024112745386827096 0.0010550321560129159 0 -0.023950687721496902 0.0010255129524942301 0 -0.023982380266363689 0.00083082827224227054 0 -0.023709955554648447 0.00091363058960652454 0 -0.023950687721496902 0.0010255129524942301 0 -0.023982380266363689 0.00083082827224227054 0 -0.024293931432050268 0.00069380519151014024 0 -0.023982380266363689 0.00083082827224227054 0 -0.024274955617691323 0.00091363241434362435 0 -0.024293931432050268 0.00069380519151014024 0 -0.024569298735765164 0.00074658398204004574 0 -0.024274955617691323 0.00091363241434362435 0 -0.024112745386827096 0.0010550321560129159 0 -0.023982380266363689 0.00083082827224227054 0 -0.024274955617691323 0.00091363241434362435 0 -0.031054847036930296 0.0001132689236555827 0 -0.031984446521423272 4.9592558156305618e-07 0 -0.030300598086898778 5.1643634041610943e-07 0 -0.033497344489387966 -0.00043640754403169592 0 -0.034146172890281802 0.00024207909651785439 0 -0.034271614604800993 -0.00019440554057997256 0 -0.033497344489387966 -0.00043640754403169592 0 -0.033671936821751604 0.00048308424393460949 0 -0.034146172890281802 0.00024207909651785439 0 -0.032252382561565505 -6.1388308324312725e-05 0 -0.033829736377947693 3.0795612909822144e-05 0 -0.033829736377947693 3.0795612909822144e-05 0 -0.034558190899248956 6.4980450562107485e-05 0 -0.031054847036930296 0.0001132689236555827 0 -0.031984446521423272 4.9592558156305618e-07 0 -0.03201402699211086 -9.7323845274041153e-05 0 -0.033666065824391155 -2.0549230668928732e-07 0 -0.033829736377947693 3.0795612909822144e-05 0 -0.033669658481615704 -1.1062423202717516e-06 0 -0.034658669761315965 0.00010576908885571158 0 -0.034972623188363507 -0.00071985848467846282 0 -0.031984446521423272 4.9592558156305618e-07 0 -0.033663547246108372 -9.9220690880888372e-07 0 -0.03201402699211086 -9.7323845274041153e-05 0 -0.033669658481615704 -1.1062423202717516e-06 0 -0.034998336587802444 5.1677223328737799e-07 0 -0.034658669761315965 0.00010576908885571158 0 -0.034998336587802444 5.1677223328737799e-07 0 -0.034658669761315965 0.00010576908885571158 0 -0.035000194933641031 8.3388869578435022e-08 0 -0.034999840266007436 -4.0626537556574052e-08 0 -0.034936470730417092 -2.7135081886951237e-05 0 -0.0349506137932028 -2.0089107772158053e-05 0 -0.034999980293381687 1.582214059934414e-09 0 -0.034918154039390692 -0.00011355568462682941 0 -0.034658669761315965 0.00010576908885571158 0 -0.035000194933641031 8.3388869578435022e-08 0 -0.034999802448437596 -0.00010091336986479625 0 -0.034936470730417092 -2.7135081886951237e-05 0 -0.034918300004914332 -2.6199753985062269e-05 0 -0.034908766896417816 -3.4441140446712499e-05 0 -0.034658669761315965 0.00010576908885571158 0 -0.034999802448437596 -0.00010091336986479625 0 -0.034972623188363507 -0.00071985848467846282 0 -0.034918154039390692 -0.00011355568462682941 0 -0.033829736377947693 3.0795612909822144e-05 0 -0.034918300004914332 -2.6199753985062269e-05 0 -0.034908766896417816 -3.4441140446712499e-05 0 -0.034875274699660015 -2.2690743519532954e-05 0 -0.034936470730417092 -2.7135081886951237e-05 0 -0.034908766896417816 -3.4441140446712499e-05 0 -0.0349506137932028 -2.0089107772158053e-05 0 -0.034908766896417816 -3.4441140446712499e-05 0 -0.0349506137932028 -2.0089107772158053e-05 0 -0.034852015107031849 -4.2868107050225696e-05 0 -0.034908766896417816 -3.4441140446712499e-05 0 -0.034852015107031849 -4.2868107050225696e-05 0 -0.034875274699660015 -2.2690743519532954e-05 0 -0.034999840266007436 -4.0626537556574052e-08 0 -0.0349506137932028 -2.0089107772158053e-05 0 -0.034999888107972679 -1.6689191395585355e-09 0 -0.0349506137932028 -2.0089107772158053e-05 0 -0.034999888107972679 -1.6689191395585355e-09 0 -0.034927023992094366 -2.1516594378176471e-05 0 -0.034999888107972679 -1.6689191395585355e-09 0 -0.034927023992094366 -2.1516594378176471e-05 0 -0.03498089986158414 -7.384059191761298e-06 0 -0.0349506137932028 -2.0089107772158053e-05 0 -0.034927023992094366 -2.1516594378176471e-05 0 -0.034852015107031849 -4.2868107050225696e-05 0 -0.034927023992094366 -2.1516594378176471e-05 0 -0.034852015107031849 -4.2868107050225696e-05 0 -0.034834613485656009 -4.5856764086654356e-05 0 -0.034852015107031849 -4.2868107050225696e-05 0 -0.034834613485656009 -4.5856764086654356e-05 0 -0.034686658954203177 -6.2362724309897362e-05 0 -0.034834613485656009 -4.5856764086654356e-05 0 -0.034686658954203177 -6.2362724309897362e-05 0 -0.034847918090440064 -0.00015723174792038163 0 -0.034852015107031849 -4.2868107050225696e-05 0 -0.034686658954203177 -6.2362724309897362e-05 0 -0.034875274699660015 -2.2690743519532954e-05 0 -0.034663681121767223 -2.2061643834799369e-05 0 -0.034558190899248956 6.4980450562107485e-05 0 -0.034686658954203177 -6.2362724309897362e-05 0 -0.034146172890281802 0.00024207909651785439 0 -0.034271614604800993 -0.00019440554057997256 0 -0.034271614604800993 -0.00019440554057997256 0 -0.03471319313225385 -0.00030969801253386947 0 -0.034309913209704612 -0.00053424737365298394 0 -0.033497344489387966 -0.00043640754403169592 0 -0.034271614604800993 -0.00019440554057997256 0 -0.034309913209704612 -0.00053424737365298394 0 -0.034686658954203177 -6.2362724309897362e-05 0 -0.034271614604800993 -0.00019440554057997256 0 -0.03471319313225385 -0.00030969801253386947 0 -0.03471319313225385 -0.00030969801253386947 0 -0.034734536825047999 -0.00063695499522470496 0 -0.034309913209704612 -0.00053424737365298394 0 -0.034686658954203177 -6.2362724309897362e-05 0 -0.03471319313225385 -0.00030969801253386947 0 -0.034847918090440064 -0.00015723174792038163 0 -0.03471319313225385 -0.00030969801253386947 0 -0.034941752721333277 -0.00027321313671796802 0 -0.034847918090440064 -0.00015723174792038163 0 -0.03471319313225385 -0.00030969801253386947 0 -0.034941752721333277 -0.00027321313671796802 0 -0.034734536825047999 -0.00063695499522470496 0 -0.034941752721333277 -0.00027321313671796802 0 -0.034989457058678369 -0.0001736343754223936 0 -0.034847918090440064 -0.00015723174792038163 0 -0.030254257071030948 -0.00048349677262771233 0 -0.029824675528649994 -0.00074764681286451629 0 -0.025436377839867557 -0.00060647987587529649 0 -0.025621179885631146 -0.00068767030677312799 0 -0.025361844228687168 -0.00086137468044556733 0 -0.030254257071030948 -0.00048349677262771233 0 -0.029600726836551065 0.0003160421918637728 0 -0.025436377839867557 -0.00060647987587529649 0 -0.025621179885631146 -0.00068767030677312799 0 -0.025717714338356023 -0.0004803960968518782 0 -0.033664865268610414 -0.00033103120743139055 0 -0.035124087827900496 -9.3693257280030246e-05 0 -0.034941752721333277 -0.00027321313671796802 0 -0.034989457058678369 -0.0001736343754223936 0 -0.034993437269394044 -0.00018054472276750956 0 -0.034970487461082229 -1.9666724657096642e-05 0 -0.034979564888219204 -2.7089378663479662e-05 0 -0.034976257548338913 -2.0106265531429361e-05 0 -0.033664865268610414 -0.00033103120743139055 0 -0.029600726836551065 0.0003160421918637728 0 -0.034970487461082229 -1.9666724657096642e-05 0 -0.034976257548338913 -2.0106265531429361e-05 0 -0.034965844398379776 -2.0421929629426949e-05 0 -0.034977765240761273 -0.00011364354815458564 0 -0.034847918090440064 -0.00015723174792038163 0 -0.034890590673193493 -4.0266293113608902e-05 0 -0.034834613485656009 -4.5856764086654356e-05 0 -0.034847918090440064 -0.00015723174792038163 0 -0.034890590673193493 -4.0266293113608902e-05 0 -0.033664865268610414 -0.00033103120743139055 0 -0.035405156175798855 -5.8638881655483121e-05 0 -0.034927023992094366 -2.1516594378176471e-05 0 -0.034834613485656009 -4.5856764086654356e-05 0 -0.034890590673193493 -4.0266293113608902e-05 0 -0.034927023992094366 -2.1516594378176471e-05 0 -0.034979564888219204 -2.7089378663479662e-05 0 -0.03498089986158414 -7.384059191761298e-06 0 -0.034859509609686617 1.5551999778891759e-05 0 -0.035124087827900496 -9.3693257280030246e-05 0 -0.034979564888219204 -2.7089378663479662e-05 0 -0.03498089986158414 -7.384059191761298e-06 0 -0.034985189532752384 -1.4605516930061559e-05 0 -0.034999888107972679 -1.6689191395585355e-09 0 -0.03498089986158414 -7.384059191761298e-06 0 -0.034999989481353813 -7.1716851887821291e-09 0 -0.03498089986158414 -7.384059191761298e-06 0 -0.034999989481353813 -7.1716851887821291e-09 0 -0.034985189532752384 -1.4605516930061559e-05 0 -0.034999989481353813 -7.1716851887821291e-09 0 -0.034985189532752384 -1.4605516930061559e-05 0 -0.034988816789967937 -8.9911500274988496e-06 0 -0.034979564888219204 -2.7089378663479662e-05 0 -0.034985189532752384 -1.4605516930061559e-05 0 -0.034976257548338913 -2.0106265531429361e-05 0 -0.034976533204126165 -1.6599879339428612e-05 0 -0.034974162979313911 -1.3062750504176283e-05 0 -0.034965844398379776 -2.0421929629426949e-05 0 -0.034985189532752384 -1.4605516930061559e-05 0 -0.034976257548338913 -2.0106265531429361e-05 0 -0.034976533204126165 -1.6599879339428612e-05 0 -0.034976533204126165 -1.6599879339428612e-05 0 -0.034988816789967937 -8.9911500274988496e-06 0 -0.034979831218831296 -1.3194603545022434e-05 0 -0.034985189532752384 -1.4605516930061559e-05 0 -0.034976533204126165 -1.6599879339428612e-05 0 -0.034988816789967937 -8.9911500274988496e-06 0 -0.034999989481353813 -7.1716851887821291e-09 0 -0.034988816789967937 -8.9911500274988496e-06 0 -0.03499996983898853 -9.714586835443864e-09 0 -0.03500000280296104 -3.2571796190430145e-10 0 -0.03499996983898853 -9.714586835443864e-09 0 -0.034993285732995878 -4.7288774402564884e-06 0 -0.034988816789967937 -8.9911500274988496e-06 0 -0.03499996983898853 -9.714586835443864e-09 0 -0.034993285732995878 -4.7288774402564884e-06 0 -0.034988816789967937 -8.9911500274988496e-06 0 -0.034993285732995878 -4.7288774402564884e-06 0 -0.034979831218831296 -1.3194603545022434e-05 0 -0.034993285732995878 -4.7288774402564884e-06 0 -0.034984707571457961 -1.4495421212214451e-05 0 -0.034979831218831296 -1.3194603545022434e-05 0 -0.033317189496195929 -4.6098821051375141e-05 0 -0.031353928551155388 0.00021618213677468301 0 -0.030225448899579389 -2.5204937357513333e-05 0 -0.030683215360144796 -0.00018216045841301198 0 -0.030746764354895539 0.00012236912961839397 0 -0.034976533204126165 -1.6599879339428612e-05 0 -0.034974162979313911 -1.3062750504176283e-05 0 -0.034979831218831296 -1.3194603545022434e-05 0 -0.033317189496195929 -4.6098821051375141e-05 0 -0.034660950996112251 -0.00027749364676631327 0 -0.030683215360144796 -0.00018216045841301198 0 -0.030746764354895539 0.00012236912961839397 0 -0.031261046635733536 0.0002363839780443218 0 -0.025934478759338173 0.00053230851417539605 0 -0.026780182689449133 3.6309348071689161e-06 0 -0.026490177518575568 0.00070629248798172921 0 -0.026780182689449133 3.6309348071689161e-06 0 -0.027131879305439342 0.00057533559856120381 0 -0.026490177518575568 0.00070629248798172921 0 -0.026780182689449133 3.6309348071689161e-06 0 -0.027131879305439342 0.00057533559856120381 0 -0.027738937362696805 0.00020778779946222715 0 -0.028010937580958208 0.00040839312226434297 0 -0.027131879305439342 0.00057533559856120381 0 -0.027738937362696805 0.00020778779946222715 0 -0.02817371463721853 -6.1106727940733225e-05 0 -0.031353928551155388 0.00021618213677468301 0 -0.034976257548338913 -2.0106265531429361e-05 0 -0.034976533204126165 -1.6599879339428612e-05 0 -0.034965844398379776 -2.0421929629426949e-05 0 -0.030952243033090507 6.4225173693047537e-05 0 -0.0310976733911448 -3.8345361462979183e-05 0 -0.031375995950515427 0.00017270744942271944 0 -0.033664865268610414 -0.00033103120743139055 0 -0.031353928551155388 0.00021618213677468301 0 -0.029600726836551065 0.0003160421918637728 0 -0.031353928551155388 0.00021618213677468301 0 -0.028010937580958208 0.00040839312226434297 0 -0.027131879305439342 0.00057533559856120381 0 -0.026816870780762343 0.0011795688384795579 0 -0.029600726836551065 0.0003160421918637728 0 -0.026183571143936529 0.00030560089052402876 0 -0.025717714338356023 -0.0004803960968518782 0 -0.025906421328983562 -0.00071420241942532459 0 -0.025765471614809098 -0.00075458437220422738 0 -0.025621179885631146 -0.00068767030677312799 0 -0.025717714338356023 -0.0004803960968518782 0 -0.025765471614809098 -0.00075458437220422738 0 -0.027131879305439342 0.00057533559856120381 0 -0.026816870780762343 0.0011795688384795579 0 -0.026490177518575568 0.00070629248798172921 0 -0.025906421328983562 -0.00071420241942532459 0 -0.02587623391664377 -0.0008678956025278136 0 -0.025765471614809098 -0.00075458437220422738 0 -0.025999725629353522 -0.00082615541539258325 0 -0.025906421328983562 -0.00071420241942532459 0 -0.02587623391664377 -0.0008678956025278136 0 -0.020464363340425444 -0.0012687211173247066 0 -0.021251113540580992 -0.0013944799800350016 0 -0.021034598789982459 -0.0012682186072210321 0 -0.021251113540580992 -0.0013944799800350016 0 -0.02115448446662567 -0.0013076702326170408 0 -0.021034598789982459 -0.0012682186072210321 0 -0.021251113540580992 -0.0013944799800350016 0 -0.02115448446662567 -0.0013076702326170408 0 -0.021268340782779376 -0.0013203087176260877 0 -0.02587623391664377 -0.0008678956025278136 0 -0.025765471614809098 -0.00075458437220422738 0 -0.025635314590897566 -0.00099700204368609281 0 -0.023395936686503138 -0.0012487143886271133 0 -0.024051840415895163 -0.0012472013268389264 0 -0.021271181305003748 -0.0013484713456714621 0 -0.021864140659270982 -0.00058064546121708706 0 -0.021251113540580992 -0.0013944799800350016 0 -0.021815478542403278 -0.001279513215402472 0 -0.022400427236941634 -0.0015380001873701882 0 -0.021815478542403278 -0.001279513215402472 0 -0.021930434730631009 -0.0010668498638920277 0 -0.021268340782779376 -0.0013203087176260877 0 -0.021930434730631009 -0.0010668498638920277 0 -0.021268340782779376 -0.0013203087176260877 0 -0.021887707258257665 -0.00087386485470609379 0 -0.021815478542403278 -0.001279513215402472 0 -0.022228415870281716 -0.0010913431457556177 0 -0.022400427236941634 -0.0015380001873701882 0 -0.021815478542403278 -0.001279513215402472 0 -0.021930434730631009 -0.0010668498638920277 0 -0.022228415870281716 -0.0010913431457556177 0 -0.021930434730631009 -0.0010668498638920277 0 -0.022178254367869341 -0.00084047695060091661 0 -0.022228415870281716 -0.0010913431457556177 0 -0.02103645397528401 -0.00079735845746812032 0 -0.021140506235117824 -0.0010232251371281699 0 -0.021630315619146915 -0.00047900555045629888 0 -0.021140506235117824 -0.0010232251371281699 0 -0.021268340782779376 -0.0013203087176260877 0 -0.021630315619146915 -0.00047900555045629888 0 -0.021251113540580992 -0.0013944799800350016 0 -0.021815478542403278 -0.001279513215402472 0 -0.021268340782779376 -0.0013203087176260877 0 -0.021140506235117824 -0.0010232251371281699 0 -0.021161897987099415 -0.001227528136032719 0 -0.021268340782779376 -0.0013203087176260877 0 -0.021140506235117824 -0.0010232251371281699 0 -0.021161897987099415 -0.001227528136032719 0 -0.021034598789982459 -0.0012682186072210321 0 -0.021161897987099415 -0.001227528136032719 0 -0.02115448446662567 -0.0013076702326170408 0 -0.021268340782779376 -0.0013203087176260877 0 -0.021161897987099415 -0.001227528136032719 0 -0.02115448446662567 -0.0013076702326170408 0 -0.021034598789982459 -0.0012682186072210321 0 -0.021140506235117824 -0.0010232251371281699 0 -0.021034598789982459 -0.0012682186072210321 0 -0.020938404376717262 -0.0009917463046094986 0 -0.020778927352415433 -0.0010536238974635645 0 -0.021034598789982459 -0.0012682186072210321 0 -0.020938404376717262 -0.0009917463046094986 0 -0.020799450446175392 -0.00082501930685024722 0 -0.02103645397528401 -0.00079735845746812032 0 -0.020938404376717262 -0.0009917463046094986 0 -0.020799450446175392 -0.00082501930685024722 0 -0.02103645397528401 -0.00079735845746812032 0 -0.020861780477509452 -0.00058173467050101331 0 -0.02103645397528401 -0.00079735845746812032 0 -0.021140506235117824 -0.0010232251371281699 0 -0.020938404376717262 -0.0009917463046094986 0 -0.02103645397528401 -0.00079735845746812032 0 -0.020861780477509452 -0.00058173467050101331 0 -0.020783150664465955 -0.00048232115172019968 0 -0.02099407333281968 -0.0007494419911728081 0 -0.021178716120675508 -0.00037986237371783762 0 -0.020861780477509452 -0.00058173467050101331 0 -0.020782074647875851 -0.00052921561058720122 0 -0.020783150664465955 -0.00048232115172019968 0 -0.020860393607319217 -0.00053607111972304175 0 -0.020861780477509452 -0.00058173467050101331 0 -0.020782074647875851 -0.00052921561058720122 0 -0.020860393607319217 -0.00053607111972304175 0 -0.020782074647875851 -0.00052921561058720122 0 -0.020704958019707492 -0.00062214400202560986 0 -0.020448715655488583 -0.00063337912712105109 0 -0.020704958019707492 -0.00062214400202560986 0 -0.020624815192429771 -0.00051467930182776621 0 -0.020782074647875851 -0.00052921561058720122 0 -0.020704958019707492 -0.00062214400202560986 0 -0.020624815192429771 -0.00051467930182776621 0 -0.020624815192429771 -0.00051467930182776621 0 -0.020783150664465955 -0.00048232115172019968 0 -0.02035020566608664 -0.00043401016393275504 0 -0.020448715655488583 -0.00063337912712105109 0 -0.020624815192429771 -0.00051467930182776621 0 -0.02035020566608664 -0.00043401016393275504 0 -0.021887707258257665 -0.00087386485470609379 0 -0.022178254367869341 -0.00084047695060091661 0 -0.02234890967459844 -0.00036268132402722135 0 -0.021178716120675508 -0.00037986237371783762 0 -0.021035957420816119 -0.00038350391482714036 0 -0.021864140659270982 -0.00058064546121708706 0 -0.021035957420816119 -0.00038350391482714036 0 -0.021574459797406482 -0.00027234056656882759 0 -0.021630315619146915 -0.00047900555045629888 0 -0.021995739426001248 0.00018657745003219751 0 -0.020782074647875851 -0.00052921561058720122 0 -0.020624815192429771 -0.00051467930182776621 0 -0.020783150664465955 -0.00048232115172019968 0 -0.02103645397528401 -0.00079735845746812032 0 -0.021574459797406482 -0.00027234056656882759 0 -0.021630315619146915 -0.00047900555045629888 0 -0.021930434730631009 -0.0010668498638920277 0 -0.021887707258257665 -0.00087386485470609379 0 -0.022178254367869341 -0.00084047695060091661 0 -0.022178254367869341 -0.00084047695060091661 0 -0.022487484065912559 -0.00081492413952130311 0 -0.02234890967459844 -0.00036268132402722135 0 -0.022178254367869341 -0.00084047695060091661 0 -0.022487484065912559 -0.00081492413952130311 0 -0.022228415870281716 -0.0010913431457556177 0 -0.022487484065912559 -0.00081492413952130311 0 -0.022786012802727802 -0.0011029110408549815 0 -0.022228415870281716 -0.0010913431457556177 0 -0.022487484065912559 -0.00081492413952130311 0 -0.02276500794802205 -0.00084130408154676074 0 -0.022786012802727802 -0.0011029110408549815 0 -0.022487484065912559 -0.00081492413952130311 0 -0.02276500794802205 -0.00084130408154676074 0 -0.022749004183077837 -0.00060025998718058718 0 -0.022487484065912559 -0.00081492413952130311 0 -0.022749004183077837 -0.00060025998718058718 0 -0.02234890967459844 -0.00036268132402722135 0 -0.02035020566608664 -0.00043401016393275504 0 -0.019662436542405039 -0.000852016812515872 0 -0.019990104850367868 -0.00075489861275929648 0 -0.02234890967459844 -0.00036268132402722135 0 -0.02285205025260089 -0.0002732214502207039 0 -0.023043187830459215 0.00011037656200376074 0 -0.021035957420816119 -0.00038350391482714036 0 -0.02117042646548703 -0.00052847429971801204 0 -0.021035957420816119 -0.00038350391482714036 0 -0.019414678788377073 -0.0010830547055254228 0 -0.022749004183077837 -0.00060025998718058718 0 -0.02234890967459844 -0.00036268132402722135 0 -0.02285205025260089 -0.0002732214502207039 0 -0.020448715655488583 -0.00063337912712105109 0 -0.02035020566608664 -0.00043401016393275504 0 -0.019990104850367868 -0.00075489861275929648 0 -0.02328665160872468 -0.00019079972929236753 0 -0.023062292512983185 -0.00033555973097030287 0 -0.023234838950878592 -0.00038701842581765299 0 -0.02328665160872468 -0.00019079972929236753 0 -0.023083638556328924 -0.00013416629053724147 0 -0.023062292512983185 -0.00033555973097030287 0 -0.02328665160872468 -0.00019079972929236753 0 -0.023083638556328924 -0.00013416629053724147 0 -0.02318088659351264 -2.8953073861033973e-05 0 -0.02285205025260089 -0.0002732214502207039 0 -0.023083638556328924 -0.00013416629053724147 0 -0.023043187830459215 0.00011037656200376074 0 -0.02285205025260089 -0.0002732214502207039 0 -0.023083638556328924 -0.00013416629053724147 0 -0.023062292512983185 -0.00033555973097030287 0 -0.02285205025260089 -0.0002732214502207039 0 -0.023062292512983185 -0.00033555973097030287 0 -0.023009892597446079 -0.00052617140869282229 0 -0.023062292512983185 -0.00033555973097030287 0 -0.023009892597446079 -0.00052617140869282229 0 -0.023234838950878592 -0.00038701842581765299 0 -0.022749004183077837 -0.00060025998718058718 0 -0.02285205025260089 -0.0002732214502207039 0 -0.023009892597446079 -0.00052617140869282229 0 -0.02328665160872468 -0.00019079972929236753 0 -0.023234838950878592 -0.00038701842581765299 0 -0.023433983984531365 -0.00042936380337274755 0 -0.023009892597446079 -0.00052617140869282229 0 -0.023234838950878592 -0.00038701842581765299 0 -0.023254912507692814 -0.00060907322606501275 0 -0.023234838950878592 -0.00038701842581765299 0 -0.023254912507692814 -0.00060907322606501275 0 -0.023433983984531365 -0.00042936380337274755 0 -0.023009892597446079 -0.00052617140869282229 0 -0.023254912507692814 -0.00060907322606501275 0 -0.023031605674128576 -0.00085519915841116305 0 -0.023254912507692814 -0.00060907322606501275 0 -0.023031605674128576 -0.00085519915841116305 0 -0.023383798864516199 -0.00084488388406058531 0 -0.022749004183077837 -0.00060025998718058718 0 -0.023009892597446079 -0.00052617140869282229 0 -0.023031605674128576 -0.00085519915841116305 0 -0.02276500794802205 -0.00084130408154676074 0 -0.022749004183077837 -0.00060025998718058718 0 -0.023031605674128576 -0.00085519915841116305 0 -0.02276500794802205 -0.00084130408154676074 0 -0.023031605674128576 -0.00085519915841116305 0 -0.022786012802727802 -0.0011029110408549815 0 -0.023031605674128576 -0.00085519915841116305 0 -0.023258547033183953 -0.0011133176493812996 0 -0.022786012802727802 -0.0011029110408549815 0 -0.023031605674128576 -0.00085519915841116305 0 -0.023258547033183953 -0.0011133176493812996 0 -0.023383798864516199 -0.00084488388406058531 0 -0.023258547033183953 -0.0011133176493812996 0 -0.023294191093266765 -0.0015023064388453898 0 -0.022786012802727802 -0.0011029110408549815 0 -0.024202627593742931 -0.0013571544904298345 0 -0.024051840415895163 -0.0012472013268389264 0 -0.023294191093266765 -0.0015023064388453898 0 -0.022786012802727802 -0.0011029110408549815 0 -0.022400427236941634 -0.0015380001873701882 0 -0.022786012802727802 -0.0011029110408549815 0 -0.022228415870281716 -0.0010913431457556177 0 -0.022400427236941634 -0.0015380001873701882 0 -0.025621179885631146 -0.00068767030677312799 0 -0.025635314590897566 -0.00099700204368609281 0 -0.025361844228687168 -0.00086137468044556733 0 -0.025621179885631146 -0.00068767030677312799 0 -0.025765471614809098 -0.00075458437220422738 0 -0.025635314590897566 -0.00099700204368609281 0 -0.025436377839867557 -0.00060647987587529649 0 -0.025361844228687168 -0.00086137468044556733 0 -0.024964687530039324 -0.00081048698813303017 0 -0.025156074542019534 -0.0012135799456815324 0 -0.025635314590897566 -0.00099700204368609281 0 -0.025361844228687168 -0.00086137468044556733 0 -0.025156074542019534 -0.0012135799456815324 0 -0.025361844228687168 -0.00086137468044556733 0 -0.024964687530039324 -0.00081048698813303017 0 -0.034734536825047999 -0.00063695499522470496 0 -0.034309913209704612 -0.00053424737365298394 0 -0.034210256132231123 -0.0011076662506706949 0 -0.024964687530039324 -0.00081048698813303017 0 -0.024217179825967831 -0.0013202526447531747 0 -0.02431138913764113 -0.0012998397786085246 0 -0.029824675528649994 -0.00074764681286451629 0 -0.029126903707344769 -0.0010895471223022232 0 -0.024964687530039324 -0.00081048698813303017 0 -0.02431138913764113 -0.0012998397786085246 0 -0.024658351872467999 -0.0011858068376949412 0 -0.025156074542019534 -0.0012135799456815324 0 -0.024964687530039324 -0.00081048698813303017 0 -0.024658351872467999 -0.0011858068376949412 0 -0.033497344489387966 -0.00043640754403169592 0 -0.034309913209704612 -0.00053424737365298394 0 -0.034210256132231123 -0.0011076662506706949 0 -0.02431138913764113 -0.0012998397786085246 0 -0.024205689763103364 -0.0014126454640495819 0 -0.024658351872467999 -0.0011858068376949412 0 -0.029126903707344769 -0.0010895471223022232 0 -0.028220919284904757 -0.0012560182353271473 0 -0.024198752533538086 -0.0014222137020723682 0 -0.02431138913764113 -0.0012998397786085246 0 -0.024205689763103364 -0.0014126454640495819 0 -0.024245823903945165 -0.0012208738693712375 0 -0.024368131140990654 -0.0011163236845852234 0 -0.024667706032033658 -0.0013025059298966118 0 -0.029126903707344769 -0.0010895471223022232 0 -0.026190993472842691 -0.0013502354394109538 0 -0.024198752533538086 -0.0014222137020723682 0 -0.024205689763103364 -0.0014126454640495819 0 -0.024667706032033658 -0.0013025059298966118 0 -0.024205689763103364 -0.0014126454640495819 0 -0.024245823903945165 -0.0012208738693712375 0 -0.024667706032033658 -0.0013025059298966118 0 -0.024205689763103364 -0.0014126454640495819 0 -0.024245823903945165 -0.0012208738693712375 0 -0.023907384946849235 -0.0011976416542269889 0 -0.024245823903945165 -0.0012208738693712375 0 -0.023907384946849235 -0.0011976416542269889 0 -0.024116632479358593 -0.0010106977259218563 0 -0.023294191093266765 -0.0015023064388453898 0 -0.024205689763103364 -0.0014126454640495819 0 -0.023907384946849235 -0.0011976416542269889 0 -0.024202627593742931 -0.0013571544904298345 0 -0.024207980540685053 -0.0014026195231155831 0 -0.025156074542019534 -0.0012135799456815324 0 -0.024205689763103364 -0.0014126454640495819 0 -0.024658351872467999 -0.0011858068376949412 0 -0.023294191093266765 -0.0015023064388453898 0 -0.023907384946849235 -0.0011976416542269889 0 -0.023644840478380846 -0.0010579363388896895 0 -0.023258547033183953 -0.0011133176493812996 0 -0.023294191093266765 -0.0015023064388453898 0 -0.023644840478380846 -0.0010579363388896895 0 -0.023644840478380846 -0.0010579363388896895 0 -0.023383798864516199 -0.00084488388406058531 0 -0.023594534140869379 -0.00078068064771145084 0 -0.023258547033183953 -0.0011133176493812996 0 -0.023644840478380846 -0.0010579363388896895 0 -0.023383798864516199 -0.00084488388406058531 0 -0.023644840478380846 -0.0010579363388896895 0 -0.023816452027758554 -0.00082812934785810044 0 -0.023594534140869379 -0.00078068064771145084 0 -0.023907384946849235 -0.0011976416542269889 0 -0.023644840478380846 -0.0010579363388896895 0 -0.023873424171029584 -0.0010237764554380357 0 -0.023644840478380846 -0.0010579363388896895 0 -0.023873424171029584 -0.0010237764554380357 0 -0.023816452027758554 -0.00082812934785810044 0 -0.023816452027758554 -0.00082812934785810044 0 -0.023635588889989005 -0.00059986912792224728 0 -0.023871646504208779 -0.0005559001835716568 0 -0.023816452027758554 -0.00082812934785810044 0 -0.023635588889989005 -0.00059986912792224728 0 -0.023594534140869379 -0.00078068064771145084 0 -0.023254912507692814 -0.00060907322606501275 0 -0.023383798864516199 -0.00084488388406058531 0 -0.023448850988836072 -0.00064876809118873406 0 -0.023383798864516199 -0.00084488388406058531 0 -0.023594534140869379 -0.00078068064771145084 0 -0.023448850988836072 -0.00064876809118873406 0 -0.023635588889989005 -0.00059986912792224728 0 -0.023594534140869379 -0.00078068064771145084 0 -0.023448850988836072 -0.00064876809118873406 0 -0.023635588889989005 -0.00059986912792224728 0 -0.023433983984531365 -0.00042936380337274755 0 -0.023706115755376806 -0.00041374485571272004 0 -0.023433983984531365 -0.00042936380337274755 0 -0.023706115755376806 -0.00041374485571272004 0 -0.023564407472525264 -0.00024732759889556301 0 -0.023254912507692814 -0.00060907322606501275 0 -0.023448850988836072 -0.00064876809118873406 0 -0.023433983984531365 -0.00042936380337274755 0 -0.023635588889989005 -0.00059986912792224728 0 -0.023448850988836072 -0.00064876809118873406 0 -0.023433983984531365 -0.00042936380337274755 0 -0.023706115755376806 -0.00041374485571272004 0 -0.023857510395033629 -0.00027198521574476459 0 -0.023871646504208779 -0.0005559001835716568 0 -0.023635588889989005 -0.00059986912792224728 0 -0.023706115755376806 -0.00041374485571272004 0 -0.023871646504208779 -0.0005559001835716568 0 -0.023706115755376806 -0.00041374485571272004 0 -0.023564407472525264 -0.00024732759889556301 0 -0.023857510395033629 -0.00027198521574476459 0 -0.023564407472525264 -0.00024732759889556301 0 -0.023857510395033629 -0.00027198521574476459 0 -0.023612128630406876 6.3990557099684403e-06 0 -0.02328665160872468 -0.00019079972929236753 0 -0.023564407472525264 -0.00024732759889556301 0 -0.02344490354615061 -0.00010523303296005587 0 -0.02328665160872468 -0.00019079972929236753 0 -0.023433983984531365 -0.00042936380337274755 0 -0.023564407472525264 -0.00024732759889556301 0 -0.024282484055869226 -0.00021591548960055859 0 -0.023857510395033629 -0.00027198521574476459 0 -0.023895941928349707 -2.4233737728191652e-05 0 -0.023857510395033629 -0.00027198521574476459 0 -0.023871646504208779 -0.0005559001835716568 0 -0.024186128838534188 -0.00053499934515005229 0 -0.024282484055869226 -0.00021591548960055859 0 -0.024186128838534188 -0.00053499934515005229 0 -0.024563832216779432 -0.00046334654947426633 0 -0.024282484055869226 -0.00021591548960055859 0 -0.023857510395033629 -0.00027198521574476459 0 -0.024186128838534188 -0.00053499934515005229 0 -0.024186128838534188 -0.00053499934515005229 0 -0.024442627851010583 -0.00093016444675803056 0 -0.024563832216779432 -0.00046334654947426633 0 -0.024186128838534188 -0.00053499934515005229 0 -0.024080827381344799 -0.00077028245656744591 0 -0.024442627851010583 -0.00093016444675803056 0 -0.023871646504208779 -0.0005559001835716568 0 -0.024186128838534188 -0.00053499934515005229 0 -0.024080827381344799 -0.00077028245656744591 0 -0.023816452027758554 -0.00082812934785810044 0 -0.023871646504208779 -0.0005559001835716568 0 -0.024080827381344799 -0.00077028245656744591 0 -0.023873424171029584 -0.0010237764554380357 0 -0.023816452027758554 -0.00082812934785810044 0 -0.024116632479358593 -0.0010106977259218563 0 -0.023816452027758554 -0.00082812934785810044 0 -0.024080827381344799 -0.00077028245656744591 0 -0.024116632479358593 -0.0010106977259218563 0 -0.023907384946849235 -0.0011976416542269889 0 -0.023873424171029584 -0.0010237764554380357 0 -0.024116632479358593 -0.0010106977259218563 0 -0.024116632479358593 -0.0010106977259218563 0 -0.024368131140990654 -0.0011163236845852234 0 -0.024442627851010583 -0.00093016444675803056 0 -0.024080827381344799 -0.00077028245656744591 0 -0.024116632479358593 -0.0010106977259218563 0 -0.024442627851010583 -0.00093016444675803056 0 -0.024245823903945165 -0.0012208738693712375 0 -0.024116632479358593 -0.0010106977259218563 0 -0.024368131140990654 -0.0011163236845852234 0 -0.024368131140990654 -0.0011163236845852234 0 -0.024442627851010583 -0.00093016444675803056 0 -0.024667706032033658 -0.0013025059298966118 0 -0.024442627851010583 -0.00093016444675803056 0 -0.024842786617090492 -0.00076384326811647081 0 -0.024667706032033658 -0.0013025059298966118 0 -0.024842786617090492 -0.00076384326811647081 0 -0.025663679793690195 -0.00092887391640566889 0 -0.024667706032033658 -0.0013025059298966118 0 -0.027158428636894331 -0.0006683828190283713 0 -0.026190993472842691 -0.0013502354394109538 0 -0.024842786617090492 -0.00076384326811647081 0 -0.025154981636279713 -0.00041793039475214634 0 -0.025663679793690195 -0.00092887391640566889 0 -0.024442627851010583 -0.00093016444675803056 0 -0.024842786617090492 -0.00076384326811647081 0 -0.024563832216779432 -0.00046334654947426633 0 -0.024563832216779432 -0.00046334654947426633 0 -0.025154981636279713 -0.00041793039475214634 0 -0.024765242599398111 -0.00020366469055899448 0 -0.024842786617090492 -0.00076384326811647081 0 -0.024563832216779432 -0.00046334654947426633 0 -0.025154981636279713 -0.00041793039475214634 0 -0.024765242599398111 -0.00020366469055899448 0 -0.025210919669451253 -0.00011227375923812863 0 -0.02455394443087356 7.2633330082264995e-05 0 -0.025154981636279713 -0.00041793039475214634 0 -0.024765242599398111 -0.00020366469055899448 0 -0.025210919669451253 -0.00011227375923812863 0 -0.024282484055869226 -0.00021591548960055859 0 -0.024765242599398111 -0.00020366469055899448 0 -0.02455394443087356 7.2633330082264995e-05 0 -0.024282484055869226 -0.00021591548960055859 0 -0.024563832216779432 -0.00046334654947426633 0 -0.024765242599398111 -0.00020366469055899448 0 -0.025990521122624108 -0.00023812612097072377 0 -0.027215526072656825 -2.4447588607007594e-06 0 -0.02533194407879176 5.9974155723898083e-05 0 -0.025210919669451253 -0.00011227375923812863 0 -0.025990521122624108 -0.00023812612097072377 0 -0.02533194407879176 5.9974155723898083e-05 0 -0.025154981636279713 -0.00041793039475214634 0 -0.025210919669451253 -0.00011227375923812863 0 -0.025990521122624108 -0.00023812612097072377 0 -0.025154981636279713 -0.00041793039475214634 0 -0.025990521122624108 -0.00023812612097072377 0 -0.025663679793690195 -0.00092887391640566889 0 -0.025990521122624108 -0.00023812612097072377 0 -0.027215526072656825 -2.4447588607007594e-06 0 -0.02580329433890231 -0.0014123475284349492 0 -0.027962764754736451 8.7168097975799148e-05 0 -0.028615711234087758 3.3525867300479566e-09 0 -0.02818030644975509 -0.00016084683640278522 0 -0.027158428636894331 -0.0006683828190283713 0 -0.030576001715423455 -0.0006995203741476029 0 -0.028292928748110926 -0.001073657531504673 0 -0.028330306817417373 -0.00090830836870322402 0 -0.028458360142248399 -0.0009572006117490613 0 -0.027218553723076671 -5.0172463472733745e-07 0 -0.027158428636894331 -0.0006683828190283713 0 -0.027221112215536952 -1.8065857476018843e-08 0 -0.027962764754736451 8.7168097975799148e-05 0 -0.028615711234087758 3.3525867300479566e-09 0 -0.026524635268964734 -0.00062025133544506338 0 -0.027158428636894331 -0.0006683828190283713 0 -0.028617847879931279 -6.2359477888014183e-07 0 -0.030576001715423455 -0.0006995203741476029 0 -0.028620630755063971 -1.037570623191816e-06 0 -0.029564310655742925 -8.5759166147430859e-05 0 -0.030300598086898778 5.1643634041610943e-07 0 -0.029126903707344769 -0.0010895471223022232 0 -0.030576001715423455 -0.0006995203741476029 0 -0.028623103645899085 -0.0008386963928590529 0 -0.028330306817417373 -0.00090830836870322402 0 -0.028458360142248399 -0.0009572006117490613 0 -0.033497344489387966 -0.00043640754403169592 0 -0.034210256132231123 -0.0011076662506706949 0 -0.03329559177290288 -0.0013307377663009095 0 -0.032252382561565505 -6.1388308324312725e-05 0 -0.030576001715423455 -0.0006995203741476029 0 -0.031054847036930296 0.0001132689236555827 0 -0.029564310655742925 -8.5759166147430859e-05 0 -0.030300598086898778 5.1643634041610943e-07 0 -0.021461372270970235 -0.00022371170078236738 0 -0.023312793452232517 0.0002004567374186562 0 -0.023043429327254492 -1.904110517952782e-07 0 -0.021461372270970235 -0.00022371170078236738 0 -0.023043429327254492 -1.904110517952782e-07 0 -0.02095663828241507 -7.6932297339878993e-08 0 -0.021461372270970235 -0.00022371170078236738 0 -0.023312793452232517 0.0002004567374186562 0 -0.023496946953613599 0.00013942691186083234 0 -0.021589882500563918 -0.00021621845356620796 0 -0.021711519040281162 -0.00042626244989183679 0 -0.023312793452232517 0.0002004567374186562 0 -0.023761481565809647 0.00029160178139022873 0 -0.023496946953613599 0.00013942691186083234 0 -0.023312793452232517 0.0002004567374186562 0 -0.023043429327254492 -1.904110517952782e-07 0 -0.025131001537708839 1.2730791533938593e-06 0 -0.023312793452232517 0.0002004567374186562 0 -0.025131001537708839 1.2730791533938593e-06 0 -0.02416338766771025 0.00018352989250748324 0 -0.027215526072656825 -2.4447588607007594e-06 0 -0.025131001537708839 1.2730791533938593e-06 0 -0.02533194407879176 5.9974155723898083e-05 0 -0.025131001537708839 1.2730791533938593e-06 0 -0.02533194407879176 5.9974155723898083e-05 0 -0.02416338766771025 0.00018352989250748324 0 -0.025210919669451253 -0.00011227375923812863 0 -0.02533194407879176 5.9974155723898083e-05 0 -0.02455394443087356 7.2633330082264995e-05 0 -0.024282484055869226 -0.00021591548960055859 0 -0.02455394443087356 7.2633330082264995e-05 0 -0.024131754727231176 3.7284177790970589e-05 0 -0.02533194407879176 5.9974155723898083e-05 0 -0.02455394443087356 7.2633330082264995e-05 0 -0.02416338766771025 0.00018352989250748324 0 -0.02455394443087356 7.2633330082264995e-05 0 -0.024027431608809512 0.00017482528902287365 0 -0.024131754727231176 3.7284177790970589e-05 0 -0.02455394443087356 7.2633330082264995e-05 0 -0.02416338766771025 0.00018352989250748324 0 -0.024027431608809512 0.00017482528902287365 0 -0.023312793452232517 0.0002004567374186562 0 -0.02416338766771025 0.00018352989250748324 0 -0.023761481565809647 0.00029160178139022873 0 -0.02416338766771025 0.00018352989250748324 0 -0.023761481565809647 0.00029160178139022873 0 -0.024027431608809512 0.00017482528902287365 0 -0.023761481565809647 0.00029160178139022873 0 -0.023677302522505796 0.00029169573488589808 0 -0.023496946953613599 0.00013942691186083234 0 -0.023761481565809647 0.00029160178139022873 0 -0.023677302522505796 0.00029169573488589808 0 -0.023793764310151011 0.0001724457600840925 0 -0.023761481565809647 0.00029160178139022873 0 -0.024027431608809512 0.00017482528902287365 0 -0.023793764310151011 0.0001724457600840925 0 -0.024027431608809512 0.00017482528902287365 0 -0.023793764310151011 0.0001724457600840925 0 -0.024131754727231176 3.7284177790970589e-05 0 -0.023793764310151011 0.0001724457600840925 0 -0.023895941928349707 -2.4233737728191652e-05 0 -0.024131754727231176 3.7284177790970589e-05 0 -0.023793764310151011 0.0001724457600840925 0 -0.023895941928349707 -2.4233737728191652e-05 0 -0.023612128630406876 6.3990557099684403e-06 0 -0.024282484055869226 -0.00021591548960055859 0 -0.023895941928349707 -2.4233737728191652e-05 0 -0.024131754727231176 3.7284177790970589e-05 0 -0.023552838074580744 0.0001682969512820036 0 -0.023617247468208449 0.00032723656395706915 0 -0.023043187830459215 0.00011037656200376074 0 -0.02344490354615061 -0.00010523303296005587 0 -0.023612128630406876 6.3990557099684403e-06 0 -0.023329096542729254 3.5768506568783157e-05 0 -0.023564407472525264 -0.00024732759889556301 0 -0.02344490354615061 -0.00010523303296005587 0 -0.023612128630406876 6.3990557099684403e-06 0 -0.023857510395033629 -0.00027198521574476459 0 -0.023895941928349707 -2.4233737728191652e-05 0 -0.023612128630406876 6.3990557099684403e-06 0 -0.023793764310151011 0.0001724457600840925 0 -0.023612128630406876 6.3990557099684403e-06 0 -0.023552838074580744 0.0001682969512820036 0 -0.023612128630406876 6.3990557099684403e-06 0 -0.023552838074580744 0.0001682969512820036 0 -0.023329096542729254 3.5768506568783157e-05 0 -0.023677302522505796 0.00029169573488589808 0 -0.023617247468208449 0.00032723656395706915 0 -0.023496946953613599 0.00013942691186083234 0 -0.023677302522505796 0.00029169573488589808 0 -0.023552838074580744 0.0001682969512820036 0 -0.023617247468208449 0.00032723656395706915 0 -0.023677302522505796 0.00029169573488589808 0 -0.023793764310151011 0.0001724457600840925 0 -0.023552838074580744 0.0001682969512820036 0 -0.019354064942869696 -0.0012621012506053497 0 -0.019958519999174588 -0.0011442932725145177 0 -0.019376001736281602 -0.00088944828194499636 0 -0.021492110864775996 -0.00046728198348303801 0 -0.021711519040281162 -0.00042626244989183679 0 -0.019354064942869696 -0.0012621012506053497 0 -0.019376001736281602 -0.00088944828194499636 0 -0.01922666605576159 -0.0010798707756534396 0 -0.021461372270970235 -0.00022371170078236738 0 -0.019958519999174588 -0.0011442932725145177 0 -0.019902893221395872 -0.00024775513259118597 0 -0.019958519999174588 -0.0011442932725145177 0 -0.019376001736281602 -0.00088944828194499636 0 -0.019902893221395872 -0.00024775513259118597 0 -0.019376001736281602 -0.00088944828194499636 0 -0.019146428999313771 -0.00084645984493935517 0 -0.019047150495277592 -0.00055492997608646861 0 -0.019081357950439377 -0.00095347064386792858 0 -0.019146428999313771 -0.00084645984493935517 0 -0.019006168063245898 -0.00072321364638253073 0 -0.019081357950439377 -0.00095347064386792858 0 -0.019006168063245898 -0.00072321364638253073 0 -0.018871611028374848 -0.00085995218920066694 0 -0.019146428999313771 -0.00084645984493935517 0 -0.019006168063245898 -0.00072321364638253073 0 -0.019047150495277592 -0.00055492997608646861 0 -0.019006168063245898 -0.00072321364638253073 0 -0.018822361115045247 -0.00065004388353630596 0 -0.018882139239133951 -0.00055653464578198889 0 -0.019006168063245898 -0.00072321364638253073 0 -0.018882139239133951 -0.00055653464578198889 0 -0.019047150495277592 -0.00055492997608646861 0 -0.018203090861604029 -0.0014897512135748803 0 -0.018292911979592083 -0.001166046996566558 0 -0.018255842497607776 -0.0015292080227500904 0 -0.018822361115045247 -0.00065004388353630596 0 -0.018760181967962291 -0.00077082175417387633 0 -0.018871611028374848 -0.00085995218920066694 0 -0.018609363689457568 -0.00060870888591767832 0 -0.018760181967962291 -0.00077082175417387633 0 -0.018730127677215113 -0.0011591806083113246 0 -0.018354114055961684 -0.00095602786809935827 0 -0.019148748815800413 -0.0013171445511904012 0 -0.019006168063245898 -0.00072321364638253073 0 -0.018822361115045247 -0.00065004388353630596 0 -0.018871611028374848 -0.00085995218920066694 0 -0.018203090861604029 -0.0014897512135748803 0 -0.018121242152175438 -0.0010506777875394914 0 -0.018292911979592083 -0.001166046996566558 0 -0.018822361115045247 -0.00065004388353630596 0 -0.018728986166856056 -0.00063046056308471428 0 -0.01872248927245973 -0.00049996910714240157 0 -0.018822361115045247 -0.00065004388353630596 0 -0.018728986166856056 -0.00063046056308471428 0 -0.018760181967962291 -0.00077082175417387633 0 -0.018728986166856056 -0.00063046056308471428 0 -0.018609363689457568 -0.00060870888591767832 0 -0.018760181967962291 -0.00077082175417387633 0 -0.018760181967962291 -0.00077082175417387633 0 -0.018871611028374848 -0.00085995218920066694 0 -0.018730127677215113 -0.0011591806083113246 0 -0.019081357950439377 -0.00095347064386792858 0 -0.018871611028374848 -0.00085995218920066694 0 -0.018979594195604119 -0.0010243683486627418 0 -0.019114056917968466 -0.0012239664723998644 0 -0.019148748815800413 -0.0013171445511904012 0 -0.018871611028374848 -0.00085995218920066694 0 -0.018979594195604119 -0.0010243683486627418 0 -0.018730127677215113 -0.0011591806083113246 0 -0.019081357950439377 -0.00095347064386792858 0 -0.019154275506829438 -0.0011616899367865119 0 -0.018979594195604119 -0.0010243683486627418 0 -0.019154275506829438 -0.0011616899367865119 0 -0.018979594195604119 -0.0010243683486627418 0 -0.018730127677215113 -0.0011591806083113246 0 -0.019154275506829438 -0.0011616899367865119 0 -0.019345930483196494 -0.0012136089627040202 0 -0.019342674240218176 -0.0011427514559922774 0 -0.019154275506829438 -0.0011616899367865119 0 -0.019279781929506377 -0.0011710304347967194 0 -0.019342674240218176 -0.0011427514559922774 0 -0.019154275506829438 -0.0011616899367865119 0 -0.01922666605576159 -0.0010798707756534396 0 -0.019279781929506377 -0.0011710304347967194 0 -0.019081357950439377 -0.00095347064386792858 0 -0.019154275506829438 -0.0011616899367865119 0 -0.01922666605576159 -0.0010798707756534396 0 -0.019081357950439377 -0.00095347064386792858 0 -0.019146428999313771 -0.00084645984493935517 0 -0.01922666605576159 -0.0010798707756534396 0 -0.019376001736281602 -0.00088944828194499636 0 -0.019146428999313771 -0.00084645984493935517 0 -0.01922666605576159 -0.0010798707756534396 0 -0.019354064942869696 -0.0012621012506053497 0 -0.019279781929506377 -0.0011710304347967194 0 -0.019330647200966271 -0.0010781656356861707 0 -0.019279781929506377 -0.0011710304347967194 0 -0.019662436542405039 -0.000852016812515872 0 -0.019342674240218176 -0.0011427514559922774 0 -0.021492110864775996 -0.00046728198348303801 0 -0.02117042646548703 -0.00052847429971801204 0 -0.019354064942869696 -0.0012621012506053497 0 -0.01922666605576159 -0.0010798707756534396 0 -0.019279781929506377 -0.0011710304347967194 0 -0.019351018051774138 -0.0011200883617129038 0 -0.019414678788377073 -0.0010830547055254228 0 -0.019279781929506377 -0.0011710304347967194 0 -0.019330647200966271 -0.0010781656356861707 0 -0.019418643530210847 -0.0010776773173139067 0 -0.023552838074580744 0.0001682969512820036 0 -0.023043187830459215 0.00011037656200376074 0 -0.023329096542729254 3.5768506568783157e-05 0 -0.023083638556328924 -0.00013416629053724147 0 -0.023043187830459215 0.00011037656200376074 0 -0.02318088659351264 -2.8953073861033973e-05 0 -0.02328665160872468 -0.00019079972929236753 0 -0.02344490354615061 -0.00010523303296005587 0 -0.023329096542729254 3.5768506568783157e-05 0 -0.02328665160872468 -0.00019079972929236753 0 -0.02318088659351264 -2.8953073861033973e-05 0 -0.023329096542729254 3.5768506568783157e-05 0 -0.023043187830459215 0.00011037656200376074 0 -0.02318088659351264 -2.8953073861033973e-05 0 -0.023329096542729254 3.5768506568783157e-05 0 -0.019936394582785375 -0.00074514781906914783 0 -0.019864987174898003 -0.0010940475958216432 0 -0.019619791367668483 -0.00075797618914149711 0 -0.019330647200966271 -0.0010781656356861707 0 -0.019418643530210847 -0.0010776773173139067 0 -0.019662436542405039 -0.000852016812515872 0 -0.019990104850367868 -0.00075489861275929648 0 -0.019551342946912052 -0.0010646764097854298 0 -0.019990104850367868 -0.00075489861275929648 0 -0.020133743961739076 -0.0011561147008491465 0 -0.020484180001761932 -0.0008623246404235507 0 -0.019662436542405039 -0.000852016812515872 0 -0.019551342946912052 -0.0010646764097854298 0 -0.019342674240218176 -0.0011427514559922774 0 -0.019148748815800413 -0.0013171445511904012 0 -0.019864987174898003 -0.0010940475958216432 0 -0.020163040989523411 -0.0015916282360272991 0 -0.020133743961739076 -0.0011561147008491465 0 -0.020485311441906712 -0.0013462971232623612 0 -0.019345930483196494 -0.0012136089627040202 0 -0.019551342946912052 -0.0010646764097854298 0 -0.019342674240218176 -0.0011427514559922774 0 -0.020133743961739076 -0.0011561147008491465 0 -0.020549213994166364 -0.0010941259046802173 0 -0.020484180001761932 -0.0008623246404235507 0 -0.020133743961739076 -0.0011561147008491465 0 -0.020485311441906712 -0.0013462971232623612 0 -0.020549213994166364 -0.0010941259046802173 0 -0.020485311441906712 -0.0013462971232623612 0 -0.020549213994166364 -0.0010941259046802173 0 -0.02078052041417263 -0.001274465200291763 0 -0.020704958019707492 -0.00062214400202560986 0 -0.020484180001761932 -0.0008623246404235507 0 -0.020864337423916055 -0.00084608822701222146 0 -0.020549213994166364 -0.0010941259046802173 0 -0.020484180001761932 -0.0008623246404235507 0 -0.020864337423916055 -0.00084608822701222146 0 -0.020448715655488583 -0.00063337912712105109 0 -0.020704958019707492 -0.00062214400202560986 0 -0.020484180001761932 -0.0008623246404235507 0 -0.020448715655488583 -0.00063337912712105109 0 -0.019990104850367868 -0.00075489861275929648 0 -0.020484180001761932 -0.0008623246404235507 0 -0.021014483114150852 -0.00038368314630859534 0 -0.020856069458057406 -0.00082452225320096221 0 -0.020860393607319217 -0.00053607111972304175 0 -0.020704958019707492 -0.00062214400202560986 0 -0.020864337423916055 -0.00084608822701222146 0 -0.020549213994166364 -0.0010941259046802173 0 -0.020864337423916055 -0.00084608822701222146 0 -0.02078052041417263 -0.001274465200291763 0 -0.020864337423916055 -0.00084608822701222146 0 -0.02078052041417263 -0.001274465200291763 0 -0.021230426898919238 -0.0012615527647909601 0 -0.02078052041417263 -0.001274465200291763 0 -0.020762440083998999 -0.0016074241786414806 0 -0.021230426898919238 -0.0012615527647909601 0 -0.018791760318564145 -0.00098142741518111084 0 -0.0198431919854162 -0.00084444800732280201 0 -0.019349277992542643 -0.0013081914997625276 0 -0.019790036115911725 -0.0012882965839393472 0 -0.020658979887007434 -0.0012086672048884667 0 -0.018121242152175438 -0.0010506777875394914 0 -0.018791760318564145 -0.00098142741518111084 0 -0.018437559629985903 -0.0011904341737415676 0 -0.020163040989523411 -0.0015916282360272991 0 -0.020485311441906712 -0.0013462971232623612 0 -0.020762440083998999 -0.0016074241786414806 0 -0.020485311441906712 -0.0013462971232623612 0 -0.02078052041417263 -0.001274465200291763 0 -0.020762440083998999 -0.0016074241786414806 0 -0.019148748815800413 -0.0013171445511904012 0 -0.019790036115911725 -0.0012882965839393472 0 -0.018121242152175438 -0.0010506777875394914 0 -0.018437559629985903 -0.0011904341737415676 0 -0.018292911979592083 -0.001166046996566558 0 -0.018791760318564145 -0.00098142741518111084 0 -0.018437559629985903 -0.0011904341737415676 0 -0.018670727429214939 -0.0013962684364310298 0 -0.018437559629985903 -0.0011904341737415676 0 -0.018335018500618583 -0.0014068449148266762 0 -0.018330726459302612 -0.0016800871483033447 0 -0.018437559629985903 -0.0011904341737415676 0 -0.018544929220751186 -0.0016376363115202122 0 -0.018364560897598234 -0.0020626936678989315 0 -0.018296185132964646 -0.0011580709508317412 0 -0.018251407270126155 -0.0016781233547303589 0 -0.018292911979592083 -0.001166046996566558 0 -0.018335018500618583 -0.0014068449148266762 0 -0.01827179630748731 -0.0015847458189271926 0 -0.018437559629985903 -0.0011904341737415676 0 -0.018670727429214939 -0.0013962684364310298 0 -0.018544929220751186 -0.0016376363115202122 0 -0.018437858382098261 -0.0012289987937890926 0 -0.01835239026890478 -0.0018711852799502553 0 -0.018437559629985903 -0.0011904341737415676 0 -0.018292911979592083 -0.001166046996566558 0 -0.018335018500618583 -0.0014068449148266762 0 -0.018335018500618583 -0.0014068449148266762 0 -0.01827179630748731 -0.0015847458189271926 0 -0.018330726459302612 -0.0016800871483033447 0 -0.018670727429214939 -0.0013962684364310298 0 -0.018697588255282671 -0.0016761937143790352 0 -0.018544929220751186 -0.0016376363115202122 0 -0.018697588255282671 -0.0016761937143790352 0 -0.01870744045514787 -0.0019338356683559156 0 -0.01856507136769122 -0.0018545613905397425 0 -0.018697588255282671 -0.0016761937143790352 0 -0.018544929220751186 -0.0016376363115202122 0 -0.01856507136769122 -0.0018545613905397425 0 -0.018697588255282671 -0.0016761937143790352 0 -0.018913412630326469 -0.0017887546256580868 0 -0.01870744045514787 -0.0019338356683559156 0 -0.018697588255282671 -0.0016761937143790352 0 -0.018913412630326469 -0.0017887546256580868 0 -0.018941311640926845 -0.0014351401574144037 0 -0.018913412630326469 -0.0017887546256580868 0 -0.019183278574252276 -0.0016353980696515436 0 -0.019181395402936702 -0.0019679424149154651 0 -0.018913412630326469 -0.0017887546256580868 0 -0.019183278574252276 -0.0016353980696515436 0 -0.018941311640926845 -0.0014351401574144037 0 -0.018791760318564145 -0.00098142741518111084 0 -0.018941311640926845 -0.0014351401574144037 0 -0.019349277992542643 -0.0013081914997625276 0 -0.019183278574252276 -0.0016353980696515436 0 -0.018941311640926845 -0.0014351401574144037 0 -0.019349277992542643 -0.0013081914997625276 0 -0.018791760318564145 -0.00098142741518111084 0 -0.018670727429214939 -0.0013962684364310298 0 -0.018941311640926845 -0.0014351401574144037 0 -0.018670727429214939 -0.0013962684364310298 0 -0.018697588255282671 -0.0016761937143790352 0 -0.018941311640926845 -0.0014351401574144037 0 -0.018749835580191287 -0.0022899185884318655 0 -0.018851293275980213 -0.0020922973136819666 0 -0.018673755298059726 -0.0021127454879559561 0 -0.018749835580191287 -0.0022899185884318655 0 -0.018928389909775925 -0.0023809932591777822 0 -0.018851293275980213 -0.0020922973136819666 0 -0.018928389909775925 -0.0023809932591777822 0 -0.019181395402936702 -0.0019679424149154651 0 -0.018851293275980213 -0.0020922973136819666 0 -0.018913412630326469 -0.0017887546256580868 0 -0.019181395402936702 -0.0019679424149154651 0 -0.018851293275980213 -0.0020922973136819666 0 -0.018913412630326469 -0.0017887546256580868 0 -0.018851293275980213 -0.0020922973136819666 0 -0.01870744045514787 -0.0019338356683559156 0 -0.018851293275980213 -0.0020922973136819666 0 -0.01870744045514787 -0.0019338356683559156 0 -0.018673755298059726 -0.0021127454879559561 0 -0.01827179630748731 -0.0015847458189271926 0 -0.018330726459302612 -0.0016800871483033447 0 -0.01824478675169464 -0.0019485128896290622 0 -0.01870744045514787 -0.0019338356683559156 0 -0.01856507136769122 -0.0018545613905397425 0 -0.018575177292990162 -0.0020320616369291144 0 -0.018544929220751186 -0.0016376363115202122 0 -0.01856507136769122 -0.0018545613905397425 0 -0.018364560897598234 -0.0020626936678989315 0 -0.018575177292990162 -0.0020320616369291144 0 -0.018364560897598234 -0.0020626936678989315 0 -0.018560281033565756 -0.002185814538495178 0 -0.01856507136769122 -0.0018545613905397425 0 -0.018575177292990162 -0.0020320616369291144 0 -0.018364560897598234 -0.0020626936678989315 0 -0.01870744045514787 -0.0019338356683559156 0 -0.018575177292990162 -0.0020320616369291144 0 -0.018673755298059726 -0.0021127454879559561 0 -0.018364560897598234 -0.0020626936678989315 0 -0.018560281033565756 -0.002185814538495178 0 -0.018507636611035945 -0.002283798004018768 0 -0.018749835580191287 -0.0022899185884318655 0 -0.018560281033565756 -0.002185814538495178 0 -0.018596297596292746 -0.0023152278566965783 0 -0.018749835580191287 -0.0022899185884318655 0 -0.018673755298059726 -0.0021127454879559561 0 -0.018560281033565756 -0.002185814538495178 0 -0.018575177292990162 -0.0020320616369291144 0 -0.018673755298059726 -0.0021127454879559561 0 -0.018560281033565756 -0.002185814538495178 0 -0.018330726459302612 -0.0016800871483033447 0 -0.018258162338022094 -0.0021097037342207624 0 -0.01824478675169464 -0.0019485128896290622 0 -0.01835239026890478 -0.0018711852799502553 0 -0.01840247630027159 -0.0021399395463203249 0 -0.018596297596292746 -0.0023152278566965783 0 -0.018631652154938526 -0.0023849269808236353 0 -0.018735062172697148 -0.0023668479147319833 0 -0.018364560897598234 -0.0020626936678989315 0 -0.018507636611035945 -0.002283798004018768 0 -0.018476833169615955 -0.0024288838307072614 0 -0.018560281033565756 -0.002185814538495178 0 -0.018596297596292746 -0.0023152278566965783 0 -0.018507636611035945 -0.002283798004018768 0 -0.018596297596292746 -0.0023152278566965783 0 -0.018507636611035945 -0.002283798004018768 0 -0.018544386361278514 -0.0023850899205737201 0 -0.018596297596292746 -0.0023152278566965783 0 -0.018544386361278514 -0.0023850899205737201 0 -0.018631652154938526 -0.0023849269808236353 0 -0.018507636611035945 -0.002283798004018768 0 -0.018544386361278514 -0.0023850899205737201 0 -0.018476833169615955 -0.0024288838307072614 0 -0.018544386361278514 -0.0023850899205737201 0 -0.018517810949275109 -0.0024207927202300719 0 -0.018476833169615955 -0.0024288838307072614 0 -0.018544386361278514 -0.0023850899205737201 0 -0.018566476740052698 -0.0024159039129704883 0 -0.018517810949275109 -0.0024207927202300719 0 -0.018544386361278514 -0.0023850899205737201 0 -0.018631652154938526 -0.0023849269808236353 0 -0.018566476740052698 -0.0024159039129704883 0 -0.018631652154938526 -0.0023849269808236353 0 -0.018735062172697148 -0.0023668479147319833 0 -0.018821827083019854 -0.0024296623443349577 0 -0.018631652154938526 -0.0023849269808236353 0 -0.018821827083019854 -0.0024296623443349577 0 -0.018566476740052698 -0.0024159039129704883 0 -0.018749835580191287 -0.0022899185884318655 0 -0.018596297596292746 -0.0023152278566965783 0 -0.018735062172697148 -0.0023668479147319833 0 -0.018749835580191287 -0.0022899185884318655 0 -0.018735062172697148 -0.0023668479147319833 0 -0.018846305685093157 -0.0023694690682612885 0 -0.018749835580191287 -0.0022899185884318655 0 -0.018928389909775925 -0.0023809932591777822 0 -0.018846305685093157 -0.0023694690682612885 0 -0.018735062172697148 -0.0023668479147319833 0 -0.018846305685093157 -0.0023694690682612885 0 -0.018821827083019854 -0.0024296623443349577 0 -0.018928389909775925 -0.0023809932591777822 0 -0.018846305685093157 -0.0023694690682612885 0 -0.018872947678536468 -0.00236914179987619 0 -0.018846305685093157 -0.0023694690682612885 0 -0.018872947678536468 -0.00236914179987619 0 -0.018821827083019854 -0.0024296623443349577 0 -0.017050665612156651 -0.0020197968383073943 0 -0.016586870918586849 -0.0016955462780811796 0 -0.018821827083019854 -0.0024296623443349577 0 -0.018454140091302227 -0.0024008913907477489 0 -0.018566476740052698 -0.0024159039129704883 0 -0.016586870918586849 -0.0016955462780811796 0 -0.018218217341033772 -0.002534181847843413 0 -0.016586870918586849 -0.0016955462780811796 0 -0.014380522076254607 -0.001259506653413476 0 -0.017045198981950553 -0.0031918391241567579 0 -0.017124801753533658 -0.0022194667449385152 0 -0.017669281036144097 -0.002557564563840813 0 -0.017124801753533658 -0.0022194667449385152 0 -0.017669281036144097 -0.002557564563840813 0 -0.017576480789965189 -0.0018445088295021704 0 -0.017669281036144097 -0.002557564563840813 0 -0.017576480789965189 -0.0018445088295021704 0 -0.017991299678489735 -0.001828358464870025 0 -0.018454140091302227 -0.0024008913907477489 0 -0.018559063589298607 -0.0023512139219034733 0 -0.0183962190994626 -0.0018907503994604895 0 -0.018218217341033772 -0.002534181847843413 0 -0.018377787948412556 -0.0019193119146732245 0 -0.017669281036144097 -0.002557564563840813 0 -0.0183962190994626 -0.0018907503994604895 0 -0.017991299678489735 -0.001828358464870025 0 -0.018454140091302227 -0.0024008913907477489 0 -0.018509989288690402 -0.0024153228918604892 0 -0.018559063589298607 -0.0023512139219034733 0 -0.018454140091302227 -0.0024008913907477489 0 -0.018566476740052698 -0.0024159039129704883 0 -0.018509989288690402 -0.0024153228918604892 0 -0.018509989288690402 -0.0024153228918604892 0 -0.018521552751948479 -0.0024220086135825036 0 -0.018559063589298607 -0.0023512139219034733 0 -0.018566476740052698 -0.0024159039129704883 0 -0.018509989288690402 -0.0024153228918604892 0 -0.018517810949275109 -0.0024207927202300719 0 -0.018517810949275109 -0.0024207927202300719 0 -0.018521552751948479 -0.0024220086135825036 0 -0.018476833169615955 -0.0024288838307072614 0 -0.018509989288690402 -0.0024153228918604892 0 -0.018517810949275109 -0.0024207927202300719 0 -0.018521552751948479 -0.0024220086135825036 0 -0.01847506445109999 -0.0014436128924979895 0 -0.01840247630027159 -0.0021399395463203249 0 -0.018521552751948479 -0.0024220086135825036 0 -0.018559063589298607 -0.0023512139219034733 0 -0.018517440839350325 -0.0024644626672206088 0 -0.01847506445109999 -0.0014436128924979895 0 -0.018370461892434613 -0.0011752211273520342 0 -0.018491175340195468 0.00016631460227740068 0 -0.018702333484037166 -3.6465605483723569e-06 0 -0.018658045758906963 -0.00014083647074523755 0 -0.018491175340195468 0.00016631460227740068 0 -0.01860937236243106 0.00017406017225938153 0 -0.018702333484037166 -3.6465605483723569e-06 0 -0.018559063589298607 -0.0023512139219034733 0 -0.0183962190994626 -0.0018907503994604895 0 -0.018453270203651027 -0.0017917680631304575 0 -0.018543813950960556 0.00022986880909987281 0 -0.018530522747375475 0.00025439436568961196 0 -0.018582285099617762 0.00025770589161685901 0 -0.01847506445109999 -0.0014436128924979895 0 -0.018557055806237177 -0.00062082676784092246 0 -0.018389261037368296 -0.0026620078674197988 0 -0.018453270203651027 -0.0017917680631304575 0 -0.018566502254350074 -0.0015643923044660294 0 -0.018491175340195468 0.00016631460227740068 0 -0.018543813950960556 0.00022986880909987281 0 -0.018582285099617762 0.00025770589161685901 0 -0.01847506445109999 -0.0014436128924979895 0 -0.018443202045784247 -0.0022695413464414609 0 -0.018491175340195468 0.00016631460227740068 0 -0.018543813950960556 0.00022986880909987281 0 -0.01860937236243106 0.00017406017225938153 0 -0.018539174139608008 0.00026304942767964247 0 -0.01860937236243106 0.00017406017225938153 0 -0.018769971947604127 0.00019527323549100757 0 -0.018543813950960556 0.00022986880909987281 0 -0.018539174139608008 0.00026304942767964247 0 -0.018530522747375475 0.00025439436568961196 0 -0.018539174139608008 0.00026304942767964247 0 -0.018530522747375475 0.00025439436568961196 0 -0.018449432685586489 0.00024134778696196339 0 -0.018543813950960556 0.00022986880909987281 0 -0.018539174139608008 0.00026304942767964247 0 -0.01860937236243106 0.00017406017225938153 0 -0.01860937236243106 0.00017406017225938153 0 -0.018702333484037166 -3.6465605483723569e-06 0 -0.018769971947604127 0.00019527323549100757 0 -0.018702333484037166 -3.6465605483723569e-06 0 -0.018883330632946324 -0.00020942211164085803 0 -0.018769971947604127 0.00019527323549100757 0 -0.018883330632946324 -0.00020942211164085803 0 -0.018658045758906963 -0.00014083647074523755 0 -0.018805399296057741 -0.00036534660743184751 0 -0.018702333484037166 -3.6465605483723569e-06 0 -0.018883330632946324 -0.00020942211164085803 0 -0.018658045758906963 -0.00014083647074523755 0 -0.018420248679593198 -0.0015910847891851692 0 -0.018421811265140291 -0.0015222330161635772 0 -0.018413114409127546 -0.0014826460879857788 0 -0.018491175340195468 0.00016631460227740068 0 -0.018500479414612934 -0.00019588164374990488 0 -0.018658045758906963 -0.00014083647074523755 0 -0.01840247630027159 -0.0021399395463203249 0 -0.018370461892434613 -0.0011752211273520342 0 -0.018439472528561988 -0.0023367289127838942 0 -0.01840247630027159 -0.0021399395463203249 0 -0.018500479414612934 -0.00019588164374990488 0 -0.018658045758906963 -0.00014083647074523755 0 -0.01866247193249693 -0.00035937807176556559 0 -0.018609363689457568 -0.00060870888591767832 0 -0.018500479414612934 -0.00019588164374990488 0 -0.01866247193249693 -0.00035937807176556559 0 -0.018203090861604029 -0.0014897512135748803 0 -0.018255842497607776 -0.0015292080227500904 0 -0.018252164034768821 -0.0017798352983033068 0 -0.018354114055961684 -0.00095602786809935827 0 -0.018370461892434613 -0.0011752211273520342 0 -0.018251407270126155 -0.0016781233547303589 0 -0.018370461892434613 -0.0011752211273520342 0 -0.01866247193249693 -0.00035937807176556559 0 -0.01872248927245973 -0.00049996910714240157 0 -0.018805399296057741 -0.00036534660743184751 0 -0.018658045758906963 -0.00014083647074523755 0 -0.01866247193249693 -0.00035937807176556559 0 -0.018805399296057741 -0.00036534660743184751 0 -0.018609363689457568 -0.00060870888591767832 0 -0.01866247193249693 -0.00035937807176556559 0 -0.01872248927245973 -0.00049996910714240157 0 -0.018728986166856056 -0.00063046056308471428 0 -0.018609363689457568 -0.00060870888591767832 0 -0.01872248927245973 -0.00049996910714240157 0 -0.01872248927245973 -0.00049996910714240157 0 -0.018882139239133951 -0.00055653464578198889 0 -0.018805399296057741 -0.00036534660743184751 0 -0.018822361115045247 -0.00065004388353630596 0 -0.01872248927245973 -0.00049996910714240157 0 -0.018882139239133951 -0.00055653464578198889 0 -0.018883330632946324 -0.00020942211164085803 0 -0.019047150495277592 -0.00055492997608646861 0 -0.018805399296057741 -0.00036534660743184751 0 -0.018882139239133951 -0.00055653464578198889 0 -0.019047150495277592 -0.00055492997608646861 0 -0.018805399296057741 -0.00036534660743184751 0 -0.018883330632946324 -0.00020942211164085803 0 -0.019047150495277592 -0.00055492997608646861 0 -0.019145836524058903 -0.00028203619891069515 0 -0.019376001736281602 -0.00088944828194499636 0 -0.019249510373600131 0.00012589118191527664 0 -0.019902893221395872 -0.00024775513259118597 0 -0.019376001736281602 -0.00088944828194499636 0 -0.019047150495277592 -0.00055492997608646861 0 -0.019145836524058903 -0.00028203619891069515 0 -0.019350090427824419 -0.00085286198401561336 0 -0.019185361048426008 -9.3221838136328984e-05 0 -0.019249510373600131 0.00012589118191527664 0 -0.019902893221395872 -0.00024775513259118597 0 -0.019705106034557728 0.00031191493283782516 0 -0.019249510373600131 0.00012589118191527664 0 -0.018775848707076194 0.00049547876989076099 0 -0.019705106034557728 0.00031191493283782516 0 -0.019185361048426008 -9.3221838136328984e-05 0 -0.018749128146825774 0.00034015798316811881 0 -0.018883330632946324 -0.00020942211164085803 0 -0.019145836524058903 -0.00028203619891069515 0 -0.018769971947604127 0.00019527323549100757 0 -0.018775848707076194 0.00049547876989076099 0 -0.018127463108789401 0.00035281404740284219 0 -0.019705106034557728 0.00031191493283782516 0 -0.018749128146825774 0.00034015798316811881 0 -0.018281718122910011 0.00028821698820869309 0 -0.018539174139608008 0.00026304942767964247 0 -0.018769971947604127 0.00019527323549100757 0 -0.018183617652617057 0.00028406858781530474 0 -0.018775848707076194 0.00049547876989076099 0 -0.018127463108789401 0.00035281404740284219 0 -0.018183617652617057 0.00028406858781530474 0 -0.018127463108789401 0.00035281404740284219 0 -0.018869307277134924 7.95070463811438e-07 0 -0.019705106034557728 0.00031191493283782516 0 -0.018127463108789401 0.00035281404740284219 0 -0.018869307277134924 7.95070463811438e-07 0 -0.016782851267821031 2.8536222370442084e-07 0 -0.018869307277134924 7.95070463811438e-07 0 -0.019705106034557728 0.00031191493283782516 0 -0.02095663828241507 -7.6932297339878993e-08 0 -0.021461372270970235 -0.00022371170078236738 0 -0.019902893221395872 -0.00024775513259118597 0 -0.019705106034557728 0.00031191493283782516 0 -0.021461372270970235 -0.00022371170078236738 0 -0.019705106034557728 0.00031191493283782516 0 -0.02095663828241507 -7.6932297339878993e-08 0 -0.023373111829357623 -0.001236480770795979 0 -0.023560486241223821 -0.0018533842514436251 0 -0.02393569628280505 -0.00096767481662520102 0 -0.023373111829357623 -0.001236480770795979 0 -0.023305678763883113 -0.00044026188679473395 0 -0.022767114483685336 -0.001192446808448647 0 -0.023373111829357623 -0.001236480770795979 0 -0.023560486241223821 -0.0018533842514436251 0 -0.022767434123312835 -0.0021087752617461558 0 -0.023373111829357623 -0.001236480770795979 0 -0.022767114483685336 -0.001192446808448647 0 -0.022767434123312835 -0.0021087752617461558 0 -0.025006353352360639 -0.0011107222827429594 0 -0.024270099972492191 -0.001691152702519651 0 -0.02393569628280505 -0.00096767481662520102 0 -0.020086738996027427 0.00021409590103981134 0 -0.020302139464526605 0.0012869033191325759 0 -0.016364447116024108 0.002410624445970096 0 -0.017718958792717499 0.002760255135865421 0 -0.017621491930520251 0.0026777594011043872 0 -0.023560486241223821 -0.0018533842514436251 0 -0.024270099972492191 -0.001691152702519651 0 -0.02393569628280505 -0.00096767481662520102 0 -0.016364447116024108 0.002410624445970096 0 -0.017621491930520251 0.0026777594011043872 0 -0.017299539877761776 0.0022062851976360561 0 -0.017663630139443338 0.0024307481323659077 0 -0.017621491930520251 0.0026777594011043872 0 -0.017299539877761776 0.0022062851976360561 0 -0.017663630139443338 0.0024307481323659077 0 -0.017731339141709327 0.0027621340853652521 0 -0.017621491930520251 0.0026777594011043872 0 -0.017663630139443338 0.0024307481323659077 0 -0.017731339141709327 0.0027621340853652521 0 -0.017973237311027672 0.0023927758786782159 0 -0.017731339141709327 0.0027621340853652521 0 -0.017917016901942411 0.0028003586199342807 0 -0.017973237311027672 0.0023927758786782159 0 -0.020302139464526605 0.0012869033191325759 0 -0.020073249984202263 0.0012611999039065353 0 -0.020302139464526605 0.0012869033191325759 0 -0.019695175235785459 0.0013311776723948776 0 -0.019256812922190256 0.0037689026029273766 0 -0.017735378803631057 0.0027764041220693799 0 -0.017917016901942411 0.0028003586199342807 0 -0.019256812922190256 0.0037689026029273766 0 -0.018434109728124051 0.0026047027999999044 0 -0.017917016901942411 0.0028003586199342807 0 -0.02235078211972379 0.0010775540817614712 0 -0.020302139464526605 0.0012869033191325759 0 -0.019062460044245229 0.002645695190925812 0 -0.018434109728124051 0.0026047027999999044 0 -0.018494074146272958 0.0022626163827457546 0 -0.018434109728124051 0.0026047027999999044 0 -0.017917016901942411 0.0028003586199342807 0 -0.017973237311027672 0.0023927758786782159 0 -0.025006353352360639 -0.0011107222827429594 0 -0.02393569628280505 -0.00096767481662520102 0 -0.024653140674233433 -0.00054082884290506609 0 -0.02393569628280505 -0.00096767481662520102 0 -0.024653140674233433 -0.00054082884290506609 0 -0.024160612052328442 -3.9231864828155708e-05 0 -0.025173351203584347 -0.00028917858338776698 0 -0.024653140674233433 -0.00054082884290506609 0 -0.024782572615808993 -0.00020861069055789214 0 -0.024893206422676242 0.00010428401796499038 0 -0.024782572615808993 -0.00020861069055789214 0 -0.024160612052328442 -3.9231864828155708e-05 0 -0.024653140674233433 -0.00054082884290506609 0 -0.024782572615808993 -0.00020861069055789214 0 -0.024160612052328442 -3.9231864828155708e-05 0 -0.024032937520096737 0.00019865729743003162 0 -0.024620376254055051 -1.7744414186814056e-05 0 -0.02392302925626312 -0.00044775594125177177 0 -0.024394170451702654 -3.4407947353344105e-05 0 -0.02360411912732311 -0.00044602717677092829 0 -0.02393569628280505 -0.00096767481662520102 0 -0.024160612052328442 -3.9231864828155708e-05 0 -0.023305678763883113 -0.00044026188679473395 0 -0.023373111829357623 -0.001236480770795979 0 -0.02393569628280505 -0.00096767481662520102 0 -0.023305678763883113 -0.00044026188679473395 0 -0.023472925905512837 8.0139717012991433e-05 0 -0.024032937520096737 0.00019865729743003162 0 -0.02392302925626312 -0.00044775594125177177 0 -0.023472925905512837 8.0139717012991433e-05 0 -0.02392302925626312 -0.00044775594125177177 0 -0.023205675058468392 -0.00035480260059491401 0 -0.023472925905512837 8.0139717012991433e-05 0 -0.023205675058468392 -0.00035480260059491401 0 -0.02269973525138088 -0.00020010879883607943 0 -0.023205675058468392 -0.00035480260059491401 0 -0.02269973525138088 -0.00020010879883607943 0 -0.022747232142976966 -0.00086654703694976569 0 -0.02269973525138088 -0.00020010879883607943 0 -0.022329235995205463 -0.00088332590299733209 0 -0.021990868491504514 -0.00047908373600175297 0 -0.02269973525138088 -0.00020010879883607943 0 -0.022329235995205463 -0.00088332590299733209 0 -0.022747232142976966 -0.00086654703694976569 0 -0.022329235995205463 -0.00088332590299733209 0 -0.022747232142976966 -0.00086654703694976569 0 -0.022327845800695623 -0.0014008627369345617 0 -0.02360411912732311 -0.00044602717677092829 0 -0.022799425855197498 -0.00083688419834484129 0 -0.023305678763883113 -0.00044026188679473395 0 -0.022747232142976966 -0.00086654703694976569 0 -0.022767114483685336 -0.001192446808448647 0 -0.02392302925626312 -0.00044775594125177177 0 -0.023205675058468392 -0.00035480260059491401 0 -0.022747232142976966 -0.00086654703694976569 0 -0.02114138096187566 -0.00026015572627176786 0 -0.020864337423916055 -0.00084608822701222146 0 -0.021740884859753284 -0.00082482629675283462 0 -0.022128759580080822 0.00044580434803688263 0 -0.02269973525138088 -0.00020010879883607943 0 -0.021990868491504514 -0.00047908373600175297 0 -0.021873234023268923 -0.00067474159656026589 0 -0.021804783944548115 -0.0014354500522192773 0 -0.022329235995205463 -0.00088332590299733209 0 -0.021990868491504514 -0.00047908373600175297 0 -0.02180357125195654 -0.0014686992627639195 0 -0.021740884859753284 -0.00082482629675283462 0 -0.021230426898919238 -0.0012615527647909601 0 -0.02180357125195654 -0.0014686992627639195 0 -0.020864337423916055 -0.00084608822701222146 0 -0.021740884859753284 -0.00082482629675283462 0 -0.021230426898919238 -0.0012615527647909601 0 -0.021230426898919238 -0.0012615527647909601 0 -0.021458747023198919 -0.0015772234884470261 0 -0.02180357125195654 -0.0014686992627639195 0 -0.020762440083998999 -0.0016074241786414806 0 -0.021230426898919238 -0.0012615527647909601 0 -0.021458747023198919 -0.0015772234884470261 0 -0.022329235995205463 -0.00088332590299733209 0 -0.02180357125195654 -0.0014686992627639195 0 -0.022327845800695623 -0.0014008627369345617 0 -0.020658979887007434 -0.0012086672048884667 0 -0.021791028451054073 -0.0011423741002592881 0 -0.0198431919854162 -0.00084444800732280201 0 -0.020654001271354871 -0.0012108291426500338 0 -0.021283681569825557 -0.00084682244750778626 0 -0.021458747023198919 -0.0015772234884470261 0 -0.02180357125195654 -0.0014686992627639195 0 -0.022327845800695623 -0.0014008627369345617 0 -0.020654001271354871 -0.0012108291426500338 0 -0.020333637012492183 -0.0015024514879613342 0 -0.021181501190578537 -0.0016785805920673954 0 -0.020654001271354871 -0.0012108291426500338 0 -0.021283681569825557 -0.00084682244750778626 0 -0.021181501190578537 -0.0016785805920673954 0 -0.020333637012492183 -0.0015024514879613342 0 -0.021181501190578537 -0.0016785805920673954 0 -0.02034535667098103 -0.0021923369977127692 0 -0.020333637012492183 -0.0015024514879613342 0 -0.019932710958961014 -0.0017716622672264931 0 -0.02034535667098103 -0.0021923369977127692 0 -0.0198431919854162 -0.00084444800732280201 0 -0.020654001271354871 -0.0012108291426500338 0 -0.020333637012492183 -0.0015024514879613342 0 -0.0198431919854162 -0.00084444800732280201 0 -0.020333637012492183 -0.0015024514879613342 0 -0.019809267462080379 -0.0014253915419543853 0 -0.019932710958961014 -0.0017716622672264931 0 -0.019577371492129562 -0.0016577744105278739 0 -0.019655182203200366 -0.0020780609804003222 0 -0.020333637012492183 -0.0015024514879613342 0 -0.019809267462080379 -0.0014253915419543853 0 -0.019932710958961014 -0.0017716622672264931 0 -0.019809267462080379 -0.0014253915419543853 0 -0.019932710958961014 -0.0017716622672264931 0 -0.019577371492129562 -0.0016577744105278739 0 -0.019183278574252276 -0.0016353980696515436 0 -0.019181395402936702 -0.0019679424149154651 0 -0.019577371492129562 -0.0016577744105278739 0 -0.019809267462080379 -0.0014253915419543853 0 -0.019577371492129562 -0.0016577744105278739 0 -0.019349277992542643 -0.0013081914997625276 0 -0.0198431919854162 -0.00084444800732280201 0 -0.019809267462080379 -0.0014253915419543853 0 -0.019349277992542643 -0.0013081914997625276 0 -0.019183278574252276 -0.0016353980696515436 0 -0.019577371492129562 -0.0016577744105278739 0 -0.019349277992542643 -0.0013081914997625276 0 -0.022767114483685336 -0.001192446808448647 0 -0.021283681569825557 -0.00084682244750778626 0 -0.021928215474376522 -0.0016743872185725937 0 -0.022670135472221457 -0.0011778021882437738 0 -0.021791028451054073 -0.0011423741002592881 0 -0.022747232142976966 -0.00086654703694976569 0 -0.022767114483685336 -0.001192446808448647 0 -0.022327845800695623 -0.0014008627369345617 0 -0.021283681569825557 -0.00084682244750778626 0 -0.021181501190578537 -0.0016785805920673954 0 -0.021928215474376522 -0.0016743872185725937 0 -0.021181501190578537 -0.0016785805920673954 0 -0.021928215474376522 -0.0016743872185725937 0 -0.021425009876761946 -0.0024758432063830974 0 -0.022767114483685336 -0.001192446808448647 0 -0.021928215474376522 -0.0016743872185725937 0 -0.022767434123312835 -0.0021087752617461558 0 -0.015129107595984379 0.0020753179755323885 0 -0.013984165952678042 0.0017617419253630757 0 -0.01446606194059822 0.0011953954287434315 0 -0.018963822223060051 -1.8610751513872654e-05 0 -0.01746191034701328 -0.00026652140899420849 0 -0.021928215474376522 -0.0016743872185725937 0 -0.022767434123312835 -0.0021087752617461558 0 -0.021425009876761946 -0.0024758432063830974 0 -0.01446606194059822 0.0011953954287434315 0 -0.013667824072439548 0.00098852532108420553 0 -0.014336958412391109 0.00038221371268013285 0 -0.013984165952678042 0.0017617419253630757 0 -0.01446606194059822 0.0011953954287434315 0 -0.013667824072439548 0.00098852532108420553 0 -0.01446606194059822 0.0011953954287434315 0 -0.015171766205826401 0.00076378888462049085 0 -0.014336958412391109 0.00038221371268013285 0 -0.015129107595984379 0.0020753179755323885 0 -0.01446606194059822 0.0011953954287434315 0 -0.015171766205826401 0.00076378888462049085 0 -0.019511516977379031 -0.0023275343886280751 0 -0.017658240812945546 -0.0016820502199477263 0 -0.018928389909775925 -0.0023809932591777822 0 -0.019655182203200366 -0.0020780609804003222 0 -0.019889641691652388 -0.0024804967635690435 0 -0.019181395402936702 -0.0019679424149154651 0 -0.019577371492129562 -0.0016577744105278739 0 -0.019655182203200366 -0.0020780609804003222 0 -0.018928389909775925 -0.0023809932591777822 0 -0.019181395402936702 -0.0019679424149154651 0 -0.019655182203200366 -0.0020780609804003222 0 -0.019655182203200366 -0.0020780609804003222 0 -0.019889641691652388 -0.0024804967635690435 0 -0.02034535667098103 -0.0021923369977127692 0 -0.019932710958961014 -0.0017716622672264931 0 -0.019655182203200366 -0.0020780609804003222 0 -0.02034535667098103 -0.0021923369977127692 0 -0.01746191034701328 -0.00026652140899420849 0 -0.017658240812945546 -0.0016820502199477263 0 -0.021425009876761946 -0.0024758432063830974 0 -0.019831488236799557 -0.0027200748256554393 0 -0.02034535667098103 -0.0021923369977127692 0 -0.013984165952678042 0.0017617419253630757 0 -0.012893002918357028 0.0014961588871349539 0 -0.013667824072439548 0.00098852532108420553 0 -0.021181501190578537 -0.0016785805920673954 0 -0.021425009876761946 -0.0024758432063830974 0 -0.02034535667098103 -0.0021923369977127692 0 -0.017658240812945546 -0.0016820502199477263 0 -0.019752603344331966 -0.0016684856974438756 0 -0.012893002918357028 0.0014961588871349539 0 -0.013667824072439548 0.00098852532108420553 0 -0.013043771840863123 0.00067372399835442321 0 -0.013667824072439548 0.00098852532108420553 0 -0.013043771840863123 0.00067372399835442321 0 -0.013451332685315166 0.00030591361885411671 0 -0.018872947678536468 -0.00236914179987619 0 -0.018872041233123683 -0.002348905243581769 0 -0.018807195420553636 -0.0024039166127746174 0 -0.018928389909775925 -0.0023809932591777822 0 -0.018872947678536468 -0.00236914179987619 0 -0.018807195420553636 -0.0024039166127746174 0 -0.012213526030107813 0.00073768326503429317 0 -0.012893002918357028 0.0014961588871349539 0 -0.013043771840863123 0.00067372399835442321 0 -0.016586870918586849 -0.0016955462780811796 0 -0.017658240812945546 -0.0016820502199477263 0 -0.012213526030107813 0.00073768326503429317 0 -0.013043771840863123 0.00067372399835442321 0 -0.013002965828466049 -0.00016089318844694916 0 -0.012213526030107813 0.00073768326503429317 0 -0.012109512860787425 -0.00045245893343229509 0 -0.013002965828466049 -0.00016089318844694916 0 -0.013043771840863123 0.00067372399835442321 0 -0.013451332685315166 0.00030591361885411671 0 -0.013002965828466049 -0.00016089318844694916 0 -0.013451332685315166 0.00030591361885411671 0 -0.013002965828466049 -0.00016089318844694916 0 -0.013858552768045363 -0.00015200090607199273 0 -0.013596749289963026 -0.00077996245453824096 0 -0.013002965828466049 -0.00016089318844694916 0 -0.013858552768045363 -0.00015200090607199273 0 -0.013596749289963026 -0.00077996245453824096 0 -0.013002965828466049 -0.00016089318844694916 0 -0.012848009748373777 -0.0014924747885023215 0 -0.012109512860787425 -0.00045245893343229509 0 -0.013002965828466049 -0.00016089318844694916 0 -0.012848009748373777 -0.0014924747885023215 0 -0.015070648173139484 -2.6845094888767682e-05 0 -0.014336958412391109 0.00038221371268013285 0 -0.014484447645334804 -0.00038928479725570096 0 -0.015171766205826401 0.00076378888462049085 0 -0.015070648173139484 -2.6845094888767682e-05 0 -0.014336958412391109 0.00038221371268013285 0 -0.013667824072439548 0.00098852532108420553 0 -0.013451332685315166 0.00030591361885411671 0 -0.014336958412391109 0.00038221371268013285 0 -0.013451332685315166 0.00030591361885411671 0 -0.014336958412391109 0.00038221371268013285 0 -0.013858552768045363 -0.00015200090607199273 0 -0.014336958412391109 0.00038221371268013285 0 -0.013858552768045363 -0.00015200090607199273 0 -0.014484447645334804 -0.00038928479725570096 0 -0.013596749289963026 -0.00077996245453824096 0 -0.014484447645334804 -0.00038928479725570096 0 -0.014363158696434987 -0.0011999019749371108 0 -0.013596749289963026 -0.00077996245453824096 0 -0.013858552768045363 -0.00015200090607199273 0 -0.014484447645334804 -0.00038928479725570096 0 -0.014484447645334804 -0.00038928479725570096 0 -0.015082835553750496 -0.00073384902857009883 0 -0.014363158696434987 -0.0011999019749371108 0 -0.015070648173139484 -2.6845094888767682e-05 0 -0.014484447645334804 -0.00038928479725570096 0 -0.015082835553750496 -0.00073384902857009883 0 -0.015082835553750496 -0.00073384902857009883 0 -0.015600636723659271 -0.00044703699677474087 0 -0.015843409620329957 -0.0010377287136755029 0 -0.015600636723659271 -0.00044703699677474087 0 -0.016243512969880951 -0.0002181079927536448 0 -0.015843409620329957 -0.0010377287136755029 0 -0.015070648173139484 -2.6845094888767682e-05 0 -0.015082835553750496 -0.00073384902857009883 0 -0.015600636723659271 -0.00044703699677474087 0 -0.016612723654114585 -0.00071396621643071635 0 -0.016243512969880951 -0.0002181079927536448 0 -0.015843409620329957 -0.0010377287136755029 0 -0.016612723654114585 -0.00071396621643071635 0 -0.016243512969880951 -0.0002181079927536448 0 -0.017145306078847726 7.3091422405412537e-05 0 -0.016243512969880951 -0.0002181079927536448 0 -0.016522952802123115 0.00055709815089960174 0 -0.017145306078847726 7.3091422405412537e-05 0 -0.016243512969880951 -0.0002181079927536448 0 -0.016522952802123115 0.00055709815089960174 0 -0.015779066862857852 0.00028189486238832653 0 -0.015171766205826401 0.00076378888462049085 0 -0.015070648173139484 -2.6845094888767682e-05 0 -0.015779066862857852 0.00028189486238832653 0 -0.015070648173139484 -2.6845094888767682e-05 0 -0.015600636723659271 -0.00044703699677474087 0 -0.015779066862857852 0.00028189486238832653 0 -0.015600636723659271 -0.00044703699677474087 0 -0.016243512969880951 -0.0002181079927536448 0 -0.015779066862857852 0.00028189486238832653 0 -0.015171766205826401 0.00076378888462049085 0 -0.015779066862857852 0.00028189486238832653 0 -0.016110242800462488 0.0012605517546214375 0 -0.015129107595984379 0.0020753179755323885 0 -0.015171766205826401 0.00076378888462049085 0 -0.016110242800462488 0.0012605517546214375 0 -0.016522952802123115 0.00055709815089960174 0 -0.015779066862857852 0.00028189486238832653 0 -0.016110242800462488 0.0012605517546214375 0 -0.016522952802123115 0.00055709815089960174 0 -0.016110242800462488 0.0012605517546214375 0 -0.016954129418802557 0.0012440391895483713 0 -0.016522952802123115 0.00055709815089960174 0 -0.016954129418802557 0.0012440391895483713 0 -0.017209216715805227 0.00080054362805926933 0 -0.016110242800462488 0.0012605517546214375 0 -0.01690282523142779 0.0018237490974505335 0 -0.016954129418802557 0.0012440391895483713 0 -0.016364447116024108 0.002410624445970096 0 -0.01690282523142779 0.0018237490974505335 0 -0.017299539877761776 0.0022062851976360561 0 -0.016364447116024108 0.002410624445970096 0 -0.016110242800462488 0.0012605517546214375 0 -0.01690282523142779 0.0018237490974505335 0 -0.016364447116024108 0.002410624445970096 0 -0.015129107595984379 0.0020753179755323885 0 -0.016110242800462488 0.0012605517546214375 0 -0.020086738996027427 0.00021409590103981134 0 -0.018963822223060051 -1.8610751513872654e-05 0 -0.018918959047453918 0.0018394627940863952 0 -0.018071540077167835 0.0018365549517838765 0 -0.018494074146272958 0.0022626163827457546 0 -0.018918959047453918 0.0018394627940863952 0 -0.018071540077167835 0.0018365549517838765 0 -0.01834611060087879 0.0011679034139925957 0 -0.018071540077167835 0.0018365549517838765 0 -0.017973237311027672 0.0023927758786782159 0 -0.017678466688422222 0.0021234430598633335 0 -0.018071540077167835 0.0018365549517838765 0 -0.018494074146272958 0.0022626163827457546 0 -0.017973237311027672 0.0023927758786782159 0 -0.018434109728124051 0.0026047027999999044 0 -0.018494074146272958 0.0022626163827457546 0 -0.017973237311027672 0.0023927758786782159 0 -0.017678466688422222 0.0021234430598633335 0 -0.017299539877761776 0.0022062851976360561 0 -0.017389266350568221 0.0017589973447051863 0 -0.017663630139443338 0.0024307481323659077 0 -0.017973237311027672 0.0023927758786782159 0 -0.017678466688422222 0.0021234430598633335 0 -0.017663630139443338 0.0024307481323659077 0 -0.017678466688422222 0.0021234430598633335 0 -0.017299539877761776 0.0022062851976360561 0 -0.01690282523142779 0.0018237490974505335 0 -0.017389266350568221 0.0017589973447051863 0 -0.016954129418802557 0.0012440391895483713 0 -0.01690282523142779 0.0018237490974505335 0 -0.017299539877761776 0.0022062851976360561 0 -0.017389266350568221 0.0017589973447051863 0 -0.018071540077167835 0.0018365549517838765 0 -0.017678466688422222 0.0021234430598633335 0 -0.017389266350568221 0.0017589973447051863 0 -0.018071540077167835 0.0018365549517838765 0 -0.017389266350568221 0.0017589973447051863 0 -0.017628293977595588 0.0012802608353349601 0 -0.017628293977595588 0.0012802608353349601 0 -0.016954129418802557 0.0012440391895483713 0 -0.017209216715805227 0.00080054362805926933 0 -0.017389266350568221 0.0017589973447051863 0 -0.017628293977595588 0.0012802608353349601 0 -0.016954129418802557 0.0012440391895483713 0 -0.017628293977595588 0.0012802608353349601 0 -0.017209216715805227 0.00080054362805926933 0 -0.01777944962711149 0.00076426097099634247 0 -0.017628293977595588 0.0012802608353349601 0 -0.01777944962711149 0.00076426097099634247 0 -0.01834611060087879 0.0011679034139925957 0 -0.018071540077167835 0.0018365549517838765 0 -0.017628293977595588 0.0012802608353349601 0 -0.01834611060087879 0.0011679034139925957 0 -0.01894046225304483 0.00074817944860274953 0 -0.01834611060087879 0.0011679034139925957 0 -0.018162379985662083 0.00013952460190072579 0 -0.01777944962711149 0.00076426097099634247 0 -0.01834611060087879 0.0011679034139925957 0 -0.018162379985662083 0.00013952460190072579 0 -0.01777944962711149 0.00076426097099634247 0 -0.018162379985662083 0.00013952460190072579 0 -0.017145306078847726 7.3091422405412537e-05 0 -0.016522952802123115 0.00055709815089960174 0 -0.017209216715805227 0.00080054362805926933 0 -0.017145306078847726 7.3091422405412537e-05 0 -0.017209216715805227 0.00080054362805926933 0 -0.01777944962711149 0.00076426097099634247 0 -0.017145306078847726 7.3091422405412537e-05 0 -0.018162379985662083 0.00013952460190072579 0 -0.017145306078847726 7.3091422405412537e-05 0 -0.01723397612542759 -0.00072886875840619963 0 -0.016612723654114585 -0.00071396621643071635 0 -0.017145306078847726 7.3091422405412537e-05 0 -0.01723397612542759 -0.00072886875840619963 0 -0.016612723654114585 -0.00071396621643071635 0 -0.01723397612542759 -0.00072886875840619963 0 -0.016551230837432856 -0.001153196753709114 0 -0.019473960226797697 -7.9812083631535427e-05 0 -0.018162379985662083 0.00013952460190072579 0 -0.018103869306042318 -0.00094567196339746579 0 -0.018162379985662083 0.00013952460190072579 0 -0.01723397612542759 -0.00072886875840619963 0 -0.018103869306042318 -0.00094567196339746579 0 -0.0023240591537851013 0.0037379482848168013 0 -0.0020323214600223723 0.002681735766878511 0 -0.0028394876947119424 0.0027032790448138365 0 -0.010228313970695237 0.0014026680325184345 0 -0.0090462280693710852 0.00051493614926893729 0 -0.01723397612542759 -0.00072886875840619963 0 -0.016858512930715348 -0.0017140953959101609 0 -0.016551230837432856 -0.001153196753709114 0 -0.01723397612542759 -0.00072886875840619963 0 -0.018103869306042318 -0.00094567196339746579 0 -0.016858512930715348 -0.0017140953959101609 0 -0.0023240591537851013 0.0037379482848168013 0 -0.0012251773441796661 0.0027340516192497985 0 -0.0020323214600223723 0.002681735766878511 0 -0.0012251773441796661 0.0027340516192497985 0 -0.0016148029967228848 0.0021850392163855637 0 -0.0020323214600223723 0.002681735766878511 0 -0.0012251773441796661 0.0027340516192497985 0 -0.0016148029967228848 0.0021850392163855637 0 -0.0010582932383248196 0.0017754750615743746 0 -0.0016148029967228848 0.0021850392163855637 0 -0.002203355635953262 0.0020813463979094029 0 -0.0016127421681236002 0.0015727655188060043 0 -0.0020323214600223723 0.002681735766878511 0 -0.002203355635953262 0.0020813463979094029 0 -0.0028394876947119424 0.0027032790448138365 0 -0.0016148029967228848 0.0021850392163855637 0 -0.0020323214600223723 0.002681735766878511 0 -0.002203355635953262 0.0020813463979094029 0 -0.002203355635953262 0.0020813463979094029 0 -0.0022308968824670517 0.0012303279456767364 0 -0.0016127421681236002 0.0015727655188060043 0 -0.002203355635953262 0.0020813463979094029 0 -0.0022308968824670517 0.0012303279456767364 0 -0.0029106237967165454 0.001741993305944775 0 -0.0022308968824670517 0.0012303279456767364 0 -0.0016127421681236002 0.0015727655188060043 0 -0.0016338495199600656 0.00095816963025869553 0 -0.0016127421681236002 0.0015727655188060043 0 -0.001043969465106028 0.0012088726561956206 0 -0.0010582932383248196 0.0017754750615743746 0 -0.0016148029967228848 0.0021850392163855637 0 -0.0016127421681236002 0.0015727655188060043 0 -0.0010582932383248196 0.0017754750615743746 0 -0.0016127421681236002 0.0015727655188060043 0 -0.0016338495199600656 0.00095816963025869553 0 -0.001043969465106028 0.0012088726561956206 0 -0.0016338495199600656 0.00095816963025869553 0 -0.0021431751421520078 0.00038978497850405199 0 -0.0011929967954853119 0.00036992884510656345 0 -0.0016338495199600656 0.00095816963025869553 0 -0.001043969465106028 0.0012088726561956206 0 -0.0011929967954853119 0.00036992884510656345 0 -0.0022308968824670517 0.0012303279456767364 0 -0.0021431751421520078 0.00038978497850405199 0 -0.0029590307226674793 0.00076181926404634821 0 -0.0022308968824670517 0.0012303279456767364 0 -0.0016338495199600656 0.00095816963025869553 0 -0.0021431751421520078 0.00038978497850405199 0 7.4823063758875321e-05 0.00055191693517086171 0 -0.00044972421759505897 0.00077541875207591451 0 -0.00013577598397487912 0.0010772302530271667 0 -0.00044972421759505897 0.00077541875207591451 0 -0.00058100709982196995 0.0013532650171434555 0 -0.00013577598397487912 0.0010772302530271667 0 -0.00044972421759505897 0.00077541875207591451 0 -0.001043969465106028 0.0012088726561956206 0 -0.0011929967954853119 0.00036992884510656345 0 -0.00044972421759505897 0.00077541875207591451 0 -0.00058100709982196995 0.0013532650171434555 0 -0.001043969465106028 0.0012088726561956206 0 -0.00058100709982196995 0.0013532650171434555 0 -0.0010582932383248196 0.0017754750615743746 0 -0.00025982373831314777 0.0017884919786225744 0 -0.00058100709982196995 0.0013532650171434555 0 -0.001043969465106028 0.0012088726561956206 0 -0.0010582932383248196 0.0017754750615743746 0 -0.0077108116411037644 -0.00048385915871850167 0 -0.0064965941386235576 -0.0014203955172635313 0 -0.00058100709982196995 0.0013532650171434555 0 -0.00013577598397487912 0.0010772302530271667 0 -0.00025982373831314777 0.0017884919786225744 0 -0.015114838900677491 -0.0027848607806279292 0 -0.01402570237379377 -0.0027932206046101023 0 -0.013317540497288723 -0.0038006132073120764 0 -0.00013577598397487912 0.0010772302530271667 0 -0.00025982373831314777 0.0017884919786225744 0 0.00036728496202652149 0.00093126374812981221 0 -0.015114838900677491 -0.0027848607806279292 0 -0.016107641386318414 -0.0016613762073362792 0 -0.01402570237379377 -0.0027932206046101023 0 -0.016014930146366044 -0.001692212232443858 0 -0.014580125885516857 -0.0025621552101326647 0 -0.015532013209373145 -0.0016972417750321907 0 -0.016107641386318414 -0.0016613762073362792 0 -0.015100317857374965 -0.0023205757603696787 0 -0.015532013209373145 -0.0016972417750321907 0 -0.015100317857374965 -0.0023205757603696787 0 -0.015128465276875882 -0.0018087846986770976 0 -0.0090462280693710852 0.00051493614926893729 0 -0.0077108116411037644 -0.00048385915871850167 0 -0.0012251773441796661 0.0027340516192497985 0 -0.0010582932383248196 0.0017754750615743746 0 -0.00025982373831314777 0.0017884919786225744 0 -0.016858512930715348 -0.0017140953959101609 0 -0.015114838900677491 -0.0027848607806279292 0 -0.016107641386318414 -0.0016613762073362792 0 -0.016858512930715348 -0.0017140953959101609 0 -0.016107641386318414 -0.0016613762073362792 0 -0.016551230837432856 -0.001153196753709114 0 -0.016107641386318414 -0.0016613762073362792 0 -0.016551230837432856 -0.001153196753709114 0 -0.015843409620329957 -0.0010377287136755029 0 -0.016612723654114585 -0.00071396621643071635 0 -0.016551230837432856 -0.001153196753709114 0 -0.015843409620329957 -0.0010377287136755029 0 -0.015082835553750496 -0.00073384902857009883 0 -0.015843409620329957 -0.0010377287136755029 0 -0.015154044459050171 -0.0013720315099499472 0 -0.015532013209373145 -0.0016972417750321907 0 -0.015843409620329957 -0.0010377287136755029 0 -0.015154044459050171 -0.0013720315099499472 0 -0.015532013209373145 -0.0016972417750321907 0 -0.015154044459050171 -0.0013720315099499472 0 -0.015128465276875882 -0.0018087846986770976 0 -0.015532013209373145 -0.0016972417750321907 0 -0.016107641386318414 -0.0016613762073362792 0 -0.015843409620329957 -0.0010377287136755029 0 -0.015154044459050171 -0.0013720315099499472 0 -0.014363158696434987 -0.0011999019749371108 0 -0.014718842341384389 -0.0018299598238143138 0 -0.015082835553750496 -0.00073384902857009883 0 -0.015154044459050171 -0.0013720315099499472 0 -0.014363158696434987 -0.0011999019749371108 0 -0.013596749289963026 -0.00077996245453824096 0 -0.014363158696434987 -0.0011999019749371108 0 -0.013586683443800042 -0.0014762698969998051 0 -0.014363158696434987 -0.0011999019749371108 0 -0.014021615050334991 -0.0019180563787196596 0 -0.013586683443800042 -0.0014762698969998051 0 -0.014363158696434987 -0.0011999019749371108 0 -0.014021615050334991 -0.0019180563787196596 0 -0.014718842341384389 -0.0018299598238143138 0 -0.014021615050334991 -0.0019180563787196596 0 -0.014328681966960398 -0.0023488995944411176 0 -0.01375531291628224 -0.0025952622163066125 0 -0.014021615050334991 -0.0019180563787196596 0 -0.013315876763819354 -0.0021798504812222987 0 -0.01375531291628224 -0.0025952622163066125 0 -0.014021615050334991 -0.0019180563787196596 0 -0.014718842341384389 -0.0018299598238143138 0 -0.014328681966960398 -0.0023488995944411176 0 -0.015100317857374965 -0.0023205757603696787 0 -0.014718842341384389 -0.0018299598238143138 0 -0.014328681966960398 -0.0023488995944411176 0 -0.015100317857374965 -0.0023205757603696787 0 -0.015128465276875882 -0.0018087846986770976 0 -0.014718842341384389 -0.0018299598238143138 0 -0.015154044459050171 -0.0013720315099499472 0 -0.015128465276875882 -0.0018087846986770976 0 -0.014718842341384389 -0.0018299598238143138 0 -0.012109512860787425 -0.00045245893343229509 0 -0.012848009748373777 -0.0014924747885023215 0 -0.012045762644779108 -0.0015594320056669868 0 -0.013596749289963026 -0.00077996245453824096 0 -0.012848009748373777 -0.0014924747885023215 0 -0.013586683443800042 -0.0014762698969998051 0 -0.012848009748373777 -0.0014924747885023215 0 -0.013315876763819354 -0.0021798504812222987 0 -0.012703168241582331 -0.0026091672056618186 0 -0.014021615050334991 -0.0019180563787196596 0 -0.013586683443800042 -0.0014762698969998051 0 -0.013315876763819354 -0.0021798504812222987 0 -0.012848009748373777 -0.0014924747885023215 0 -0.013586683443800042 -0.0014762698969998051 0 -0.013315876763819354 -0.0021798504812222987 0 -0.012848009748373777 -0.0014924747885023215 0 -0.01222551618520511 -0.0021871165641497541 0 -0.012703168241582331 -0.0026091672056618186 0 -0.012848009748373777 -0.0014924747885023215 0 -0.012401209928682854 -0.0020003341268292258 0 -0.012045762644779108 -0.0015594320056669868 0 -0.012842446383963112 -0.0014791337695600278 0 -0.012146310036737161 -0.002310180426078222 0 -0.012703168241582331 -0.0026091672056618186 0 -0.013018998652631114 -0.0031265199509582079 0 -0.012395927553590801 -0.0031292318225003436 0 -0.012262455748281902 -0.0026890227975237728 0 -0.012703168241582331 -0.0026091672056618186 0 -0.012395927553590801 -0.0031292318225003436 0 -0.012262455748281902 -0.0026890227975237728 0 -0.012395927553590801 -0.0031292318225003436 0 -0.011724106736003541 -0.0028221138553913912 0 -0.01222551618520511 -0.0021871165641497541 0 -0.012262455748281902 -0.0026890227975237728 0 -0.012703168241582331 -0.0026091672056618186 0 -0.013315876763819354 -0.0021798504812222987 0 -0.013018998652631114 -0.0031265199509582079 0 -0.01375531291628224 -0.0025952622163066125 0 -0.013315876763819354 -0.0021798504812222987 0 -0.012703168241582331 -0.0026091672056618186 0 -0.013018998652631114 -0.0031265199509582079 0 -0.013018998652631114 -0.0031265199509582079 0 -0.01375531291628224 -0.0025952622163066125 0 -0.013995492121802604 -0.0031759931283539891 0 -0.013145106553586246 -0.0035436619564401216 0 -0.011706287881961768 -0.0045818831009406631 0 -0.013018998652631114 -0.0031265199509582079 0 -0.013995492121802604 -0.0031759931283539891 0 -0.012290466110927503 -0.0044129332266106078 0 -0.01192831659406173 -0.0046093470010339617 0 -0.0123009096418815 -0.0038986268513352081 0 -0.011147894813038317 -0.004762990038506304 0 -0.013018998652631114 -0.0031265199509582079 0 -0.01173968209384217 -0.0031253724607159384 0 -0.012290466110927503 -0.0044129332266106078 0 -0.01288900824445657 -0.0031080241966687846 0 -0.012057323089918463 -0.00309605956764174 0 -0.01173968209384217 -0.0031253724607159384 0 -0.012290466110927503 -0.0044129332266106078 0 -0.011201133670566443 -0.0038955418146503868 0 -0.01402570237379377 -0.0027932206046101023 0 -0.013317540497288723 -0.0038006132073120764 0 -0.0123009096418815 -0.0038986268513352081 0 -0.015100317857374965 -0.0023205757603696787 0 -0.014328681966960398 -0.0023488995944411176 0 -0.013995492121802604 -0.0031759931283539891 0 -0.014580125885516857 -0.0025621552101326647 0 -0.013145106553586246 -0.0035436619564401216 0 -0.014328681966960398 -0.0023488995944411176 0 -0.01375531291628224 -0.0025952622163066125 0 -0.013995492121802604 -0.0031759931283539891 0 -0.0057132298320927708 -0.0020972260902604673 0 -0.0064965941386235576 -0.0014203955172635313 0 -0.01192831659406173 -0.0046093470010339617 0 -0.013317540497288723 -0.0038006132073120764 0 -0.0123009096418815 -0.0038986268513352081 0 0.00062271539338690934 0.00035524388829330782 0 0.00036728496202652149 0.00093126374812981221 0 0.00038993213337988093 0.00042742624341296867 0 7.4823063758875321e-05 0.00055191693517086171 0 -0.00013577598397487912 0.0010772302530271667 0 0.00036728496202652149 0.00093126374812981221 0 7.4823063758875321e-05 0.00055191693517086171 0 0.00036728496202652149 0.00093126374812981221 0 0.00038993213337988093 0.00042742624341296867 0 0.00038993213337988093 0.00042742624341296867 0 0.0002189628336520871 0.00012650931369660389 0 0.00050212395912334156 0.00017983255588434601 0 7.4823063758875321e-05 0.00055191693517086171 0 0.00038993213337988093 0.00042742624341296867 0 0.0002189628336520871 0.00012650931369660389 0 0.00062271539338690934 0.00035524388829330782 0 0.00038993213337988093 0.00042742624341296867 0 0.00050212395912334156 0.00017983255588434601 0 0.00062271539338690934 0.00035524388829330782 0 0.00050212395912334156 0.00017983255588434601 0 0.00061757076799761137 9.9889618034113245e-05 0 0.00050212395912334156 0.00017983255588434601 0 0.00055253985384192273 -1.3808811251797434e-05 0 0.0003815601486949186 -0.00010189982464431468 0 0.00050212395912334156 0.00017983255588434601 0 0.00055253985384192273 -1.3808811251797434e-05 0 0.00061757076799761137 9.9889618034113245e-05 0 0.0002189628336520871 0.00012650931369660389 0 0.00050212395912334156 0.00017983255588434601 0 0.0003815601486949186 -0.00010189982464431468 0 0.0002189628336520871 0.00012650931369660389 0 0.0003815601486949186 -0.00010189982464431468 0 7.271420215624256e-05 -0.0001411715123470032 0 -0.012290466110927503 -0.0044129332266106078 0 -0.011201133670566443 -0.0038955418146503868 0 -0.01028498612049903 -0.0048761203191246012 0 -0.011706287881961768 -0.0045818831009406631 0 -0.010347020188402027 -0.0054645942941676379 0 -0.011147894813038317 -0.004762990038506304 0 -0.010985808831824812 -0.0052790441303857709 0 -0.010256566671760741 -0.005506491244516222 0 -0.01192831659406173 -0.0046093470010339617 0 -0.011147894813038317 -0.004762990038506304 0 -0.010985808831824812 -0.0052790441303857709 0 0.00062271539338690934 0.00035524388829330782 0 0.00069766919054812528 5.6399814215427475e-05 0 0.00061757076799761137 9.9889618034113245e-05 0 -0.0057132298320927708 -0.0020972260902604673 0 -0.0049437948403125058 -0.0026532627111939076 0 0.00069766919054812528 5.6399814215427475e-05 0 0.00061757076799761137 9.9889618034113245e-05 0 0.00065290541554305023 -3.258824513238136e-05 0 0.00055253985384192273 -1.3808811251797434e-05 0 0.00061757076799761137 9.9889618034113245e-05 0 0.00065290541554305023 -3.258824513238136e-05 0 0.00069766919054812528 5.6399814215427475e-05 0 0.00065290541554305023 -3.258824513238136e-05 0 0.00070164360704844293 -4.1789778316936158e-05 0 0.00065290541554305023 -3.258824513238136e-05 0 0.00070164360704844293 -4.1789778316936158e-05 0 0.00069090739631479862 -0.00012014510315726787 0 0.00070164360704844293 -4.1789778316936158e-05 0 0.00069090739631479862 -0.00012014510315726787 0 0.00071043679689692285 -7.2232125510426063e-05 0 0.00055253985384192273 -1.3808811251797434e-05 0 0.00065290541554305023 -3.258824513238136e-05 0 0.00053809204081059362 -0.00023507539987833919 0 0.00065290541554305023 -3.258824513238136e-05 0 0.00069090739631479862 -0.00012014510315726787 0 0.00053809204081059362 -0.00023507539987833919 0 0.00083200852327637695 -0.00040665454999036803 0 0.00044641298953261062 -0.00042269375672026661 0 0.00042177763664431184 -0.00076729651556580521 0 0.0005263629431094916 -0.00059202783591546387 0 0.00043981393933811586 -0.00066086140279757253 0 0.00033054527587525869 -0.00078079774893909245 0 0.00027664133986423761 -0.00071027375596136488 0 0.00043981393933811586 -0.00066086140279757253 0 0.00042177763664431184 -0.00076729651556580521 0 0.00033054527587525869 -0.00078079774893909245 0 0.00043981393933811586 -0.00066086140279757253 0 0.0003815601486949186 -0.00010189982464431468 0 0.00053809204081059362 -0.00023507539987833919 0 0.00037931070874515328 -0.00037230797936438055 0 0.0003815601486949186 -0.00010189982464431468 0 0.00037931070874515328 -0.00037230797936438055 0 7.271420215624256e-05 -0.0001411715123470032 0 0.00055253985384192273 -1.3808811251797434e-05 0 0.0003815601486949186 -0.00010189982464431468 0 0.00053809204081059362 -0.00023507539987833919 0 0.00044641298953261062 -0.00042269375672026661 0 0.00040073295818971746 -0.00038286491757602895 0 0.0005263629431094916 -0.00059202783591546387 0 0.00037931070874515328 -0.00037230797936438055 0 0.00050812314103963426 -0.00051892865371047441 0 7.271420215624256e-05 -0.0001411715123470032 0 0.00018088485095184333 -0.00022051400964981881 0 8.3674905887639298e-06 -5.9988844536266843e-05 0 0.00037931070874515328 -0.00037230797936438055 0 0.00018088485095184333 -0.00022051400964981881 0 0.00040864577362919837 -0.00043365928298975205 0 0.00037931070874515328 -0.00037230797936438055 0 7.271420215624256e-05 -0.0001411715123470032 0 0.00018088485095184333 -0.00022051400964981881 0 0.00018088485095184333 -0.00022051400964981881 0 6.9169367627795869e-05 -0.00014580968659352108 0 0.00026355124273696963 -0.00034148244609175104 0 6.9169367627795869e-05 -0.00014580968659352108 0 8.3674905887639298e-06 -5.9988844536266843e-05 0 -0.0001111671456490549 1.621660718970803e-06 0 -0.00082729578870953131 -0.00033439984917292982 0 -0.0014973994018075009 -0.00056751226492681155 0 0.00018088485095184333 -0.00022051400964981881 0 6.9169367627795869e-05 -0.00014580968659352108 0 8.3674905887639298e-06 -5.9988844536266843e-05 0 -0.00082729578870953131 -0.00033439984917292982 0 -0.00026963899920386277 -4.8220959778465067e-05 0 -0.0017184638227853031 -0.00068592948170942978 0 -0.0029664022735100119 -0.00014603922014877173 0 -0.0027562936661646394 -0.00098504650945851254 0 -0.0017184638227853031 -0.00068592948170942978 0 -0.0021431751421520078 0.00038978497850405199 0 -0.0029664022735100119 -0.00014603922014877173 0 -0.0017184638227853031 -0.00068592948170942978 0 -0.0021431751421520078 0.00038978497850405199 0 -0.0011929967954853119 0.00036992884510656345 0 -0.0017184638227853031 -0.00068592948170942978 0 -0.0011929967954853119 0.00036992884510656345 0 -0.0002439204334438433 -2.5552987846733855e-05 0 7.271420215624256e-05 -0.0001411715123470032 0 8.3674905887639298e-06 -5.9988844536266843e-05 0 -0.0002439204334438433 -2.5552987846733855e-05 0 -0.00044972421759505897 0.00077541875207591451 0 -0.0011929967954853119 0.00036992884510656345 0 -0.0002439204334438433 -2.5552987846733855e-05 0 7.4823063758875321e-05 0.00055191693517086171 0 0.0002189628336520871 0.00012650931369660389 0 -0.0002439204334438433 -2.5552987846733855e-05 0 7.4823063758875321e-05 0.00055191693517086171 0 -0.00044972421759505897 0.00077541875207591451 0 -0.0002439204334438433 -2.5552987846733855e-05 0 0.0002189628336520871 0.00012650931369660389 0 7.271420215624256e-05 -0.0001411715123470032 0 -0.0002439204334438433 -2.5552987846733855e-05 0 -0.015121535531354461 -0.00040592213730011704 0 -0.014694805635161654 7.868573828797132e-07 0 -0.012611569836421404 -3.134855319762591e-06 0 -0.015121535531354461 -0.00040592213730011704 0 -0.015958316934068736 -0.00057563202744555383 0 -0.015399357890401843 -0.00090530916989283177 0 -0.015121535531354461 -0.00040592213730011704 0 -0.015964175696555061 -6.4290849353636532e-05 0 -0.016541167383421002 -0.00025889099508230059 0 -0.015964175696555061 -6.4290849353636532e-05 0 -0.016954654275196802 3.7909793014515375e-05 0 -0.016541167383421002 -0.00025889099508230059 0 -0.015964175696555061 -6.4290849353636532e-05 0 -0.014694805635161654 7.868573828797132e-07 0 -0.016666927485637764 0.00015705291774173433 0 -0.015121535531354461 -0.00040592213730011704 0 -0.015964175696555061 -6.4290849353636532e-05 0 -0.014694805635161654 7.868573828797132e-07 0 -0.014694805635161654 7.868573828797132e-07 0 -0.016782851267821031 2.8536222370442084e-07 0 -0.016666927485637764 0.00015705291774173433 0 -0.018127463108789401 0.00035281404740284219 0 -0.016782851267821031 2.8536222370442084e-07 0 -0.016666927485637764 0.00015705291774173433 0 -0.018127463108789401 0.00035281404740284219 0 -0.016666927485637764 0.00015705291774173433 0 -0.017623188481764723 0.0002567450766792283 0 -0.016666927485637764 0.00015705291774173433 0 -0.017623188481764723 0.0002567450766792283 0 -0.016954654275196802 3.7909793014515375e-05 0 -0.015964175696555061 -6.4290849353636532e-05 0 -0.016666927485637764 0.00015705291774173433 0 -0.016954654275196802 3.7909793014515375e-05 0 -0.017623188481764723 0.0002567450766792283 0 -0.01790780863559693 5.6595096320313117e-05 0 -0.016954654275196802 3.7909793014515375e-05 0 -0.018127463108789401 0.00035281404740284219 0 -0.017623188481764723 0.0002567450766792283 0 -0.018183617652617057 0.00028406858781530474 0 -0.017623188481764723 0.0002567450766792283 0 -0.018183617652617057 0.00028406858781530474 0 -0.01790780863559693 5.6595096320313117e-05 0 -0.018183617652617057 0.00028406858781530474 0 -0.01790780863559693 5.6595096320313117e-05 0 -0.01835164063976099 7.4182779927893375e-05 0 -0.01790780863559693 5.6595096320313117e-05 0 -0.018032115621624465 -0.00027222731578887979 0 -0.01827817830831396 -0.00016861184904528977 0 -0.018032115621624465 -0.00027222731578887979 0 -0.017835347448641799 -0.00050081234508498002 0 -0.018173326002939118 -0.00054230094626974248 0 -0.017835347448641799 -0.00050081234508498002 0 -0.017465644848657348 -0.0002395673188407034 0 -0.017581581348647127 -0.00093845264125762273 0 -0.018032115621624465 -0.00027222731578887979 0 -0.017835347448641799 -0.00050081234508498002 0 -0.017465644848657348 -0.0002395673188407034 0 -0.01790780863559693 5.6595096320313117e-05 0 -0.018032115621624465 -0.00027222731578887979 0 -0.017465644848657348 -0.0002395673188407034 0 -0.01790780863559693 5.6595096320313117e-05 0 -0.016954654275196802 3.7909793014515375e-05 0 -0.017465644848657348 -0.0002395673188407034 0 -0.016954654275196802 3.7909793014515375e-05 0 -0.016541167383421002 -0.00025889099508230059 0 -0.017465644848657348 -0.0002395673188407034 0 -0.016541167383421002 -0.00025889099508230059 0 -0.017465644848657348 -0.0002395673188407034 0 -0.017581581348647127 -0.00093845264125762273 0 -0.015121535531354461 -0.00040592213730011704 0 -0.016541167383421002 -0.00025889099508230059 0 -0.017581581348647127 -0.00093845264125762273 0 -0.015958316934068736 -0.00057563202744555383 0 -0.015974638444036671 -0.00072931434302028037 0 -0.015399357890401843 -0.00090530916989283177 0 -0.015100680996521093 -0.00049263929712776891 0 -0.01705123931338446 -0.00068306439868179932 0 -0.015958316934068736 -0.00057563202744555383 0 -0.016180647887106374 -0.00067541820194594879 0 -0.015974638444036671 -0.00072931434302028037 0 -0.01705123931338446 -0.00068306439868179932 0 -0.01599999766287773 -0.00067618014542569597 0 -0.017835347448641799 -0.00050081234508498002 0 -0.017581581348647127 -0.00093845264125762273 0 -0.018173326002939118 -0.00054230094626974248 0 -0.017581581348647127 -0.00093845264125762273 0 -0.018522623263884732 -0.00058826801179842668 0 -0.018173326002939118 -0.00054230094626974248 0 -0.015958316934068736 -0.00057563202744555383 0 -0.0161911166705416 -0.00060105743799969446 0 -0.016180647887106374 -0.00067541820194594879 0 -0.018522623263884732 -0.00058826801179842668 0 -0.018385089422248445 -0.00044935598768130076 0 -0.018173326002939118 -0.00054230094626974248 0 -0.01599999766287773 -0.00067618014542569597 0 -0.016699374838618487 -0.00033851250394079503 0 -0.018522623263884732 -0.00058826801179842668 0 -0.018488825439875456 -0.00036849984239191582 0 -0.018385089422248445 -0.00044935598768130076 0 -0.01599999766287773 -0.00067618014542569597 0 -0.0123964788713964 -0.00019766386554338368 0 -0.011716911568527737 -0.00015829921246553793 0 -0.01165434548928925 -0.00054315564968804764 0 -0.011805424602208656 -0.00052660393853776839 0 -0.0123964788713964 -0.00019766386554338368 0 -0.012143913817325528 -0.00025688589425667261 0 -0.018503546896212315 -0.00022098096296736287 0 -0.018488825439875456 -0.00036849984239191582 0 -0.018132760789269928 -9.7754307145587663e-05 0 -0.011716911568527737 -0.00015829921246553793 0 -0.011805424602208656 -0.00052660393853776839 0 -0.012454735608976206 -0.00010303684326514275 0 -0.01599999766287773 -0.00067618014542569597 0 -0.015524895404701236 -0.00011031673242841268 0 -0.011805424602208656 -0.00052660393853776839 0 -0.012362616531236085 -0.00052918817367230493 0 -0.012454735608976206 -0.00010303684326514275 0 -0.018488825439875456 -0.00036849984239191582 0 -0.018132760789269928 -9.7754307145587663e-05 0 -0.018318799239350397 -0.00034396081410073543 0 -0.018488825439875456 -0.00036849984239191582 0 -0.018318799239350397 -0.00034396081410073543 0 -0.018515968098931936 -0.00035625959060854839 0 -0.018132760789269928 -9.7754307145587663e-05 0 -0.018318799239350397 -0.00034396081410073543 0 -0.018016625082326335 -0.00035377657396524998 0 -0.018318799239350397 -0.00034396081410073543 0 -0.018229074947893456 -0.00056832646447292602 0 -0.018016625082326335 -0.00035377657396524998 0 -0.018318799239350397 -0.00034396081410073543 0 -0.018229074947893456 -0.00056832646447292602 0 -0.018515968098931936 -0.00035625959060854839 0 -0.018515968098931936 -0.00035625959060854839 0 -0.018355537223991268 -0.00035919674555338329 0 -0.01827817830831396 -0.00016861184904528977 0 -0.018488825439875456 -0.00036849984239191582 0 -0.018515968098931936 -0.00035625959060854839 0 -0.018355537223991268 -0.00035919674555338329 0 -0.018488825439875456 -0.00036849984239191582 0 -0.018385089422248445 -0.00044935598768130076 0 -0.018355537223991268 -0.00035919674555338329 0 -0.018032115621624465 -0.00027222731578887979 0 -0.018173326002939118 -0.00054230094626974248 0 -0.018355537223991268 -0.00035919674555338329 0 -0.018385089422248445 -0.00044935598768130076 0 -0.018173326002939118 -0.00054230094626974248 0 -0.018355537223991268 -0.00035919674555338329 0 -0.018032115621624465 -0.00027222731578887979 0 -0.018355537223991268 -0.00035919674555338329 0 -0.01827817830831396 -0.00016861184904528977 0 -0.01790780863559693 5.6595096320313117e-05 0 -0.01827817830831396 -0.00016861184904528977 0 -0.01835164063976099 7.4182779927893375e-05 0 -0.018515968098931936 -0.00035625959060854839 0 -0.01827817830831396 -0.00016861184904528977 0 -0.01835164063976099 7.4182779927893375e-05 0 -0.018183617652617057 0.00028406858781530474 0 -0.01835164063976099 7.4182779927893375e-05 0 -0.018449432685586489 0.00024134778696196339 0 -0.018539174139608008 0.00026304942767964247 0 -0.018183617652617057 0.00028406858781530474 0 -0.018449432685586489 0.00024134778696196339 0 -0.01835164063976099 7.4182779927893375e-05 0 -0.018449432685586489 0.00024134778696196339 0 -0.018582285099617762 0.00025770589161685901 0 -0.018530522747375475 0.00025439436568961196 0 -0.018449432685586489 0.00024134778696196339 0 -0.018582285099617762 0.00025770589161685901 0 -0.018341679641221628 -0.001596176127194576 0 -0.018453270203651027 -0.0017917680631304575 0 -0.018566502254350074 -0.0015643923044660294 0 -0.018341679641221628 -0.001596176127194576 0 -0.018275566747309919 -0.001736480300164174 0 -0.01814069752913661 -0.0015865450201626343 0 -0.018341679641221628 -0.001596176127194576 0 -0.018275566747309919 -0.001736480300164174 0 -0.018453270203651027 -0.0017917680631304575 0 -0.0183962190994626 -0.0018907503994604895 0 -0.018275566747309919 -0.001736480300164174 0 -0.018453270203651027 -0.0017917680631304575 0 -0.018566502254350074 -0.0015643923044660294 0 -0.01824820994965682 -0.001298590233119983 0 -0.018320650841277705 -0.00094007584928261197 0 -0.018341679641221628 -0.001596176127194576 0 -0.018566502254350074 -0.0015643923044660294 0 -0.01824820994965682 -0.001298590233119983 0 -0.018341679641221628 -0.001596176127194576 0 -0.01824820994965682 -0.001298590233119983 0 -0.01814069752913661 -0.0015865450201626343 0 -0.018531233509639609 -0.00040598997995730751 0 -0.018557055806237177 -0.00062082676784092246 0 -0.018515968098931936 -0.00035625959060854839 0 -0.01835164063976099 7.4182779927893375e-05 0 -0.018582285099617762 0.00025770589161685901 0 -0.018515968098931936 -0.00035625959060854839 0 -0.018566502254350074 -0.0015643923044660294 0 -0.018320650841277705 -0.00094007584928261197 0 -0.01824820994965682 -0.001298590233119983 0 -0.018320650841277705 -0.00094007584928261197 0 -0.018019223234039244 -0.00095494424147516169 0 -0.018229074947893456 -0.00056832646447292602 0 -0.018515968098931936 -0.00035625959060854839 0 -0.018320650841277705 -0.00094007584928261197 0 -0.018229074947893456 -0.00056832646447292602 0 -0.018320650841277705 -0.00094007584928261197 0 -0.018019223234039244 -0.00095494424147516169 0 -0.017673056467491597 -0.00080704996056620622 0 -0.017844420900314028 -0.0013807074551517077 0 -0.017224653542355105 -0.0012026543727142827 0 -0.017673056467491597 -0.00080704996056620622 0 -0.018019223234039244 -0.00095494424147516169 0 -0.017939149923916774 -0.00061527821912282549 0 -0.018229074947893456 -0.00056832646447292602 0 -0.018019223234039244 -0.00095494424147516169 0 -0.017939149923916774 -0.00061527821912282549 0 -0.017673056467491597 -0.00080704996056620622 0 -0.018019223234039244 -0.00095494424147516169 0 -0.017844420900314028 -0.0013807074551517077 0 -0.01824820994965682 -0.001298590233119983 0 -0.018019223234039244 -0.00095494424147516169 0 -0.017844420900314028 -0.0013807074551517077 0 -0.01824820994965682 -0.001298590233119983 0 -0.017844420900314028 -0.0013807074551517077 0 -0.01814069752913661 -0.0015865450201626343 0 -0.017844420900314028 -0.0013807074551517077 0 -0.017576480789965189 -0.0018445088295021704 0 -0.017991299678489735 -0.001828358464870025 0 -0.0183962190994626 -0.0018907503994604895 0 -0.018275566747309919 -0.001736480300164174 0 -0.017991299678489735 -0.001828358464870025 0 -0.017844420900314028 -0.0013807074551517077 0 -0.017991299678489735 -0.001828358464870025 0 -0.01814069752913661 -0.0015865450201626343 0 -0.018275566747309919 -0.001736480300164174 0 -0.017991299678489735 -0.001828358464870025 0 -0.01814069752913661 -0.0015865450201626343 0 -0.014380522076254607 -0.001259506653413476 0 -0.014845572645568248 -0.0013529351776345032 0 -0.017124801753533658 -0.0022194667449385152 0 -0.017576480789965189 -0.0018445088295021704 0 -0.017224653542355105 -0.0012026543727142827 0 -0.017844420900314028 -0.0013807074551517077 0 -0.017576480789965189 -0.0018445088295021704 0 -0.017224653542355105 -0.0012026543727142827 0 -0.017673056467491597 -0.00080704996056620622 0 -0.017224653542355105 -0.0012026543727142827 0 -0.017338374075100332 -0.0003180397555711542 0 -0.012401209928682854 -0.0020003341268292258 0 -0.012045762644779108 -0.0015594320056669868 0 -0.012009578685703643 -0.0025024307084892238 0 -0.014845572645568248 -0.0013529351776345032 0 -0.013051492648207309 -0.0015476790395369052 0 -0.012395927553590801 -0.0031292318225003436 0 -0.011724106736003541 -0.0028221138553913912 0 -0.011695226253064654 -0.0031700262140881602 0 -0.01222551618520511 -0.0021871165641497541 0 -0.012262455748281902 -0.0026890227975237728 0 -0.011724106736003541 -0.0028221138553913912 0 -0.012146310036737161 -0.002310180426078222 0 -0.013051492648207309 -0.0015476790395369052 0 -0.017338374075100332 -0.0003180397555711542 0 -0.017693316535171505 -0.00044075237836480144 0 -0.017574120812151227 -6.5837960915000917e-05 0 -0.013051492648207309 -0.0015476790395369052 0 -0.013039691965357545 -0.00086518188940529 0 -0.013051492648207309 -0.0015476790395369052 0 -0.011154071055848005 -0.002004580401551566 0 -0.017673056467491597 -0.00080704996056620622 0 -0.017338374075100332 -0.0003180397555711542 0 -0.017693316535171505 -0.00044075237836480144 0 -0.017673056467491597 -0.00080704996056620622 0 -0.017693316535171505 -0.00044075237836480144 0 -0.017939149923916774 -0.00061527821912282549 0 -0.018229074947893456 -0.00056832646447292602 0 -0.017939149923916774 -0.00061527821912282549 0 -0.018016625082326335 -0.00035377657396524998 0 -0.017693316535171505 -0.00044075237836480144 0 -0.017939149923916774 -0.00061527821912282549 0 -0.018016625082326335 -0.00035377657396524998 0 -0.017693316535171505 -0.00044075237836480144 0 -0.018016625082326335 -0.00035377657396524998 0 -0.017574120812151227 -6.5837960915000917e-05 0 -0.018132760789269928 -9.7754307145587663e-05 0 -0.018016625082326335 -0.00035377657396524998 0 -0.017574120812151227 -6.5837960915000917e-05 0 -0.015524895404701236 -0.00011031673242841268 0 -0.013039691965357545 -0.00086518188940529 0 -0.012362616531236085 -0.00052918817367230493 0 -0.012454735608976206 -0.00010303684326514275 0 -0.013201555747182177 -5.149630515620345e-05 0 -0.013039691965357545 -0.00086518188940529 0 -0.010405269316148706 -0.0013636287559739635 0 -0.0089337843440226838 -0.0010955490665662761 0 -0.0089839372969426727 -0.001115352029386954 0 -0.0088371790336019638 -0.0014380772499454496 0 -0.012362616531236085 -0.00052918817367230493 0 -0.013201555747182177 -5.149630515620345e-05 0 -0.012338878286538214 -0.0010997761024333611 0 -0.011201133670566443 -0.0038955418146503868 0 -0.010490800560285831 -0.0031817989439979315 0 -0.01028498612049903 -0.0048761203191246012 0 -0.011154071055848005 -0.002004580401551566 0 -0.0097915703256392199 -0.0038170147502514227 0 -0.0091309890067591895 -0.0010360858197302682 0 -0.0089839372969426727 -0.001115352029386954 0 -0.0089884204736936334 -0.0021713858465799659 0 -0.012057323089918463 -0.00309605956764174 0 -0.011154071055848005 -0.002004580401551566 0 -0.01173968209384217 -0.0031253724607159384 0 -0.011201133670566443 -0.0038955418146503868 0 -0.010490800560285831 -0.0031817989439979315 0 -0.012448880609548444 -0.0015774324196124847 0 -0.012444519315986611 -0.001620536769389403 0 -0.012414332283901316 -0.0016221130353357332 0 -0.011154071055848005 -0.002004580401551566 0 -0.013039691965357545 -0.00086518188940529 0 -0.0091309890067591895 -0.0010360858197302682 0 -0.0089337843440226838 -0.0010955490665662761 0 -0.0089839372969426727 -0.001115352029386954 0 -0.012290466110927503 -0.0044129332266106078 0 -0.01028498612049903 -0.0048761203191246012 0 -0.010256566671760741 -0.005506491244516222 0 -0.0089839372969426727 -0.001115352029386954 0 -0.0089884204736936334 -0.0021713858465799659 0 -0.0082763453375363141 -0.0023637740533192443 0 -0.0089337843440226838 -0.0010955490665662761 0 -0.0088371790336019638 -0.0014380772499454496 0 -0.0087130152265783196 -0.0014095670241871272 0 -0.0089113568349381122 -0.0011488420489520128 0 -0.0087297334102181458 -0.0019585925311836777 0 -0.0082763453375363141 -0.0023637740533192443 0 -0.008245575519060102 -0.0032724706537877114 0 -0.0076123122002925807 -0.0036371277955258236 0 -0.0082763453375363141 -0.0023637740533192443 0 -0.008245575519060102 -0.0032724706537877114 0 -0.0088429059570538857 -0.0033357515112833859 0 -0.0087297334102181458 -0.0019585925311836777 0 -0.0068015050201442979 -0.0021268919570140298 0 -0.0089884204736936334 -0.0021713858465799659 0 -0.0082763453375363141 -0.0023637740533192443 0 -0.0088429059570538857 -0.0033357515112833859 0 -0.0088371790336019638 -0.0014380772499454496 0 -0.0086763687002345321 -0.0017530179036348167 0 -0.0087130152265783196 -0.0014095670241871272 0 -0.01028498612049903 -0.0048761203191246012 0 -0.010256566671760741 -0.005506491244516222 0 -0.010119283065544929 -0.0061291400523486904 0 0.00069766919054812528 5.6399814215427475e-05 0 0.00070164360704844293 -4.1789778316936158e-05 0 0.00071513875907816961 -6.8764515306632835e-05 0 -0.010985808831824812 -0.0052790441303857709 0 -0.010256566671760741 -0.005506491244516222 0 -0.010119283065544929 -0.0061291400523486904 0 -0.0049437948403125058 -0.0026532627111939076 0 -0.0057949689421555109 -0.0031815204570234514 0 -0.0097915703256392199 -0.0038170147502514227 0 -0.0057949689421555109 -0.0031815204570234514 0 0.00070164360704844293 -4.1789778316936158e-05 0 0.00071513875907816961 -6.8764515306632835e-05 0 0.00071043679689692285 -7.2232125510426063e-05 0 0.00042177763664431184 -0.00076729651556580521 0 0.00022566846918335419 -0.0009061228779471015 0 0.00033054527587525869 -0.00078079774893909245 0 0.00069090739631479862 -0.00012014510315726787 0 0.00071043679689692285 -7.2232125510426063e-05 0 0.00072007259717016259 -7.475250362168852e-05 0 0.00083200852327637695 -0.00040665454999036803 0 -0.00085381050311484036 -0.00061974221555371328 0 0.00071513875907816961 -6.8764515306632835e-05 0 0.00071043679689692285 -7.2232125510426063e-05 0 0.00072007259717016259 -7.475250362168852e-05 0 -0.0057949689421555109 -0.0031815204570234514 0 -0.00085381050311484036 -0.00061974221555371328 0 0.00022566846918335419 -0.0009061228779471015 0 0.00022061071058208221 -0.00087421693768513465 0 0.00033054527587525869 -0.00078079774893909245 0 -0.00085381050311484036 -0.00061974221555371328 0 -0.00069525734549216354 -0.00076103995273132062 0 0.00022061071058208221 -0.00087421693768513465 0 0.00033054527587525869 -0.00078079774893909245 0 0.00019818591836831686 -0.00078602532723628579 0 0.00033054527587525869 -0.00078079774893909245 0 0.00019818591836831686 -0.00078602532723628579 0 0.00027664133986423761 -0.00071027375596136488 0 0.00010364875176516093 -0.00085341941999161539 0 0.00010756650121575592 -0.00095546602028207396 0 -0.00010922274218722489 -0.00085443337585139844 0 0.00019818591836831686 -0.00078602532723628579 0 0.00016055780348986891 -0.00072407508441227569 0 0.00027664133986423761 -0.00071027375596136488 0 6.317302273188884e-05 -0.00078846457256834376 0 0.00019818591836831686 -0.00078602532723628579 0 0.00016055780348986891 -0.00072407508441227569 0 0.00022061071058208221 -0.00087421693768513465 0 0.00019818591836831686 -0.00078602532723628579 0 0.00010364875176516093 -0.00085341941999161539 0 6.317302273188884e-05 -0.00078846457256834376 0 0.00019818591836831686 -0.00078602532723628579 0 0.00010364875176516093 -0.00085341941999161539 0 0.00022061071058208221 -0.00087421693768513465 0 0.00010364875176516093 -0.00085341941999161539 0 0.00010756650121575592 -0.00095546602028207396 0 -0.00085381050311484036 -0.00061974221555371328 0 -0.0039215082916586258 -0.001988874535501237 0 0.00022138635801625584 -0.0009211460832003332 0 0.00022061071058208221 -0.00087421693768513465 0 0.00010756650121575592 -0.00095546602028207396 0 -0.0057949689421555109 -0.0031815204570234514 0 -0.0039215082916586258 -0.001988874535501237 0 -0.0037242496750046995 -0.0022925984612206024 0 -0.003720646187033042 -0.0022290127034911081 0 -0.0037858757981312852 -0.0022421722725034826 0 -0.008245575519060102 -0.0032724706537877114 0 -0.0088429059570538857 -0.0033357515112833859 0 -0.0082486692237904342 -0.003753913000111696 0 -0.0039215082916586258 -0.001988874535501237 0 -0.0068015050201442979 -0.0021268919570140298 0 -0.008245575519060102 -0.0032724706537877114 0 -0.0082486692237904342 -0.003753913000111696 0 -0.0076123122002925807 -0.0036371277955258236 0 -0.0039215082916586258 -0.001988874535501237 0 -0.00235878759958514 -0.0013565589864638408 0 -0.0068015050201442979 -0.0021268919570140298 0 -0.0085645196066039264 -0.0011757465573869329 0 -0.0058832077357245166 -0.0014744661012167611 0 -0.0058307308915582926 -0.0015522697811850372 0 -0.0057952438128334631 -0.0014688268402716727 0 -0.0045701009605698525 -0.0015149898851986568 0 -0.0041566986857417883 -0.001441226911951496 0 -0.003866863056686258 -0.0020180634324102106 0 -0.0068015050201442979 -0.0021268919570140298 0 -0.00235878759958514 -0.0013565589864638408 0 6.317302273188884e-05 -0.00078846457256834376 0 0.00010364875176516093 -0.00085341941999161539 0 -0.00010922274218722489 -0.00085443337585139844 0 -0.00010922274218722489 -0.00085443337585139844 0 -0.00016371601885552386 -0.00079421080910513895 0 -4.831610683538001e-05 -0.00076878111535763117 0 -0.00235878759958514 -0.0013565589864638408 0 -0.0014445821270866477 -0.00135905597180793 0 6.317302273188884e-05 -0.00078846457256834376 0 -0.00010922274218722489 -0.00085443337585139844 0 -4.831610683538001e-05 -0.00076878111535763117 0 6.317302273188884e-05 -0.00078846457256834376 0 -4.831610683538001e-05 -0.00076878111535763117 0 3.4160772001748761e-05 -0.00070107215885829356 0 -0.0058307308915582926 -0.0015522697811850372 0 -0.0057952438128334631 -0.0014688268402716727 0 -0.0057494944085589254 -0.0016026866580945197 0 -0.0071531590438540403 -0.00074497590702947674 0 -0.0071728631268431989 -0.00070994753417618229 0 -0.0071439191782720858 -0.00070102929084325306 0 -0.0081757231616887676 -0.00097305185678686168 0 -0.0045084865458813999 -0.0011243221643757225 0 -0.00012285007395829191 -0.00088375723062384455 0 -0.00016371601885552386 -0.00079421080910513895 0 -0.00035167553755098248 -0.0007369202269659409 0 -0.00235878759958514 -0.0013565589864638408 0 -0.0045084865458813999 -0.0011243221643757225 0 -0.0058832077357245166 -0.0014744661012167611 0 -0.0057952438128334631 -0.0014688268402716727 0 -0.0058077766155470436 -0.0014564258621287437 0 -0.0081757231616887676 -0.00097305185678686168 0 -0.0088457509702106855 -0.0010311616910277667 0 -0.0081757231616887676 -0.00097305185678686168 0 -0.0085645196066039264 -0.0011757465573869329 0 -0.0084315725771363318 -0.0010904258422516416 0 -0.0084663296786225296 -0.00084251215646074249 0 -0.0086109858946002288 -0.00086804285029624885 0 -0.0088457509702106855 -0.0010311616910277667 0 -0.0085645196066039264 -0.0011757465573869329 0 -0.0089988417485757418 0.00014075366344577518 0 -0.0089920398025511109 9.4543047628850197e-05 0 -0.0091821013434010539 5.1414261657612487e-05 0 -0.0088457509702106855 -0.0010311616910277667 0 -0.009076082137773122 -0.00013591748642163452 0 -0.008849315383523744 9.3057625485954508e-05 0 -0.008996275193305139 -0.00013527599716346863 0 -0.0091821013434010539 5.1414261657612487e-05 0 -0.0088457509702106855 -0.0010311616910277667 0 -0.01012825949607175 -0.00094045757449085702 0 -0.011346282641306321 -0.0021510158498976766 0 -0.011429455906848532 -0.0021659918961855523 0 -0.011488899051798535 -0.0013450830075027774 0 -0.008849315383523744 9.3057625485954508e-05 0 -0.008996275193305139 -0.00013527599716346863 0 -0.008801138067354046 -0.00033870127505505258 0 -0.008996275193305139 -0.00013527599716346863 0 -0.008801138067354046 -0.00033870127505505258 0 -0.0091591720153412909 -0.0003404323568123209 0 -0.011429455906848532 -0.0021659918961855523 0 -0.011488899051798535 -0.0013450830075027774 0 -0.012338878286538214 -0.0010997761024333611 0 -0.0086763687002345321 -0.0017530179036348167 0 -0.0084570911793811418 -0.001710839903166336 0 -0.0087130152265783196 -0.0014095670241871272 0 -0.0085645196066039264 -0.0011757465573869329 0 -0.010405269316148706 -0.0013636287559739635 0 -0.011488899051798535 -0.0013450830075027774 0 -0.012338878286538214 -0.0010997761024333611 0 -0.011928473781613802 -0.00080725017133610819 0 -0.012362616531236085 -0.00052918817367230493 0 -0.012338878286538214 -0.0010997761024333611 0 -0.011928473781613802 -0.00080725017133610819 0 -0.011805424602208656 -0.00052660393853776839 0 -0.012362616531236085 -0.00052918817367230493 0 -0.011928473781613802 -0.00080725017133610819 0 -0.011636937844833955 -0.00054362748039570583 0 -0.011805424602208656 -0.00052660393853776839 0 -0.011928473781613802 -0.00080725017133610819 0 -0.011636937844833955 -0.00054362748039570583 0 -0.011488899051798535 -0.0013450830075027774 0 -0.011928473781613802 -0.00080725017133610819 0 -0.0087599905474834289 -0.00076815461240711932 0 -0.008801138067354046 -0.00033870127505505258 0 -0.0091591720153412909 -0.0003404323568123209 0 -0.0123964788713964 -0.00019766386554338368 0 -0.012670162203157738 -0.00081324719753862458 0 -0.0123964788713964 -0.00019766386554338368 0 -0.01012825949607175 -0.00094045757449085702 0 -0.0087599905474834289 -0.00076815461240711932 0 -0.0093497941647822606 -0.00074206600284610117 0 -0.0091591720153412909 -0.0003404323568123209 0 -0.0093497941647822606 -0.00074206600284610117 0 -0.0095645281422836025 -0.0003087072771108407 0 -0.0091591720153412909 -0.0003404323568123209 0 -0.0093497941647822606 -0.00074206600284610117 0 -0.0095645281422836025 -0.0003087072771108407 0 -0.010193854678647406 -0.0008112007982602952 0 -0.012670162203157738 -0.00081324719753862458 0 -0.012804670154756562 -0.00075309470131493033 0 -0.0095645281422836025 -0.0003087072771108407 0 -0.009422381498835869 2.0867704665360824e-05 0 -0.0099281886946948165 5.8939205369819579e-05 0 -0.009422381498835869 2.0867704665360824e-05 0 -0.0095202492340498036 0.00022036657304023803 0 -0.0099281886946948165 5.8939205369819579e-05 0 -0.0095645281422836025 -0.0003087072771108407 0 -0.0099281886946948165 5.8939205369819579e-05 0 -0.010193854678647406 -0.0008112007982602952 0 -0.0095645281422836025 -0.0003087072771108407 0 -0.009422381498835869 2.0867704665360824e-05 0 -0.0091591720153412909 -0.0003404323568123209 0 -0.009422381498835869 2.0867704665360824e-05 0 -0.0091591720153412909 -0.0003404323568123209 0 -0.0091821013434010539 5.1414261657612487e-05 0 -0.008996275193305139 -0.00013527599716346863 0 -0.0091591720153412909 -0.0003404323568123209 0 -0.0091821013434010539 5.1414261657612487e-05 0 -0.0089988417485757418 0.00014075366344577518 0 -0.0091734487681536855 0.00019574495395440687 0 -0.0092834877907366602 0.00041161020073618855 0 -0.0091821013434010539 5.1414261657612487e-05 0 -0.009315412091541006 0.00020243978671421683 0 -0.0091734487681536855 0.00019574495395440687 0 -0.0089988417485757418 0.00014075366344577518 0 -0.0091821013434010539 5.1414261657612487e-05 0 -0.0091734487681536855 0.00019574495395440687 0 -0.009422381498835869 2.0867704665360824e-05 0 -0.0091821013434010539 5.1414261657612487e-05 0 -0.009315412091541006 0.00020243978671421683 0 -0.009315412091541006 0.00020243978671421683 0 -0.0091734487681536855 0.00019574495395440687 0 -0.0092761837396101894 0.00029016713567424384 0 -0.009315412091541006 0.00020243978671421683 0 -0.0092761837396101894 0.00029016713567424384 0 -0.0093291630314104607 0.00031641219784140544 0 -0.0091734487681536855 0.00019574495395440687 0 -0.0092761837396101894 0.00029016713567424384 0 -0.0092834877907366602 0.00041161020073618855 0 -0.0081757231616887676 -0.00097305185678686168 0 -0.0087522586143979984 -5.3281876122035794e-05 0 -0.0092761837396101894 0.00029016713567424384 0 -0.0093170852257612961 0.00036299144547357584 0 -0.0092834877907366602 0.00041161020073618855 0 -0.0092761837396101894 0.00029016713567424384 0 -0.0093170852257612961 0.00036299144547357584 0 -0.0093291630314104607 0.00031641219784140544 0 -0.0093170852257612961 0.00036299144547357584 0 -0.0092830289914034129 0.00034050285983182885 0 -0.0093291630314104607 0.00031641219784140544 0 -0.0088225325718420851 1.36938947855069e-05 0 -0.0087522586143979984 -5.3281876122035794e-05 0 -0.0093170852257612961 0.00036299144547357584 0 -0.00937335627545113 0.00033822178601578429 0 -0.0092830289914034129 0.00034050285983182885 0 -0.0093273729381303221 0.00033210941857830876 0 -0.0091679391776194573 0.000306830911667416 0 -0.0091530893760554104 0.00027290001620956252 0 -0.0092830289914034129 0.00034050285983182885 0 -0.0093273729381303221 0.00033210941857830876 0 -0.0091530893760554104 0.00027290001620956252 0 -0.00937335627545113 0.00033822178601578429 0 -0.0092830289914034129 0.00034050285983182885 0 -0.0091530893760554104 0.00027290001620956252 0 -0.0092830289914034129 0.00034050285983182885 0 -0.0093291630314104607 0.00031641219784140544 0 -0.0093273729381303221 0.00033210941857830876 0 -0.0093273729381303221 0.00033210941857830876 0 -0.0095094065434172502 0.00028906657486996303 0 -0.0091679391776194573 0.000306830911667416 0 -0.0093273729381303221 0.00033210941857830876 0 -0.0095202492340498036 0.00022036657304023803 0 -0.0095094065434172502 0.00028906657486996303 0 -0.009315412091541006 0.00020243978671421683 0 -0.0093291630314104607 0.00031641219784140544 0 -0.0095202492340498036 0.00022036657304023803 0 -0.0093291630314104607 0.00031641219784140544 0 -0.0093273729381303221 0.00033210941857830876 0 -0.0095202492340498036 0.00022036657304023803 0 -0.009422381498835869 2.0867704665360824e-05 0 -0.009315412091541006 0.00020243978671421683 0 -0.0095202492340498036 0.00022036657304023803 0 -0.0095202492340498036 0.00022036657304023803 0 -0.0099850920660986796 0.00018298924032590573 0 -0.0095094065434172502 0.00028906657486996303 0 -0.0095202492340498036 0.00022036657304023803 0 -0.0099850920660986796 0.00018298924032590573 0 -0.0099281886946948165 5.8939205369819579e-05 0 -0.0099850920660986796 0.00018298924032590573 0 -0.0095094065434172502 0.00028906657486996303 0 -0.0094854094094729106 0.00023773883932425472 0 -0.0091679391776194573 0.000306830911667416 0 -0.0094854094094729106 0.00023773883932425472 0 -0.0087470647715995435 0.00021671887221604437 0 -0.0095094065434172502 0.00028906657486996303 0 -0.0091679391776194573 0.000306830911667416 0 -0.0094854094094729106 0.00023773883932425472 0 -0.0089141438192560686 3.7301099122780117e-07 0 -0.0094854094094729106 0.00023773883932425472 0 -0.010761035044258972 1.1035279002245742e-06 0 -0.0089141438192560686 3.7301099122780117e-07 0 -0.0094854094094729106 0.00023773883932425472 0 -0.0087470647715995435 0.00021671887221604437 0 -0.0099850920660986796 0.00018298924032590573 0 -0.0094854094094729106 0.00023773883932425472 0 -0.010761035044258972 1.1035279002245742e-06 0 -0.0099850920660986796 0.00018298924032590573 0 -0.010761035044258972 1.1035279002245742e-06 0 -0.01085781684276675 3.5377633160362895e-05 0 -0.010761035044258972 1.1035279002245742e-06 0 -0.01085781684276675 3.5377633160362895e-05 0 -0.012604138097683655 -2.3196763262613062e-06 0 -0.01085781684276675 3.5377633160362895e-05 0 -0.0099281886946948165 5.8939205369819579e-05 0 -0.010193854678647406 -0.0008112007982602952 0 -0.0099850920660986796 0.00018298924032590573 0 -0.01085781684276675 3.5377633160362895e-05 0 -0.0099281886946948165 5.8939205369819579e-05 0 -0.012804670154756562 -0.00075309470131493033 0 -0.012607714238697641 -3.7507246864303712e-07 0 -0.015121535531354461 -0.00040592213730011704 0 -0.015399357890401843 -0.00090530916989283177 0 -0.012611569836421404 -3.134855319762591e-06 0 -0.01085781684276675 3.5377633160362895e-05 0 -0.010193854678647406 -0.0008112007982602952 0 -0.012604138097683655 -2.3196763262613062e-06 0 -0.0052176102612866591 -2.3075809198650608e-06 0 -0.0037232983827486317 -4.1275443724619894e-05 0 -0.003332068138971665 1.5720822716734157e-06 0 -0.0052176102612866591 -2.3075809198650608e-06 0 -0.0037232983827486317 -4.1275443724619894e-05 0 -0.0037095271725614766 -0.00098861463010041376 0 -0.0037232983827486317 -4.1275443724619894e-05 0 -0.0029204758164847432 -0.00053401243979357574 0 -0.0030612853162207826 8.3687881104684358e-05 0 -0.0037232983827486317 -4.1275443724619894e-05 0 -0.0037095271725614766 -0.00098861463010041376 0 -0.0029204758164847432 -0.00053401243979357574 0 -0.0037095271725614766 -0.00098861463010041376 0 -0.0030356942899296998 -0.0013380981989469635 0 -0.0029204758164847432 -0.00053401243979357574 0 -0.0056129902265584595 -0.00062411387244173911 0 -0.0063405264553480388 -0.00047224275083277995 0 -0.0076605686374853332 -0.00040926900551821943 0 -0.0072194154395324103 -7.6555849472704582e-05 0 -0.0079915178083632098 -9.9877115047650571e-05 0 -0.0052230043879898857 -1.6504927194627712e-06 0 -0.0076605686374853332 -0.00040926900551821943 0 -0.0072194154395324103 -7.6555849472704582e-05 0 -0.0052214437898485773 -6.1243390412678727e-08 0 -0.0056129902265584595 -0.00062411387244173911 0 -0.0052230043879898857 -1.6504927194627712e-06 0 -0.0070679305986898139 4.734597044734832e-07 0 -0.0072194154395324103 -7.6555849472704582e-05 0 -0.0070679305986898139 4.734597044734832e-07 0 -0.0072194154395324103 -7.6555849472704582e-05 0 -0.0080029790890937726 0.00012053574500183274 0 -0.0072194154395324103 -7.6555849472704582e-05 0 -0.0080029790890937726 0.00012053574500183274 0 -0.0079915178083632098 -9.9877115047650571e-05 0 -0.0089141438192560686 3.7301099122780117e-07 0 -0.0070679305986898139 4.734597044734832e-07 0 -0.0080029790890937726 0.00012053574500183274 0 -0.0089141438192560686 3.7301099122780117e-07 0 -0.0080029790890937726 0.00012053574500183274 0 -0.0087470647715995435 0.00021671887221604437 0 -0.0091679391776194573 0.000306830911667416 0 -0.0089147300758989807 0.00021816549378148804 0 -0.0087470647715995435 0.00021671887221604437 0 -0.0080029790890937726 0.00012053574500183274 0 -0.0087470647715995435 0.00021671887221604437 0 -0.0085378210325507912 9.0738817860422559e-05 0 -0.0089147300758989807 0.00021816549378148804 0 -0.0085378210325507912 9.0738817860422559e-05 0 -0.008963502053763386 7.2140472062545612e-05 0 -0.0089147300758989807 0.00021816549378148804 0 -0.0087470647715995435 0.00021671887221604437 0 -0.0085378210325507912 9.0738817860422559e-05 0 -0.0076605686374853332 -0.00040926900551821943 0 -0.0079915178083632098 -9.9877115047650571e-05 0 -0.0085804609531192812 -5.2469024567665734e-05 0 -0.0080029790890937726 0.00012053574500183274 0 -0.0085378210325507912 9.0738817860422559e-05 0 -0.0079915178083632098 -9.9877115047650571e-05 0 -0.0085378210325507912 9.0738817860422559e-05 0 -0.0079915178083632098 -9.9877115047650571e-05 0 -0.008923042651506603 -0.00014470219096057821 0 -0.0088063996311758836 -2.4676496897574481e-05 0 -0.0063405264553480388 -0.00047224275083277995 0 -0.0063405264553480388 -0.00047224275083277995 0 -0.007517828504735858 -0.00013023683031086766 0 -0.008923042651506603 -0.00014470219096057821 0 -0.008963502053763386 7.2140472062545612e-05 0 -0.0090773875649279943 8.4615026485057029e-05 0 -0.0085378210325507912 9.0738817860422559e-05 0 -0.008923042651506603 -0.00014470219096057821 0 -0.008963502053763386 7.2140472062545612e-05 0 -0.0089147300758989807 0.00021816549378148804 0 -0.008963502053763386 7.2140472062545612e-05 0 -0.0091530893760554104 0.00027290001620956252 0 -0.00937335627545113 0.00033822178601578429 0 -0.008963502053763386 7.2140472062545612e-05 0 -0.0091530893760554104 0.00027290001620956252 0 -0.0087522586143979984 -5.3281876122035794e-05 0 -0.0091800598728027615 0.00024929848518332164 0 -0.0091132000992913131 0.00024097429017134057 0 -0.008963502053763386 7.2140472062545612e-05 0 -0.0090773875649279943 8.4615026485057029e-05 0 -0.0091679391776194573 0.000306830911667416 0 -0.0089147300758989807 0.00021816549378148804 0 -0.0091530893760554104 0.00027290001620956252 0 -0.0047590910410052019 -0.0012514032624917387 0 -0.0055216569514045227 -0.00070250216055356505 0 -0.0045142808921665558 -0.00086554845195532283 0 -0.0091132000992913131 0.00024097429017134057 0 -0.0091521688564745515 0.00015526255195669845 0 -0.0090773875649279943 8.4615026485057029e-05 0 -0.0087522586143979984 -5.3281876122035794e-05 0 -0.0061179413572327764 -0.00050803678859330406 0 -0.0071728631268431989 -0.00070994753417618229 0 -0.0071532758228003918 -0.00069334833060286278 0 -0.0071439191782720858 -0.00070102929084325306 0 -0.0061179413572327764 -0.00050803678859330406 0 -0.007517828504735858 -0.00013023683031086766 0 -0.0062870352177897158 -0.00015151786133571276 0 -0.0055216569514045227 -0.00070250216055356505 0 -0.004574449513872648 -0.00040040121648677197 0 -0.0055216569514045227 -0.00070250216055356505 0 -0.004574449513872648 -0.00040040121648677197 0 -0.0045142808921665558 -0.00086554845195532283 0 -0.0030356942899296998 -0.0013380981989469635 0 -0.0025191920869658581 -0.00097440988314181692 0 -0.0020740937857411522 -0.0014208466746732243 0 -0.0063405264553480388 -0.00047224275083277995 0 -0.0023242296715609667 -0.0012394667037704215 0 -0.0017343109870444138 -0.001129927388062754 0 -0.0023242296715609667 -0.0012394667037704215 0 -0.0025191920869658581 -0.00097440988314181692 0 -0.0029204758164847432 -0.00053401243979357574 0 -0.0022468565376050696 -0.00047529707201437961 0 -0.0025191920869658581 -0.00097440988314181692 0 -0.0022468565376050696 -0.00047529707201437961 0 -0.0020740937857411522 -0.0014208466746732243 0 -0.0030356942899296998 -0.0013380981989469635 0 -0.0025191920869658581 -0.00097440988314181692 0 -0.0029204758164847432 -0.00053401243979357574 0 -0.0029204758164847432 -0.00053401243979357574 0 -0.0026110395280171728 -0.00014869179786912304 0 -0.0030612853162207826 8.3687881104684358e-05 0 -0.0029204758164847432 -0.00053401243979357574 0 -0.0022468565376050696 -0.00047529707201437961 0 -0.0026110395280171728 -0.00014869179786912304 0 -0.0014211666592287438 -0.0014496161724278959 0 -0.00059392697400972286 -0.0016258511541579266 0 -0.00092126745957520539 -0.00074900715011278515 0 -0.00015033003460862405 -0.0012176706375815922 0 -1.0985283937348995e-06 -0.00065784622073989784 0 -0.00059392697400972286 -0.0016258511541579266 0 1.8176946131617347e-05 -0.00066970071424492033 0 -0.00092126745957520539 -0.00074900715011278515 0 -0.0014211666592287438 -0.0014496161724278959 0 -0.0010989594183609852 -0.0019592563334591153 0 -0.0012748288950457415 -0.0023656607874246011 0 -0.0014211666592287438 -0.0014496161724278959 0 -0.00059392697400972286 -0.0016258511541579266 0 -0.0010989594183609852 -0.0019592563334591153 0 -0.00015033003460862405 -0.0012176706375815922 0 -0.0010394267724667704 -0.00098040742441754839 0 -0.00059392697400972286 -0.0016258511541579266 0 -0.0010989594183609852 -0.0019592563334591153 0 -0.0011045564369506437 -0.0023907527146480225 0 -0.0010394267724667704 -0.00098040742441754839 0 0.00021178091957239944 -0.00063029311850628842 0 -0.0010989594183609852 -0.0019592563334591153 0 -0.0012748288950457415 -0.0023656607874246011 0 -0.0011045564369506437 -0.0023907527146480225 0 -0.0003048779949379673 -0.0004811303635714482 0 -0.00026129656347452361 -0.00058694189192178968 0 -4.3760444131387145e-05 -0.00053622341767532364 0 -0.0023242296715609667 -0.0012394667037704215 0 -0.0031695451437164183 -0.00065067373985365159 0 -0.0023298735198557137 -0.0010692677272960611 0 -0.0024117480970232536 -0.0010564320234617967 0 -0.0023493275823517784 -0.00094665579941714535 0 -0.0023242296715609667 -0.0012394667037704215 0 -0.0010394267724667704 -0.00098040742441754839 0 -0.0010394267724667704 -0.00098040742441754839 0 -0.0031695451437164183 -0.00065067373985365159 0 -0.00037326879385717553 -0.00058731372747573829 0 -0.00026129656347452361 -0.00058694189192178968 0 -0.00035167553755098248 -0.0007369202269659409 0 -0.0061179413572327764 -0.00050803678859330406 0 -0.0031695451437164183 -0.00065067373985365159 0 -0.0003048779949379673 -0.0004811303635714482 0 -0.00037326879385717553 -0.00058731372747573829 0 -0.00026129656347452361 -0.00058694189192178968 0 -0.00016371601885552386 -0.00079421080910513895 0 -0.00019321421630854257 -0.00065682130601152963 0 -0.00035167553755098248 -0.0007369202269659409 0 -0.00026129656347452361 -0.00058694189192178968 0 -0.00019321421630854257 -0.00065682130601152963 0 -0.00035167553755098248 -0.0007369202269659409 0 -0.0031695451437164183 -0.00065067373985365159 0 -0.0045084865458813999 -0.0011243221643757225 0 -0.004295526456909715 -0.0006866278722468006 0 -0.0042747042098962252 -0.00065934469975204816 0 -0.0042719513418673916 -0.00070398607019070034 0 -0.0061179413572327764 -0.00050803678859330406 0 -0.0045084865458813999 -0.0011243221643757225 0 -4.831610683538001e-05 -0.00076878111535763117 0 3.4160772001748761e-05 -0.00070107215885829356 0 -8.1380896155360636e-05 -0.00069636787491358118 0 -0.00016371601885552386 -0.00079421080910513895 0 -4.831610683538001e-05 -0.00076878111535763117 0 -8.1380896155360636e-05 -0.00069636787491358118 0 -0.00016371601885552386 -0.00079421080910513895 0 -0.00019321421630854257 -0.00065682130601152963 0 -8.1380896155360636e-05 -0.00069636787491358118 0 -0.00026129656347452361 -0.00058694189192178968 0 -0.00019321421630854257 -0.00065682130601152963 0 -4.3760444131387145e-05 -0.00053622341767532364 0 -0.00019321421630854257 -0.00065682130601152963 0 -8.1380896155360636e-05 -0.00069636787491358118 0 -4.3760444131387145e-05 -0.00053622341767532364 0 3.4160772001748761e-05 -0.00070107215885829356 0 -8.1380896155360636e-05 -0.00069636787491358118 0 -4.3760444131387145e-05 -0.00053622341767532364 0 0.00015150561571231245 -0.00064401188902174576 0 0.00013434514623209212 -0.00067190253019475501 0 0.00016850283593774457 -0.00067045036872534719 0 0.00015150561571231245 -0.00064401188902174576 0 0.00016850283593774457 -0.00067045036872534719 0 0.00019094076996693381 -0.00065469838431024129 0 0.00021178091957239944 -0.00063029311850628842 0 0.0001211127436568303 -0.00062647229248462592 0 0.00016850283593774457 -0.00067045036872534719 0 0.00019094076996693381 -0.00065469838431024129 0 0.00019467830731499693 -0.00064473801236462165 0 0.00019094076996693381 -0.00065469838431024129 0 0.00019467830731499693 -0.00064473801236462165 0 0.0002317130189981911 -0.00064892253070557705 0 3.4160772001748761e-05 -0.00070107215885829356 0 -4.3760444131387145e-05 -0.00053622341767532364 0 0.00019467830731499693 -0.00064473801236462165 0 0.00019467830731499693 -0.00064473801236462165 0 0.00016055780348986891 -0.00072407508441227569 0 0.00027664133986423761 -0.00071027375596136488 0 3.4160772001748761e-05 -0.00070107215885829356 0 0.00019467830731499693 -0.00064473801236462165 0 0.00016055780348986891 -0.00072407508441227569 0 6.317302273188884e-05 -0.00078846457256834376 0 3.4160772001748761e-05 -0.00070107215885829356 0 0.00016055780348986891 -0.00072407508441227569 0 0.00027664133986423761 -0.00071027375596136488 0 0.0003103429675884375 -0.00065268713674291223 0 0.00043981393933811586 -0.00066086140279757253 0 0.00019467830731499693 -0.00064473801236462165 0 0.00027664133986423761 -0.00071027375596136488 0 0.0003103429675884375 -0.00065268713674291223 0 0.00019467830731499693 -0.00064473801236462165 0 0.0003103429675884375 -0.00065268713674291223 0 0.0002317130189981911 -0.00064892253070557705 0 0.0003103429675884375 -0.00065268713674291223 0 0.0002317130189981911 -0.00064892253070557705 0 0.00041065195264006037 -0.00063001943464125701 0 0.00015150561571231245 -0.00064401188902174576 0 0.00019094076996693381 -0.00065469838431024129 0 0.0002317130189981911 -0.00064892253070557705 0 0.00015150561571231245 -0.00064401188902174576 0 0.0002317130189981911 -0.00064892253070557705 0 1.8176946131617347e-05 -0.00066970071424492033 0 0.0002317130189981911 -0.00064892253070557705 0 0.0003047158478635296 -0.0005822241762868638 0 0.00044771529381851835 -0.00059311992669221041 0 0.0002317130189981911 -0.00064892253070557705 0 0.0003047158478635296 -0.0005822241762868638 0 1.8176946131617347e-05 -0.00066970071424492033 0 0.0003047158478635296 -0.0005822241762868638 0 1.8176946131617347e-05 -0.00066970071424492033 0 0.00023450885361312018 -0.00020877820086628784 0 1.8176946131617347e-05 -0.00066970071424492033 0 0.00023450885361312018 -0.00020877820086628784 0 -0.00049621053323549446 -0.00022015381268567335 0 0.0003047158478635296 -0.0005822241762868638 0 0.00023450885361312018 -0.00020877820086628784 0 0.00060295492476900123 -0.00043542015643718238 0 0.00023450885361312018 -0.00020877820086628784 0 0.00032306910299359639 0.00040339801086689941 0 0.00073214208489343654 -0.00011448525898313546 0 0.00023450885361312018 -0.00020877820086628784 0 0.00032306910299359639 0.00040339801086689941 0 -0.00047020883814851355 0.00057574504824107 0 0.0015048286626865755 0.00041908664997582039 0 0.0017359142099312302 0.00040375424104424374 0 0.00023450885361312018 -0.00020877820086628784 0 -0.00047020883814851355 0.00057574504824107 0 -0.00049621053323549446 -0.00022015381268567335 0 -0.00047020883814851355 0.00057574504824107 0 -0.0014153032446453699 -3.6612440494717939e-05 0 -0.00049621053323549446 -0.00022015381268567335 0 0.0040933300054630112 -0.00013016530147294555 0 0.0040545100049800987 0.00028022052919781201 0 0.0039315526505873909 -0.00059398658989996288 0 0.0017359142099312302 0.00040375424104424374 0 0.0010249769124907667 -4.6884331832599092e-06 0 -0.00047020883814851355 0.00057574504824107 0 -0.0014153032446453699 -3.6612440494717939e-05 0 -0.0017873814510583081 0.00060312605281526773 0 -0.0014153032446453699 -3.6612440494717939e-05 0 -0.00092126745957520539 -0.00074900715011278515 0 -0.0016158279358169908 -0.00053592011319621841 0 -0.0014153032446453699 -3.6612440494717939e-05 0 -0.00049621053323549446 -0.00022015381268567335 0 -0.00092126745957520539 -0.00074900715011278515 0 1.8176946131617347e-05 -0.00066970071424492033 0 -0.00049621053323549446 -0.00022015381268567335 0 -0.00092126745957520539 -0.00074900715011278515 0 -0.0014211666592287438 -0.0014496161724278959 0 -0.00092126745957520539 -0.00074900715011278515 0 -0.0016158279358169908 -0.00053592011319621841 0 -0.0022468565376050696 -0.00047529707201437961 0 -0.0026110395280171728 -0.00014869179786912304 0 -0.0023888194076465753 7.6700288254415774e-05 0 -0.0017343109870444138 -0.001129927388062754 0 -0.0020126764509210771 -0.00016963544406497911 0 -0.0026110395280171728 -0.00014869179786912304 0 -0.0025872024180309382 0.00020079208651493466 0 -0.0023888194076465753 7.6700288254415774e-05 0 -0.0026110395280171728 -0.00014869179786912304 0 -0.0025872024180309382 0.00020079208651493466 0 -0.0030612853162207826 8.3687881104684358e-05 0 -0.0025872024180309382 0.00020079208651493466 0 -0.0023888194076465753 7.6700288254415774e-05 0 -0.0020502549346204288 0.00042388417185347668 0 -0.0020126764509210771 -0.00016963544406497911 0 -0.002054103876656152 0.00041115498545977753 0 -0.0014153032446453699 -3.6612440494717939e-05 0 -0.0020502549346204288 0.00042388417185347668 0 -0.0017873814510583081 0.00060312605281526773 0 -0.0014153032446453699 -3.6612440494717939e-05 0 -0.0016158279358169908 -0.00053592011319621841 0 -0.0020502549346204288 0.00042388417185347668 0 0.0039315526505873909 -0.00059398658989996288 0 0.0037037891553820803 -0.00028381109421668976 0 0.0031124594445702826 -0.00031999139311521117 0 0.0040933300054630112 -0.00013016530147294555 0 0.0039315526505873909 -0.00059398658989996288 0 0.0037037891553820803 -0.00028381109421668976 0 0.0010249769124907667 -4.6884331832599092e-06 0 -0.00020802947733966525 -0.00037581341563281133 0 0.0039315526505873909 -0.00059398658989996288 0 0.0031124594445702826 -0.00031999139311521117 0 0.0021863578189691198 -0.00107786508842571 0 -0.0020502549346204288 0.00042388417185347668 0 -0.0017873814510583081 0.00060312605281526773 0 -0.0027387576524967434 0.00017652716998603789 0 -0.0025872024180309382 0.00020079208651493466 0 -0.0020502549346204288 0.00042388417185347668 0 -0.0027387576524967434 0.00017652716998603789 0 -0.0027387576524967434 0.00017652716998603789 0 -0.001446826087888355 -7.9716748553332579e-07 0 -0.0027145209293516727 0.0002621103489344089 0 -0.0025872024180309382 0.00020079208651493466 0 -0.0027387576524967434 0.00017652716998603789 0 -0.0027145209293516727 0.0002621103489344089 0 0.0018872354410831393 -9.3254193641211605e-06 0 0.0021863578189691198 -0.00107786508842571 0 -0.0014396734416136628 -3.5293589379125078e-06 0 0.0018872354410831393 -9.3254193641211605e-06 0 0.0031124594445702826 -0.00031999139311521117 0 0.0021863578189691198 -0.00107786508842571 0 0.00057050813648582476 1.1523822739763443e-06 0 0.0018872354410831393 -9.3254193641211605e-06 0 -0.0014396734416136628 -3.5293589379125078e-06 0 -0.00020802947733966525 -0.00037581341563281133 0 -0.0014431494543528614 -1.7382355635496029e-07 0 -0.0027145209293516727 0.0002621103489344089 0 -0.0030612853162207826 8.3687881104684358e-05 0 -0.003332068138971665 1.5720822716734157e-06 0 -0.001446826087888355 -7.9716748553332579e-07 0 -0.0027145209293516727 0.0002621103489344089 0 -0.003332068138971665 1.5720822716734157e-06 0 -0.0025872024180309382 0.00020079208651493466 0 -0.0027145209293516727 0.0002621103489344089 0 -0.0030612853162207826 8.3687881104684358e-05 0 -0.0037232983827486317 -4.1275443724619894e-05 0 -0.0030612853162207826 8.3687881104684358e-05 0 -0.003332068138971665 1.5720822716734157e-06 0 0.00067907152130540331 -0.00056467281653039831 0 0.00049113991658791139 -0.0005205366341146662 0 0.00057175714370191917 -0.0005426054564320053 0 0.00068956947347519721 -0.00055690034357535343 0 0.00067907152130540331 -0.00056467281653039831 0 0.00057175714370191917 -0.0005426054564320053 0 0.00068956947347519721 -0.00055690034357535343 0 0.00067907152130540331 -0.00056467281653039831 0 0.00081508719870525986 -0.00052490212027809006 0 0.00068956947347519721 -0.00055690034357535343 0 0.00077066690269033745 -0.00051428890034637309 0 0.00081508719870525986 -0.00052490212027809006 0 0.00067907152130540331 -0.00056467281653039831 0 0.00081508719870525986 -0.00052490212027809006 0 0.00081390072313315611 -0.00055081166398335496 0 0.00067907152130540331 -0.00056467281653039831 0 0.00066979224598626456 -0.0005979209019745989 0 0.00081390072313315611 -0.00055081166398335496 0 0.00066979224598626456 -0.0005979209019745989 0 0.00086821837910308175 -0.00054047379273335788 0 0.00081390072313315611 -0.00055081166398335496 0 0.00066979224598626456 -0.0005979209019745989 0 0.00086821837910308175 -0.00054047379273335788 0 0.00085904427444470253 -0.00050796461696238858 0 0.00062040077384784053 -0.00058832212013070037 0 0.00040941507567982639 -0.00053990990434103347 0 0.00066979224598626456 -0.0005979209019745989 0 0.00032994984827534055 -0.00050618787250948974 0 4.6446748760961161e-05 -0.00071411194596420499 0 0.00066979224598626456 -0.0005979209019745989 0 0.00032994984827534055 -0.00050618787250948974 0 0.00049113991658791139 -0.0005205366341146662 0 0.00067907152130540331 -0.00056467281653039831 0 0.00066979224598626456 -0.0005979209019745989 0 0.00049113991658791139 -0.0005205366341146662 0 0.00032994984827534055 -0.00050618787250948974 0 0.00026355124273696963 -0.00034148244609175104 0 0.00049113991658791139 -0.0005205366341146662 0 0.00032994984827534055 -0.00050618787250948974 0 4.8663531901418436e-05 -0.00033446969728249867 0 4.6446748760961161e-05 -0.00071411194596420499 0 6.9169367627795869e-05 -0.00014580968659352108 0 4.8663531901418436e-05 -0.00033446969728249867 0 0.00026355124273696963 -0.00034148244609175104 0 0.00032994984827534055 -0.00050618787250948974 0 4.8663531901418436e-05 -0.00033446969728249867 0 0.00026355124273696963 -0.00034148244609175104 0 0.00026355124273696963 -0.00034148244609175104 0 0.00040864577362919837 -0.00043365928298975205 0 0.00049113991658791139 -0.0005205366341146662 0 0.00018088485095184333 -0.00022051400964981881 0 0.00026355124273696963 -0.00034148244609175104 0 0.00040864577362919837 -0.00043365928298975205 0 0.00040864577362919837 -0.00043365928298975205 0 0.00049113991658791139 -0.0005205366341146662 0 0.00057175714370191917 -0.0005426054564320053 0 0.00040864577362919837 -0.00043365928298975205 0 0.00057175714370191917 -0.0005426054564320053 0 0.00050812314103963426 -0.00051892865371047441 0 0.00037931070874515328 -0.00037230797936438055 0 0.00040864577362919837 -0.00043365928298975205 0 0.00050812314103963426 -0.00051892865371047441 0 0.0005263629431094916 -0.00059202783591546387 0 0.00050812314103963426 -0.00051892865371047441 0 0.00053348997229655821 -0.00059008961075530323 0 0.00053348997229655821 -0.00059008961075530323 0 0.00059205976911637522 -0.00057386787349681995 0 0.00051464275639302043 -0.00061225426641594769 0 0.00050812314103963426 -0.00051892865371047441 0 0.00053348997229655821 -0.00059008961075530323 0 0.00059205976911637522 -0.00057386787349681995 0 0.00057175714370191917 -0.0005426054564320053 0 0.00050812314103963426 -0.00051892865371047441 0 0.00059205976911637522 -0.00057386787349681995 0 0.0005263629431094916 -0.00059202783591546387 0 0.00053348997229655821 -0.00059008961075530323 0 0.00043981393933811586 -0.00066086140279757253 0 0.00053348997229655821 -0.00059008961075530323 0 0.00043981393933811586 -0.00066086140279757253 0 0.00051464275639302043 -0.00061225426641594769 0 0.00043981393933811586 -0.00066086140279757253 0 0.00051464275639302043 -0.00061225426641594769 0 0.00041065195264006037 -0.00063001943464125701 0 0.0003103429675884375 -0.00065268713674291223 0 0.00043981393933811586 -0.00066086140279757253 0 0.00041065195264006037 -0.00063001943464125701 0 0.00041065195264006037 -0.00063001943464125701 0 0.00053281434311681854 -0.00059341508168389318 0 0.00044771529381851835 -0.00059311992669221041 0 0.0002317130189981911 -0.00064892253070557705 0 0.00041065195264006037 -0.00063001943464125701 0 0.00044771529381851835 -0.00059311992669221041 0 0.00051464275639302043 -0.00061225426641594769 0 0.00053281434311681854 -0.00059341508168389318 0 0.00064090436037299672 -0.00056700706021519732 0 0.00051464275639302043 -0.00061225426641594769 0 0.00041065195264006037 -0.00063001943464125701 0 0.00053281434311681854 -0.00059341508168389318 0 0.00053281434311681854 -0.00059341508168389318 0 0.00044771529381851835 -0.00059311992669221041 0 0.00064477594914821965 -0.00051604547732529531 0 0.00053281434311681854 -0.00059341508168389318 0 0.00064090436037299672 -0.00056700706021519732 0 0.00064477594914821965 -0.00051604547732529531 0 0.00068956947347519721 -0.00055690034357535343 0 0.00059205976911637522 -0.00057386787349681995 0 0.00064090436037299672 -0.00056700706021519732 0 0.00068956947347519721 -0.00055690034357535343 0 0.00057175714370191917 -0.0005426054564320053 0 0.00059205976911637522 -0.00057386787349681995 0 0.00059205976911637522 -0.00057386787349681995 0 0.00051464275639302043 -0.00061225426641594769 0 0.00064090436037299672 -0.00056700706021519732 0 0.00064090436037299672 -0.00056700706021519732 0 0.0007857600121177257 -0.00046286686097901083 0 0.00064477594914821965 -0.00051604547732529531 0 0.00064090436037299672 -0.00056700706021519732 0 0.00077066690269033745 -0.00051428890034637309 0 0.0007857600121177257 -0.00046286686097901083 0 0.00068956947347519721 -0.00055690034357535343 0 0.00064090436037299672 -0.00056700706021519732 0 0.00077066690269033745 -0.00051428890034637309 0 0.00077066690269033745 -0.00051428890034637309 0 0.0007857600121177257 -0.00046286686097901083 0 0.00089691735364601981 -0.00044132700642185836 0 0.0007857600121177257 -0.00046286686097901083 0 0.00064477594914821965 -0.00051604547732529531 0 0.00081300063322007558 -0.00032420271008270699 0 0.0007857600121177257 -0.00046286686097901083 0 0.00089872821622227793 -0.00034635935086726305 0 0.00081300063322007558 -0.00032420271008270699 0 0.0007857600121177257 -0.00046286686097901083 0 0.00089872821622227793 -0.00034635935086726305 0 0.00089691735364601981 -0.00044132700642185836 0 0.00089872821622227793 -0.00034635935086726305 0 0.00089691735364601981 -0.00044132700642185836 0 0.0009837592442759203 -0.00031154593621093136 0 0.0003047158478635296 -0.0005822241762868638 0 0.00044771529381851835 -0.00059311992669221041 0 0.00060295492476900123 -0.00043542015643718238 0 0.00044771529381851835 -0.00059311992669221041 0 0.00060295492476900123 -0.00043542015643718238 0 0.00064477594914821965 -0.00051604547732529531 0 0.00060295492476900123 -0.00043542015643718238 0 0.00064477594914821965 -0.00051604547732529531 0 0.00081300063322007558 -0.00032420271008270699 0 0.00060295492476900123 -0.00043542015643718238 0 0.00081300063322007558 -0.00032420271008270699 0 0.00073214208489343654 -0.00011448525898313546 0 0.00023450885361312018 -0.00020877820086628784 0 0.00060295492476900123 -0.00043542015643718238 0 0.00073214208489343654 -0.00011448525898313546 0 0.00081300063322007558 -0.00032420271008270699 0 0.00073214208489343654 -0.00011448525898313546 0 0.00097785020530062909 -0.00012989133192576181 0 0.0010741227676898889 0.00017283014504184416 0 0.00073214208489343654 -0.00011448525898313546 0 0.00097785020530062909 -0.00012989133192576181 0 0.001050776288739835 -5.2824248265985902e-05 0 0.0010741227676898889 0.00017283014504184416 0 0.00097785020530062909 -0.00012989133192576181 0 0.0010741227676898889 0.00017283014504184416 0 0.00032306910299359639 0.00040339801086689941 0 0.00073214208489343654 -0.00011448525898313546 0 0.0010829044406796397 0.00021055740242051 0 0.0015048286626865755 0.00041908664997582039 0 0.00089691735364601981 -0.00044132700642185836 0 0.0009837592442759203 -0.00031154593621093136 0 0.00099499037187717474 -0.0004433965194945435 0 0.00089872821622227793 -0.00034635935086726305 0 0.00081300063322007558 -0.00032420271008270699 0 0.00097785020530062909 -0.00012989133192576181 0 0.00089872821622227793 -0.00034635935086726305 0 0.0009837592442759203 -0.00031154593621093136 0 0.00097785020530062909 -0.00012989133192576181 0 0.0010654966084800298 -8.5222475338402487e-05 0 0.001050776288739835 -5.2824248265985902e-05 0 0.00097785020530062909 -0.00012989133192576181 0 0.0010359002373738538 -0.0005148730907364676 0 0.0010238045781969533 -8.3266938082962928e-06 0 0.0010213167503906068 -0.00014894115832202504 0 0.0009837592442759203 -0.00031154593621093136 0 0.00097785020530062909 -0.00012989133192576181 0 0.0010396532645427774 -0.0004280868136035116 0 0.0009837592442759203 -0.00031154593621093136 0 0.001027679675149289 -0.00041452628083661988 0 0.0010359002373738538 -0.0005148730907364676 0 0.00099554074281415963 -0.00022064476623748067 0 0.0010865834861993333 -0.0004291639164633903 0 0.0010396532645427774 -0.0004280868136035116 0 0.001027679675149289 -0.00041452628083661988 0 0.001027679675149289 -0.00041452628083661988 0 0.0010999084118256579 -0.00045978472097777615 0 0.00099499037187717474 -0.0004433965194945435 0 0.0010865834861993333 -0.0004291639164633903 0 0.001027679675149289 -0.00041452628083661988 0 0.0010999084118256579 -0.00045978472097777615 0 0.0012193965553714439 -0.00043382511962201036 0 0.0010999084118256579 -0.00045978472097777615 0 0.0012410076253972964 -0.00048236123340343574 0 0.0010999084118256579 -0.00045978472097777615 0 0.0011156000759768964 -0.00051136830501153957 0 0.0012410076253972964 -0.00048236123340343574 0 0.00099499037187717474 -0.0004433965194945435 0 0.00094603347892074636 -0.00050908731392368433 0 0.0011156000759768964 -0.00051136830501153957 0 0.0010999084118256579 -0.00045978472097777615 0 0.00099499037187717474 -0.0004433965194945435 0 0.0011156000759768964 -0.00051136830501153957 0 0.0009837592442759203 -0.00031154593621093136 0 0.001027679675149289 -0.00041452628083661988 0 0.00099499037187717474 -0.0004433965194945435 0 0.00089691735364601981 -0.00044132700642185836 0 0.00094603347892074636 -0.00050908731392368433 0 0.00081508719870525986 -0.00052490212027809006 0 0.00089691735364601981 -0.00044132700642185836 0 0.00099499037187717474 -0.0004433965194945435 0 0.00094603347892074636 -0.00050908731392368433 0 0.00094603347892074636 -0.00050908731392368433 0 0.00081508719870525986 -0.00052490212027809006 0 0.00081390072313315611 -0.00055081166398335496 0 0.00077066690269033745 -0.00051428890034637309 0 0.00089691735364601981 -0.00044132700642185836 0 0.00081508719870525986 -0.00052490212027809006 0 0.00086821837910308175 -0.00054047379273335788 0 0.00094204031228284683 -0.0005393238944475144 0 0.0010431839714918798 -0.00055732184131846211 0 0.00094603347892074636 -0.00050908731392368433 0 0.00081390072313315611 -0.00055081166398335496 0 0.00094204031228284683 -0.0005393238944475144 0 0.00086821837910308175 -0.00054047379273335788 0 0.00081390072313315611 -0.00055081166398335496 0 0.00094204031228284683 -0.0005393238944475144 0 0.00094603347892074636 -0.00050908731392368433 0 0.0010609585029249383 -0.00053741802159670263 0 0.0011156000759768964 -0.00051136830501153957 0 0.00094603347892074636 -0.00050908731392368433 0 0.00094204031228284683 -0.0005393238944475144 0 0.0010609585029249383 -0.00053741802159670263 0 0.0010609585029249383 -0.00053741802159670263 0 0.0011804539902975785 -0.00055109383352362296 0 0.0010431839714918798 -0.00055732184131846211 0 0.00094204031228284683 -0.0005393238944475144 0 0.0010609585029249383 -0.00053741802159670263 0 0.0010431839714918798 -0.00055732184131846211 0 0.0011804539902975785 -0.00055109383352362296 0 0.0013829700188183072 -0.00052824078042999041 0 0.0012444079898867135 -0.00058037040902294071 0 0.0010609585029249383 -0.00053741802159670263 0 0.0011804539902975785 -0.00055109383352362296 0 0.0011156000759768964 -0.00051136830501153957 0 0.0011156000759768964 -0.00051136830501153957 0 0.0012410076253972964 -0.00048236123340343574 0 0.0013829700188183072 -0.00052824078042999041 0 0.0011804539902975785 -0.00055109383352362296 0 0.0011156000759768964 -0.00051136830501153957 0 0.0013829700188183072 -0.00052824078042999041 0 0.0013829700188183072 -0.00052824078042999041 0 0.0014517426913574177 -0.00057701836294069182 0 0.0012444079898867135 -0.00058037040902294071 0 0.0014517426913574177 -0.00057701836294069182 0 0.0011236364930289075 -0.00059713157093409176 0 0.0013508176041713267 -0.00060960605773206604 0 0.0014517426913574177 -0.00057701836294069182 0 0.0011236364930289075 -0.00059713157093409176 0 0.0012444079898867135 -0.00058037040902294071 0 0.0011804539902975785 -0.00055109383352362296 0 0.0012444079898867135 -0.00058037040902294071 0 0.0010431839714918798 -0.00055732184131846211 0 0.0011236364930289075 -0.00059713157093409176 0 0.0012444079898867135 -0.00058037040902294071 0 0.0010431839714918798 -0.00055732184131846211 0 0.0016058392673704456 -0.00058545941215052831 0 0.0011466599975603026 -0.00062353115503284027 0 0.0013508176041713267 -0.00060960605773206604 0 0.0011466599975603026 -0.00062353115503284027 0 0.0013508176041713267 -0.00060960605773206604 0 0.00099080873152278823 -0.00062746154242505252 0 0.0011236364930289075 -0.00059713157093409176 0 0.00099080873152278823 -0.00062746154242505252 0 0.00086841343015815167 -0.00058725102645018764 0 0.0011236364930289075 -0.00059713157093409176 0 0.0013508176041713267 -0.00060960605773206604 0 0.00099080873152278823 -0.00062746154242505252 0 0.00099080873152278823 -0.00062746154242505252 0 0.00059614006566324415 -0.00058418021392131784 0 0.00079933084004621055 -0.00067422496793928576 0 0.0011466599975603026 -0.00062353115503284027 0 0.00099080873152278823 -0.00062746154242505252 0 0.00079933084004621055 -0.00067422496793928576 0 0.00059614006566324415 -0.00058418021392131784 0 0.00086841343015815167 -0.00058725102645018764 0 0.00059385446184059333 -0.00051501745555035839 0 0.00099080873152278823 -0.00062746154242505252 0 0.00059614006566324415 -0.00058418021392131784 0 0.00086841343015815167 -0.00058725102645018764 0 0.00086841343015815167 -0.00058725102645018764 0 0.00059385446184059333 -0.00051501745555035839 0 0.00090436339835687878 -0.0005624664398992291 0 0.00059385446184059333 -0.00051501745555035839 0 0.00090436339835687878 -0.0005624664398992291 0 0.00055083886625771226 -0.00041669541152005346 0 0.00059385446184059333 -0.00051501745555035839 0 0.00026287175775751567 -0.00041436152899881299 0 0.00022319787806250417 -0.00044830831908175523 0 0.00059614006566324415 -0.00058418021392131784 0 0.00059385446184059333 -0.00051501745555035839 0 0.00022319787806250417 -0.00044830831908175523 0 0.0011236364930289075 -0.00059713157093409176 0 0.00086841343015815167 -0.00058725102645018764 0 0.00090436339835687878 -0.0005624664398992291 0 0.0011236364930289075 -0.00059713157093409176 0 0.0010431839714918798 -0.00055732184131846211 0 0.00090436339835687878 -0.0005624664398992291 0 0.0010431839714918798 -0.00055732184131846211 0 0.00090436339835687878 -0.0005624664398992291 0 0.00085904427444470253 -0.00050796461696238858 0 0.00086821837910308175 -0.00054047379273335788 0 0.0010431839714918798 -0.00055732184131846211 0 0.00085904427444470253 -0.00050796461696238858 0 0.00066979224598626456 -0.0005979209019745989 0 0.00085904427444470253 -0.00050796461696238858 0 0.00081904932166670334 -0.00039603870142408031 0 0.00081904932166670334 -0.00039603870142408031 0 0.00055083886625771226 -0.00041669541152005346 0 0.0005295206315790998 -9.6745726122749273e-05 0 0.00090436339835687878 -0.0005624664398992291 0 0.00085904427444470253 -0.00050796461696238858 0 0.00055083886625771226 -0.00041669541152005346 0 0.00085904427444470253 -0.00050796461696238858 0 0.00081904932166670334 -0.00039603870142408031 0 0.00055083886625771226 -0.00041669541152005346 0 0.00055083886625771226 -0.00041669541152005346 0 0.00026287175775751567 -0.00041436152899881299 0 2.3047213784869918e-05 -0.00029549190077957533 0 0.00059385446184059333 -0.00051501745555035839 0 0.00055083886625771226 -0.00041669541152005346 0 0.00026287175775751567 -0.00041436152899881299 0 0.00026287175775751567 -0.00041436152899881299 0 -9.1092676842338986e-05 -0.00032878867247650644 0 0.00022319787806250417 -0.00044830831908175523 0 0.00026287175775751567 -0.00041436152899881299 0 2.3047213784869918e-05 -0.00029549190077957533 0 -9.1092676842338986e-05 -0.00032878867247650644 0 2.3047213784869918e-05 -0.00029549190077957533 0 -0.00034068326540483861 -0.00013977040252508848 0 -0.00042111671386499958 -0.00020939115518508791 0 0.00055083886625771226 -0.00041669541152005346 0 0.00013004937037929798 -0.00015001779606595031 0 0.0005295206315790998 -9.6745726122749273e-05 0 0.00055083886625771226 -0.00041669541152005346 0 2.3047213784869918e-05 -0.00029549190077957533 0 0.00013004937037929798 -0.00015001779606595031 0 0.00013004937037929798 -0.00015001779606595031 0 -0.00013259341762036296 0.00019590238138595932 0 0.0005295206315790998 -9.6745726122749273e-05 0 -0.00084346732610737253 -8.0367768366116133e-05 0 -4.1985911302085956e-05 -0.0003780962452192934 0 0.00013004937037929798 -0.00015001779606595031 0 -0.00034068326540483861 -0.00013977040252508848 0 -0.00013259341762036296 0.00019590238138595932 0 2.3047213784869918e-05 -0.00029549190077957533 0 0.00013004937037929798 -0.00015001779606595031 0 -0.00034068326540483861 -0.00013977040252508848 0 -0.00034068326540483861 -0.00013977040252508848 0 -0.00013259341762036296 0.00019590238138595932 0 -0.00078855488109417929 -2.3631457642710489e-05 0 -0.00084346732610737253 -8.0367768366116133e-05 0 -0.0013592056454173856 -2.0860783822268501e-05 0 -0.00013259341762036296 0.00019590238138595932 0 -0.00078855488109417929 -2.3631457642710489e-05 0 -0.0014728178597303689 -2.6051651893462207e-05 0 -0.0015911427026793748 -0.00028328908238874978 0 -0.0016532497946319543 -0.0001431068018570701 0 -0.0014728178597303689 -2.6051651893462207e-05 0 -0.0015911427026793748 -0.00028328908238874978 0 -0.0016532497946319543 -0.0001431068018570701 0 -0.0013627048022127844 -0.00014431658873417428 0 -0.0015911427026793748 -0.00028328908238874978 0 -0.00088489227390652894 -0.00026232371235186241 0 -0.00055913616299173275 -0.0006876751114239688 0 -0.0015911427026793748 -0.00028328908238874978 0 -0.00088489227390652894 -0.00026232371235186241 0 -0.0013627048022127844 -0.00014431658873417428 0 -0.00088489227390652894 -0.00026232371235186241 0 -0.0013627048022127844 -0.00014431658873417428 0 -0.0011453847639431467 4.280977420458305e-06 0 -0.0016532497946319543 -0.0001431068018570701 0 -0.0013627048022127844 -0.00014431658873417428 0 -0.0011453847639431467 4.280977420458305e-06 0 -0.00088489227390652894 -0.00026232371235186241 0 -0.0011453847639431467 4.280977420458305e-06 0 -0.00052602465434566678 -9.8672206145099952e-05 0 -0.00088489227390652894 -0.00026232371235186241 0 -0.00028204618870672352 -0.0003850174286879987 0 -0.00055913616299173275 -0.0006876751114239688 0 -0.00028204618870672352 -0.0003850174286879987 0 -0.00052602465434566678 -9.8672206145099952e-05 0 -0.00019035342784002199 -0.00012696957318480374 0 -0.00088489227390652894 -0.00026232371235186241 0 -0.00028204618870672352 -0.0003850174286879987 0 -0.00052602465434566678 -9.8672206145099952e-05 0 4.8663531901418436e-05 -0.00033446969728249867 0 -0.00028204618870672352 -0.0003850174286879987 0 -0.00019035342784002199 -0.00012696957318480374 0 4.8663531901418436e-05 -0.00033446969728249867 0 4.6446748760961161e-05 -0.00071411194596420499 0 -0.00028204618870672352 -0.0003850174286879987 0 0.00040941507567982639 -0.00053990990434103347 0 -4.1985911302085956e-05 -0.0003780962452192934 0 4.6446748760961161e-05 -0.00071411194596420499 0 -0.00028204618870672352 -0.0003850174286879987 0 -0.00055913616299173275 -0.0006876751114239688 0 -0.00092773030696796665 -7.4670294521496535e-05 0 -0.00092867983244257219 -6.7099166396550282e-05 0 -0.0012257587445237252 -0.00011819407828647625 0 -0.00092773030696796665 -7.4670294521496535e-05 0 -0.0012257587445237252 -0.00011819407828647625 0 -0.0012059407859743962 -9.584503687033422e-05 0 -0.00092773030696796665 -7.4670294521496535e-05 0 -0.00092867983244257219 -6.7099166396550282e-05 0 -0.00083236937543270241 -6.250168705662259e-05 0 -0.00099914333417560003 -0.00021202792582929815 0 -0.00080661162018120158 -8.7604801793278808e-05 0 -0.00085066300865788093 -6.7470200917762329e-05 0 -0.00092867983244257219 -6.7099166396550282e-05 0 -0.00099914333417560003 -0.00021202792582929815 0 -0.00085066300865788093 -6.7470200917762329e-05 0 -0.00084792084304228783 -5.3288715705121337e-05 0 -0.00092867983244257219 -6.7099166396550282e-05 0 -0.00083236937543270241 -6.250168705662259e-05 0 -0.00084792084304228783 -5.3288715705121337e-05 0 -0.00092867983244257219 -6.7099166396550282e-05 0 -0.00085066300865788093 -6.7470200917762329e-05 0 -0.0026184944219234162 -0.0011020352259679535 0 -0.0031506958023960847 -0.0015831614867407515 0 -0.0031480908501224703 -0.0011910737574837293 0 -0.0026184944219234162 -0.0011020352259679535 0 -0.0031480908501224703 -0.0011910737574837293 0 -0.0031192798198877657 -0.00086698358398147406 0 -0.0017929472033373615 -0.00060494195308183167 0 -0.0021377172320295786 -0.00090704220052235029 0 -0.00099914333417560003 -0.00021202792582929815 0 -0.0012257587445237252 -0.00011819407828647625 0 -0.0018690770820948169 -0.00038216359727031516 0 -0.00092867983244257219 -6.7099166396550282e-05 0 -0.00099914333417560003 -0.00021202792582929815 0 -0.0012257587445237252 -0.00011819407828647625 0 -0.0012257587445237252 -0.00011819407828647625 0 -0.0012059407859743962 -9.584503687033422e-05 0 -0.0015930349934977829 -0.00020463620005027762 0 -0.0012059407859743962 -9.584503687033422e-05 0 -0.0011178622096264159 -5.2455539437968346e-05 0 -0.0015930349934977829 -0.00020463620005027762 0 -0.0011178622096264159 -5.2455539437968346e-05 0 -0.0014728178597303689 -2.6051651893462207e-05 0 -0.0015930349934977829 -0.00020463620005027762 0 -0.0011178622096264159 -5.2455539437968346e-05 0 -0.00078855488109417929 -2.3631457642710489e-05 0 -0.0014728178597303689 -2.6051651893462207e-05 0 -0.0011178622096264159 -5.2455539437968346e-05 0 -0.00071292455460413191 -0.00011140927738467694 0 -0.00080888765057399734 -0.00011637999683903465 0 -0.00034068326540483861 -0.00013977040252508848 0 -0.00078855488109417929 -2.3631457642710489e-05 0 -0.00071292455460413191 -0.00011140927738467694 0 -0.0011178622096264159 -5.2455539437968346e-05 0 -0.00078855488109417929 -2.3631457642710489e-05 0 -0.00071292455460413191 -0.00011140927738467694 0 -0.00071292455460413191 -0.00011140927738467694 0 -0.00080888765057399734 -0.00011637999683903465 0 -0.00042111671386499958 -0.00020939115518508791 0 -0.00034068326540483861 -0.00013977040252508848 0 -0.00071292455460413191 -0.00011140927738467694 0 -0.00042111671386499958 -0.00020939115518508791 0 -0.0012059407859743962 -9.584503687033422e-05 0 -0.0011178622096264159 -5.2455539437968346e-05 0 -0.00080888765057399734 -0.00011637999683903465 0 -0.00092773030696796665 -7.4670294521496535e-05 0 -0.0012059407859743962 -9.584503687033422e-05 0 -0.00080888765057399734 -0.00011637999683903465 0 -0.00080888765057399734 -0.00011637999683903465 0 -0.00044880968238896938 -0.00021897022431027071 0 -0.00042111671386499958 -0.00020939115518508791 0 -0.00080888765057399734 -0.00011637999683903465 0 -0.00044880968238896938 -0.00021897022431027071 0 -0.00069354537885139714 -0.00012490349847370941 0 -0.00044880968238896938 -0.00021897022431027071 0 -0.00046974647516609153 -0.00022568086054449094 0 -0.00069354537885139714 -0.00012490349847370941 0 2.3047213784869918e-05 -0.00029549190077957533 0 -0.00042111671386499958 -0.00020939115518508791 0 -9.1092676842338986e-05 -0.00032878867247650644 0 -0.00044880968238896938 -0.00021897022431027071 0 -0.00042111671386499958 -0.00020939115518508791 0 -9.1092676842338986e-05 -0.00032878867247650644 0 -0.00044880968238896938 -0.00021897022431027071 0 -9.1092676842338986e-05 -0.00032878867247650644 0 -0.00015062478645301445 -0.00033875193972537145 0 -9.1092676842338986e-05 -0.00032878867247650644 0 -0.00015062478645301445 -0.00033875193972537145 0 0.00022319787806250417 -0.00044830831908175523 0 -0.00044880968238896938 -0.00021897022431027071 0 -0.00015062478645301445 -0.00033875193972537145 0 -0.00046974647516609153 -0.00022568086054449094 0 -0.00015062478645301445 -0.00033875193972537145 0 -0.00046974647516609153 -0.00022568086054449094 0 -0.00024824769397571543 -0.00035728319566602425 0 -0.00046974647516609153 -0.00022568086054449094 0 -0.00069354537885139714 -0.00012490349847370941 0 -0.00069673670315990172 -0.00012343960778967442 0 -0.00046974647516609153 -0.00022568086054449094 0 -0.00051321145623672989 -0.00026795514962933551 0 -0.00024824769397571543 -0.00035728319566602425 0 -0.00046974647516609153 -0.00022568086054449094 0 -0.00069673670315990172 -0.00012343960778967442 0 -0.00051321145623672989 -0.00026795514962933551 0 -0.00092773030696796665 -7.4670294521496535e-05 0 -0.00080888765057399734 -0.00011637999683903465 0 -0.00069354537885139714 -0.00012490349847370941 0 -0.00069354537885139714 -0.00012490349847370941 0 -0.00083236937543270241 -6.250168705662259e-05 0 -0.00069673670315990172 -0.00012343960778967442 0 -0.00092773030696796665 -7.4670294521496535e-05 0 -0.00069354537885139714 -0.00012490349847370941 0 -0.00083236937543270241 -6.250168705662259e-05 0 -0.00069673670315990172 -0.00012343960778967442 0 -0.00083327499101021124 -5.9075984194380757e-05 0 -0.0008141598262223019 -0.00010340947487566582 0 -0.00084792084304228783 -5.3288715705121337e-05 0 -0.00083236937543270241 -6.250168705662259e-05 0 -0.00083327499101021124 -5.9075984194380757e-05 0 -0.00083236937543270241 -6.250168705662259e-05 0 -0.00069673670315990172 -0.00012343960778967442 0 -0.00083327499101021124 -5.9075984194380757e-05 0 -0.00069673670315990172 -0.00012343960778967442 0 -0.00068704303660080748 -0.00023884576164408649 0 -0.0008141598262223019 -0.00010340947487566582 0 -0.00069673670315990172 -0.00012343960778967442 0 -0.00068704303660080748 -0.00023884576164408649 0 -0.00051321145623672989 -0.00026795514962933551 0 -0.00068704303660080748 -0.00023884576164408649 0 -0.00051321145623672989 -0.00026795514962933551 0 -0.00047463993954345373 -0.00051997532902625773 0 -0.00068704303660080748 -0.00023884576164408649 0 -0.00047463993954345373 -0.00051997532902625773 0 -0.00079966743555008211 -0.00048741843740314424 0 -0.00051321145623672989 -0.00026795514962933551 0 -0.00015451557004933148 -0.00054654131941927347 0 -0.00047463993954345373 -0.00051997532902625773 0 -0.00051321145623672989 -0.00026795514962933551 0 -0.00015451557004933148 -0.00054654131941927347 0 -0.00024824769397571543 -0.00035728319566602425 0 -0.00015451557004933148 -0.00054654131941927347 0 -0.00047463993954345373 -0.00051997532902625773 0 -0.00017040834097874775 -0.00083141471493830836 0 -0.00015451557004933148 -0.00054654131941927347 0 0.00038412976137554723 -0.00068956366044429715 0 -0.00017040834097874775 -0.00083141471493830836 0 -0.00047463993954345373 -0.00051997532902625773 0 -0.00048739619887123222 -0.00090849433142075925 0 -0.00017040834097874775 -0.00083141471493830836 0 -0.00047463993954345373 -0.00051997532902625773 0 -0.00048739619887123222 -0.00090849433142075925 0 -0.00079966743555008211 -0.00048741843740314424 0 0.00059614006566324415 -0.00058418021392131784 0 0.00022319787806250417 -0.00044830831908175523 0 0.00012356993859295742 -0.00048522337164588969 0 -0.00015062478645301445 -0.00033875193972537145 0 0.00022319787806250417 -0.00044830831908175523 0 0.00012356993859295742 -0.00048522337164588969 0 -0.00015451557004933148 -0.00054654131941927347 0 0.00012356993859295742 -0.00048522337164588969 0 -0.00024824769397571543 -0.00035728319566602425 0 -0.00015062478645301445 -0.00033875193972537145 0 0.00012356993859295742 -0.00048522337164588969 0 -0.00024824769397571543 -0.00035728319566602425 0 -0.00015451557004933148 -0.00054654131941927347 0 0.00012356993859295742 -0.00048522337164588969 0 0.00038412976137554723 -0.00068956366044429715 0 0.00059614006566324415 -0.00058418021392131784 0 0.00038412976137554723 -0.00068956366044429715 0 0.00079933084004621055 -0.00067422496793928576 0 0.00059614006566324415 -0.00058418021392131784 0 0.00012356993859295742 -0.00048522337164588969 0 0.00038412976137554723 -0.00068956366044429715 0 0.00038412976137554723 -0.00068956366044429715 0 0.00079933084004621055 -0.00067422496793928576 0 0.0010093439738034136 -0.00064333127757263612 0 0.00045267335797510128 -0.00067148368054279742 0 0.00059709133976420723 -0.00085068289953454674 0 0.00038412976137554723 -0.00068956366044429715 0 0.00020579965542139424 -0.0011580572549908892 0 -0.00017040834097874775 -0.00083141471493830836 0 0.00065370263876003882 -0.0010164851663743949 0 0.00059709133976420723 -0.00085068289953454674 0 0.0012741416657834823 -0.00058986213098840418 0 0.0011466599975603026 -0.00062353115503284027 0 0.0010093439738034136 -0.00064333127757263612 0 0.0011466599975603026 -0.00062353115503284027 0 0.00079933084004621055 -0.00067422496793928576 0 0.0010093439738034136 -0.00064333127757263612 0 -0.00048739619887123222 -0.00090849433142075925 0 -0.00017040834097874775 -0.00083141471493830836 0 -0.00024231366454186673 -0.0011266436923412693 0 0.00020579965542139424 -0.0011580572549908892 0 -0.00017040834097874775 -0.00083141471493830836 0 -0.00024231366454186673 -0.0011266436923412693 0 -0.00014290543695543521 -0.0013818330800637992 0 0.00020579965542139424 -0.0011580572549908892 0 -0.00024231366454186673 -0.0011266436923412693 0 -0.00048739619887123222 -0.00090849433142075925 0 -0.00024231366454186673 -0.0011266436923412693 0 -0.00045625162364050964 -0.0012834313874241791 0 -0.00014290543695543521 -0.0013818330800637992 0 -0.00024231366454186673 -0.0011266436923412693 0 -0.00045625162364050964 -0.0012834313874241791 0 -0.00051133384714193645 -0.0014189697031639732 0 -0.00045625162364050964 -0.0012834313874241791 0 -0.0008389976023476292 -0.0011041644657913772 0 -0.00048739619887123222 -0.00090849433142075925 0 -0.0008389976023476292 -0.0011041644657913772 0 -0.00079966743555008211 -0.00048741843740314424 0 -0.00048739619887123222 -0.00090849433142075925 0 -0.00045625162364050964 -0.0012834313874241791 0 -0.0008389976023476292 -0.0011041644657913772 0 -0.0008389976023476292 -0.0011041644657913772 0 -0.0014724547727636755 -0.00095794380282963312 0 -0.0012505674409607635 -0.00055817628472879335 0 -0.001040660828130021 -0.0019041637999412727 0 -0.0008389976023476292 -0.0011041644657913772 0 -0.0015172336748804183 -0.0014325126088114749 0 -0.00078288942578381895 -0.001634327807328022 0 -0.00081215437747607084 -0.0011166121833767059 0 -0.0014513050919191871 -0.0018012163019047419 0 -0.0015172336748804183 -0.0014325126088114749 0 -0.0018291325633289044 -0.0016269144561186172 0 -0.0015172336748804183 -0.0014325126088114749 0 -0.0019998264721916206 -0.0013684528285999977 0 -0.0017675079546655933 -0.0011264511398427252 0 -0.0015172336748804183 -0.0014325126088114749 0 -0.0018291325633289044 -0.0016269144561186172 0 -0.0019998264721916206 -0.0013684528285999977 0 -0.0018291325633289044 -0.0016269144561186172 0 -0.0019998264721916206 -0.0013684528285999977 0 -0.0021612702261598372 -0.0014754886229954381 0 -0.0021497262254419687 -0.0018110364808549438 0 -0.00048166089505035948 -0.0016915763169695318 0 -0.0019998264721916206 -0.0013684528285999977 0 -0.0022727136882399698 -0.0012431613721288052 0 -0.0024783860142894628 -0.0016926191654077624 0 -0.0022727136882399698 -0.0012431613721288052 0 -0.0020924517267979395 -0.00099523766730721399 0 -0.0025623101948115692 -0.00095300166185409798 0 -0.0019998264721916206 -0.0013684528285999977 0 -0.0022727136882399698 -0.0012431613721288052 0 -0.0020924517267979395 -0.00099523766730721399 0 -0.0019998264721916206 -0.0013684528285999977 0 -0.0020924517267979395 -0.00099523766730721399 0 -0.0017675079546655933 -0.0011264511398427252 0 -0.0018114737764341245 -0.00082551760398586415 0 -0.0020924517267979395 -0.00099523766730721399 0 -0.0017675079546655933 -0.0011264511398427252 0 -0.0018114737764341245 -0.00082551760398586415 0 -0.0020924517267979395 -0.00099523766730721399 0 -0.002108635778749755 -0.00063822619347158336 0 -0.0020924517267979395 -0.00099523766730721399 0 -0.0023685606395575983 -0.0007432153160013698 0 -0.0025623101948115692 -0.00095300166185409798 0 -0.0020924517267979395 -0.00099523766730721399 0 -0.0023685606395575983 -0.0007432153160013698 0 -0.002108635778749755 -0.00063822619347158336 0 -0.0008389976023476292 -0.0011041644657913772 0 -0.0015172336748804183 -0.0014325126088114749 0 -0.0014724547727636755 -0.00095794380282963312 0 -0.0015172336748804183 -0.0014325126088114749 0 -0.0017675079546655933 -0.0011264511398427252 0 -0.0014724547727636755 -0.00095794380282963312 0 -0.0018114737764341245 -0.00082551760398586415 0 -0.0017675079546655933 -0.0011264511398427252 0 -0.0014724547727636755 -0.00095794380282963312 0 -0.0018114737764341245 -0.00082551760398586415 0 -0.0014724547727636755 -0.00095794380282963312 0 -0.0016206085243597617 -0.00063509355333947058 0 -0.0014724547727636755 -0.00095794380282963312 0 -0.0016206085243597617 -0.00063509355333947058 0 -0.0012505674409607635 -0.00055817628472879335 0 -0.0018114737764341245 -0.00082551760398586415 0 -0.0016206085243597617 -0.00063509355333947058 0 -0.0018549384778492042 -0.0004844791926382477 0 -0.0016206085243597617 -0.00063509355333947058 0 -0.0015366510677578139 -0.00041680513250168998 0 -0.0018549384778492042 -0.0004844791926382477 0 -0.0015366510677578139 -0.00041680513250168998 0 -0.0018549384778492042 -0.0004844791926382477 0 -0.0017514579132292089 -0.00028103808552373474 0 -0.0015366510677578139 -0.00041680513250168998 0 -0.0014357963022469595 -0.00022272764162012339 0 -0.0012505674409607635 -0.00055817628472879335 0 -0.0016206085243597617 -0.00063509355333947058 0 -0.0015366510677578139 -0.00041680513250168998 0 -0.0012505674409607635 -0.00055817628472879335 0 -0.0023685606395575983 -0.0007432153160013698 0 -0.0024375016203618339 -0.0004827545506336112 0 -0.002108635778749755 -0.00063822619347158336 0 -0.0023685606395575983 -0.0007432153160013698 0 -0.0024375016203618339 -0.0004827545506336112 0 -0.0026276909660737213 -0.00058167118588640227 0 -0.0018114737764341245 -0.00082551760398586415 0 -0.002108635778749755 -0.00063822619347158336 0 -0.0018549384778492042 -0.0004844791926382477 0 -0.0021209653575528791 -0.00028762389506229943 0 -0.0018549384778492042 -0.0004844791926382477 0 -0.0017514579132292089 -0.00028103808552373474 0 -0.002108635778749755 -0.00063822619347158336 0 -0.0021209653575528791 -0.00028762389506229943 0 -0.0018549384778492042 -0.0004844791926382477 0 -0.0024375016203618339 -0.0004827545506336112 0 -0.002108635778749755 -0.00063822619347158336 0 -0.0021209653575528791 -0.00028762389506229943 0 -0.0024375016203618339 -0.0004827545506336112 0 -0.0021209653575528791 -0.00028762389506229943 0 -0.0025127166457084358 -0.00027677108551768802 0 -0.0021209653575528791 -0.00028762389506229943 0 -0.0022949949055669052 1.7539335685635426e-05 0 -0.0025127166457084358 -0.00027677108551768802 0 -0.0021209653575528791 -0.00028762389506229943 0 -0.0017514579132292089 -0.00028103808552373474 0 -0.0018288061419688686 -6.19534169652479e-05 0 -0.0021209653575528791 -0.00028762389506229943 0 -0.0022949949055669052 1.7539335685635426e-05 0 -0.0018288061419688686 -6.19534169652479e-05 0 -0.0022949949055669052 1.7539335685635426e-05 0 -0.0018288061419688686 -6.19534169652479e-05 0 -0.0018692101847597687 0.00018515685823939864 0 -0.0026142284544762541 -4.5302489788739744e-06 0 -0.0036581902506695354 -0.00084988646799979365 0 -0.0031404994683823903 -0.00023407702077663469 0 -0.0031769476579426373 -0.00049926710280076407 0 -0.0033945010110138221 -0.0004443487947031928 0 -0.0015366510677578139 -0.00041680513250168998 0 -0.0014357963022469595 -0.00022272764162012339 0 -0.0017514579132292089 -0.00028103808552373474 0 -0.0014357963022469595 -0.00022272764162012339 0 -0.0017514579132292089 -0.00028103808552373474 0 -0.0018288061419688686 -6.19534169652479e-05 0 -0.0018288061419688686 -6.19534169652479e-05 0 -0.0016315381450979396 5.3473322855290382e-05 0 -0.0018692101847597687 0.00018515685823939864 0 -0.0014357963022469595 -0.00022272764162012339 0 -0.0018288061419688686 -6.19534169652479e-05 0 -0.0016315381450979396 5.3473322855290382e-05 0 -0.0014357963022469595 -0.00022272764162012339 0 -0.0016315381450979396 5.3473322855290382e-05 0 -0.001312303706878242 -5.0655561380920676e-06 0 -0.0014357963022469595 -0.00022272764162012339 0 -0.0010670946500738045 -0.00032914787803072068 0 -0.001312303706878242 -5.0655561380920676e-06 0 -0.0010670946500738045 -0.00032914787803072068 0 -0.00079966743555008211 -0.00048741843740314424 0 -0.00097479375092119887 -9.7785813381219501e-05 0 -0.0014357963022469595 -0.00022272764162012339 0 -0.0010670946500738045 -0.00032914787803072068 0 -0.0012505674409607635 -0.00055817628472879335 0 -0.0010670946500738045 -0.00032914787803072068 0 -0.00097479375092119887 -9.7785813381219501e-05 0 -0.001312303706878242 -5.0655561380920676e-06 0 -0.00068704303660080748 -0.00023884576164408649 0 -0.00079966743555008211 -0.00048741843740314424 0 -0.00097479375092119887 -9.7785813381219501e-05 0 -0.0010670946500738045 -0.00032914787803072068 0 -0.00079966743555008211 -0.00048741843740314424 0 -0.0012505674409607635 -0.00055817628472879335 0 -0.0008389976023476292 -0.0011041644657913772 0 -0.00079966743555008211 -0.00048741843740314424 0 -0.0012505674409607635 -0.00055817628472879335 0 -0.0045901146933213302 -0.00052776934301253698 0 -0.0042451150329330146 -0.00042667195801714049 0 -0.0043601628181440064 -9.410644711618473e-05 0 -0.0047163915410405191 -8.0275206389336732e-05 0 -0.0045901146933213302 -0.00052776934301253698 0 -0.0043601628181440064 -9.410644711618473e-05 0 -0.0045901146933213302 -0.00052776934301253698 0 -0.0042028851423735226 -0.0007206237622198442 0 -0.0042451150329330146 -0.00042667195801714049 0 -0.0045901146933213302 -0.00052776934301253698 0 -0.0045321336604848246 -0.00078378061422640084 0 -0.0042028851423735226 -0.0007206237622198442 0 -0.003686298861577687 -0.0010206005226539531 0 -0.0042028851423735226 -0.0007206237622198442 0 -0.0038302989199848051 -0.00068216518569069436 0 -0.0042028851423735226 -0.0007206237622198442 0 -0.0038302989199848051 -0.00068216518569069436 0 -0.0040174483120900143 -0.00050773273947455212 0 -0.0038302989199848051 -0.00068216518569069436 0 -0.0040174483120900143 -0.00050773273947455212 0 -0.0037838252260422906 -0.00041830032470268101 0 -0.0042028851423735226 -0.0007206237622198442 0 -0.0040174483120900143 -0.00050773273947455212 0 -0.0042451150329330146 -0.00042667195801714049 0 -0.0042451150329330146 -0.00042667195801714049 0 -0.0040738347491789794 -0.00024134361847082041 0 -0.0043601628181440064 -9.410644711618473e-05 0 -0.0040174483120900143 -0.00050773273947455212 0 -0.0042451150329330146 -0.00042667195801714049 0 -0.0040738347491789794 -0.00024134361847082041 0 -0.0040738347491789794 -0.00024134361847082041 0 -0.0037838252260422906 -0.00041830032470268101 0 -0.0038881543314442405 -0.00011407148570741252 0 -0.0040174483120900143 -0.00050773273947455212 0 -0.0040738347491789794 -0.00024134361847082041 0 -0.0037838252260422906 -0.00041830032470268101 0 -0.0037838252260422906 -0.00041830032470268101 0 -0.0034895477354777251 -0.00038034712041804338 0 -0.0033502648061627996 -8.7197797470652989e-05 0 -0.0037838252260422906 -0.00041830032470268101 0 -0.0036769145653119915 -7.8324251901861503e-05 0 -0.0038881543314442405 -0.00011407148570741252 0 -0.0037902002509200968 -0.00034038991882351588 0 -0.0040153502856810682 0.00018028535355161097 0 -0.0032617675239606605 -0.00041172638460802008 0 -0.0034895477354777251 -0.00038034712041804338 0 -0.0032932072213551185 -0.00031607245737082067 0 -0.0037424989698574872 -0.00026409481947711468 0 -0.0040153502856810682 0.00018028535355161097 0 -0.0032617675239606605 -0.00041172638460802008 0 -0.0034895477354777251 -0.00038034712041804338 0 -0.0033682442232261687 -0.00055032308890878758 0 -0.0034895477354777251 -0.00038034712041804338 0 -0.0033682442232261687 -0.00055032308890878758 0 -0.0035792650746018172 -0.00054955539017710825 0 -0.0033682442232261687 -0.00055032308890878758 0 -0.0035792650746018172 -0.00054955539017710825 0 -0.0035287674748195478 -0.00069476270605206623 0 -0.0038302989199848051 -0.00068216518569069436 0 -0.0037838252260422906 -0.00041830032470268101 0 -0.0035792650746018172 -0.00054955539017710825 0 -0.0037838252260422906 -0.00041830032470268101 0 -0.0034895477354777251 -0.00038034712041804338 0 -0.0035792650746018172 -0.00054955539017710825 0 -0.0038302989199848051 -0.00068216518569069436 0 -0.0035792650746018172 -0.00054955539017710825 0 -0.0035287674748195478 -0.00069476270605206623 0 -0.003686298861577687 -0.0010206005226539531 0 -0.0038302989199848051 -0.00068216518569069436 0 -0.0035287674748195478 -0.00069476270605206623 0 -0.003686298861577687 -0.0010206005226539531 0 -0.0035287674748195478 -0.00069476270605206623 0 -0.003304994199603646 -0.00070524266769581142 0 -0.0033682442232261687 -0.00055032308890878758 0 -0.0035287674748195478 -0.00069476270605206623 0 -0.003304994199603646 -0.00070524266769581142 0 0.00037734103956970467 -0.001640142019108776 0 -0.00048166089505035948 -0.0016915763169695318 0 -0.003304994199603646 -0.00070524266769581142 0 -0.0030683441565884134 -0.00074360502611942666 0 -0.0031707699760996672 -0.00054472624051367445 0 0.0040855235660936743 -0.0023802826745213828 0 0.0038825908549010102 -0.0023222793674548773 0 0.0037673323304448746 -0.0024939067023023345 0 -0.003686298861577687 -0.0010206005226539531 0 -0.003304994199603646 -0.00070524266769581142 0 -0.0030683441565884134 -0.00074360502611942666 0 -0.00048166089505035948 -0.0016915763169695318 0 -0.0037173268161464178 -7.1694663247014325e-05 0 -0.0024783860142894628 -0.0016926191654077624 0 -0.0025623101948115692 -0.00095300166185409798 0 -0.0030499912220358009 -0.00035418256130449093 0 -0.0030683441565884134 -0.00074360502611942666 0 -0.0031707699760996672 -0.00054472624051367445 0 -0.0030499912220358009 -0.00035418256130449093 0 -0.0022727136882399698 -0.0012431613721288052 0 -0.0024783860142894628 -0.0016926191654077624 0 -0.0025623101948115692 -0.00095300166185409798 0 -0.0033682442232261687 -0.00055032308890878758 0 -0.003304994199603646 -0.00070524266769581142 0 -0.0031707699760996672 -0.00054472624051367445 0 -0.0032617675239606605 -0.00041172638460802008 0 -0.0033682442232261687 -0.00055032308890878758 0 -0.0031707699760996672 -0.00054472624051367445 0 -0.0032617675239606605 -0.00041172638460802008 0 -0.0031707699760996672 -0.00054472624051367445 0 -0.0030499912220358009 -0.00035418256130449093 0 -0.0023685606395575983 -0.0007432153160013698 0 -0.0025623101948115692 -0.00095300166185409798 0 -0.0026276909660737213 -0.00058167118588640227 0 -0.0044378636735551008 0.0001017587686754402 0 -0.0040153502856810682 0.00018028535355161097 0 -0.0029706417818386528 -0.00024039145794249882 0 -0.0029732048272072234 -0.00019677287078579252 0 -0.0032932072213551185 -0.00031607245737082067 0 -0.0025623101948115692 -0.00095300166185409798 0 -0.0026276909660737213 -0.00058167118588640227 0 -0.0030499912220358009 -0.00035418256130449093 0 -0.0027439586685988194 -0.00039505848796289182 0 -0.0026276909660737213 -0.00058167118588640227 0 -0.0030499912220358009 -0.00035418256130449093 0 -0.0024375016203618339 -0.0004827545506336112 0 -0.0027439586685988194 -0.00039505848796289182 0 -0.0026276909660737213 -0.00058167118588640227 0 -0.0030499912220358009 -0.00035418256130449093 0 -0.0029706417818386528 -0.00024039145794249882 0 -0.0032932072213551185 -0.00031607245737082067 0 -0.0027439586685988194 -0.00039505848796289182 0 -0.0030499912220358009 -0.00035418256130449093 0 -0.0029706417818386528 -0.00024039145794249882 0 -0.0027439586685988194 -0.00039505848796289182 0 -0.0029706417818386528 -0.00024039145794249882 0 -0.0025127166457084358 -0.00027677108551768802 0 -0.0024375016203618339 -0.0004827545506336112 0 -0.0027439586685988194 -0.00039505848796289182 0 -0.0025127166457084358 -0.00027677108551768802 0 -0.0026142284544762541 -4.5302489788739744e-06 0 -0.0029859634024297726 -0.00029343198911629682 0 -0.0031404994683823903 -0.00023407702077663469 0 -0.0029732048272072234 -0.00019677287078579252 0 -0.0031769476579426373 -0.00049926710280076407 0 -0.0022949949055669052 1.7539335685635426e-05 0 -0.0029706417818386528 -0.00024039145794249882 0 -0.0025127166457084358 -0.00027677108551768802 0 -0.0031404994683823903 -0.00023407702077663469 0 -0.0029706417818386528 -0.00024039145794249882 0 -0.0029732048272072234 -0.00019677287078579252 0 -0.0043234395345086206 0.00059787288199803098 0 -0.010314261183396329 -0.0036707661246016543 0 -0.0044378636735551008 0.0001017587686754402 0 -0.0082056320599956691 -0.0025720296256569928 0 -0.005645206159693405 -0.00059473433584728605 0 -0.0065386802813748894 -0.00033777049273994844 0 -0.0049166226462385937 0.001775127581847604 0 -0.005645206159693405 -0.00059473433584728605 0 -0.0065386802813748894 -0.00033777049273994844 0 -0.0063802917362027305 -0.0030155280190700172 0 -0.0036360728551443253 0.00033554828746064293 0 -0.0040387320171997691 0.00041933990679392735 0 -0.0038296251049994112 0.00058822092736286605 0 -0.0036360728551443253 0.00033554828746064293 0 -0.0038637023381348258 0.00012513377450799562 0 -0.0040387320171997691 0.00041933990679392735 0 -0.0043234395345086206 0.00059787288199803098 0 -0.0040153502856810682 0.00018028535355161097 0 -0.0036360728551443253 0.00033554828746064293 0 -0.0038637023381348258 0.00012513377450799562 0 -0.0036769145653119915 -7.8324251901861503e-05 0 -0.0032617675239606605 -0.00041172638460802008 0 -0.0030499912220358009 -0.00035418256130449093 0 -0.0032932072213551185 -0.00031607245737082067 0 -0.0038637023381348258 0.00012513377450799562 0 -0.0036769145653119915 -7.8324251901861503e-05 0 -0.0038881543314442405 -0.00011407148570741252 0 -0.0040738347491789794 -0.00024134361847082041 0 -0.0038881543314442405 -0.00011407148570741252 0 -0.0040960054620166417 5.2702819679411956e-05 0 -0.0040738347491789794 -0.00024134361847082041 0 -0.0040960054620166417 5.2702819679411956e-05 0 -0.0043601628181440064 -9.410644711618473e-05 0 -0.0040960054620166417 5.2702819679411956e-05 0 -0.0044199617207378956 0.00023949959739997186 0 -0.0043601628181440064 -9.410644711618473e-05 0 -0.0038637023381348258 0.00012513377450799562 0 -0.0038881543314442405 -0.00011407148570741252 0 -0.0040960054620166417 5.2702819679411956e-05 0 -0.0038637023381348258 0.00012513377450799562 0 -0.0040960054620166417 5.2702819679411956e-05 0 -0.0040387320171997691 0.00041933990679392735 0 -0.0040960054620166417 5.2702819679411956e-05 0 -0.0040387320171997691 0.00041933990679392735 0 -0.0044199617207378956 0.00023949959739997186 0 -0.0040387320171997691 0.00041933990679392735 0 -0.0044199617207378956 0.00023949959739997186 0 -0.0045251014259766265 0.00062905360770169005 0 -0.0048969543586726847 0.00026634662242998135 0 -0.0044199617207378956 0.00023949959739997186 0 -0.0045251014259766265 0.00062905360770169005 0 -0.0047163915410405191 -8.0275206389336732e-05 0 -0.0044199617207378956 0.00023949959739997186 0 -0.0043601628181440064 -9.410644711618473e-05 0 -0.0047163915410405191 -8.0275206389336732e-05 0 -0.0048969543586726847 0.00026634662242998135 0 -0.0044199617207378956 0.00023949959739997186 0 -0.0046498699929314671 0.0011132259615844627 0 -0.0045251014259766265 0.00062905360770169005 0 -0.0040707645808282606 0.00089994435722220469 0 -0.0040387320171997691 0.00041933990679392735 0 -0.0045251014259766265 0.00062905360770169005 0 -0.0040707645808282606 0.00089994435722220469 0 -0.016911386701179379 -0.0065771532690186516 0 -0.015803553242391993 -0.0068760128881614063 0 -0.015747577595908915 -0.0058694695751230876 0 -0.010917683059518417 -0.0028692166628143546 0 -0.0097122286342621461 -0.0029620456377801086 0 -0.015803553242391993 -0.0068760128881614063 0 -0.015135039763685106 -0.0064496180236499898 0 -0.014759992538546606 -0.0071369228987314534 0 -0.015803553242391993 -0.0068760128881614063 0 -0.015135039763685106 -0.0064496180236499898 0 -0.015747577595908915 -0.0058694695751230876 0 -0.0040707645808282606 0.00089994435722220469 0 -0.0038296251049994112 0.00058822092736286605 0 -0.0035853833265253776 0.00069995404065426535 0 -0.0097122286342621461 -0.0029620456377801086 0 -0.010314261183396329 -0.0036707661246016543 0 -0.0040387320171997691 0.00041933990679392735 0 -0.0040707645808282606 0.00089994435722220469 0 -0.0038296251049994112 0.00058822092736286605 0 -0.0036360728551443253 0.00033554828746064293 0 -0.0038296251049994112 0.00058822092736286605 0 -0.0035853833265253776 0.00069995404065426535 0 -0.0065386802813748894 -0.00033777049273994844 0 -0.0063802917362027305 -0.0030155280190700172 0 -0.0081718214920412265 -0.0024999001252676424 0 -0.010314261183396329 -0.0036707661246016543 0 -0.0082056320599956691 -0.0025720296256569928 0 -0.015135039763685106 -0.0064496180236499898 0 -0.014759992538546606 -0.0071369228987314534 0 -0.014469032515951274 -0.0060511037093006126 0 -0.013596316501523048 -0.0047933737015429948 0 -0.013738952173286703 -0.0049665338661477295 0 -0.01367970715790502 -0.0047733305780472551 0 -0.010314261183396329 -0.0036707661246016543 0 -0.014681701786542083 -0.0061156322848617984 0 -0.015135039763685106 -0.0064496180236499898 0 -0.014469032515951274 -0.0060511037093006126 0 -0.014928194210505709 -0.0053068149498625367 0 -0.014469032515951274 -0.0060511037093006126 0 -0.014928194210505709 -0.0053068149498625367 0 -0.014078711983617792 -0.0048933888951056392 0 -0.014928194210505709 -0.0053068149498625367 0 -0.014078711983617792 -0.0048933888951056392 0 -0.015096879615621079 -0.0045651071658299753 0 -0.014928194210505709 -0.0053068149498625367 0 -0.015608352661438733 -0.0051514595893456762 0 -0.015096879615621079 -0.0045651071658299753 0 -0.014928194210505709 -0.0053068149498625367 0 -0.015608352661438733 -0.0051514595893456762 0 -0.015747577595908915 -0.0058694695751230876 0 -0.015135039763685106 -0.0064496180236499898 0 -0.014928194210505709 -0.0053068149498625367 0 -0.015747577595908915 -0.0058694695751230876 0 -0.015747577595908915 -0.0058694695751230876 0 -0.016422920546733093 -0.0050219803505049858 0 -0.017103262348850606 -0.0055915835986151841 0 -0.015608352661438733 -0.0051514595893456762 0 -0.015747577595908915 -0.0058694695751230876 0 -0.016422920546733093 -0.0050219803505049858 0 -0.015608352661438733 -0.0051514595893456762 0 -0.016422920546733093 -0.0050219803505049858 0 -0.015867130977517001 -0.0045537973602941418 0 -0.016422920546733093 -0.0050219803505049858 0 -0.017103262348850606 -0.0055915835986151841 0 -0.017247689320169186 -0.004500004388118181 0 -0.016911386701179379 -0.0065771532690186516 0 -0.015747577595908915 -0.0058694695751230876 0 -0.017103262348850606 -0.0055915835986151841 0 -0.0043734382876575075 -0.0011034889809033532 0 -0.0030991590629537548 -0.00094587718578191635 0 -0.0010010822108969292 0.00035106053344151312 0 -0.0030991590629537548 -0.00094587718578191635 0 -0.0069144788261008795 -0.0024726511890841504 0 -0.0068850154024085652 -0.0023558571687546858 0 -0.0070117536084555116 -0.0024842733841391354 0 -0.001025452444686365 0.00035550702404710987 0 -0.0014014974867191765 0.00037531767949365314 0 -0.0010298729626057263 0.00069308510725027027 0 -0.00088653960786719017 -7.1262261911521628e-05 0 -0.00083327499101021124 -5.9075984194380757e-05 0 -0.00087090953077758845 -5.3297365295000081e-05 0 -0.00084792084304228783 -5.3288715705121337e-05 0 -0.00083327499101021124 -5.9075984194380757e-05 0 -0.00084916210490013392 -5.6389263089890556e-05 0 -0.00083327499101021124 -5.9075984194380757e-05 0 -0.00084916210490013392 -5.6389263089890556e-05 0 -0.00087090953077758845 -5.3297365295000081e-05 0 -0.00088653960786719017 -7.1262261911521628e-05 0 -0.00083327499101021124 -5.9075984194380757e-05 0 -0.0008141598262223019 -0.00010340947487566582 0 -0.00088653960786719017 -7.1262261911521628e-05 0 -0.0008141598262223019 -0.00010340947487566582 0 -0.00097479375092119887 -9.7785813381219501e-05 0 -0.00068704303660080748 -0.00023884576164408649 0 -0.0008141598262223019 -0.00010340947487566582 0 -0.00097479375092119887 -9.7785813381219501e-05 0 -0.0010010822108969292 0.00035106053344151312 0 -0.00097786297055433343 -0.0001473794947169391 0 -0.0012146514611680612 0.00019635935996699003 0 -0.001312303706878242 -5.0655561380920676e-06 0 -0.0014014974867191765 0.00037531767949365314 0 -0.001025452444686365 0.00035550702404710987 0 -0.00097479375092119887 -9.7785813381219501e-05 0 -0.0012146514611680612 0.00019635935996699003 0 -0.001025452444686365 0.00035550702404710987 0 -0.0012146514611680612 0.00019635935996699003 0 -0.0014014974867191765 0.00037531767949365314 0 -0.00097479375092119887 -9.7785813381219501e-05 0 -0.0012146514611680612 0.00019635935996699003 0 -0.001312303706878242 -5.0655561380920676e-06 0 -0.0036581902506695354 -0.00084988646799979365 0 -0.0043734382876575075 -0.0011034889809033532 0 -0.0067744350411266278 -0.002317342991355342 0 -0.0067417587325770629 -0.0022148101440392655 0 -0.0068850154024085652 -0.0023558571687546858 0 -0.0016315381450979396 5.3473322855290382e-05 0 -0.001312303706878242 -5.0655561380920676e-06 0 -0.0014014974867191765 0.00037531767949365314 0 -0.0016315381450979396 5.3473322855290382e-05 0 -0.0017980214966775725 9.6498183765436892e-05 0 -0.0014014974867191765 0.00037531767949365314 0 -0.0020566415547667309 -0.00067005527647950207 0 -0.0036581902506695354 -0.00084988646799979365 0 -0.0067744350411266278 -0.002317342991355342 0 -0.0066558644572852297 -0.0022453318780611218 0 -0.0068133335843994485 -0.0024532732393950153 0 -0.0067744350411266278 -0.002317342991355342 0 -0.0066558644572852297 -0.0022453318780611218 0 -0.0067417587325770629 -0.0022148101440392655 0 -0.0082056320599956691 -0.0025720296256569928 0 -0.0036581902506695354 -0.00084988646799979365 0 -0.0082056320599956691 -0.0025720296256569928 0 -0.01064250448064814 -0.0038833416055528724 0 -0.013738952173286703 -0.0049665338661477295 0 -0.01367970715790502 -0.0047733305780472551 0 -0.013793327614807312 -0.0049353609815742296 0 -0.0067744350411266278 -0.002317342991355342 0 -0.0068850154024085652 -0.0023558571687546858 0 -0.0068133335843994485 -0.0024532732393950153 0 -0.0069144788261008795 -0.0024726511890841504 0 -0.0068850154024085652 -0.0023558571687546858 0 -0.0068133335843994485 -0.0024532732393950153 0 -0.01064250448064814 -0.0038833416055528724 0 -0.010285124882434871 -0.0041248763280520191 0 -0.0069144788261008795 -0.0024726511890841504 0 -0.0068133335843994485 -0.0024532732393950153 0 -0.0069566655555317472 -0.002638849310482166 0 -0.013793327614807312 -0.0049353609815742296 0 -0.013830148411749888 -0.0049576659946405028 0 -0.013773739134692924 -0.0049255306157177442 0 -0.013793327614807312 -0.0049353609815742296 0 -0.013773739134692924 -0.0049255306157177442 0 -0.013688176486953635 -0.0049228806574424053 0 -0.013738952173286703 -0.0049665338661477295 0 -0.013793327614807312 -0.0049353609815742296 0 -0.013830148411749888 -0.0049576659946405028 0 -0.013738952173286703 -0.0049665338661477295 0 -0.013830148411749888 -0.0049576659946405028 0 -0.014078711983617792 -0.0048933888951056392 0 -0.014681701786542083 -0.0061156322848617984 0 -0.01387865015939894 -0.0046268686180228856 0 -0.013830148411749888 -0.0049576659946405028 0 -0.01382108658542131 -0.0049209605797045858 0 -0.013773739134692924 -0.0049255306157177442 0 -0.013830148411749888 -0.0049576659946405028 0 -0.01382108658542131 -0.0049209605797045858 0 -0.014078711983617792 -0.0048933888951056392 0 -0.01382108658542131 -0.0049209605797045858 0 -0.013819508336603559 -0.0048482062872415802 0 -0.013773739134692924 -0.0049255306157177442 0 -0.01382108658542131 -0.0049209605797045858 0 -0.013819508336603559 -0.0048482062872415802 0 -0.014078711983617792 -0.0048933888951056392 0 -0.014121720780938226 -0.0054416354134876914 0 -0.010285124882434871 -0.0041248763280520191 0 -0.013819508336603559 -0.0048482062872415802 0 -0.013773739134692924 -0.0049255306157177442 0 -0.013688176486953635 -0.0049228806574424053 0 -0.013480368899780609 -0.0057586520059830539 0 -0.012553756334599028 -0.0056712000702365782 0 -0.011545645107826798 -0.006582685989264897 0 -0.012553756334599028 -0.0056712000702365782 0 -0.011545645107826798 -0.006582685989264897 0 -0.012035455188091656 -0.0055952387852281713 0 -0.007427446749676144 -0.0030035101225621341 0 -0.0073346799400446534 -0.0033685706047417783 0 -0.0073491462391546501 -0.0027308553115411435 0 -0.011545645107826798 -0.006582685989264897 0 -0.011410413076975221 -0.0054222732547253988 0 -0.012035455188091656 -0.0055952387852281713 0 -0.011545645107826798 -0.006582685989264897 0 -0.010702858438629233 -0.0055368790445218035 0 -0.011410413076975221 -0.0054222732547253988 0 -0.010285124882434871 -0.0041248763280520191 0 -0.0073260350976274841 -0.0030639694162154824 0 -0.007427446749676144 -0.0030035101225621341 0 -0.0077242998010829868 -0.0032241097070072576 0 -0.0073491462391546501 -0.0027308553115411435 0 -0.010285124882434871 -0.0041248763280520191 0 -0.005255942581881755 -0.0022042932714294891 0 -0.007427446749676144 -0.0030035101225621341 0 -0.0077242998010829868 -0.0032241097070072576 0 -0.0073346799400446534 -0.0033685706047417783 0 -0.0069144788261008795 -0.0024726511890841504 0 -0.0069566655555317472 -0.002638849310482166 0 -0.0069774376109240461 -0.0025486116693763973 0 -0.0069774376109240461 -0.0025486116693763973 0 -0.0070117536084555116 -0.0024842733841391354 0 -0.0070259706980692659 -0.0025977932808184398 0 -0.0069566655555317472 -0.002638849310482166 0 -0.0069774376109240461 -0.0025486116693763973 0 -0.0070259706980692659 -0.0025977932808184398 0 -0.0069144788261008795 -0.0024726511890841504 0 -0.0069774376109240461 -0.0025486116693763973 0 -0.0070117536084555116 -0.0024842733841391354 0 -0.00084916210490013392 -5.6389263089890556e-05 0 -0.00085215269347739824 -6.2253905848587087e-05 0 -0.00085066300865788093 -6.7470200917762329e-05 0 -0.00084792084304228783 -5.3288715705121337e-05 0 -0.00084916210490013392 -5.6389263089890556e-05 0 -0.00085066300865788093 -6.7470200917762329e-05 0 -0.00084916210490013392 -5.6389263089890556e-05 0 -0.00087090953077758845 -5.3297365295000081e-05 0 -0.00085215269347739824 -6.2253905848587087e-05 0 -0.0030991590629537548 -0.00094587718578191635 0 -0.0021377172320295786 -0.00090704220052235029 0 -0.0030991590629537548 -0.00094587718578191635 0 -0.005255942581881755 -0.0022042932714294891 0 -0.0034841074696407405 -0.0014637456320737497 0 -0.0031506958023960847 -0.0015831614867407515 0 -0.0032858390477188827 -0.0013608158707884832 0 -0.005255942581881755 -0.0022042932714294891 0 -0.0021377172320295786 -0.00090704220052235029 0 -0.0035712531587512933 -0.0013706520927583006 0 -0.0035750138577484974 -0.001372479781171671 0 -0.0035674431279546577 -0.0013710641401059593 0 -0.0021377172320295786 -0.00090704220052235029 0 -0.0015551433757836988 -0.00085794423053443152 0 -0.0034841074696407405 -0.0014637456320737497 0 -0.0033238528788072483 -0.001169776255184891 0 -0.0034782651581056392 -0.00085532401009100201 0 -0.005255942581881755 -0.0022042932714294891 0 -0.0073260350976274841 -0.0030639694162154824 0 -0.0031506958023960847 -0.0015831614867407515 0 -0.0031480908501224703 -0.0011910737574837293 0 -0.0032858390477188827 -0.0013608158707884832 0 -0.0034841074696407405 -0.0014637456320737497 0 -0.0032858390477188827 -0.0013608158707884832 0 -0.0033238528788072483 -0.001169776255184891 0 -0.0031480908501224703 -0.0011910737574837293 0 -0.0032858390477188827 -0.0013608158707884832 0 -0.0033238528788072483 -0.001169776255184891 0 -0.0033238528788072483 -0.001169776255184891 0 -0.0032668947107489486 -0.0010196683480594678 0 -0.0034782651581056392 -0.00085532401009100201 0 -0.0032668947107489486 -0.0010196683480594678 0 -0.0031192798198877657 -0.00086698358398147406 0 -0.0034782651581056392 -0.00085532401009100201 0 -0.0031480908501224703 -0.0011910737574837293 0 -0.0033238528788072483 -0.001169776255184891 0 -0.0032668947107489486 -0.0010196683480594678 0 -0.0031480908501224703 -0.0011910737574837293 0 -0.0032668947107489486 -0.0010196683480594678 0 -0.0031192798198877657 -0.00086698358398147406 0 -0.0031192798198877657 -0.00086698358398147406 0 -0.0031943667933273506 -0.0005421175789880971 0 -0.0029297493269270984 -0.00055857443900892323 0 -0.0073260350976274841 -0.0030639694162154824 0 -0.0086645241832361622 -0.0032411854389910399 0 -0.0034782651581056392 -0.00085532401009100201 0 -0.0031943667933273506 -0.0005421175789880971 0 -0.0033242929497573105 -0.00026604898875319229 0 -0.0031192798198877657 -0.00086698358398147406 0 -0.0034782651581056392 -0.00085532401009100201 0 -0.0031943667933273506 -0.0005421175789880971 0 -0.0033242929497573105 -0.00026604898875319229 0 -0.0029942269899708883 -0.00016117612705993862 0 -0.0030091345311072742 5.4697461938567369e-05 0 -0.0031943667933273506 -0.0005421175789880971 0 -0.0033242929497573105 -0.00026604898875319229 0 -0.0029942269899708883 -0.00016117612705993862 0 -0.0031943667933273506 -0.0005421175789880971 0 -0.0029297493269270984 -0.00055857443900892323 0 -0.0029942269899708883 -0.00016117612705993862 0 -0.010663163217352778 -0.0043182140868621311 0 -0.011644902375030762 -0.0046849879333334329 0 -0.011939505499869352 -0.0040008713753293974 0 -0.010663163217352778 -0.0043182140868621311 0 -0.011939505499869352 -0.0040008713753293974 0 -0.011327175377112931 -0.0033768897244271885 0 -0.010702858438629233 -0.0055368790445218035 0 -0.010454012433304922 -0.0037504413517720691 0 -0.011410413076975221 -0.0054222732547253988 0 -0.011644902375030762 -0.0046849879333334329 0 -0.011410413076975221 -0.0054222732547253988 0 -0.011985611894559411 -0.0051145355261666553 0 -0.010663163217352778 -0.0043182140868621311 0 -0.011644902375030762 -0.0046849879333334329 0 -0.011410413076975221 -0.0054222732547253988 0 -0.0086645241832361622 -0.0032411854389910399 0 -0.011795261003816596 -0.0057825538881964922 0 -0.011410413076975221 -0.0054222732547253988 0 -0.012035455188091656 -0.0055952387852281713 0 -0.011985611894559411 -0.0051145355261666553 0 -0.012035455188091656 -0.0055952387852281713 0 -0.012535999713327393 -0.0052180693547224767 0 -0.011985611894559411 -0.0051145355261666553 0 -0.012553756334599028 -0.0056712000702365782 0 -0.012035455188091656 -0.0055952387852281713 0 -0.012535999713327393 -0.0052180693547224767 0 -0.012553756334599028 -0.0056712000702365782 0 -0.012535999713327393 -0.0052180693547224767 0 -0.013123869367660058 -0.0051959016071090334 0 -0.013480368899780609 -0.0057586520059830539 0 -0.012553756334599028 -0.0056712000702365782 0 -0.013123869367660058 -0.0051959016071090334 0 -0.012535999713327393 -0.0052180693547224767 0 -0.013123869367660058 -0.0051959016071090334 0 -0.012863433914615419 -0.0047851057767707879 0 -0.012535999713327393 -0.0052180693547224767 0 -0.012863433914615419 -0.0047851057767707879 0 -0.012323738324278802 -0.0046651657003845496 0 -0.012535999713327393 -0.0052180693547224767 0 -0.012323738324278802 -0.0046651657003845496 0 -0.011985611894559411 -0.0051145355261666553 0 -0.011644902375030762 -0.0046849879333334329 0 -0.012323738324278802 -0.0046651657003845496 0 -0.011985611894559411 -0.0051145355261666553 0 -0.013480368899780609 -0.0057586520059830539 0 -0.013951391596503453 -0.0049387988347323018 0 -0.015096879615621079 -0.0045651071658299753 0 -0.013819508336603559 -0.0048482062872415802 0 -0.014078711983617792 -0.0048933888951056392 0 -0.015096879615621079 -0.0045651071658299753 0 -0.013480368899780609 -0.0057586520059830539 0 -0.013123869367660058 -0.0051959016071090334 0 -0.013951391596503453 -0.0049387988347323018 0 -0.013123869367660058 -0.0051959016071090334 0 -0.013951391596503453 -0.0049387988347323018 0 -0.013481702701943139 -0.004629229225303135 0 -0.013123869367660058 -0.0051959016071090334 0 -0.012863433914615419 -0.0047851057767707879 0 -0.013481702701943139 -0.004629229225303135 0 -0.013951391596503453 -0.0049387988347323018 0 -0.013481702701943139 -0.004629229225303135 0 -0.0143573297429517 -0.0042707859205057871 0 -0.013481702701943139 -0.004629229225303135 0 -0.013685352712456682 -0.003820298196865917 0 -0.0143573297429517 -0.0042707859205057871 0 -0.013481702701943139 -0.004629229225303135 0 -0.013685352712456682 -0.003820298196865917 0 -0.012850266073723856 -0.0042379067175749496 0 -0.013685352712456682 -0.003820298196865917 0 -0.0143573297429517 -0.0042707859205057871 0 -0.014590348661944103 -0.0035985462514425246 0 -0.011644902375030762 -0.0046849879333334329 0 -0.012323738324278802 -0.0046651657003845496 0 -0.011939505499869352 -0.0040008713753293974 0 -0.012323738324278802 -0.0046651657003845496 0 -0.012850266073723856 -0.0042379067175749496 0 -0.011939505499869352 -0.0040008713753293974 0 -0.012863433914615419 -0.0047851057767707879 0 -0.012323738324278802 -0.0046651657003845496 0 -0.012850266073723856 -0.0042379067175749496 0 -0.012863433914615419 -0.0047851057767707879 0 -0.013481702701943139 -0.004629229225303135 0 -0.012850266073723856 -0.0042379067175749496 0 -0.013685352712456682 -0.003820298196865917 0 -0.012850266073723856 -0.0042379067175749496 0 -0.012601260791512383 -0.0033866115217498489 0 -0.012850266073723856 -0.0042379067175749496 0 -0.011939505499869352 -0.0040008713753293974 0 -0.012601260791512383 -0.0033866115217498489 0 -0.012601260791512383 -0.0033866115217498489 0 -0.014092484061713585 -0.0028181298672033507 0 -0.012941767202710895 -0.0024783364682632349 0 -0.011939505499869352 -0.0040008713753293974 0 -0.012601260791512383 -0.0033866115217498489 0 -0.011327175377112931 -0.0033768897244271885 0 -0.012601260791512383 -0.0033866115217498489 0 -0.012941767202710895 -0.0024783364682632349 0 -0.011497206585965222 -0.0023865736002774292 0 -0.013685352712456682 -0.003820298196865917 0 -0.014092484061713585 -0.0028181298672033507 0 -0.014590348661944103 -0.0035985462514425246 0 -0.013685352712456682 -0.003820298196865917 0 -0.012601260791512383 -0.0033866115217498489 0 -0.014092484061713585 -0.0028181298672033507 0 -0.014092484061713585 -0.0028181298672033507 0 -0.015071088725791913 -0.001814990436272261 0 -0.013908738002152645 -0.0013352354166418176 0 -0.014092484061713585 -0.0028181298672033507 0 -0.012941767202710895 -0.0024783364682632349 0 -0.013908738002152645 -0.0013352354166418176 0 -0.012941767202710895 -0.0024783364682632349 0 -0.011497206585965222 -0.0023865736002774292 0 -0.011945588560609528 -0.0010104131065786315 0 -0.012941767202710895 -0.0024783364682632349 0 -0.012543083196048386 -0.00092612323608020101 0 -0.013908738002152645 -0.0013352354166418176 0 -0.012932231815010431 -0.0024772829952077751 0 -0.012146090998849675 -0.00083617333134982893 0 -0.011497206585965222 -0.0023865736002774292 0 -0.010054232586228524 -0.0027092635433326609 0 -0.010475996629385602 -0.0015587864449962512 0 -0.011497206585965222 -0.0023865736002774292 0 -0.010475996629385602 -0.0015587864449962512 0 -0.011945588560609528 -0.0010104131065786315 0 -0.0091737288573526324 -0.0019974218709716456 0 -0.010054232586228524 -0.0027092635433326609 0 -0.010475996629385602 -0.0015587864449962512 0 -0.0091737288573526324 -0.0019974218709716456 0 -0.010054232586228524 -0.0027092635433326609 0 -0.0088737096982423845 -0.0031857827899354593 0 -0.0086645241832361622 -0.0032411854389910399 0 -0.0056376398831792596 -0.0014075089097212699 0 -0.010127612761973458 -0.005374453574359837 0 -0.010054232586228524 -0.0027092635433326609 0 -0.0088737096982423845 -0.0031857827899354593 0 -0.0086645241832361622 -0.0032411854389910399 0 -0.010552866145657628 -0.0034748013238958 0 -0.011497206585965222 -0.0023865736002774292 0 -0.010054232586228524 -0.0027092635433326609 0 -0.011327175377112931 -0.0033768897244271885 0 -0.010663163217352778 -0.0043182140868621311 0 -0.010054232586228524 -0.0027092635433326609 0 -0.011327175377112931 -0.0033768897244271885 0 -0.012601260791512383 -0.0033866115217498489 0 -0.011497206585965222 -0.0023865736002774292 0 -0.011327175377112931 -0.0033768897244271885 0 -0.017222281506272537 -0.0032303629767043898 0 -0.01642495362728055 -0.0040455204105672273 0 -0.01634586730765528 -0.0029890460825547113 0 -0.017222281506272537 -0.0032303629767043898 0 -0.017247689320169186 -0.004500004388118181 0 -0.01642495362728055 -0.0040455204105672273 0 -0.016422920546733093 -0.0050219803505049858 0 -0.017247689320169186 -0.004500004388118181 0 -0.01642495362728055 -0.0040455204105672273 0 -0.01642495362728055 -0.0040455204105672273 0 -0.015867130977517001 -0.0045537973602941418 0 -0.015702689960222848 -0.0037785893636172151 0 -0.016422920546733093 -0.0050219803505049858 0 -0.01642495362728055 -0.0040455204105672273 0 -0.015867130977517001 -0.0045537973602941418 0 -0.01642495362728055 -0.0040455204105672273 0 -0.015702689960222848 -0.0037785893636172151 0 -0.01634586730765528 -0.0029890460825547113 0 -0.015702689960222848 -0.0037785893636172151 0 -0.015107960878188128 -0.0038958865604898471 0 -0.015507761524904561 -0.0031145442878636525 0 -0.015702689960222848 -0.0037785893636172151 0 -0.015096879615621079 -0.0045651071658299753 0 -0.015107960878188128 -0.0038958865604898471 0 -0.015608352661438733 -0.0051514595893456762 0 -0.015867130977517001 -0.0045537973602941418 0 -0.015096879615621079 -0.0045651071658299753 0 -0.015867130977517001 -0.0045537973602941418 0 -0.015702689960222848 -0.0037785893636172151 0 -0.015096879615621079 -0.0045651071658299753 0 -0.013951391596503453 -0.0049387988347323018 0 -0.015096879615621079 -0.0045651071658299753 0 -0.0143573297429517 -0.0042707859205057871 0 -0.014121720780938226 -0.0054416354134876914 0 -0.014809287283906151 -0.004622794247633729 0 -0.0143573297429517 -0.0042707859205057871 0 -0.015107960878188128 -0.0038958865604898471 0 -0.014590348661944103 -0.0035985462514425246 0 -0.015096879615621079 -0.0045651071658299753 0 -0.0143573297429517 -0.0042707859205057871 0 -0.015107960878188128 -0.0038958865604898471 0 -0.015107960878188128 -0.0038958865604898471 0 -0.014590348661944103 -0.0035985462514425246 0 -0.015507761524904561 -0.0031145442878636525 0 -0.014092484061713585 -0.0028181298672033507 0 -0.014590348661944103 -0.0035985462514425246 0 -0.015507761524904561 -0.0031145442878636525 0 -0.014092484061713585 -0.0028181298672033507 0 -0.015071088725791913 -0.001814990436272261 0 -0.015507761524904561 -0.0031145442878636525 0 -0.015071088725791913 -0.001814990436272261 0 -0.01654123381943191 -0.0024592901868737685 0 -0.016037341645354267 -0.00089478713823724909 0 -0.015071088725791913 -0.001814990436272261 0 -0.015507761524904561 -0.0031145442878636525 0 -0.01654123381943191 -0.0024592901868737685 0 -0.015702689960222848 -0.0037785893636172151 0 -0.015507761524904561 -0.0031145442878636525 0 -0.01654123381943191 -0.0024592901868737685 0 -0.015752951389633795 -0.0036413314971493861 0 -0.016119136442263097 -0.0021933157880094567 0 -0.01634586730765528 -0.0029890460825547113 0 -0.015688645881235308 -0.0019578902878098683 0 -0.01698107803027608 -0.0016298298401309656 0 -0.015702689960222848 -0.0037785893636172151 0 -0.01634586730765528 -0.0029890460825547113 0 -0.015688645881235308 -0.0019578902878098683 0 -0.015688645881235308 -0.0019578902878098683 0 -0.01698107803027608 -0.0016298298401309656 0 -0.016076518786285424 -0.00024889439472855073 0 -0.016119136442263097 -0.0021933157880094567 0 -0.016604100829385179 -0.00051520983088224558 0 -0.018313261366192789 -0.0023568395017634649 0 -0.017222281506272537 -0.0032303629767043898 0 -0.01698107803027608 -0.0016298298401309656 0 -0.017222281506272537 -0.0032303629767043898 0 -0.01634586730765528 -0.0029890460825547113 0 -0.01698107803027608 -0.0016298298401309656 0 -0.017132691646926379 0.00010635897969660779 0 -0.01672833446468041 0.00091294305630345695 0 -0.017264693778746582 0.0008617764216758536 0 -0.018187266787873049 -0.00070541154502730451 0 -0.01698107803027608 -0.0016298298401309656 0 -0.017132691646926379 0.00010635897969660779 0 -0.01698107803027608 -0.0016298298401309656 0 -0.017132691646926379 0.00010635897969660779 0 -0.016076518786285424 -0.00024889439472855073 0 -0.017132691646926379 0.00010635897969660779 0 -0.016076518786285424 -0.00024889439472855073 0 -0.01672833446468041 0.00091294305630345695 0 -0.016604100829385179 -0.00051520983088224558 0 -0.017057704132208855 0.0007363616297609354 0 -0.017131851249628002 -0.00075098903610321696 0 -0.016602612201292982 1.5674267995368521e-05 0 -0.017386517623579283 0.00063484550134650282 0 -0.01654123381943191 -0.0024592901868737685 0 -0.017131851249628002 -0.00075098903610321696 0 -0.016037341645354267 -0.00089478713823724909 0 -0.017131851249628002 -0.00075098903610321696 0 -0.016602612201292982 1.5674267995368521e-05 0 -0.016037341645354267 -0.00089478713823724909 0 -0.015071088725791913 -0.001814990436272261 0 -0.016037341645354267 -0.00089478713823724909 0 -0.015197845743257889 -0.00010495516972417833 0 -0.016602612201292982 1.5674267995368521e-05 0 -0.015197845743257889 -0.00010495516972417833 0 -0.016338389125166417 0.00069545014111879353 0 -0.016602612201292982 1.5674267995368521e-05 0 -0.016037341645354267 -0.00089478713823724909 0 -0.015197845743257889 -0.00010495516972417833 0 -0.015197845743257889 -0.00010495516972417833 0 -0.016338389125166417 0.00069545014111879353 0 -0.015495674601126866 0.00053639491127903502 0 -0.016338389125166417 0.00069545014111879353 0 -0.016248675532571609 0.001555148701878612 0 -0.015495674601126866 0.00053639491127903502 0 -0.016338389125166417 0.00069545014111879353 0 -0.016248675532571609 0.001555148701878612 0 -0.016990159055379567 0.0013553164996858002 0 -0.016338389125166417 0.00069545014111879353 0 -0.016990159055379567 0.0013553164996858002 0 -0.017386517623579283 0.00063484550134650282 0 -0.016602612201292982 1.5674267995368521e-05 0 -0.016338389125166417 0.00069545014111879353 0 -0.017386517623579283 0.00063484550134650282 0 -0.016990159055379567 0.0013553164996858002 0 -0.017386517623579283 0.00063484550134650282 0 -0.017425031375899631 0.001444474332358889 0 -0.017057704132208855 0.0007363616297609354 0 -0.017365988963614756 0.0013822690962871495 0 -0.017481463041119936 0.0011631874937806093 0 -0.017562078255271493 0.0013608455011525815 0 -0.017425031375899631 0.001444474332358889 0 -0.017481463041119936 0.0011631874937806093 0 -0.017425031375899631 0.001444474332358889 0 -0.017264693778746582 0.0008617764216758536 0 -0.01672833446468041 0.00091294305630345695 0 -0.017425031375899631 0.001444474332358889 0 -0.017264693778746582 0.0008617764216758536 0 -0.012373729882279721 0.00015333806022099574 0 -0.012146090998849675 -0.00083617333134982893 0 -0.011120959541125009 0.0007961188503038388 0 -0.010464713892864632 -0.00049519677184133005 0 -0.011945588560609528 -0.0010104131065786315 0 -0.011120959541125009 0.0007961188503038388 0 -0.0095491200847828816 0.00021676714554179084 0 -0.010464713892864632 -0.00049519677184133005 0 -0.011120959541125009 0.0007961188503038388 0 -0.0095491200847828816 0.00021676714554179084 0 -0.0088511632133063713 0.001252486282295896 0 -0.0095491200847828816 0.00021676714554179084 0 -0.0088511632133063713 0.001252486282295896 0 -0.007560966387564449 0.00018834588500649829 0 -0.012373729882279721 0.00015333806022099574 0 -0.0094959337178943705 0.00045352425845168086 0 -0.0095491200847828816 0.00021676714554179084 0 -0.009128280720561141 -0.00084896514848360619 0 -0.007560966387564449 0.00018834588500649829 0 -0.0095491200847828816 0.00021676714554179084 0 -0.009128280720561141 -0.00084896514848360619 0 -0.010464713892864632 -0.00049519677184133005 0 -0.009128280720561141 -0.00084896514848360619 0 -0.010475996629385602 -0.0015587864449962512 0 -0.010464713892864632 -0.00049519677184133005 0 -0.0091737288573526324 -0.0019974218709716456 0 -0.009128280720561141 -0.00084896514848360619 0 -0.010475996629385602 -0.0015587864449962512 0 -0.010475996629385602 -0.0015587864449962512 0 -0.010464713892864632 -0.00049519677184133005 0 -0.011945588560609528 -0.0010104131065786315 0 -0.012543083196048386 -0.00092612323608020101 0 -0.013908738002152645 -0.0013352354166418176 0 -0.013377004807786958 0.00037973412422160371 0 -0.015071088725791913 -0.001814990436272261 0 -0.015197845743257889 -0.00010495516972417833 0 -0.013908738002152645 -0.0013352354166418176 0 -0.015197845743257889 -0.00010495516972417833 0 -0.013908738002152645 -0.0013352354166418176 0 -0.013377004807786958 0.00037973412422160371 0 -0.015062983012163482 -8.0136167783252129e-05 0 -0.014177064472638215 0.00010585489263820545 0 -0.015197845743257889 -0.00010495516972417833 0 -0.014865034691945051 -0.00012534125659062083 0 -0.015495674601126866 0.00053639491127903502 0 -0.012373729882279721 0.00015333806022099574 0 -0.014177064472638215 0.00010585489263820545 0 -0.011882311289588677 0.0007373440663338564 0 -0.012543083196048386 -0.00092612323608020101 0 -0.013377004807786958 0.00037973412422160371 0 -0.013677743784079053 -0.00011033144270256291 0 -0.014865034691945051 -0.00012534125659062083 0 -0.014803876566754345 0.00092695977236355819 0 -0.016248675532571609 0.001555148701878612 0 -0.014803876566754345 0.00092695977236355819 0 -0.015495674601126866 0.00053639491127903502 0 -0.014865034691945051 -0.00012534125659062083 0 -0.014803876566754345 0.00092695977236355819 0 -0.015495674601126866 0.00053639491127903502 0 -0.015447887872546064 0.0020706705564522963 0 -0.016248675532571609 0.001555148701878612 0 -0.014803876566754345 0.00092695977236355819 0 -0.015447887872546064 0.0020706705564522963 0 -0.014803876566754345 0.00092695977236355819 0 -0.014048585697954879 0.0019281234755797903 0 -0.014048585697954879 0.0019281234755797903 0 -0.013032432223236591 0.00083198567136932053 0 -0.011864677338574003 0.0027197540921127402 0 -0.012751230651187476 0.00086302410585671206 0 -0.011950787528024236 0.0026086889605021024 0 -0.014803876566754345 0.00092695977236355819 0 -0.014048585697954879 0.0019281234755797903 0 -0.013032432223236591 0.00083198567136932053 0 -0.013275054770515096 -0.0010565789596306597 0 -0.012387872531334991 0.0011017871727659174 0 -0.010267613761712632 -0.00035504339686619603 0 -0.013677743784079053 -0.00011033144270256291 0 -0.014803876566754345 0.00092695977236355819 0 -0.013032432223236591 0.00083198567136932053 0 -0.012373729882279721 0.00015333806022099574 0 -0.012751230651187476 0.00086302410585671206 0 -0.010267613761712632 -0.00035504339686619603 0 -0.01093070299725424 0.0019636208888218665 0 -0.0092216615573564656 0.0018848258425825165 0 -0.012387872531334991 0.0011017871727659174 0 -0.010267613761712632 -0.00035504339686619603 0 -0.01093070299725424 0.0019636208888218665 0 -0.012387872531334991 0.0011017871727659174 0 -0.01093070299725424 0.0019636208888218665 0 -0.011864677338574003 0.0027197540921127402 0 -0.01093070299725424 0.0019636208888218665 0 -0.011065563908745711 0.0031848599962818014 0 -0.0092216615573564656 0.0018848258425825165 0 -0.01093070299725424 0.0019636208888218665 0 -0.011864677338574003 0.0027197540921127402 0 -0.011065563908745711 0.0031848599962818014 0 -0.011065563908745711 0.0031848599962818014 0 -0.0092216615573564656 0.0018848258425825165 0 -0.0063115892664591848 0.0023068382585249201 0 -0.017257776561943057 0.0019522345215327308 0 -0.016879586027555078 0.0017942633875132105 0 -0.016558625096543468 0.0011919500101840728 0 -0.014053283310091782 0.002518088306830243 0 -0.011421689033576939 0.001685027483553233 0 -0.016861202297208781 0.0019725422220374387 0 -0.016879586027555078 0.0017942633875132105 0 -0.016606361824972472 0.0017234041979687592 0 -0.016879586027555078 0.0017942633875132105 0 -0.016606361824972472 0.0017234041979687592 0 -0.016558625096543468 0.0011919500101840728 0 -0.016212523197683047 0.0017761273917995411 0 -0.016606361824972472 0.0017234041979687592 0 -0.016161096330944074 0.00141773473335301 0 -0.016606361824972472 0.0017234041979687592 0 -0.016558625096543468 0.0011919500101840728 0 -0.016161096330944074 0.00141773473335301 0 -0.016558625096543468 0.0011919500101840728 0 -0.016161096330944074 0.00141773473335301 0 -0.015836683828914885 0.0011003862043894946 0 -0.0063115892664591848 0.0023068382585249201 0 -0.0063070846918881086 0.0013029733182412606 0 -0.0045575628749357855 0.00080740828652896886 0 -0.0063115892664591848 0.0023068382585249201 0 -0.0063070846918881086 0.0013029733182412606 0 -0.0077478708453414293 0.0015788527988375117 0 -0.0063070846918881086 0.0013029733182412606 0 -0.0049527593944218061 0.00049327066778498234 0 -0.0045575628749357855 0.00080740828652896886 0 -0.0088511632133063713 0.001252486282295896 0 -0.0063070846918881086 0.0013029733182412606 0 -0.007560966387564449 0.00018834588500649829 0 -0.0092216615573564656 0.0018848258425825165 0 -0.0063115892664591848 0.0023068382585249201 0 -0.0077478708453414293 0.0015788527988375117 0 -0.0094959337178943705 0.00045352425845168086 0 -0.0066439717777567213 0.0012078691132285675 0 -0.010267613761712632 -0.00035504339686619603 0 -0.0063070846918881086 0.0013029733182412606 0 -0.0077478708453414293 0.0015788527988375117 0 -0.010267613761712632 -0.00035504339686619603 0 -0.0092216615573564656 0.0018848258425825165 0 -0.0077478708453414293 0.0015788527988375117 0 -0.007560966387564449 0.00018834588500649829 0 -0.0049527593944218061 0.00049327066778498234 0 -0.0072691382896158075 -0.0014759924554917446 0 -0.004854115055654481 0.00054663634169485782 0 -0.005370270791266998 -0.00064677198062258485 0 -0.0063070846918881086 0.0013029733182412606 0 -0.007560966387564449 0.00018834588500649829 0 -0.0049527593944218061 0.00049327066778498234 0 -0.0049527593944218061 0.00049327066778498234 0 -0.0035201333194116572 4.3323604265219688e-05 0 -0.0034056687927274125 4.9847221075220927e-05 0 -0.0035201333194116572 4.3323604265219688e-05 0 -0.0034056687927274125 4.9847221075220927e-05 0 -0.0031124133653278518 3.6333513996709418e-05 0 -0.009128280720561141 -0.00084896514848360619 0 -0.007560966387564449 0.00018834588500649829 0 -0.0072691382896158075 -0.0014759924554917446 0 -0.0091737288573526324 -0.0019974218709716456 0 -0.009128280720561141 -0.00084896514848360619 0 -0.0072691382896158075 -0.0014759924554917446 0 -0.0030645656763423515 0.00017879881679343105 0 -0.0030931643463184273 0.00022700079651038639 0 -0.0028023534847529674 4.6564529094648705e-05 0 -0.0030645656763423515 0.00017879881679343105 0 -0.0032864534013102883 0.00010234102080016296 0 -0.0031762891603888139 0.00033393816998984369 0 -0.0030645656763423515 0.00017879881679343105 0 -0.0031762891603888139 0.00033393816998984369 0 -0.0030931643463184273 0.00022700079651038639 0 -0.0030645656763423515 0.00017879881679343105 0 -0.0032864534013102883 0.00010234102080016296 0 -0.0028023534847529674 4.6564529094648705e-05 0 -0.0035201333194116572 4.3323604265219688e-05 0 -0.0032864534013102883 0.00010234102080016296 0 -0.0029823421697636257 -2.2918788591985904e-06 0 -0.0035201333194116572 4.3323604265219688e-05 0 -0.0032864534013102883 0.00010234102080016296 0 -0.003694571878984278 0.00027109400430474833 0 -0.0032864534013102883 0.00010234102080016296 0 -0.003694571878984278 0.00027109400430474833 0 -0.0031762891603888139 0.00033393816998984369 0 -0.003694571878984278 0.00027109400430474833 0 -0.0036141490572533562 0.00054349771267978313 0 -0.0031762891603888139 0.00033393816998984369 0 -0.0049527593944218061 0.00049327066778498234 0 -0.0035201333194116572 4.3323604265219688e-05 0 -0.003694571878984278 0.00027109400430474833 0 -0.0049527593944218061 0.00049327066778498234 0 -0.003694571878984278 0.00027109400430474833 0 -0.0045575628749357855 0.00080740828652896886 0 -0.0036141490572533562 0.00054349771267978313 0 -0.0045575628749357855 0.00080740828652896886 0 -0.0033457115658387607 0.00090877455275505407 0 -0.003694571878984278 0.00027109400430474833 0 -0.0036141490572533562 0.00054349771267978313 0 -0.0045575628749357855 0.00080740828652896886 0 -0.0036141490572533562 0.00054349771267978313 0 -0.0031762891603888139 0.00033393816998984369 0 -0.0033457115658387607 0.00090877455275505407 0 -0.0031673565899198813 0.00059115345875415594 0 -0.0031762891603888139 0.00033393816998984369 0 -0.0033457115658387607 0.00090877455275505407 0 -0.0031673565899198813 0.00059115345875415594 0 -0.0031762891603888139 0.00033393816998984369 0 -0.0031819402582529271 0.0001850910436857401 0 -0.0085559291681259232 0.00044082943003102783 0 -0.009316031392665073 0.00067711709885123858 0 -0.0031762891603888139 0.00033393816998984369 0 -0.0031819402582529271 0.0001850910436857401 0 -0.0030931643463184273 0.00022700079651038639 0 -0.0073290033914327271 0.0015919424729545801 0 -0.0063751902927720551 0.0017850758359999322 0 -0.0060064365927365356 0.00097737780550122082 0 -0.0085559291681259232 0.00044082943003102783 0 -0.0041606450207267399 0.00049357717658753066 0 -0.014778280745478024 0.00010163502608293629 0 -0.015263543448385828 0.00033527265857900189 0 -0.015391244964653789 0.0016256738698992976 0 -0.0073290033914327271 0.0015919424729545801 0 -0.0070345784042755675 0.0026072072963526961 0 -0.0078828414675221736 0.0034713984736239678 0 -0.0073290033914327271 0.0015919424729545801 0 -0.0067731497215085534 0.0020923335140788962 0 -0.0070345784042755675 0.0026072072963526961 0 -0.0085559291681259232 0.00044082943003102783 0 -0.011989865369446856 0.0026659416314019453 0 -0.0073290033914327271 0.0015919424729545801 0 -0.0067731497215085534 0.0020923335140788962 0 -0.0063751902927720551 0.0017850758359999322 0 -0.0067731497215085534 0.0020923335140788962 0 -0.0070345784042755675 0.0026072072963526961 0 -0.0061586051332946871 0.0023899881129368686 0 -0.011421689033576939 0.001685027483553233 0 -0.009316031392665073 0.00067711709885123858 0 -0.015263543448385828 0.00033527265857900189 0 -0.015391244964653789 0.0016256738698992976 0 -0.015836683828914885 0.0011003862043894946 0 -0.016558625096543468 0.0011919500101840728 0 -0.015263543448385828 0.00033527265857900189 0 -0.015836683828914885 0.0011003862043894946 0 -0.0063115892664591848 0.0023068382585249201 0 -0.0045575628749357855 0.00080740828652896886 0 -0.0033457115658387607 0.00090877455275505407 0 -0.016161096330944074 0.00141773473335301 0 -0.015391244964653789 0.0016256738698992976 0 -0.015836683828914885 0.0011003862043894946 0 -0.016212523197683047 0.0017761273917995411 0 -0.016161096330944074 0.00141773473335301 0 -0.015391244964653789 0.0016256738698992976 0 -0.0070345784042755675 0.0026072072963526961 0 -0.0078828414675221736 0.0034713984736239678 0 -0.0065273263854672223 0.0031774411182665988 0 -0.0066797403358175456 0.0040003367180988479 0 -0.0078828414675221736 0.0034713984736239678 0 -0.0065273263854672223 0.0031774411182665988 0 -0.0053746665187011881 0.0038876411162505997 0 -0.0066797403358175456 0.0040003367180988479 0 -0.0056680056283901587 0.0031654853422019885 0 -0.0066797403358175456 0.0040003367180988479 0 -0.0065273263854672223 0.0031774411182665988 0 -0.0056680056283901587 0.0031654853422019885 0 -0.0065273263854672223 0.0031774411182665988 0 -0.0056680056283901587 0.0031654853422019885 0 -0.0061586051332946871 0.0023899881129368686 0 -0.0053746665187011881 0.0038876411162505997 0 -0.0056680056283901587 0.0031654853422019885 0 -0.0047401916798201259 0.0028149178228377299 0 -0.0053746665187011881 0.0038876411162505997 0 -0.0047401916798201259 0.0028149178228377299 0 -0.0038909651337762602 0.0035980912995374078 0 -0.0047401916798201259 0.0028149178228377299 0 -0.0053572657385712492 0.0023833626343298412 0 -0.0046149680099825717 0.0016861976382196889 0 -0.0056680056283901587 0.0031654853422019885 0 -0.0047401916798201259 0.0028149178228377299 0 -0.0053572657385712492 0.0023833626343298412 0 -0.0053572657385712492 0.0023833626343298412 0 -0.0056672862792002841 0.0018232312727062749 0 -0.0046149680099825717 0.0016861976382196889 0 -0.0053572657385712492 0.0023833626343298412 0 -0.0056672862792002841 0.0018232312727062749 0 -0.0061586051332946871 0.0023899881129368686 0 -0.0056672862792002841 0.0018232312727062749 0 -0.0063751902927720551 0.0017850758359999322 0 -0.0061586051332946871 0.0023899881129368686 0 -0.0067731497215085534 0.0020923335140788962 0 -0.0063751902927720551 0.0017850758359999322 0 -0.0061586051332946871 0.0023899881129368686 0 -0.0070345784042755675 0.0026072072963526961 0 -0.0065273263854672223 0.0031774411182665988 0 -0.0061586051332946871 0.0023899881129368686 0 -0.0056680056283901587 0.0031654853422019885 0 -0.0053572657385712492 0.0023833626343298412 0 -0.0061586051332946871 0.0023899881129368686 0 -0.0038909651337762602 0.0035980912995374078 0 -0.0037192117541075664 0.002361303711656625 0 -0.0028394876947119424 0.0027032790448138365 0 -0.0023240591537851013 0.0037379482848168013 0 -0.0038909651337762602 0.0035980912995374078 0 -0.0028394876947119424 0.0027032790448138365 0 -0.0047401916798201259 0.0028149178228377299 0 -0.0038909651337762602 0.0035980912995374078 0 -0.0037192117541075664 0.002361303711656625 0 -0.0047401916798201259 0.0028149178228377299 0 -0.0037192117541075664 0.002361303711656625 0 -0.0046149680099825717 0.0016861976382196889 0 -0.002203355635953262 0.0020813463979094029 0 -0.0028394876947119424 0.0027032790448138365 0 -0.0029106237967165454 0.001741993305944775 0 -0.0037192117541075664 0.002361303711656625 0 -0.0028394876947119424 0.0027032790448138365 0 -0.0029106237967165454 0.001741993305944775 0 -0.0022308968824670517 0.0012303279456767364 0 -0.0029106237967165454 0.001741993305944775 0 -0.0029590307226674793 0.00076181926404634821 0 -0.0037192117541075664 0.002361303711656625 0 -0.0029106237967165454 0.001741993305944775 0 -0.00358927668304485 0.0013367892313445732 0 -0.0029106237967165454 0.001741993305944775 0 -0.00358927668304485 0.0013367892313445732 0 -0.0029590307226674793 0.00076181926404634821 0 -0.0037192117541075664 0.002361303711656625 0 -0.00358927668304485 0.0013367892313445732 0 -0.0046149680099825717 0.0016861976382196889 0 -0.00358927668304485 0.0013367892313445732 0 -0.0038571369735424508 0.00034405382309822568 0 -0.0046149680099825717 0.0016861976382196889 0 -0.00358927668304485 0.0013367892313445732 0 -0.0038571369735424508 0.00034405382309822568 0 -0.0029590307226674793 0.00076181926404634821 0 -0.0056672862792002841 0.0018232312727062749 0 -0.0060064365927365356 0.00097737780550122082 0 -0.0046149680099825717 0.0016861976382196889 0 -0.0056672862792002841 0.0018232312727062749 0 -0.0063751902927720551 0.0017850758359999322 0 -0.0060064365927365356 0.00097737780550122082 0 -0.0038571369735424508 0.00034405382309822568 0 -0.0060064365927365356 0.00097737780550122082 0 -0.0046149680099825717 0.0016861976382196889 0 -0.0038571369735424508 0.00034405382309822568 0 -0.0031819402582529271 0.0001850910436857401 0 -0.0037039071466130236 0.00025728163915177338 0 -0.0041123416495097561 0.00041810677252555406 0 -0.0041606450207267399 0.00049357717658753066 0 -0.0030931643463184273 0.00022700079651038639 0 -0.0023386924743138359 -7.3171410301708692e-07 0 -0.0028023534847529674 4.6564529094648705e-05 0 -0.0031819402582529271 0.0001850910436857401 0 -0.0030931643463184273 0.00022700079651038639 0 -0.0037039071466130236 0.00025728163915177338 0 -0.0030624032453952588 0.00017004445734942209 0 -0.002999887842800131 7.9695475505011019e-05 0 -0.0023386924743138359 -7.3171410301708692e-07 0 -0.0022922887820361467 -0.00013691240723172484 0 -0.0028023534847529674 4.6564529094648705e-05 0 -0.0038571369735424508 0.00034405382309822568 0 -0.0037039071466130236 0.00025728163915177338 0 -0.0036062422794707412 -5.7179162740903933e-05 0 -0.002999887842800131 7.9695475505011019e-05 0 -0.0029865026547794206 -0.00042733580932574633 0 -0.0037039071466130236 0.00025728163915177338 0 -0.0038270969666176053 -0.00048673555063996323 0 -0.0036062422794707412 -5.7179162740903933e-05 0 -0.0038270969666176053 -0.00048673555063996323 0 -0.0036062422794707412 -5.7179162740903933e-05 0 -0.0033446862649291007 -0.00067721518473923238 0 -0.0023386924743138359 -7.3171410301708692e-07 0 -0.0019802490973610735 -0.0002245354928735798 0 -0.0022922887820361467 -0.00013691240723172484 0 -0.0019802490973610735 -0.0002245354928735798 0 -0.0022922887820361467 -0.00013691240723172484 0 -0.0020650217331741076 -0.00022402175793596036 0 -0.0021431751421520078 0.00038978497850405199 0 -0.0029590307226674793 0.00076181926404634821 0 -0.0029664022735100119 -0.00014603922014877173 0 -0.0038571369735424508 0.00034405382309822568 0 -0.0036062422794707412 -5.7179162740903933e-05 0 -0.0029664022735100119 -0.00014603922014877173 0 -0.0038571369735424508 0.00034405382309822568 0 -0.0029590307226674793 0.00076181926404634821 0 -0.0029664022735100119 -0.00014603922014877173 0 -0.0036062422794707412 -5.7179162740903933e-05 0 -0.0029664022735100119 -0.00014603922014877173 0 -0.0033446862649291007 -0.00067721518473923238 0 -0.0029664022735100119 -0.00014603922014877173 0 -0.0027562936661646394 -0.00098504650945851254 0 -0.0033446862649291007 -0.00067721518473923238 0 -0.0027562936661646394 -0.00098504650945851254 0 -0.0033446862649291007 -0.00067721518473923238 0 -0.0035445318910918701 -0.0012915331572028624 0 -0.00052602465434566678 -9.8672206145099952e-05 0 -0.00054403729070688492 5.7956697816980812e-06 0 -0.00019035342784002199 -0.00012696957318480374 0 -0.0014973994018075009 -0.00056751226492681155 0 -0.0018288767067624182 -0.00023752996613616803 0 -0.0001111671456490549 1.621660718970803e-06 0 -0.00054403729070688492 5.7956697816980812e-06 0 -0.00019035342784002199 -0.00012696957318480374 0 -0.00088988741847700317 -0.00019735355864084291 0 -0.0018288767067624182 -0.00023752996613616803 0 6.9169367627795869e-05 -0.00014580968659352108 0 -0.0001111671456490549 1.621660718970803e-06 0 -0.00019035342784002199 -0.00012696957318480374 0 6.9169367627795869e-05 -0.00014580968659352108 0 4.8663531901418436e-05 -0.00033446969728249867 0 -0.00019035342784002199 -0.00012696957318480374 0 -0.0018690520572151336 -0.00022250093469146557 0 -0.0017890785402363955 -0.00019316702859640143 0 -0.0020650217331741076 -0.00022402175793596036 0 -0.0019802490973610735 -0.0002245354928735798 0 -0.0018690520572151336 -0.00022250093469146557 0 -0.0020650217331741076 -0.00022402175793596036 0 -0.0038270969666176053 -0.00048673555063996323 0 -0.0033446862649291007 -0.00067721518473923238 0 -0.0035445318910918701 -0.0012915331572028624 0 -0.0019802490973610735 -0.0002245354928735798 0 -0.0019501422254255395 -0.00019339527777075305 0 -0.0018690520572151336 -0.00022250093469146557 0 -0.0029865026547794206 -0.00042733580932574633 0 -0.0018288767067624182 -0.00023752996613616803 0 -0.0016532497946319543 -0.0001431068018570701 0 -0.0019501422254255395 -0.00019339527777075305 0 -0.0018690520572151336 -0.00022250093469146557 0 -0.0014403949161470883 1.0695562228310339e-05 0 -0.0018288767067624182 -0.00023752996613616803 0 -0.0016532497946319543 -0.0001431068018570701 0 -0.0011453847639431467 4.280977420458305e-06 0 -0.00077056259787240688 0.00041502186062218323 0 -0.0011453847639431467 4.280977420458305e-06 0 -0.00052602465434566678 -9.8672206145099952e-05 0 -0.00077056259787240688 0.00041502186062218323 0 -0.0016532497946319543 -0.0001431068018570701 0 -0.0018690520572151336 -0.00022250093469146557 0 -0.0017890785402363955 -0.00019316702859640143 0 -0.0016532497946319543 -0.0001431068018570701 0 -0.0017890785402363955 -0.00019316702859640143 0 -0.0014728178597303689 -2.6051651893462207e-05 0 -0.0014728178597303689 -2.6051651893462207e-05 0 -0.0017864250679612015 -0.00019331910750329913 0 -0.0015930349934977829 -0.00020463620005027762 0 -0.0017890785402363955 -0.00019316702859640143 0 -0.0014728178597303689 -2.6051651893462207e-05 0 -0.0017864250679612015 -0.00019331910750329913 0 -0.0020650217331741076 -0.00022402175793596036 0 -0.0021197645439385289 -0.0002183455719413845 0 -0.002523774052208716 -0.00010917579021575822 0 -0.0017864250679612015 -0.00019331910750329913 0 -0.0020650217331741076 -0.00022402175793596036 0 -0.0021197645439385289 -0.0002183455719413845 0 -0.0017890785402363955 -0.00019316702859640143 0 -0.0017864250679612015 -0.00019331910750329913 0 -0.0020650217331741076 -0.00022402175793596036 0 -0.0017864250679612015 -0.00019331910750329913 0 -0.0021197645439385289 -0.0002183455719413845 0 -0.0015930349934977829 -0.00020463620005027762 0 -0.0021197645439385289 -0.0002183455719413845 0 -0.0015930349934977829 -0.00020463620005027762 0 -0.0018690770820948169 -0.00038216359727031516 0 -0.0017929472033373615 -0.00060494195308183167 0 -0.0018222360428193664 -0.00042257772389366863 0 -0.0026184944219234162 -0.0011020352259679535 0 -0.0018690770820948169 -0.00038216359727031516 0 -0.0025508057155870126 -0.00038515657401075456 0 -0.0012257587445237252 -0.00011819407828647625 0 -0.0015930349934977829 -0.00020463620005027762 0 -0.0018690770820948169 -0.00038216359727031516 0 -0.0026184944219234162 -0.0011020352259679535 0 -0.0025508057155870126 -0.00038515657401075456 0 -0.0029297493269270984 -0.00055857443900892323 0 -0.0026184944219234162 -0.0011020352259679535 0 -0.0031192798198877657 -0.00086698358398147406 0 -0.0029297493269270984 -0.00055857443900892323 0 -0.0025508057155870126 -0.00038515657401075456 0 -0.0029297493269270984 -0.00055857443900892323 0 -0.0029942269899708883 -0.00016117612705993862 0 -0.0025508057155870126 -0.00038515657401075456 0 -0.0029942269899708883 -0.00016117612705993862 0 -0.0026465919785340084 -0.00011633705120464104 0 -0.0029942269899708883 -0.00016117612705993862 0 -0.0026465919785340084 -0.00011633705120464104 0 -0.0029044748323108949 -2.1736868557431953e-05 0 -0.0021197645439385289 -0.0002183455719413845 0 -0.0018690770820948169 -0.00038216359727031516 0 -0.0026465919785340084 -0.00011633705120464104 0 -0.0021197645439385289 -0.0002183455719413845 0 -0.0026465919785340084 -0.00011633705120464104 0 -0.0026961619471624291 -5.527454106935215e-05 0 -0.0018690770820948169 -0.00038216359727031516 0 -0.0025508057155870126 -0.00038515657401075456 0 -0.0026465919785340084 -0.00011633705120464104 0 -0.0026465919785340084 -0.00011633705120464104 0 -0.0029873586030747966 2.4928922425821658e-05 0 -0.0026961619471624291 -5.527454106935215e-05 0 -0.0029942269899708883 -0.00016117612705993862 0 -0.0029044748323108949 -2.1736868557431953e-05 0 -0.0030091345311072742 5.4697461938567369e-05 0 -0.0029873586030747966 2.4928922425821658e-05 0 -0.0029044748323108949 -2.1736868557431953e-05 0 -0.0030091345311072742 5.4697461938567369e-05 0 -0.0026465919785340084 -0.00011633705120464104 0 -0.0029873586030747966 2.4928922425821658e-05 0 -0.0029044748323108949 -2.1736868557431953e-05 0 -0.0034056687927274125 4.9847221075220927e-05 0 -0.0029873586030747966 2.4928922425821658e-05 0 -0.0030091345311072742 5.4697461938567369e-05 0 -0.0091737288573526324 -0.0019974218709716456 0 -0.0072691382896158075 -0.0014759924554917446 0 -0.0088737096982423845 -0.0031857827899354593 0 -0.005370270791266998 -0.00064677198062258485 0 -0.0056376398831792596 -0.0014075089097212699 0 -0.0034056687927274125 4.9847221075220927e-05 0 -0.0029873586030747966 2.4928922425821658e-05 0 -0.0031124133653278518 3.6333513996709418e-05 0 -0.0029873586030747966 2.4928922425821658e-05 0 -0.0031124133653278518 3.6333513996709418e-05 0 -0.0026961619471624291 -5.527454106935215e-05 0 -0.0035201333194116572 4.3323604265219688e-05 0 -0.0031124133653278518 3.6333513996709418e-05 0 -0.0029823421697636257 -2.2918788591985904e-06 0 -0.0032864534013102883 0.00010234102080016296 0 -0.0029823421697636257 -2.2918788591985904e-06 0 -0.0028023534847529674 4.6564529094648705e-05 0 -0.0031124133653278518 3.6333513996709418e-05 0 -0.0029823421697636257 -2.2918788591985904e-06 0 -0.0026961619471624291 -5.527454106935215e-05 0 -0.0029823421697636257 -2.2918788591985904e-06 0 -0.0028023534847529674 4.6564529094648705e-05 0 -0.002523774052208716 -0.00010917579021575822 0 -0.0022922887820361467 -0.00013691240723172484 0 -0.0028023534847529674 4.6564529094648705e-05 0 -0.002523774052208716 -0.00010917579021575822 0 -0.0022922887820361467 -0.00013691240723172484 0 -0.0020650217331741076 -0.00022402175793596036 0 -0.002523774052208716 -0.00010917579021575822 0 -0.0021197645439385289 -0.0002183455719413845 0 -0.002523774052208716 -0.00010917579021575822 0 -0.0026961619471624291 -5.527454106935215e-05 0 -0.0029823421697636257 -2.2918788591985904e-06 0 -0.002523774052208716 -0.00010917579021575822 0 -0.0026961619471624291 -5.527454106935215e-05 0 
</DataArray>
</PointData>
<CellData Scalars="region_id,cross_section_updated," Vectors="" Tensors="stress,">
<DataArray type="Float64" Name="region_id" format="ascii">
5 5 5 6 5 5 5 5 5 5 5 5 6 5 5 6 5 5 6 6 5 5 6 5 5 5 6 5 5 5 5 5 5 5 5 6 5 5 5 5 5 5 5 6 5 5 5 5 6 5 5 5 5 5 5 5 5 5 5 5 5 6 5 5 5 5 6 6 5 5 6 6 5 5 5 5 6 5 5 5 6 5 5 5 5 6 6 5 5 5 5 5 6 6 5 5 5 5 6 5 5 5 5 5 5 5 5 6 5 5 5 6 5 5 5 5 5 5 5 5 5 5 6 5 6 5 6 5 5 5 5 5 5 6 5 5 6 5 5 5 6 5 6 5 5 5 5 5 5 5 6 5 5 5 5 5 5 5 5 6 5 5 5 5 5 5 5 6 5 5 6 5 5 5 5 5 5 5 5 5 5 5 5 5 5 5 5 5 5 5 5 5 5 5 5 5 5 5 5 6 6 6 6 5 6 5 5 6 5 5 6 5 5 6 5 5 5 6 5 5 5 5 5 5 5 5 5 5 5 5 5 5 6 5 5 5 5 5 5 5 5 5 5 5 5 5 5 5 5 5 5 5 5 6 5 5 5 5 5 6 5 5 5 5 5 5 6 6 5 6 6 5 6 5 5 6 6 5 5 6 5 5 6 6 5 5 5 5 5 5 6 6 5 6 6 5 6 5 5 5 5 6 5 6 5 5 5 5 5 5 5 5 5 5 5 5 5 5 5 5 5 5 5 5 5 6 5 5 5 5 5 6 5 5 5 6 5 5 5 5 5 6 5 5 5 5 5 5 5 5 5 5 6 5 5 5 5 5 5 5 5 5 5 5 6 5 5 5 5 5 5 5 5 5 5 5 5 5 5 5 5 5 5 5 5 5 5 5 5 5 5 5 5 5 5 5 5 5 5 5 5 5 5 5 5 5 5 5 5 5 5 6 5 6 5 6 5 5 5 5 5 5 5 5 5 5 5 5 5 5 5 5 5 5 5 5 5 5 5 5 5 5 5 6 5 5 5 6 5 5 5 6 5 5 6 5 5 5 5 5 5 5 6 5 5 5 5 5 5 5 5 5 5 5 5 5 5 5 5 5 6 5 5 5 5 5 6 5 5 5 5 5 5 5 6 5 5 6 5 5 6 5 5 5 5 5 5 5 5 5 5 5 5 6 5 5 6 6 5 5 5 5 5 6 5 5 5 5 5 6 5 5 5 6 5 5 6 5 5 6 5 5 5 5 5 5 6 5 5 6 5 5 5 5 5 5 5 5 6 5 5 6 6 5 5 5 5 5 5 5 5 5 5 5 5 5 5 5 5 5 5 5 5 6 5 5 5 5 5 5 5 5 6 5 5 5 5 5 5 5 5 5 5 6 5 5 5 5 5 5 5 5 5 5 5 5 5 5 5 5 5 5 5 5 5 5 5 6 5 5 5 5 5 5 5 5 6 5 5 6 5 5 5 5 5 5 5 5 5 5 5 5 5 5 5 5 5 5 5 6 5 5 5 5 6 5 5 5 5 5 6 6 5 5 5 5 5 5 5 6 5 5 5 5 6 5 5 5 5 5 5 5 6 6 6 6 5 6 5 6 6 5 5 5 5 5 6 5 6 6 6 5 6 5 5 5 5 5 5 5 5 5 5 5 5 5 5 6 5 5 5 6 5 5 5 6 5 5 5 5 5 5 5 5 5 5 5 5 5 6 5 5 5 5 5 5 5 5 5 5 5 5 5 5 5 5 5 5 5 5 5 5 5 5 5 5 5 5 5 5 5 6 5 5 5 6 5 5 5 5 5 5 5 5 5 5 5 5 5 5 5 5 5 5 5 5 5 5 5 5 5 5 6 5 5 5 5 5 5 5 5 5 5 5 5 6 5 5 6 5 5 5 5 6 5 5 6 5 5 5 6 5 5 5 6 5 5 5 5 6 5 5 5 6 6 5 5 6 5 5 5 5 5 5 5 6 6 5 5 5 5 5 5 5 5 6 5 6 6 5 5 5 5 5 5 5 5 5 6 5 5 5 5 5 5 5 5 5 5 5 6 5 5 5 5 5 5 6 5 5 5 5 6 5 5 5 6 5 5 5 5 5 5 5 5 5 5 6 5 5 5 5 5 5 6 5 5 6 5 5 5 5 6 5 6 5 5 5 5 5 5 5 5 5 5 6 5 5 6 5 5 5 5 5 5 5 5 5 6 5 5 5 5 6 5 5 5 5 5 5 6 5 5 5 5 5 5 5 5 5 5 5 5 5 5 6 5 5 5 5 5 5 5 5 5 5 5 6 5 5 5 5 5 5 5 5 5 5 5 5 5 5 5 5 5 5 5 5 5 5 5 5 5 5 5 6 5 5 5 5 5 5 5 6 5 5 5 5 5 5 5 5 5 6 5 5 6 5 5 5 5 5 6 5 5 6 5 5 6 5 5 6 5 5 5 5 5 5 5 5 5 5 5 6 6 6 5 5 5 5 5 6 5 5 5 5 5 5 5 5 5 5 5 5 5 5 6 6 5 6 5 6 5 6 5 6 5 5 5 5 5 5 5 5 5 5 5 5 5 5 5 5 5 5 6 5 5 5 5 5 5 5 5 5 5 5 5 5 5 5 5 5 5 5 5 5 5 5 5 5 5 5 5 5 5 5 5 5 5 5 5 5 5 5 6 5 6 5 6 5 5 5 5 5 5 5 5 5 5 5 6 5 5 5 5 5 5 5 5 5 6 5 5 5 5 6 5 5 6 5 5 5 5 5 5 5 5 5 5 5 6 6 5 6 5 5 5 5 6 5 6 6 5 5 5 6 5 6 5 5 5 6 6 5 5 6 5 5 5 5 5 5 5 5 5 5 6 5 6 5 5 5 5 5 5 6 5 5 6 5 5 5 5 5 6 5 6 5 5 5 5 5 5 5 5 5 5 5 6 5 6 5 5 5 5 5 5 5 5 5 5 5 5 5 5 5 5 5 5 5 5 6 5 5 5 5 5 5 5 5 5 6 5 5 6 5 5 6 5 5 5 5 5 5 5 6 5 5 5 5 5 6 5 5 5 6 5 5 5 6 5 5 6 5 5 6 5 5 5 5 5 5 5 5 5 5 5 5 5 5 5 5 6 5 5 5 5 5 5 5 5 5 5 5 5 5 6 5 5 5 5 5 5 5 5 6 5 5 5 6 5 5 5 5 5 5 5 6 5 5 5 6 6 6 5 5 5 5 5 6 5 5 5 5 5 5 5 5 5 5 5 5 5 5 5 5 5 5 5 5 5 5 5 5 5 5 5 5 5 5 5 5 5 5 5 5 5 5 5 5 5 6 5 5 5 5 5 5 5 5 5 5 5 5 5 5 5 5 5 6 5 5 5 5 5 5 5 5 5 6 5 5 5 5 6 5 5 5 5 5 6 5 5 5 5 6 5 6 6 5 6 5 5 5 5 6 5 5 5 5 5 5 5 6 5 5 5 5 5 5 5 5 6 5 5 5 5 6 5 5 5 5 5 5 5 5 5 5 5 5 5 5 5 5 5 5 5 5 5 5 5 5 5 5 5 5 5 5 5 5 5 5 6 5 5 5 5 5 5 5 5 5 5 5 5 5 5 5 5 5 5 5 5 5 5 5 5 5 6 5 5 6 5 5 5 5 6 5 5 5 5 5 5 5 5 6 5 5 6 6 5 5 6 5 5 6 6 5 5 5 5 6 6 5 5 5 6 5 6 5 5 5 5 5 5 5 5 5 5 5 5 5 5 5 5 5 5 5 5 6 5 5 6 5 5 5 5 5 5 5 5 5 6 5 5 5 5 5 5 6 5 5 5 5 5 5 5 5 6 5 6 5 5 5 5 5 5 5 5 5 5 5 5 5 5 5 5 5 5 5 5 5 5 5 5 5 5 5 5 5 5 5 5 6 5 5 5 5 5 6 5 5 5 5 5 5 5 6 5 5 5 5 5 6 5 5 5 5 5 5 5 5 6 5 5 5 5 5 5 5 5 5 5 5 5 5 6 5 5 6 5 5 6 5 6 5 5 5 5 5 5 5 5 5 5 5 5 5 6 6 5 5 5 5 5 6 5 5 5 5 5 5 5 5 5 5 5 5 5 5 5 5 5 5 5 5 5 5 5 5 5 5 5 5 5 5 5 5 5 5 5 5 5 5 5 5 5 5 5 5 5 5 5 5 5 5 5 5 5 5 5 5 5 5 5 6 5 5 5 5 5 5 5 5 5 5 5 5 5 5 5 5 5 5 5 5 5 5 5 5 5 5 6 5 5 5 5 5 5 5 5 5 5 6 5 6 5 5 5 5 5 5 5 5 5 5 6 5 5 5 5 5 5 5 5 5 5 5 5 5 5 5 5 5 5 5 5 5 5 5 5 5 5 5 5 5 5 5 5 5 5 5 5 5 5 5 5 5 5 5 5 5 5 5 5 5 5 5 5 5 5 5 5 5 5 5 6 5 5 6 5 5 5 5 6 5 6 5 5 5 5 5 5 5 5 5 5 5 5 5 5 5 6 5 5 6 5 5 5 5 5 5 5 5 5 5 5 5 5 5 5 5 5 6 6 5 5 5 5 5 5 5 5 5 5 5 5 5 5 5 5 5 5 5 5 5 5 5 5 5 5 5 5 5 5 5 5 5 5 6 5 5 5 5 5 5 5 5 5 5 5 5 5 5 5 6 5 5 5 5 5 5 5 5 5 5 5 5 5 6 5 5 5 5 5 5 5 5 5 5 5 5 5 5 5 5 5 5 5 5 5 5 5 5 5 5 5 5 6 5 5 5 6 5 5 5 5 5 5 6 5 5 5 6 5 5 5 6 5 5 5 5 5 5 5 6 5 5 5 5 6 5 6 5 5 5 5 5 5 5 5 5 5 6 5 5 5 6 5 6 5 5 5 5 5 5 5 5 6 5 5 5 6 6 5 5 5 5 5 5 5 5 5 5 5 5 5 5 5 5 5 5 5 5 6 5 5 5 5 5 5 5 5 5 5 6 5 5 5 5 5 6 5 5 5 5 5 6 5 5 6 5 5 6 5 5 6 5 5 5 6 5 5 5 5 5 6 5 6 6 5 5 5 5 5 5 5 5 6 5 5 5 6 5 5 6 5 5 5 5 6 5 5 5 6 5 5 5 5 5 5 5 6 5 5 5 5 5 5 5 6 6 6 6 5 5 5 5 5 5 5 5 5 5 5 5 6 5 5 6 5 5 5 5 5 6 5 5 5 5 6 5 5 5 6 5 5 5 5 6 5 6 5 5 5 5 5 5 5 6 5 5 5 6 5 5 5 5 6 6 5 5 5 5 5 5 6 5 5 5 5 6 5 5 5 5 5 6 5 5 5 5 5 6 5 5 5 5 5 6 5 5 5 5 5 5 5 5 6 5 5 5 5 5 5 5 6 5 5 5 5 5 5 5 5 5 5 5 6 5 5 5 5 5 5 6 6 6 5 5 6 5 6 5 6 5 5 5 5 5 5 6 5 5 5 5 5 5 6 5 6 6 5 5 5 5 5 5 5 5 5 5 5 5 5 5 5 5 5 5 5 5 5 5 6 5 6 5 5 5 5 5 5 5 6 6 5 5 5 5 6 5 5 5 5 5 5 5 5 5 5 5 5 5 6 5 5 6 5 5 5 5 5 5 5 5 5 5 5 5 5 6 5 5 5 5 5 6 5 6 5 5 5 5 5 6 5 5 5 5 6 5 5 5 5 5 5 5 5 5 5 5 5 5 5 5 6 5 5 5 5 6 5 5 5 5 5 5 5 5 5 5 5 5 5 5 5 5 6 5 5 6 5 5 5 5 5 5 5 6 5 5 5 5 5 5 6 5 5 6 5 5 5 5 6 5 5 5 5 5 5 5 6 5 5 6 5 5 6 5 5 5 6 5 5 5 5 5 5 5 5 5 6 5 5 6 5 5 5 5 6 5 5 6 5 5 5 6 5 5 5 5 5 5 5 5 6 5 5 5 5 5 5 5 5 5 5 5 5 5 5 5 5 5 5 5 5 5 5 5 5 5 6 5 5 6 5 5 5 5 5 5 5 5 5 5 5 5 5 5 5 5 5 5 5 5 5 6 5 5 5 5 5 6 5 5 6 6 5 6 5 5 6 5 5 5 5 5 5 5 5 5 5 6 5 5 5 5 5 5 5 5 5 5 5 5 5 5 5 5 5 5 5 5 5 5 5 5 5 5 5 5 5 5 5 5 5 5 5 5 5 5 5 5 5 5 5 5 5 5 5 5 5 5 5 5 5 5 5 5 5 5 5 6 5 5 6 5 5 5 5 5 5 5 5 5 5 5 5 5 5 5 5 6 5 5 5 5 5 5 5 5 5 5 5 5 5 6 5 5 6 6 5 5 5 5 5 6 5 5 5 5 5 5 5 5 6 5 5 5 5 6 5 6 5 5 6 5 5 5 5 5 5 5 5 6 6 5 5 5 5 5 5 6 5 5 5 6 5 5 5 5 5 5 5 5 5 6 5 5 6 5 5 5 5 5 5 5 5 6 5 5 6 5 5 5 5 5 5 6 5 5 5 6 5 5 5 5 5 5 5 5 5 5 5 5 5 5 5 5 6 5 5 6 5 5 5 5 6 5 5 6 5 5 5 6 5 5 5 5 6 5 5 5 6 5 5 5 5 5 5 5 6 5 5 5 5 5 6 5 5 5 5 5 5 5 5 5 5 5 5 5 5 5 5 5 5 5 6 5 5 5 5 6 6 5 5 5 5 6 5 5 5 5 5 5 6 5 5 6 5 5 6 5 5 5 6 5 5 5 5 5 5 5 5 5 6 5 5 6 5 5 5 5 5 6 6 5 5 6 5 6 6 5 5 5 6 5 5 5 5 6 5 5 5 5 5 5 5 5 6 5 6 5 5 5 6 5 6 5 5 6 5 5 5 6 5 5 5 5 5 5 5 5 5 6 6 5 5 5 6 5 5 5 5 5 5 5 5 5 5 5 5 6 5 5 5 5 6 5 5 5 5 6 5 5 6 5 5 6 5 5 5 5 5 5 6 5 5 6 5 5 5 5 5 6 5 6 5 5 5 5 5 5 5 5 5 5 5 5 5 5 5 5 5 5 5 5 5 5 5 5 5 5 5 5 5 5 5 5 5 5 5 5 6 5 5 5 5 5 6 5 5 5 5 5 6 5 5 5 5 5 5 6 5 5 5 5 6 5 5 6 5 5 5 5 6 6 5 5 5 5 5 5 6 5 5 5 5 5 5 6 6 5 5 5 5 5 5 5 6 6 5 5 5 6 5 6 5 5 6 6 5 5 5 5 5 6 5 5 5 5 5 5 5 5 5 5 5 5 5 6 5 5 6 6 5 6 5 5 5 6 5 5 5 5 5 6 5 5 5 5 5 5 5 5 6 5 5 5 5 5 6 5 5 5 5 5 5 5 5 5 5 5 5 5 5 5 5 6 5 5 5 5 5 5 5 5 5 5 5 5 5 5 5 5 5 5 5 6 5 6 5 6 5 5 5 5 5 5 5 5 5 5 5 5 5 6 5 5 5 5 5 5 5 5 5 5 5 6 5 5 5 5 5 5 5 5 5 5 5 5 6 6 5 5 5 5 5 5 5 5 5 6 5 5 5 5 5 6 5 5 6 5 6 6 5 5 5 6 5 6 5 5 5 5 5 6 5 5 5 5 6 5 5 5 6 5 5 6 5 5 5 5 5 5 6 5 5 5 5 5 5 6 5 5 5 6 5 5 5 5 5 5 5 5 5 5 5 5 5 5 5 5 5 5 5 5 5 5 5 5 5 5 5 5 5 5 5 5 5 5 5 5 5 5 5 5 5 5 5 5 5 5 5 5 5 5 5 5 5 6 5 5 5 5 5 5 5 5 5 5 5 5 5 5 5 5 6 5 5 5 6 5 5 5 6 5 5 5 5 5 6 5 5 6 5 6 6 5 5 5 5 5 5 5 5 5 6 5 5 6 5 5 5 5 5 5 5 5 5 5 5 5 5 5 5 5 5 5 5 5 5 6 5 5 5 5 5 5 5 5 5 5 5 5 5 5 5 5 5 5 6 5 5 6 5 5 5 5 5 5 5 6 5 5 5 5 5 5 5 6 5 5 6 6 5 5 6 6 5 5 5 5 6 5 6 5 5 5 5 5 5 5 5 5 6 5 5 5 5 6 5 5 5 5 5 5 6 5 5 5 5 6 5 5 5 5 5 6 5 5 5 5 5 5 5 5 6 5 6 5 5 5 5 6 5 6 5 5 5 5 5 5 5 5 5 5 5 6 5 5 5 5 5 5 5 5 5 5 5 5 6 5 5 6 5 5 5 5 5 5 5 5 5 6 6 5 5 5 5 5 5 5 6 5 5 6 5 5 5 5 5 6 5 5 5 5 5 5 6 5 5 5 5 5 5 5 5 5 5 5 5 5 5 5 5 6 5 5 6 5 6 5 5 5 5 6 5 5 5 5 6 5 5 5 5 5 5 5 5 6 5 6 5 6 5 5 5 5 5 5 5 5 5 6 5 5 5 5 5 6 6 5 5 5 5 6 5 5 6 5 5 5 5 6 5 5 6 5 5 5 5 5 5 5 5 5 5 6 6 5 5 5 5 5 5 5 5 5 5 5 5 6 5 5 5 5 5 5 5 5 5 5 6 5 5 5 5 6 5 5 6 5 5 6 6 5 6 5 6 6 5 5 6 5 5 5 5 5 5 5 5 5 5 5 5 5 5 5 5 6 5 5 5 5 6 6 5 5 5 6 5 5 5 6 5 5 5 6 5 5 5 5 5 5 5 5 5 5 5 5 5 5 5 5 5 6 5 5 6 5 5 5 5 6 5 5 5 5 6 5 5 5 5 5 5 5 5 5 5 5 5 5 5 5 5 5 5 5 5 5 5 5 5 5 5 5 5 6 5 5 5 5 5 5 5 5 5 6 5 5 5 5 5 5 5 5 5 5 5 6 6 5 5 6 6 5 5 5 5 6 5 5 5 5 5 5 5 5 5 6 5 5 5 5 5 5 5 5 5 5 5 5 5 5 5 5 5 5 5 5 5 5 5 5 5 6 5 5 5 5 5 5 5 5 5 5 5 5 5 5 5 5 5 5 6 5 5 5 5 5 5 5 5 5 5 5 5 5 5 5 5 5 5 5 5 5 5 5 5 5 5 5 5 5 5 5 5 5 5 5 5 6 5 5 5 5 5 5 6 5 5 5 5 5 5 5 5 5 5 6 5 5 5 6 5 5 5 5 5 5 5 5 5 5 5 5 6 5 5 5 5 5 5 5 5 5 6 5 5 5 5 5 5 5 5 5 5 5 5 5 6 5 5 5 5 5 5 5 5 5 5 5 6 5 5 5 6 5 5 5 5 5 5 5 5 5 5 5 5 6 5 5 5 5 5 5 5 5 5 5 5 5 6 5 5 5 5 5 5 5 5 5 6 5 5 5 5 5 5 5 5 5 5 5 5 5 5 6 5 5 5 5 5 6 5 6 5 5 5 6 5 5 5 5 5 5 6 6 5 5 5 5 5 5 5 5 6 5 5 5 5 5 5 5 5 5 5 5 5 5 5 6 5 5 5 5 6 5 5 5 5 5 5 6 6 5 5 6 5 5 5 5 5 5 5 5 5 5 5 6 5 5 5 5 5 5 6 5 5 5 5 6 5 5 5 5 5 5 5 5 5 6 5 5 5 5 5 5 5 5 5 5 5 5 5 5 5 5 5 5 5 5 5 5 5 5 5 5 5 5 5 5 5 5 5 5 5 5 6 5 5 5 5 5 6 5 5 5 5 6 5 5 5 5 5 5 5 5 5 5 5 5 5 5 5 5 5 5 5 6 5 6 5 5 5 5 6 5 5 5 5 5 5 5 5 5 6 5 5 5 5 6 6 5 5 5 5 5 5 5 5 5 5 5 5 5 5 5 5 5 6 5 5 5 5 5 6 5 5 5 6 5 5 5 5 5 5 6 5 5 5 6 5 5 5 5 5 5 5 5 5 5 5 5 5 5 6 5 5 5 5 5 5 5 5 5 5 5 5 5 5 5 6 5 5 5 5 5 6 5 5 5 5 5 5 5 5 5 6 5 5 6 5 5 5 5 5 5 5 5 5 5 5 5 5 5 6 5 5 5 5 6 6 5 5 5 5 5 5 5 5 5 5 5 5 5 5 5 6 5 5 6 5 5 5 5 5 5 5 5 5 5 5 5 5 5 5 5 6 5 5 5 5 6 5 5 6 5 5 5 5 5 5 5 5 5 5 5 6 5 5 5 5 5 5 5 5 5 5 5 5 5 5 5 5 5 5 5 5 5 5 5 5 5 5 5 5 5 5 5 5 5 5 5 5 5 5 5 5 5 5 5 5 5 5 5 5 5 5 6 5 5 5 5 5 5 5 5 5 5 5 6 5 5 5 5 5 5 5 5 6 5 5 5 5 6 5 6 5 5 5 5 5 5 5 5 5 5 5 6 5 5 5 5 5 5 5 5 5 5 5 5 5 5 5 5 5 5 5 5 6 5 5 5 5 5 5 5 5 5 5 5 5 5 5 5 5 5 5 5 5 5 5 5 5 5 5 5 5 5 5 5 6 5 5 6 5 5 5 5 6 5 5 5 5 5 6 5 5 5 5 5 5 5 6 5 5 5 5 5 5 6 5 5 5 6 5 5 6 6 5 5 5 5 5 5 5 6 5 5 5 5 5 5 5 5 5 5 5 6 6 5 5 5 6 5 5 6 5 5 6 5 5 6 5 6 5 5 5 5 5 5 5 5 6 5 5 5 5 6 5 5 5 6 5 6 5 6 5 5 5 5 5 5 5 6 5 5 5 5 6 5 5 5 6 5 5 5 5 6 5 5 5 5 5 5 5 5 5 5 5 5 5 5 5 5 5 5 5 5 5 5 5 5 6 5 5 5 6 6 5 5 5 5 5 5 5 5 6 5 5 6 5 5 5 5 5 5 5 5 5 5 5 5 5 5 5 5 5 5 5 5 5 5 5 5 5 5 5 5 5 5 5 5 5 5 5 5 5 5 5 5 5 5 5 5 5 5 5 5 5 5 5 5 5 6 5 5 6 5 6 5 5 5 5 5 5 5 5 5 5 5 5 5 5 5 5 5 5 5 5 5 5 5 5 6 5 5 5 5 6 5 5 5 5 5 5 5 5 6 5 5 5 6 5 5 6 5 5 5 5 5 5 5 5 5 5 5 6 5 5 5 5 5 5 5 5 5 5 6 5 5 5 6 5 5 5 5 6 5 5 5 5 5 5 5 5 5 6 5 5 5 5 5 5 6 5 5 5 5 5 5 5 5 5 5 5 5 5 5 5 5 5 5 5 5 5 5 5 5 5 5 5 5 5 6 5 6 5 5 5 5 5 5 5 6 5 5 6 5 5 5 5 6 5 5 5 5 5 6 5 5 5 6 6 5 5 6 5 6 5 6 6 5 5 6 5 5 5 5 6 5 6 5 6 5 5 6 5 5 5 5 6 5 5 5 5 5 6 5 6 5 6 5 5 5 6 6 5 5 6 5 6 5 6 5 5 5 6 5 5 6 6 5 5 5 5 5 6 5 6 5 5 5 5 5 5 5 5 5 5 5 6 5 5 5 6 5 5 5 5 6 5 6 5 6 5 5 6 5 5 5 5 5 5 6 5 5 5 6 5 5 5 5 6 5 6 5 5 5 5 6 6 5 5 6 6 5 5 6 5 5 5 6 5 6 5 5 6 5 6 5 5 6 5 5 6 5 5 5 5 5 5 5 6 5 5 5 5 5 6 5 5 5 6 6 5 6 5 5 5 5 5 5 5 6 5 6 5 5 5 5 5 5 5 5 5 5 5 5 6 5 5 5 5 5 5 5 5 5 5 5 5 5 5 6 6 5 6 5 5 5 6 5 6 5 5 5 5 5 5 5 6 5 5 6 5 5 5 6 5 5 5 5 6 5 5 5 5 5 5 5 5 5 5 6 5 5 5 6 5 5 5 5 5 5 5 5 5 5 5 5 5 6 5 5 6 5 5 5 5 5 6 5 6 5 5 5 5 5 6 5 5 6 6 6 5 5 5 5 5 5 5 5 5 5 5 6 5 5 5 5 5 5 5 5 6 6 5 5 5 5 6 5 5 5 5 5 6 6 5 5 5 5 5 5 5 5 6 5 5 6 5 5 5 5 6 5 5 5 6 5 5 5 5 5 5 5 5 5 5 5 5 5 5 5 5 5 5 6 5 5 5 5 5 5 5 5 5 5 5 5 5 5 5 5 5 5 5 5 5 5 6 5 5 6 5 5 5 5 5 6 5 5 5 5 5 5 6 5 6 5 5 5 6 5 5 5 5 5 5 6 6 5 5 5 5 5 6 5 5 5 6 6 5 5 5 5 5 5 6 6 5 5 5 5 5 5 5 5 5 5 6 6 5 5 5 6 5 5 5 5 5 5 5 5 5 5 5 5 5 5 5 5 5 5 5 5 5 5 5 5 5 5 5 5 5 6 5 5 5 6 5 6 5 5 5 5 5 5 5 5 6 5 5 5 5 5 6 5 6 6 5 5 5 5 5 6 5 6 5 5 6 5 5 5 5 5 6 5 5 5 5 5 5 5 5 5 5 5 6 5 5 5 5 5 5 5 5 5 5 5 6 5 6 5 6 5 5 5 5 6 5 5 5 6 5 5 5 5 5 5 5 5 5 5 5 5 5 6 5 5 5 5 5 5 5 5 5 5 5 6 5 6 5 5 5 5 6 5 5 5 5 5 5 5 5 5 5 5 5 5 6 5 5 5 5 5 5 5 5 5 5 5 5 5 5 5 5 5 5 5 5 5 5 5 5 5 5 5 5 5 5 5 5 5 5 5 5 5 5 5 5 5 5 5 5 5 5 5 5 5 6 5 5 5 5 5 5 5 5 5 5 5 5 5 5 5 5 5 5 5 6 5 5 5 5 5 5 5 5 5 5 5 5 5 5 5 5 5 5 5 5 5 5 5 5 5 5 5 5 5 5 5 5 5 5 5 5 5 5 5 5 6 5 5 5 6 5 5 5 5 5 5 5 5 6 5 6 5 5 5 5 6 5 5 5 5 5 5 5 6 5 5 5 5 5 5 6 5 5 5 5 5 5 5 5 6 5 5 5 5 5 5 6 5 6 5 5 5 5 5 5 5 5 5 5 5 5 5 5 6 5 5 5 5 5 5 5 5 5 5 5 5 5 5 5 5 5 5 5 6 5 5 6 6 5 5 5 5 5 6 5 5 6 5 5 5 5 5 5 5 5 5 5 5 5 5 5 5 5 5 5 6 5 5 5 5 5 5 5 5 5 5 5 6 5 5 5 5 6 5 5 5 5 5 5 6 5 5 5 5 5 5 5 6 5 5 6 5 5 5 5 6 5 5 5 5 5 5 5 5 5 5 5 5 6 5 5 5 5 6 5 5 5 5 5 5 5 5 6 5 5 5 6 5 5 5 5 6 6 5 5 5 5 5 5 6 5 5 5 6 5 5 5 5 5 5 5 5 5 5 5 6 5 5 6 5 5 5 5 5 5 5 5 5 5 5 5 6 5 6 5 5 5 5 5 5 5 5 5 6 5 5 5 6 5 5 6 5 5 5 5 5 5 5 6 6 5 5 5 6 6 6 5 5 5 5 5 5 5 5 5 5 6 5 5 5 5 5 5 5 5 5 5 5 5 5 5 5 5 5 5 5 5 5 5 5 5 5 5 5 6 5 5 6 5 5 6 6 5 5 5 5 5 5 5 5 5 5 5 5 5 5 5 5 5 5 5 5 5 5 5 5 6 5 5 5 5 5 5 5 5 5 6 5 6 5 5 5 5 5 6 5 5 5 5 5 5 5 6 5 5 5 5 6 5 6 5 5 6 5 5 5 6 6 5 5 5 6 5 5 5 6 5 5 6 5 5 5 5 6 5 6 5 5 6 5 5 5 5 5 5 5 5 5 5 5 5 5 6 6 5 5 5 5 6 5 5 6 6 5 5 5 5 5 5 6 5 5 5 5 5 5 5 5 5 5 5 5 6 5 5 5 5 5 5 5 5 6 5 5 6 5 5 5 6 5 6 5 5 5 5 5 5 5 6 5 5 5 5 5 5 5 5 5 5 5 5 5 5 5 5 5 5 5 5 5 5 5 5 6 5 5 5 5 5 5 5 5 5 5 5 5 5 5 5 6 5 5 5 5 5 5 5 5 5 5 5 5 5 5 5 5 5 5 5 5 5 5 5 6 5 5 5 5 6 6 5 5 5 5 6 5 5 5 5 5 5 5 5 5 5 5 5 5 5 5 5 5 5 5 5 6 5 5 5 5 6 5 6 6 5 5 5 5 5 5 5 5 5 5 5 5 5 5 5 6 5 5 6 5 5 5 5 5 5 5 6 5 5 5 5 5 5 6 5 6 5 5 5 6 5 5 5 5 5 5 6 5 5 6 5 5 6 6 5 5 6 5 5 5 5 5 5 5 5 5 5 5 5 5 5 5 5 5 5 5 5 5 5 5 5 5 5 5 6 6 5 5 5 6 5 5 6 5 5 5 5 5 5 5 6 5 6 5 5 5 6 5 5 5 5 5 5 5 5 5 5 5 5 5 5 5 5 5 5 5 6 5 5 5 5 5 5 5 5 5 6 5 5 5 5 5 6 5 5 5 5 5 6 5 5 5 5 5 5 5 6 5 5 6 5 5 5 5 6 5 5 6 5 5 5 6 5 5 6 5 6 5 5 5 5 5 6 5 5 6 5 5 5 5 5 5 6 5 5 5 5 5 6 5 5 6 5 6 5 5 5 5 6 5 5 5 5 5 5 6 5 5 5 5 6 5 5 6 5 5 5 5 5 5 5 6 5 5 5 5 5 5 5 5 6 5 5 5 5 5 5 5 5 6 5 6 5 5 5 5 5 6 6 5 6 6 5 6 6 6 5 5 6 5 5 5 6 5 5 6 5 5 6 5 5 5 5 5 5 5 5 6 5 6 6 5 5 6 6 5 5 5 5 5 5 5 5 5 5 5 6 5 5 5 5 6 5 6 5 6 5 5 5 5 5 6 5 5 5 5 5 5 5 6 5 5 5 5 5 5 6 5 5 5 5 6 5 5 6 6 5 6 5 6 5 5 5 6 5 5 6 6 5 5 6 5 5 5 5 6 5 5 5 6 5 5 5 6 5 5 5 5 5 5 6 5 5 5 5 5 6 6 5 5 5 5 6 5 5 5 5 5 6 5 5 5 5 5 5 5 5 5 5 5 5 5 5 5 6 5 5 6 5 5 5 5 6 5 5 5 5 5 5 6 5 5 5 5 5 5 6 5 5 5 5 5 5 5 5 5 5 6 5 5 5 5 6 5 5 6 5 5 6 5 5 6 5 5 5 5 5 5 6 5 5 5 5 5 5 5 5 5 5 5 5 6 5 5 5 5 5 5 5 5 5 5 5 5 5 5 5 5 5 5 5 5 5 5 5 5 5 5 6 5 5 5 5 6 5 5 5 5 5 5 5 5 5 5 6 5 5 5 5 6 5 5 6 5 5 5 5 6 5 5 5 5 5 5 6 5 5 5 5 5 5 6 5 5 5 5 5 5 5 5 5 5 5 5 5 5 5 5 5 5 5 5 6 5 5 5 5 5 5 5 6 5 5 5 5 5 5 6 5 5 6 5 5 5 6 5 5 5 5 5 5 6 6 5 5 5 6 6 5 6 6 5 5 6 5 5 5 5 5 6 5 5 6 5 5 6 6 5 5 5 5 6 5 6 5 5 6 5 6 5 5 6 6 5 5 5 5 6 5 5 6 5 5 6 5 5 6 5 6 5 6 5 6 5 5 5 6 5 5 5 6 5 5 6 6 6 5 5 6 5 5 5 5 5 5 5 5 5 5 6 5 5 5 5 5 5 6 5 5 5 6 6 5 5 5 5 5 5 5 6 5 5 5 5 5 5 5 5 5 5 5 6 5 5 6 5 5 5 5 5 5 5 5 5 5 5 5 5 5 5 5 6 5 5 5 5 5 6 5 5 5 5 5 6 5 6 6 6 5 5 5 5 6 5 5 5 5 6 6 5 5 5 5 5 5 5 5 5 5 5 5 5 5 5 5 5 5 5 5 5 5 5 5 5 6 5 5 5 5 5 5 5 5 5 5 5 5 5 6 5 5 5 5 5 5 6 5 5 6 5 5 5 5 5 6 5 5 5 5 5 5 5 5 5 5 6 5 5 6 5 5 5 5 5 5 5 5 5 5 5 6 5 5 6 5 5 6 5 5 6 5 5 5 6 5 5 5 6 5 5 5 5 5 6 5 5 5 5 6 5 5 5 5 6 5 6 5 5 5 5 5 5 5 5 5 5 5 5 5 6 5 5 5 5 5 5 5 5 5 5 5 5 5 5 5 6 6 5 6 5 5 5 5 5 5 5 6 5 6 5 6 5 6 6 5 5 5 5 6 6 5 5 5 5 5 5 6 5 5 5 5 5 5 5 6 5 5 5 6 5 5 5 5 5 5 5 5 5 6 5 5 5 5 6 5 5 5 6 6 5 5 5 5 5 5 5 5 5 5 6 5 5 5 6 5 5 5 6 5 5 5 5 6 5 5 5 5 5 5 5 5 5 5 5 6 5 5 5 5 5 5 5 5 5 5 5 5 5 5 5 5 5 5 5 5 5 5 6 5 5 5 6 5 5 5 5 5 6 5 5 6 5 5 6 5 6 5 5 5 6 5 6 5 6 5 5 5 5 6 6 6 5 5 5 5 5 5 5 5 5 5 5 5 5 5 5 6 5 5 5 5 6 5 5 5 6 5 5 5 5 6 6 5 5 6 5 5 6 5 6 5 5 5 5 6 6 6 5 5 5 5 5 5 5 5 5 6 5 5 5 6 6 5 5 5 5 6 5 5 5 5 5 5 5 5 5 6 6 5 5 5 5 5 6 5 5 6 5 5 5 5 5 5 5 5 5 5 5 5 5 5 6 6 5 5 5 6 5 6 5 5 5 5 5 5 5 5 5 5 6 5 6 5 5 5 5 6 6 6 6 5 5 5 5 5 5 5 6 6 5 5 5 6 5 5 5 5 5 5 5 5 5 5 6 5 5 5 5 5 5 5 5 6 5 5 5 5 5 5 5 5 5 5 6 5 5 5 5 5 5 5 5 5 6 5 5 5 5 5 5 5 5 5 5 5 6 6 6 6 5 5 5 5 5 5 6 5 5 6 5 5 6 5 5 5 5 5 5 5 5 5 5 5 5 5 6 5 6 5 5 5 5 6 5 5 5 5 5 5 5 5 6 5 6 5 5 6 6 5 5 5 5 5 6 5 5 6 5 5 5 5 5 6 5 5 5 6 5 5 6 6 5 5 5 5 5 5 5 5 5 5 5 6 5 5 5 5 5 5 5 5 5 5 6 5 5 5 5 5 5 6 5 5 5 5 5 5 5 5 5 5 5 5 5 6 5 5 5 5 5 5 5 6 5 5 5 5 5 5 5 5 6 5 5 5 5 5 5 6 5 6 5 5 5 5 5 5 5 5 5 5 5 6 6 5 5 5 5 6 5 5 6 5 5 5 6 6 5 5 6 5 5 5 5 5 5 5 5 5 5 5 5 5 5 5 5 5 5 6 6 5 5 5 6 5 5 5 5 5 5 5 5 5 6 5 6 5 5 5 6 5 5 5 5 5 5 5 6 5 5 5 6 5 6 5 5 5 6 5 5 5 5 5 5 5 6 5 5 5 6 5 5 5 5 5 5 5 5 5 5 5 5 5 5 5 5 5 5 6 5 5 5 5 5 5 5 5 6 5 5 5 5 5 5 5 5 5 5 5 5 5 5 5 6 6 5 6 5 5 6 5 5 5 5 6 5 5 5 5 5 5 6 5 5 5 5 5 5 6 5 5 5 5 6 5 5 5 5 5 5 6 5 6 5 5 5 5 5 5 5 5 5 5 5 5 5 5 5 5 6 5 5 5 5 5 5 5 6 5 5 5 5 5 6 5 5 6 5 5 5 5 5 5 5 5 5 5 6 5 5 5 5 5 5 5 5 5 6 5 5 5 5 5 6 5 5 5 6 5 5 5 5 5 5 5 5 5 5 5 5 5 5 5 5 5 5 5 5 5 5 5 5 5 5 5 5 5 5 5 5 5 5 5 5 5 5 5 5 5 5 5 6 5 5 6 5 5 5 5 5 5 5 5 5 6 5 6 6 5 5 5 5 5 5 5 5 5 5 5 6 5 5 5 5 5 6 5 5 6 6 5 6 5 5 6 6 5 5 5 6 5 5 5 5 5 6 5 5 5 6 5 5 5 5 5 5 5 5 5 5 5 6 5 5 5 5 5 5 5 5 5 5 5 5 6 5 5 5 5 5 6 5 5 5 5 5 5 5 5 5 5 5 5 5 5 5 6 5 5 5 5 5 5 5 5 5 5 5 5 5 6 5 5 5 5 6 5 5 5 6 5 6 5 5 5 5 5 5 5 5 5 5 5 5 5 6 6 5 5 5 5 6 5 5 6 5 5 5 5 5 6 5 5 5 5 5 5 5 5 5 5 5 5 6 5 5 5 5 5 6 5 5 5 5 5 5 5 5 5 5 6 5 5 5 5 5 5 5 5 5 5 5 5 5 5 5 5 5 5 5 5 5 5 5 5 5 5 5 5 5 5 6 5 5 5 5 5 5 5 6 5 5 5 5 6 5 5 6 5 5 5 6 5 5 6 5 5 5 6 5 5 5 5 5 5 6 6 6 5 5 5 5 6 6 5 5 6 5 5 5 5 6 5 6 5 5 5 5 5 5 5 5 5 5 5 5 5 5 6 5 5 5 5 6 5 5 6 5 6 5 5 6 5 5 5 5 5 5 5 5 5 5 5 5 5 5 6 5 6 5 5 5 5 5 5 5 6 5 5 5 5 6 5 5 5 5 5 5 5 5 5 5 5 5 5 5 5 5 5 5 5 5 5 5 5 5 5 5 5 5 5 5 5 5 5 5 5 5 5 5 5 5 5 5 5 5 5 5 5 5 5 5 5 5 5 5 5 5 5 5 5 5 5 5 5 5 5 5 5 6 5 5 5 5 5 5 5 6 5 5 5 5 5 5 5 5 5 5 5 6 5 5 5 5 5 5 5 5 5 5 5 6 5 5 6 5 5 5 5 5 5 5 5 5 5 5 5 6 5 5 5 6 5 5 5 5 5 5 6 5 6 5 5 5 5 6 5 5 5 5 5 5 5 5 5 5 5 5 5 5 5 5 5 5 5 5 5 5 5 5 5 5 5 5 6 5 5 6 5 5 5 5 6 6 5 5 5 5 5 5 6 6 5 5 5 5 5 5 5 5 5 5 6 5 5 5 5 6 5 5 5 5 5 5 5 5 5 5 5 6 5 5 5 5 5 6 5 5 5 5 5 5 5 5 5 5 5 6 5 5 5 5 5 5 5 5 5 6 5 5 5 5 5 5 5 5 5 5 5 5 5 5 5 5 5 6 5 5 5 5 5 5 5 5 5 5 5 5 5 6 6 5 6 5 5 5 5 6 5 5 5 6 6 5 5 6 5 6 5 5 5 5 5 5 5 5 5 5 5 5 6 5 5 5 6 5 5 5 5 5 5 6 5 6 5 5 5 5 5 5 6 5 5 5 5 5 5 5 5 5 5 6 5 5 5 5 5 6 5 5 5 5 5 5 5 5 6 5 5 5 6 5 5 5 5 5 5 6 5 6 5 6 5 5 5 5 5 5 5 5 5 5 5 5 5 5 5 5 5 5 5 5 5 6 5 5 5 5 5 5 5 5 5 5 5 5 5 5 5 5 5 5 5 5 6 5 5 5 5 6 5 5 5 6 5 6 5 5 5 6 5 5 5 5 5 5 6 5 5 6 6 5 5 5 5 5 6 5 5 5 6 6 5 5 5 6 5 5 6 6 5 6 5 6 5 5 6 5 6 5 6 5 5 5 5 5 5 5 6 5 5 5 5 5 5 6 5 5 5 5 5 5 6 5 5 5 6 6 5 5 5 5 5 5 5 6 5 5 5 6 6 6 5 5 6 5 5 5 6 6 5 5 5 5 5 5 5 5 5 6 5 5 5 5 6 6 5 5 5 6 5 5 5 5 5 5 5 5 5 5 5 5 5 5 6 5 5 5 5 5 5 5 5 5 5 5 5 5 6 5 5 5 5 5 5 5 5 5 5 5 5 5 5 5 5 5 5 5 6 6 5 6 5 5 5 5 5 6 5 5 5 6 5 5 5 5 5 5 5 5 5 5 5 5 6 5 5 5 5 5 5 5 5 5 6 5 6 5 6 5 5 6 5 5 5 6 5 5 6 5 5 5 5 5 5 5 5 5 5 5 5 5 5 6 5 5 6 5 5 5 5 5 6 5 5 6 6 5 6 5 5 5 5 5 5 5 5 5 6 6 5 5 5 5 5 5 5 5 5 5 5 5 5 5 5 5 5 5 5 6 5 5 5 5 5 5 5 5 6 6 5 5 5 5 5 5 5 5 5 5 5 5 6 6 5 5 5 5 5 5 5 5 5 5 5 5 5 5 5 5 5 5 5 5 5 6 5 5 5 5 5 5 5 5 5 6 5 5 5 5 6 5 5 6 5 5 5 5 5 6 5 5 5 5 5 5 5 5 5 5 5 5 5 5 5 5 5 5 5 5 5 5 5 5 5 5 5 5 5 5 5 5 5 5 5 5 5 5 5 5 6 5 5 5 5 5 5 5 5 5 5 5 5 5 5 6 5 6 5 6 6 5 6 5 5 6 5 5 5 5 6 5 5 5 5 5 5 5 5 5 5 5 5 5 5 5 5 5 5 5 5 5 5 5 5 5 5 5 5 5 6 5 5 5 5 5 5 5 5 5 5 5 5 6 5 5 5 5 5 5 5 6 5 5 5 5 5 5 5 5 5 5 5 6 5 6 5 5 5 5 5 5 6 5 5 5 5 6 5 5 5 5 5 5 5 5 5 6 5 5 5 5 5 6 5 5 5 6 5 5 5 5 6 5 5 6 5 5 5 5 5 5 5 5 5 5 5 5 5 5 5 5 5 5 5 5 5 5 5 5 5 5 5 5 5 5 6 5 5 5 5 5 5 5 5 5 5 5 5 5 5 5 5 5 6 5 6 6 5 5 5 5 6 5 5 5 5 5 5 5 6 5 6 5 5 5 5 6 5 5 6 5 5 5 5 5 5 5 5 5 5 5 6 6 5 5 5 6 6 5 5 5 5 5 5 5 5 5 5 5 6 5 5 6 5 5 6 5 5 5 5 5 5 5 5 5 5 5 5 6 5 5 5 5 5 5 5 6 6 5 5 6 5 5 5 5 5 5 5 5 6 5 5 5 5 5 5 5 5 5 6 5 5 5 5 6 5 5 5 5 5 5 6 5 5 5 5 5 5 5 5 5 5 5 5 5 5 5 5 6 5 5 5 5 5 6 5 5 5 5 5 6 5 5 5 5 5 6 5 5 5 6 5 5 5 5 5 6 5 5 5 5 5 5 5 5 5 5 5 5 5 5 5 5 5 5 5 5 5 5 5 5 5 5 5 5 5 5 5 5 5 5 5 6 5 5 5 5 5 5 5 5 5 5 5 5 5 5 5 5 5 5 5 5 5 5 5 5 5 5 5 5 6 5 5 5 5 5 5 5 5 5 5 5 5 5 5 5 5 5 5 5 5 5 5 5 5 6 5 5 5 5 6 5 5 6 5 5 5 5 5 5 5 5 5 5 5 5 5 5 5 5 5 5 5 5 5 5 5 5 5 5 5 6 5 5 5 5 5 5 5 6 5 5 5 6 5 5 5 6 5 6 5 5 5 5 5 5 5 5 5 5 5 5 5 6 5 5 5 6 5 5 5 5 5 5 5 6 5 5 5 5 5 5 6 5 5 5 5 5 5 6 5 6 5 5 5 5 5 5 5 5 5 5 5 5 5 5 5 5 5 5 5 5 5 5 5 5 5 5 5 5 5 5 5 5 5 5 6 5 6 5 5 5 5 6 5 6 5 6 5 5 6 5 5 5 5 5 5 5 5 5 5 5 5 5 5 5 5 5 5 5 5 5 5 5 5 5 6 5 5 5 5 5 5 5 5 5 5 5 5 5 5 5 6 5 5 5 5 6 5 5 6 5 6 6 5 5 5 5 5 5 6 5 6 5 5 5 6 5 6 5 5 6 5 5 5 5 6 5 5 6 5 5 5 5 5 6 6 5 5 5 6 5 6 5 6 5 5 5 5 5 5 5 5 6 5 6 5 5 6 5 6 6 5 5 6 5 5 6 5 5 5 5 6 5 6 5 6 6 5 6 5 6 5 6 5 5 5 5 5 6 5 5 5 5 5 5 6 6 5 5 5 6 5 5 5 5 5 5 5 5 5 5 5 5 5 6 5 5 5 6 5 5 5 5 5 5 5 5 5 5 5 5 5 5 5 5 5 5 5 5 5 5 6 5 5 5 5 5 5 5 6 5 5 6 5 5 5 5 5 5 5 5 5 5 5 5 6 6 5 5 5 5 6 5 5 5 5 6 5 6 5 5 5 6 6 5 5 5 5 5 5 6 5 5 5 6 5 6 5 5 6 5 6 6 5 6 5 5 5 6 5 6 5 5 5 5 5 5 5 5 6 5 5 5 5 5 5 5 5 5 5 5 5 5 5 5 5 5 5 5 6 5 5 5 6 5 5 5 5 5 5 6 5 5 5 6 5 5 5 5 6 5 5 5 5 5 5 5 5 6 5 5 5 5 5 5 5 5 5 5 5 5 6 5 5 5 5 5 5 5 5 5 5 5 5 5 5 5 5 5 5 5 5 5 5 5 5 5 5 5 5 5 5 5 5 5 5 5 5 5 5 5 5 5 5 5 5 5 5 6 5 5 5 5 6 5 5 6 5 5 5 5 5 5 5 5 5 5 5 5 5 5 5 5 5 5 5 5 5 5 5 5 5 5 5 5 5 5 5 5 5 5 5 5 5 5 5 5 5 5 5 5 5 5 5 5 5 5 5 5 5 5 5 5 6 5 5 5 6 5 5 5 5 5 5 5 5 5 5 5 5 5 6 5 5 5 5 5 5 5 5 5 5 6 5 5 5 5 5 5 5 5 5 5 5 5 5 5 5 5 5 5 5 5 5 5 5 5 5 5 5 5 5 5 5 5 5 5 5 5 5 5 5 5 5 5 5 5 5 5 5 5 5 6 5 6 5 5 5 5 5 5 5 5 5 5 5 5 6 5 5 5 5 6 5 5 5 5 5 5 5 5 5 5 5 5 5 5 5 5 5 5 5 5 5 5 5 5 5 5 5 5 5 6 5 5 5 5 5 5 5 5 5 5 5 5 5 5 5 5 5 5 5 5 5 5 5 5 5 5 5 6 5 6 5 5 5 5 5 5 5 5 5 6 5 5 5 6 5 5 5 5 5 5 5 6 5 5 5 5 5 5 5 5 6 5 5 5 6 6 5 5 5 5 6 5 5 5 5 5 5 5 5 5 5 5 5 5 5 5 5 6 5 5 5 6 5 5 5 6 5 5 6 5 5 5 5 5 5 5 5 5 5 5 6 6 5 5 5 5 5 5 5 5 6 5 5 5 5 6 5 5 5 6 5 5 6 6 5 5 5 6 5 5 5 5 5 6 5 5 5 5 6 5 5 5 5 5 5 6 5 6 5 5 5 5 5 5 5 5 6 6 5 6 5 6 5 6 5 5 5 5 5 5 5 5 6 5 5 5 5 5 5 5 5 5 5 6 5 5 5 5 5 5 5 5 5 5 5 5 5 5 5 5 5 5 5 5 5 5 5 5 5 5 5 5 5 5 5 5 5 6 5 5 5 5 6 5 6 5 5 5 5 5 5 5 5 5 5 5 5 5 5 6 5 5 5 5 5 5 5 5 6 5 5 5 6 5 5 5 5 5 5 6 5 5 5 5 5 5 5 5 5 5 5 5 6 5 5 5 6 5 5 5 5 6 5 5 5 5 5 5 5 5 6 5 6 5 5 5 5 5 5 5 6 5 5 5 6 5 5 5 5 5 5 5 6 5 5 5 5 5 5 5 5 5 5 6 5 5 5 6 5 5 5 5 5 5 5 5 5 5 5 5 5 5 5 5 5 5 5 5 6 5 5 6 5 5 5 6 5 5 6 5 5 5 5 5 5 5 5 5 5 5 5 5 5 5 5 5 5 5 5 5 5 5 5 5 5 5 5 5 5 5 5 5 5 5 5 6 5 5 6 5 5 6 5 5 5 5 5 5 5 5 5 5 5 6 5 6 5 5 5 5 5 5 6 5 6 5 5 5 5 5 5 5 5 5 5 5 6 5 5 5 5 5 5 5 5 5 5 5 5 5 5 5 5 6 5 5 5 5 5 5 5 5 5 5 
</DataArray>
<DataArray type="Float64" Name="stress" NumberOfComponents="9" format="ascii">
-3490.3955976418511 1152.9111789758924 0 1152.9111789758924 215.12248185654198 0 0 0 0 -1462.3439036284399 104.89853093521496 0 104.89853093521496 12.563150084330658 0 0 0 0 -953.07100721856114 206.99516209152446 0 206.99516209152446 -1.1316451329102561 0 0 0 0 -20.031083731700221 1.3437863177867015 0 1.3437863177867015 -2.7669436967111611 0 0 0 0 -433.22243881681061 1042.289832378739 0 1042.289832378739 -1235.4752578347557 0 0 0 0 -613.53684853348932 -160.25617040986904 0 -160.25617040986904 107.48057885972162 0 0 0 0 -561.55350771395206 -39.675431520302624 0 -39.675431520302624 -57.683148903353867 0 0 0 0 -208.34197616155143 -151.64501595396814 0 -151.64501595396814 -360.45173937842532 0 0 0 0 -625.52846761490218 -532.76931164857547 0 -532.76931164857547 -323.98314698256235 0 0 0 0 -3493.2327850551083 -1406.1980681224609 0 -1406.1980681224609 -65.379431629794851 0 0 0 0 -874.84377136755211 -1485.7113163674219 0 -1485.7113163674219 -1843.2082219851575 0 0 0 0 -125.04401475191116 93.504818635810892 0 93.504818635810892 28.349722683060449 0 0 0 0 -32.355822380645293 8.4289013563401483 0 8.4289013563401483 3.9852775920324239 0 0 0 0 -85.352825448557269 -28.450455241858386 0 -28.450455241858386 -17.278203235250693 0 0 0 0 26.19870667118812 5.5918380491326047 0 5.5918380491326047 13.565140231977471 0 0 0 0 2.5919258922610879 6.9955452315311604 0 6.9955452315311604 -0.70092788112436932 0 0 0 0 -238.71310807095142 -67.151432717322223 0 -67.151432717322223 -91.875724742974171 0 0 0 0 16.185222174899536 -78.140839998279546 0 -78.140839998279546 -100.27908852073548 0 0 0 0 -47.044064414447746 10.591510454172415 0 10.591510454172415 1.6814641998257678 0 0 0 0 8.9850948555138643 7.2768754689706654 0 7.2768754689706654 -3.8735978261426522 0 0 0 0 -410.68634917255986 67.300813615084849 0 67.300813615084849 55.011160356661321 0 0 0 0 47.428003866341896 -6.6638728097691455 0 -6.6638728097691455 -99.692055541504033 0 0 0 0 -40.609398295847029 23.135356656976967 0 23.135356656976967 1.913054245234467 0 0 0 0 -44.58132230580668 -2.5250517388751312 0 -2.5250517388751312 -6.2938095181440659 0 0 0 0 158.80759922917059 -47.789115012187501 0 -47.789115012187501 -141.97203615491594 0 0 0 0 -237.55216797269532 59.183116138115906 0 59.183116138115906 218.82649204227602 0 0 0 0 -8.0375091715679901 0.630402453811854 0 0.630402453811854 4.2917770917837759 0 0 0 0 -75.467552398367843 6.8718474222665211 0 6.8718474222665211 22.149900273386827 0 0 0 0 -127.23356460235664 11.630713484299752 0 11.630713484299752 9.9175099669716289 0 0 0 0 -75.275921898093657 4.5420156407283745 0 4.5420156407283745 10.640060506584341 0 0 0 0 -72.961527461695368 -7.3069073575439569 0 -7.3069073575439569 26.080464618173753 0 0 0 0 -70.822139905991207 -2.9300402607670417 0 -2.9300402607670417 4.3250014893166391 0 0 0 0 -557.1725884948537 586.36352432443653 0 586.36352432443653 -348.05753091617674 0 0 0 0 -156.75609600073949 -285.68957406709808 0 -285.68957406709808 -274.01277682762588 0 0 0 0 -5.7386986341316515 28.823946936361459 0 28.823946936361459 -29.416952251581733 0 0 0 0 0.49923630102570371 0.15049126962279047 0 0.15049126962279047 0.039476710397315061 0 0 0 0 -234.09689528752642 238.27017397130888 0 238.27017397130888 -197.0524389636862 0 0 0 0 -88.005652407664456 4.1608343368386693 0 4.1608343368386693 3.441080312010576 0 0 0 0 -57.28693671154906 -1.2669240518376539 0 -1.2669240518376539 0.063712681283904865 0 0 0 0 -37.510664926929167 0.55915701462641643 0 0.55915701462641643 -2.6801601186052029 0 0 0 0 -50.066393182933098 0.26297979612350808 0 0.26297979612350808 -1.0533764475122158 0 0 0 0 -53.281200077966787 8.514578511016019 0 8.514578511016019 10.423663235625348 0 0 0 0 -47.654294873842446 2.7590170804666179 0 2.7590170804666179 -0.0039836807896686697 0 0 0 0 -0.085442503479942644 -0.0060884126500866387 0 -0.0060884126500866387 0.037511722659430022 0 0 0 0 -47.492115567758447 4.6284014975419474 0 4.6284014975419474 -0.43672430480095414 0 0 0 0 -45.684506363271794 2.2782836780300508 0 2.2782836780300508 -1.189774179601204 0 0 0 0 -45.854967264174775 2.9215602846667288 0 2.9215602846667288 1.3287354928476063 0 0 0 0 -46.256058954693799 -2.769077309213599 0 -2.769077309213599 3.1390565556421812 0 0 0 0 -0.094612963138771988 -0.0088082834320459824 0 -0.0088082834320459824 0.13059757452411885 0 0 0 0 -46.443987838545581 12.267745675070426 0 12.267745675070426 12.587160286048753 0 0 0 0 -47.899111538226862 1.223966559388026 0 1.223966559388026 6.1374093074443721 0 0 0 0 -42.28136464227282 -3.0235500658632297 0 -3.0235500658632297 6.5181121607928496 0 0 0 0 -48.236804073865642 2.9660984388442291 0 2.9660984388442291 1.5751641174197317 0 0 0 0 -82.507914624889963 13.932289032902997 0 13.932289032902997 9.4582537707521688 0 0 0 0 -38.396432504800032 30.34275060195602 0 30.34275060195602 2.5033952635327683 0 0 0 0 -35.720880866196239 0.23398003600031814 0 0.23398003600031814 -1.9348976390445012 0 0 0 0 -29.942868167054257 -2.8989696442999056 0 -2.8989696442999056 -0.86746953045896902 0 0 0 0 -30.734182001644513 -1.4084111255961069 0 -1.4084111255961069 -4.5726201950779988 0 0 0 0 -30.403743935210514 6.3824975523860008 0 6.3824975523860008 8.2131222202192546 0 0 0 0 -13.166710304547451 -6.288391430853526 0 -6.288391430853526 12.922615448153181 0 0 0 0 -119.79941186788346 2.8430301462846757 0 2.8430301462846757 -63.778822739732334 0 0 0 0 0.13560708207842254 0.07815463263520428 0 0.07815463263520428 0.019452797520048623 0 0 0 0 9.5505980503803585 28.742107323933901 0 28.742107323933901 -0.8765125284692612 0 0 0 0 16.407015712262364 -56.158774954890475 0 -56.158774954890475 -40.000637210488577 0 0 0 0 -17.241895747487433 -12.393901709605416 0 -12.393901709605416 -29.65182143518291 0 0 0 0 -71.931107015087036 -28.531323419264176 0 -28.531323419264176 24.824722436511564 0 0 0 0 -36.16582371619478 3.9098848947881777 0 3.9098848947881777 1.7047845002530395 0 0 0 0 -9.519229894833984 -4.9822876758987888 0 -4.9822876758987888 -2.5764840331764112 0 0 0 0 -34.585745512642461 2.6346562951079759 0 2.6346562951079759 15.917926563205654 0 0 0 0 -31.154048836353468 11.461912751377097 0 11.461912751377097 13.338197787021135 0 0 0 0 -16.755009281598802 -2.2274019246930834 0 -2.2274019246930834 -15.513364549622821 0 0 0 0 -24.831953486511338 4.9948028522337253 0 4.9948028522337253 -7.2910694285176181 0 0 0 0 -53.342831671747263 -9.232200246145112 0 -9.232200246145112 -14.337316019371428 0 0 0 0 23.803612882545167 -3.043747349833243 0 -3.043747349833243 -214.90631180445098 0 0 0 0 26.951019439133233 -56.668395212595954 0 -56.668395212595954 -125.02270439805434 0 0 0 0 -54.692353252321482 -0.1404010231422852 0 -0.1404010231422852 17.300518735249202 0 0 0 0 -0.068214062024807731 0.011913113581528023 0 0.011913113581528023 0.091230041913178392 0 0 0 0 -40.352774028317071 -6.6713354657704862 0 -6.6713354657704862 13.391025957536616 0 0 0 0 -45.965140749089187 4.2830858361622965 0 4.2830858361622965 23.956361095439707 0 0 0 0 -33.587294456141535 0.98856337225360846 0 0.98856337225360846 16.431624522292132 0 0 0 0 -38.584738390891914 -3.8762995882192399 0 -3.8762995882192399 10.831393527952011 0 0 0 0 -38.520372671009682 -29.370398097286397 0 -29.370398097286397 -56.598970828405982 0 0 0 0 -79.935932183987461 -6.0840934778689189 0 -6.0840934778689189 -20.359676748523725 0 0 0 0 -47.769788513072854 -0.38790002608812735 0 -0.38790002608812735 14.940085763368138 0 0 0 0 -56.394748757520574 3.5219728395561773 0 3.5219728395561773 17.804325022893259 0 0 0 0 -51.247515412675 1.9645938156937603 0 1.9645938156937603 9.819357286661953 0 0 0 0 -48.773958762923087 -3.801075877226765 0 -3.801075877226765 13.155092407895516 0 0 0 0 -33.057062938671152 -49.634311202816207 0 -49.634311202816207 -58.048441499958244 0 0 0 0 -62.542567214179144 -45.224153461426795 0 -45.224153461426795 -63.775965461369196 0 0 0 0 -91.664209156442666 14.396419580554721 0 14.396419580554721 -32.047673185799454 0 0 0 0 -68.635523923490837 -46.557730126473871 0 -46.557730126473871 -39.730817140931322 0 0 0 0 -51.274417434207862 -43.579423976400903 0 -43.579423976400903 -76.176376123903538 0 0 0 0 -41.481314076962406 -9.3280307118330441 0 -9.3280307118330441 7.120011832937454 0 0 0 0 1.7183565259413456 1.3138804700708846 0 1.3138804700708846 -30.780007042422604 0 0 0 0 -83.648721890967863 -85.946609061160856 0 -85.946609061160856 -73.378579394708311 0 0 0 0 -123.49026342187426 -76.168145154691928 0 -76.168145154691928 58.619378073866926 0 0 0 0 -33.363109609534149 -93.096489227737692 0 -93.096489227737692 -72.389785859430816 0 0 0 0 -63.54823829990346 -34.848710544998994 0 -34.848710544998994 -48.435593703825361 0 0 0 0 -0.88672405628153683 -9.031400501448033 0 -9.031400501448033 -15.032999505185671 0 0 0 0 -61.91138525227143 -26.990355978685784 0 -26.990355978685784 -43.180952845169003 0 0 0 0 -64.362371762137627 -47.246135459832971 0 -47.246135459832971 -85.385891992723145 0 0 0 0 -30.372431309704552 -53.609268744947116 0 -53.609268744947116 -84.201178371613338 0 0 0 0 -56.197017282098386 -171.73490313399398 0 -171.73490313399398 246.84807907381847 0 0 0 0 -0.86119498590414878 -233.9242645146164 0 -233.9242645146164 -274.07429208599257 0 0 0 0 40.37275100449915 53.726685960450084 0 53.726685960450084 -364.84141477783362 0 0 0 0 -102.93523862664006 158.36943003772302 0 158.36943003772302 -167.52746654681812 0 0 0 0 -874.21245859075862 106.08978016837148 0 106.08978016837148 -464.814058135474 0 0 0 0 -0.36934489192952213 -0.14409385925631568 0 -0.14409385925631568 -2.8241951860906989 0 0 0 0 -32.014917941167369 -116.11079857902121 0 -116.11079857902121 -532.63548549616678 0 0 0 0 -441.71080437284763 -51.196409544098124 0 -51.196409544098124 591.65093205789879 0 0 0 0 -1023.6650679840532 1347.395869091506 0 1347.395869091506 -541.07815893590282 0 0 0 0 -27.50619924449299 -2.8836941970294561 0 -2.8836941970294561 -2.4313942930952974 0 0 0 0 -3491.074412868641 826.68068261692122 0 826.68068261692122 370.57196734755433 0 0 0 0 -1642.2034994870482 329.03641821792127 0 329.03641821792127 475.6323916317931 0 0 0 0 -1451.9232661452515 -95.649250404132758 0 -95.649250404132758 -5.5267075676052855 0 0 0 0 -994.13267055538017 -129.77979340864226 0 -129.77979340864226 -58.376693079755796 0 0 0 0 -1727.4089659412766 -95.729796498694952 0 -95.729796498694952 162.05077006525403 0 0 0 0 -3502.4576497562375 -51.190528253098243 0 -51.190528253098243 625.69144389883093 0 0 0 0 -1521.1390162985917 -593.89997318692554 0 -593.89997318692554 225.59780129351654 0 0 0 0 -1869.9241830036335 -629.27062511182862 0 -629.27062511182862 244.8335956973163 0 0 0 0 -878.17365534155397 -317.37591165163519 0 -317.37591165163519 63.50415037768073 0 0 0 0 -1534.6759457819771 -455.348637826306 0 -455.348637826306 63.875510542767358 0 0 0 0 -12.335661807571373 9.3530640423756495 0 9.3530640423756495 -8.9947402449868807 0 0 0 0 -338.20896312114928 123.16748702956372 0 123.16748702956372 54.186330381205494 0 0 0 0 1.3280965574983838 0.86377113616213563 0 0.86377113616213563 -3.707264073118183 0 0 0 0 -867.91062383026292 -156.19549515941253 0 -156.19549515941253 17.821505532306503 0 0 0 0 -19.70108761539683 6.766791461651195 0 6.766791461651195 -2.1246096025865806 0 0 0 0 -36.511950585874729 10.80363945605427 0 10.80363945605427 -8.3858498657018572 0 0 0 0 -18.172868593163003 2.7728327260147836 0 2.7728327260147836 -16.517258512208628 0 0 0 0 -80.558821946826356 13.819228206362425 0 13.819228206362425 -29.351761685576435 0 0 0 0 -21.428857971986872 8.6721666821305234 0 8.6721666821305234 -33.996423723138435 0 0 0 0 -374.2519476406851 -234.36919833273765 0 -234.36919833273765 -241.16785571734681 0 0 0 0 -1008.9360648838192 2.2209271049004542 0 2.2209271049004542 78.769237979109391 0 0 0 0 -3.922983397036873 0.9809670943490687 0 0.9809670943490687 -6.1204218474661438 0 0 0 0 -226.39209070021661 -48.041374724611352 0 -48.041374724611352 -135.74333154066176 0 0 0 0 -16.486982680318761 -1.9528591869883485 0 -1.9528591869883485 -0.19939883313486462 0 0 0 0 -4.7734412319725266 3.3587007370676361 0 3.3587007370676361 1.9273255007004497 0 0 0 0 -19.722461148376169 -4.1191082635987186 0 -4.1191082635987186 0.51671063999106082 0 0 0 0 -316.08158109270153 -207.48022157792275 0 -207.48022157792275 -100.30358050422342 0 0 0 0 -185.45872874023189 -148.19845812043741 0 -148.19845812043741 -143.02621374137516 0 0 0 0 -6.3417686202471089 2.2725538250879538 0 2.2725538250879538 1.6339181072989319 0 0 0 0 -15.174408106810006 -0.012511932694359018 0 -0.012511932694359018 2.3381212640942266 0 0 0 0 -12.10528626458489 1.0560257650724374 0 1.0560257650724374 -0.012697960082574948 0 0 0 0 -8.5023489325758419 2.0603572887941679 0 2.0603572887941679 -1.9116965870973299 0 0 0 0 -50.133459504897473 3.3213666383123552 0 3.3213666383123552 54.0108675431485 0 0 0 0 -86.23784069748217 13.51819890755513 0 13.51819890755513 -3.1387289534970542 0 0 0 0 -340.75633036838553 96.420191953686583 0 96.420191953686583 10.612086210085382 0 0 0 0 -95.992392987085623 -3.0854199269183766 0 -3.0854199269183766 -0.036890520438482302 0 0 0 0 28.353769929279224 56.063237048283746 0 56.063237048283746 11.037513697408436 0 0 0 0 -825.26234337598726 48.694205722817401 0 48.694205722817401 138.90264011025698 0 0 0 0 -2.7382336531609326 -0.78969862285580916 0 -0.78969862285580916 0.66019497842695674 0 0 0 0 -389.92108158730844 254.36629784530746 0 254.36629784530746 -171.70832972739674 0 0 0 0 -321.13845346766902 26.897380180632364 0 26.897380180632364 107.56273882942662 0 0 0 0 -396.70692789224267 -63.200870960910031 0 -63.200870960910031 0.18185729131297892 0 0 0 0 -148.82093414055998 -157.83860317674871 0 -157.83860317674871 -43.257145969407134 0 0 0 0 -233.55229542919551 -3.8453360757039157 0 -3.8453360757039157 69.558384406044212 0 0 0 0 -466.67602492728474 -361.63981634829344 0 -361.63981634829344 -385.27288678729838 0 0 0 0 -255.12079906337749 -47.962449007434444 0 -47.962449007434444 102.09587639841629 0 0 0 0 -384.26396661605395 200.68872179112105 0 200.68872179112105 -327.94116117678453 0 0 0 0 -6.0626453682968986 0.10011569044099744 0 0.10011569044099744 0.25330647172096021 0 0 0 0 -421.88946902054886 -402.47658304595598 0 -402.47658304595598 -367.58030859156247 0 0 0 0 -914.94987997179851 -92.327192694692371 0 -92.327192694692371 14.32620321765171 0 0 0 0 -446.31533899834903 -110.42587456259537 0 -110.42587456259537 8.7079230976544295 0 0 0 0 -338.00120734557277 -52.572748949931793 0 -52.572748949931793 -3.3645081639307932 0 0 0 0 -358.78381515838555 -48.581070450148559 0 -48.581070450148559 18.081095983921841 0 0 0 0 -202.1553997152223 202.9796211254785 0 202.9796211254785 -15.748549197707007 0 0 0 0 14.03203419086276 21.287352068431403 0 21.287352068431403 -24.546708644620594 0 0 0 0 0.98743778718679209 2.5392681998591797 0 2.5392681998591797 4.6378517628214837 0 0 0 0 -33.508615572965937 3.87224987086352 0 3.87224987086352 4.8874116825752871 0 0 0 0 -55.736015983784455 6.3053419231248355 0 6.3053419231248355 8.3817805208989604 0 0 0 0 0.55800537007455375 0.7673063572367198 0 0.7673063572367198 0.65207812377100249 0 0 0 0 -10.160488860015903 2.1105356803574322 0 2.1105356803574322 -42.719670066759939 0 0 0 0 -83.719726064387942 -51.64757569958477 0 -51.64757569958477 -60.812996483091659 0 0 0 0 23.942198169170297 -247.09569501599969 0 -247.09569501599969 -304.60978336098196 0 0 0 0 -161.08232882233642 -62.668495822665342 0 -62.668495822665342 -17.44042656974672 0 0 0 0 -47.995319328983896 -20.94531348807709 0 -20.94531348807709 -43.51785330342048 0 0 0 0 -107.95212568505667 -30.431041174155204 0 -30.431041174155204 -0.13035372493138639 0 0 0 0 -48.122688482719241 2.9689908873495474 0 2.9689908873495474 -14.21245852443078 0 0 0 0 -52.252313695673365 -0.28485530949223431 0 -0.28485530949223431 -0.00057258617672094336 0 0 0 0 -56.014827968763711 -5.581650801431369 0 -5.581650801431369 -7.1388069117524751 0 0 0 0 -48.885501556913368 -0.27604319754984041 0 -0.27604319754984041 -5.8918111028069085 0 0 0 0 -47.644669177330798 5.392711560703173 0 5.392711560703173 -2.495332243432502 0 0 0 0 -47.838719444946037 3.9621100883966243 0 3.9621100883966243 0.35116766799830224 0 0 0 0 -52.543812625197461 5.9408942056959688 0 5.9408942056959688 2.9299590424286635 0 0 0 0 -50.872348444187082 12.541436612683141 0 12.541436612683141 -2.2893143701003851 0 0 0 0 -52.814290965339751 6.1029089576905982 0 6.1029089576905982 9.1351760261889474 0 0 0 0 -53.089464582160872 11.040889470436738 0 11.040889470436738 10.09553970515033 0 0 0 0 -57.959510211570887 5.7864129544633549 0 5.7864129544633549 9.24785404405214 0 0 0 0 -55.239328973417287 2.4837299210886208 0 2.4837299210886208 12.008943324210374 0 0 0 0 -55.555865096062917 2.4945464265323753 0 2.4945464265323753 12.022823738529979 0 0 0 0 -63.764930724879378 2.0036878310811304 0 2.0036878310811304 14.115741885655105 0 0 0 0 -63.464588868964029 12.16685220394487 0 12.16685220394487 14.370642455346726 0 0 0 0 -90.585449420650548 15.887318696143396 0 15.887318696143396 14.148653845755817 0 0 0 0 -58.044699923571898 7.0621369141570014 0 7.0621369141570014 11.046422216721417 0 0 0 0 -69.571234015675145 -50.139090681608195 0 -50.139090681608195 -24.339031018484093 0 0 0 0 -68.546570436286856 -30.464786800728234 0 -30.464786800728234 -51.643479876222955 0 0 0 0 -69.163600380279604 -29.846499588099391 0 -29.846499588099391 -44.018554782575848 0 0 0 0 -76.621457857181667 -31.083205219773618 0 -31.083205219773618 -44.168579629128203 0 0 0 0 -99.881342619162751 -28.688941362530841 0 -28.688941362530841 -24.725205167857439 0 0 0 0 -50.767207283263218 -37.732874904837466 0 -37.732874904837466 -50.569711973424326 0 0 0 0 -61.848920390313822 -9.3729300866943674 0 -9.3729300866943674 1.607806402078972 0 0 0 0 -103.58045541137979 -15.188576758582215 0 -15.188576758582215 1.8480199842431233 0 0 0 0 -65.361164165792559 7.5440194115029584 0 7.5440194115029584 10.232304193416688 0 0 0 0 -74.476508238309179 -1.1246146991732289 0 -1.1246146991732289 8.7796856188531365 0 0 0 0 -18.424541142659507 8.61920979403871 0 8.61920979403871 19.867407065212134 0 0 0 0 -64.499843633209821 64.877511771973104 0 64.877511771973104 50.017760066407845 0 0 0 0 -79.584412809083005 34.849873518362529 0 34.849873518362529 29.119372601526493 0 0 0 0 -113.95432520661055 -10.430269059547243 0 -10.430269059547243 19.835834453904258 0 0 0 0 -106.76284591542571 -16.855585754663366 0 -16.855585754663366 6.8530885397717611 0 0 0 0 -219.19106851928518 -2.5412473605028936 0 -2.5412473605028936 91.019376714131795 0 0 0 0 -96.366605833599522 0.23822503229012426 0 0.23822503229012426 21.02816761629774 0 0 0 0 -105.96121451375075 -27.580818636940421 0 -27.580818636940421 8.8473419808969993 0 0 0 0 -109.31066955263304 5.5973320802511353 0 5.5973320802511353 69.345976239835181 0 0 0 0 -101.5312759500577 1.5842045716838129 0 1.5842045716838129 21.964902445863355 0 0 0 0 -110.34064948032028 19.701373169717044 0 19.701373169717044 23.978566519878768 0 0 0 0 -106.44614981897394 57.714660502348693 0 57.714660502348693 12.15445316860496 0 0 0 0 -101.56666453876642 38.470221552913699 0 38.470221552913699 10.730559979245299 0 0 0 0 4.5332869988767897 5.6259389421165622 0 5.6259389421165622 10.446409695592187 0 0 0 0 -61.199257448599383 12.734858496596178 0 12.734858496596178 11.16051100315363 0 0 0 0 -38.50782814125705 38.885097782705998 0 38.885097782705998 -13.089676562552881 0 0 0 0 -110.65822467380349 92.825451519277635 0 92.825451519277635 -21.894304725823531 0 0 0 0 -175.54014955113234 3.9339819951364916 0 3.9339819951364916 6.8564555663206193 0 0 0 0 -334.18887251318665 -2.2878200767934231 0 -2.2878200767934231 48.154216890594398 0 0 0 0 -199.69907683032943 36.359539683679486 0 36.359539683679486 19.62945281017528 0 0 0 0 -273.51081246015747 -103.42049499448001 0 -103.42049499448001 -16.824704212519464 0 0 0 0 -123.14925407573173 -6.1956772359030765 0 -6.1956772359030765 -8.3578110922758242 0 0 0 0 -197.05211936112755 -80.143959577958753 0 -80.143959577958753 -28.231331920217599 0 0 0 0 -248.03667632080032 -22.098039917976848 0 -22.098039917976848 17.860347502385594 0 0 0 0 -164.24822684751416 26.76762745002452 0 26.76762745002452 44.98430538815046 0 0 0 0 -137.34618358539592 33.249840565149043 0 33.249840565149043 43.09494543132223 0 0 0 0 -183.18981500937662 111.21711611703995 0 111.21711611703995 110.36100540050074 0 0 0 0 -242.99607219548489 -296.29392058720259 0 -296.29392058720259 -49.343721263048792 0 0 0 0 -2.1487453231871143 -0.010306157658419579 0 -0.010306157658419579 0.56859728943222976 0 0 0 0 -36.965062975286855 15.255291551841765 0 15.255291551841765 75.569354906716399 0 0 0 0 65.665249730911455 190.85418535655845 0 190.85418535655845 154.45072749763949 0 0 0 0 -56.473266853463429 -0.79521636550794028 0 -0.79521636550794028 -3.9979942481713806 0 0 0 0 -192.29955037069158 -20.20939213898464 0 -20.20939213898464 16.532096552195981 0 0 0 0 -142.32453571139195 51.575538769544437 0 51.575538769544437 131.33145303211018 0 0 0 0 -197.13738909954554 -63.006080336745981 0 -63.006080336745981 -5.151298230177872 0 0 0 0 -143.08062072761095 -71.156090670915091 0 -71.156090670915091 -52.332584555621906 0 0 0 0 -195.43544340421795 4.8185694271160173 0 4.8185694271160173 66.427254641231912 0 0 0 0 -125.3023247962592 -2.0556756453586331 0 -2.0556756453586331 -57.012620734705706 0 0 0 0 -141.4450079069793 29.724224213331127 0 29.724224213331127 100.25288286129944 0 0 0 0 -324.30096744681941 -41.876908434321649 0 -41.876908434321649 54.860595835853019 0 0 0 0 -175.95565947404975 33.981278563392607 0 33.981278563392607 -122.77647884110593 0 0 0 0 -204.17107095104257 -145.90735516555742 0 -145.90735516555742 -207.73451062265394 0 0 0 0 -447.48138850960822 -139.25361182491588 0 -139.25361182491588 -33.554172269341734 0 0 0 0 -249.69858689169632 -104.70891597802904 0 -104.70891597802904 -27.710691908508124 0 0 0 0 -259.37382883667306 -118.79836216329454 0 -118.79836216329454 -39.575125474668766 0 0 0 0 -260.22140372800641 -120.31142502780813 0 -120.31142502780813 -32.840299817273149 0 0 0 0 -298.53315460323938 -100.96371764320452 0 -100.96371764320452 -1.2703813804555466 0 0 0 0 -268.42752918326732 -151.46866350764094 0 -151.46866350764094 -60.86601823739511 0 0 0 0 -257.4809764749516 -157.52835430723042 0 -157.52835430723042 -57.890608851248317 0 0 0 0 -14.242479042171624 49.269525250832189 0 49.269525250832189 54.799103592891313 0 0 0 0 -133.7142309781575 63.642507033092443 0 63.642507033092443 88.911759623520993 0 0 0 0 -147.71532783284056 67.23064406890262 0 67.23064406890262 137.51422189182449 0 0 0 0 54.74926801548213 0.52059212403532484 0 0.52059212403532484 251.24435636102589 0 0 0 0 -138.06854875464342 84.677151533520373 0 84.677151533520373 96.169001830345223 0 0 0 0 -127.59762382100962 51.802356941622293 0 51.802356941622293 67.887132782583649 0 0 0 0 -21.854530143293147 6.7007462538042688 0 6.7007462538042688 10.963895986875194 0 0 0 0 -112.71369901714934 52.103658228099448 0 52.103658228099448 46.470509159393941 0 0 0 0 -144.93327861135003 84.418112290298268 0 84.418112290298268 44.081528197408261 0 0 0 0 -144.99793724489973 71.256197580659773 0 71.256197580659773 122.82292710619549 0 0 0 0 -105.11504348867857 -8.5134738835059807 0 -8.5134738835059807 36.717009647356463 0 0 0 0 -84.899887015635613 -36.494644511756633 0 -36.494644511756633 98.987329954331472 0 0 0 0 -53.83354479202535 27.107623159539799 0 27.107623159539799 40.954892860785549 0 0 0 0 -72.991098099004972 21.048059746846441 0 21.048059746846441 32.34744688080734 0 0 0 0 -37.080671073444407 45.612177519400362 0 45.612177519400362 43.98727960809812 0 0 0 0 -83.829523158514348 28.304775504655254 0 28.304775504655254 37.886872522597059 0 0 0 0 -40.422292950257685 4.9966539605913169 0 4.9966539605913169 29.175824047409513 0 0 0 0 -82.055797411968271 5.7762214428336591 0 5.7762214428336591 27.200649614478586 0 0 0 0 -38.78903960227035 -2.2341345517615991 0 -2.2341345517615991 20.028310603182035 0 0 0 0 -86.239889048317679 12.345850299102793 0 12.345850299102793 28.469766991137124 0 0 0 0 -65.849227401497046 18.069505881643352 0 18.069505881643352 37.439217844394193 0 0 0 0 -93.399372376293741 -2.6801063952134427 0 -2.6801063952134427 94.702774226563633 0 0 0 0 -44.78695572293492 9.4355976651487552 0 9.4355976651487552 5.0659301208205854 0 0 0 0 -21.963730445867256 -2.1419287852047546 0 -2.1419287852047546 0.65297776142752895 0 0 0 0 -6.3978109507006593 -13.145898034232232 0 -13.145898034232232 -38.821770342761738 0 0 0 0 -40.706276480251859 23.256044817127563 0 23.256044817127563 46.940708826181435 0 0 0 0 -68.839991596216294 35.049183279764065 0 35.049183279764065 23.082411161880792 0 0 0 0 -60.972925341804512 1.7135277890629368 0 1.7135277890629368 23.179266650258796 0 0 0 0 -46.499267719802447 -0.054174197000975255 0 -0.054174197000975255 19.03920861916049 0 0 0 0 -28.208851846796904 3.3850058217905179 0 3.3850058217905179 9.6922020039914187 0 0 0 0 -110.13961205466796 -10.951583186955446 0 -10.951583186955446 13.341429084980181 0 0 0 0 -84.547072009315798 -44.651978287981507 0 -44.651978287981507 125.99679136982741 0 0 0 0 -166.36404168826266 44.316510992072153 0 44.316510992072153 141.3298520529188 0 0 0 0 -109.39496418535782 -80.663674358353092 0 -80.663674358353092 60.344694791003349 0 0 0 0 -132.08329053907073 45.89628045466452 0 45.89628045466452 71.230766662575775 0 0 0 0 -122.34433794236975 29.336697533261031 0 29.336697533261031 99.291097367826296 0 0 0 0 -68.478786173945991 27.362116806624726 0 27.362116806624726 46.602664022327644 0 0 0 0 -70.206968466099227 6.9882172069869597 0 6.9882172069869597 15.062793306316301 0 0 0 0 -49.491972472818475 17.03658704674524 0 17.03658704674524 18.641004508231049 0 0 0 0 -106.22664359585178 -10.790008383103213 0 -10.790008383103213 73.127279011663632 0 0 0 0 -75.457055466543892 10.177415133725972 0 10.177415133725972 29.206361671304155 0 0 0 0 -97.247099577256989 -32.753690832931227 0 -32.753690832931227 -0.041510894195244674 0 0 0 0 -94.388052853450063 18.943049692906015 0 18.943049692906015 46.543769761319709 0 0 0 0 -106.68313823881005 3.5813922915071004 0 3.5813922915071004 31.94314801788547 0 0 0 0 -121.60123433025637 21.772207953807992 0 21.772207953807992 83.862916438140019 0 0 0 0 -133.98127678618403 27.023506146935688 0 27.023506146935688 94.645680635967437 0 0 0 0 -216.42125818737259 -22.193670242042572 0 -22.193670242042572 49.824930540386049 0 0 0 0 -111.95510380275664 17.336080792120811 0 17.336080792120811 47.209195153012388 0 0 0 0 -101.43662713615538 5.0743672849407844 0 5.0743672849407844 22.457893561312247 0 0 0 0 -67.975591610789706 90.437685441963822 0 90.437685441963822 115.90652363177651 0 0 0 0 -28.584899955491437 -12.429311345923082 0 -12.429311345923082 -3.9703267748272566 0 0 0 0 -91.317800176544552 -2.2844666961434541 0 -2.2844666961434541 28.432378771133244 0 0 0 0 -149.89020915469882 -66.756123156443209 0 -66.756123156443209 30.80736132722086 0 0 0 0 -103.13988765510476 -22.393436504607962 0 -22.393436504607962 69.960920948124112 0 0 0 0 -215.90855160954379 -39.851285615815868 0 -39.851285615815868 84.615279520525291 0 0 0 0 -171.10217177872619 -7.4529113512435288 0 -7.4529113512435288 107.14498505505071 0 0 0 0 -188.60580633034988 30.895537354121188 0 30.895537354121188 85.710362036378683 0 0 0 0 -205.09578836758374 19.60867194981347 0 19.60867194981347 126.6115619636592 0 0 0 0 -202.00228526908904 20.328870014114273 0 20.328870014114273 92.300160048624093 0 0 0 0 -272.52919886932068 -15.106009326264939 0 -15.106009326264939 113.83759859838301 0 0 0 0 -246.01679164763664 -35.891766038052538 0 -35.891766038052538 105.70008022184447 0 0 0 0 -293.08099834495806 -76.735581094409099 0 -76.735581094409099 127.36038397428047 0 0 0 0 -238.44865825029046 -105.33885200949135 0 -105.33885200949135 114.77134079762982 0 0 0 0 -225.50491881155176 -92.221322537822743 0 -92.221322537822743 128.03680047945454 0 0 0 0 -151.4545002176601 -148.86763033104944 0 -148.86763033104944 108.17492053391652 0 0 0 0 -224.0512204413244 -122.27393350665807 0 -122.27393350665807 143.75497658406312 0 0 0 0 -117.18903730003512 -121.32549127854872 0 -121.32549127854872 102.70164634562934 0 0 0 0 -234.0714756178786 -85.888750866819464 0 -85.888750866819464 119.68689469073524 0 0 0 0 -195.25888937411219 -86.75589000938453 0 -86.75589000938453 108.75925049570469 0 0 0 0 -123.31307239392117 -98.0111639003444 0 -98.0111639003444 47.178686647028371 0 0 0 0 -223.93525162462902 -124.38773244647928 0 -124.38773244647928 75.268528391459768 0 0 0 0 -48.243374040466733 81.436935813737364 0 81.436935813737364 69.937004757201521 0 0 0 0 -112.55064484292402 -4.6191725749119854 0 -4.6191725749119854 23.164472555184773 0 0 0 0 -294.55318192204868 -243.53142137538271 0 -243.53142137538271 -75.936853048468038 0 0 0 0 70.270247872645996 -52.902494861214109 0 -52.902494861214109 -321.94780976023321 0 0 0 0 -118.43749800542719 3.4624791321093653 0 3.4624791321093653 -19.895646215640227 0 0 0 0 -57.908705217625538 -164.52193521205118 0 -164.52193521205118 -231.86722643822395 0 0 0 0 -564.88653761065507 -220.38421775067036 0 -220.38421775067036 63.488700683522438 0 0 0 0 -5.3657435012266603 -10.66818659973741 0 -10.66818659973741 -12.301582772920026 0 0 0 0 -361.41905265759306 -31.738904539959549 0 -31.738904539959549 56.045589531648147 0 0 0 0 -235.15406195837659 -83.961458450776718 0 -83.961458450776718 91.722777240232972 0 0 0 0 -116.37037595698348 -65.334500075312462 0 -65.334500075312462 51.185847045280752 0 0 0 0 -12.990851053630905 -18.69744941192458 0 -18.69744941192458 -44.578532229157673 0 0 0 0 -106.94020538672794 -85.137149151515359 0 -85.137149151515359 66.332036125511877 0 0 0 0 51.874780371956149 -75.851845224072349 0 -75.851845224072349 -24.320860049146177 0 0 0 0 -17.826154285678058 -93.501462266811359 0 -93.501462266811359 -178.50606696719478 0 0 0 0 -77.819064267794602 -11.960864393426164 0 -11.960864393426164 72.021211830450852 0 0 0 0 -69.912291624299542 -34.42242517155114 0 -34.42242517155114 -45.292187143184719 0 0 0 0 -59.51704882608928 -15.024809441052616 0 -15.024809441052616 -11.112524873743904 0 0 0 0 41.889247323968448 82.228809403379273 0 82.228809403379273 76.597173588119858 0 0 0 0 -282.7356228621793 200.8771317309438 0 200.8771317309438 72.994403122118456 0 0 0 0 214.22845395126205 71.711695016328008 0 71.711695016328008 -48.422476342556138 0 0 0 0 129.43320865654096 240.87776575141044 0 240.87776575141044 18.317032854002264 0 0 0 0 -98.603839227768731 -72.57544527584696 0 -72.57544527584696 69.633156043322742 0 0 0 0 124.43163294108672 -131.52275894412651 0 -131.52275894412651 66.479560272450726 0 0 0 0 -140.31932393051829 -126.54718727140062 0 -126.54718727140062 147.86080181105353 0 0 0 0 39.557495920533256 -119.76667293771152 0 -119.76667293771152 63.788212507866774 0 0 0 0 347.98793505417416 -576.86611853768022 0 -576.86611853768022 -1308.7412361222334 0 0 0 0 26.682816017178993 -179.04241247706432 0 -179.04241247706432 247.66913129940349 0 0 0 0 -6.4129663873713838 -17.890362228313307 0 -17.890362228313307 -37.51067141956068 0 0 0 0 226.09164565314677 -287.0649840000317 0 -287.0649840000317 100.26488047813655 0 0 0 0 586.78388512804304 -338.22161911646799 0 -338.22161911646799 -462.50267534327486 0 0 0 0 234.84976165583066 -1.1010656549860869 0 -1.1010656549860869 64.95273520838964 0 0 0 0 -117.06409741440439 -186.57438462228947 0 -186.57438462228947 48.153651085240199 0 0 0 0 64.598867127569974 -250.92692818177329 0 -250.92692818177329 -291.13183226902311 0 0 0 0 -111.49287524955071 -114.73287809837257 0 -114.73287809837257 0.67284976658811502 0 0 0 0 43.319977130718826 -708.38157470735314 0 -708.38157470735314 -698.25899476058112 0 0 0 0 60.542149448250711 -269.40628317675464 0 -269.40628317675464 -275.33789618741457 0 0 0 0 -157.88805728352963 -453.53101500650337 0 -453.53101500650337 -408.56342405441455 0 0 0 0 -287.62071006756378 -413.72880105165126 0 -413.72880105165126 -371.22102291561737 0 0 0 0 -92.392448502985644 -315.73271712199528 0 -315.73271712199528 -160.67078366028818 0 0 0 0 -16.429397636872238 -1.6414707110763835 0 -1.6414707110763835 3.5440720419560634 0 0 0 0 -145.69865532410768 -444.53355262342768 0 -444.53355262342768 -419.43652310026255 0 0 0 0 -309.11388398907729 -223.73662116804326 0 -223.73662116804326 -200.34334860332729 0 0 0 0 -688.33009217511062 -366.34390127008237 0 -366.34390127008237 -282.96859397188291 0 0 0 0 -274.83657821506495 -439.18901347723568 0 -439.18901347723568 -827.92920476870995 0 0 0 0 -591.81476621043839 -420.48245748120223 0 -420.48245748120223 -516.93529113462455 0 0 0 0 -612.16245795055147 -140.13812702571477 0 -140.13812702571477 -45.242889343753632 0 0 0 0 -489.13629620326537 -379.81874371740651 0 -379.81874371740651 -293.0278013415591 0 0 0 0 -307.0323224031963 -115.16139793959883 0 -115.16139793959883 -37.711909295723757 0 0 0 0 -526.9817330412734 -183.58194333526808 0 -183.58194333526808 -35.704601022538554 0 0 0 0 -352.54888712325192 -261.45117589259712 0 -261.45117589259712 -147.10436008128454 0 0 0 0 -163.7720182784542 -208.19662867170064 0 -208.19662867170064 -165.53457848310427 0 0 0 0 -344.09903233023579 -139.88963551428378 0 -139.88963551428378 38.994008931413191 0 0 0 0 -219.48207385229762 -133.28767918364701 0 -133.28767918364701 37.403556094421219 0 0 0 0 -205.7541242302832 -100.87767856995379 0 -100.87767856995379 108.17861444517612 0 0 0 0 -318.75418981794792 -86.234837021279418 0 -86.234837021279418 111.54253338830654 0 0 0 0 -278.75034993441295 -74.947538451717264 0 -74.947538451717264 67.203690177690078 0 0 0 0 -400.8722537699723 -109.48306593854886 0 -109.48306593854886 65.552542602130416 0 0 0 0 -343.08631960054117 -33.208937286120999 0 -33.208937286120999 106.27012769782777 0 0 0 0 -280.36070463196666 -21.318022652481432 0 -21.318022652481432 73.230578937521386 0 0 0 0 -303.47913562499889 16.69844647240825 0 16.69844647240825 96.689589201005447 0 0 0 0 -214.57800233530725 45.671474958078306 0 45.671474958078306 50.318696640052622 0 0 0 0 -367.76029998723243 56.146744074560957 0 56.146744074560957 49.780775754422393 0 0 0 0 -318.73216607395807 16.902171981611446 0 16.902171981611446 62.43530719123919 0 0 0 0 -371.06972620739816 -7.013284912401673 0 -7.013284912401673 75.478342660439012 0 0 0 0 -427.05150959360981 -81.845574266739277 0 -81.845574266739277 7.3908653143939773 0 0 0 0 -377.92448499822785 -84.29778120805031 0 -84.29778120805031 -56.889197036286532 0 0 0 0 -667.17921512659814 -262.5769958563111 0 -262.5769958563111 -182.49563420864547 0 0 0 0 -573.80980493800598 -230.41700890535822 0 -230.41700890535822 -212.75343171029226 0 0 0 0 -513.34000103516246 -26.76801669400237 0 -26.76801669400237 -50.047770076607776 0 0 0 0 -747.38933013055794 -234.93443125782915 0 -234.93443125782915 -169.6269427059442 0 0 0 0 -494.56726423437067 -164.30960555347383 0 -164.30960555347383 22.904291230688671 0 0 0 0 -357.11387909462428 28.956238122307923 0 28.956238122307923 -62.775787675787797 0 0 0 0 -321.88917095847864 17.884567920521931 0 17.884567920521931 -25.366383441485596 0 0 0 0 -478.59860131869937 -72.875017831564492 0 -72.875017831564492 11.017145781000181 0 0 0 0 -343.01860158750151 67.976343685030201 0 67.976343685030201 72.070312719344656 0 0 0 0 -58.370747942732123 90.255420628236607 0 90.255420628236607 35.661750059964106 0 0 0 0 -220.56321697992144 124.8872990503539 0 124.8872990503539 124.73219962256189 0 0 0 0 -214.79714793091989 77.200244093922265 0 77.200244093922265 9.8984668617204079 0 0 0 0 -358.31252548790508 -1.7631528075780807 0 -1.7631528075780807 90.335293030997718 0 0 0 0 -269.6779234832029 87.455555215018421 0 87.455555215018421 102.46109942882413 0 0 0 0 -166.25965327670565 41.892133475251285 0 41.892133475251285 80.67797270520623 0 0 0 0 -224.05114638889791 -49.293477345436031 0 -49.293477345436031 29.439847156805399 0 0 0 0 30.053188810339634 121.46423705486905 0 121.46423705486905 87.520139187391123 0 0 0 0 -228.40852293217176 31.740948219829534 0 31.740948219829534 200.95648623553731 0 0 0 0 -73.516511300083948 213.41812922142981 0 213.41812922142981 222.55960084923845 0 0 0 0 219.96145166606948 164.59112938832777 0 164.59112938832777 44.414350058900709 0 0 0 0 -17.138062669042807 -0.040490648805111107 0 -0.040490648805111107 1.1564791860961208 0 0 0 0 -40.954235622764827 121.73873488562822 0 121.73873488562822 73.301133704939275 0 0 0 0 14.993728384367998 7.455627623259474 0 7.455627623259474 -2.8430253146636044 0 0 0 0 -50.392507046388346 67.604302403110523 0 67.604302403110523 9.8260437169428769 0 0 0 0 -9.5412736202659314 50.859281073075685 0 50.859281073075685 32.216437260944133 0 0 0 0 -43.342407175990957 81.756932704555766 0 81.756932704555766 3.0821253933117987 0 0 0 0 79.44506847403909 372.02041777749889 0 372.02041777749889 -738.89492697010883 0 0 0 0 -76.612085153297812 69.479171164677155 0 69.479171164677155 28.51684634152025 0 0 0 0 -100.92098253901349 130.80002236087967 0 130.80002236087967 32.278920860578296 0 0 0 0 -177.0567377825937 101.52679697245276 0 101.52679697245276 45.528844296039097 0 0 0 0 -221.91599160347687 96.526925645497613 0 96.526925645497613 34.7671063646535 0 0 0 0 -195.87724576981418 65.325485433678296 0 65.325485433678296 45.654137251935026 0 0 0 0 -137.38129686722732 70.339819461288414 0 70.339819461288414 47.289945406126208 0 0 0 0 -140.07983937854442 87.294502605876914 0 87.294502605876914 33.543092985150452 0 0 0 0 -221.23465833452065 54.146878251226099 0 54.146878251226099 72.843678735724097 0 0 0 0 -123.30819529331347 68.823159438047696 0 68.823159438047696 46.843400590819328 0 0 0 0 -809.97024372848682 -251.448601287472 0 -251.448601287472 -179.63148055995737 0 0 0 0 -257.84609459402418 -394.36505235074293 0 -394.36505235074293 -294.97759943983573 0 0 0 0 -191.1625543637565 -195.22229183238639 0 -195.22229183238639 -315.78821239277511 0 0 0 0 -116.39770717511419 -384.22640766963536 0 -384.22640766963536 117.92470937596067 0 0 0 0 -831.90166743021109 -421.11511729633861 0 -421.11511729633861 -250.27789012193671 0 0 0 0 -344.61594595220231 -245.78634311367205 0 -245.78634311367205 64.60408313356703 0 0 0 0 -647.23776692344836 -155.07345666091021 0 -155.07345666091021 99.838117581095275 0 0 0 0 -1937.0176253198588 31.296802735344727 0 31.296802735344727 454.05497909204405 0 0 0 0 -2015.1118384249858 -75.841507988011244 0 -75.841507988011244 660.47884014797239 0 0 0 0 -3500.0917973192918 -1248.3860581308311 0 -1248.3860581308311 24.59935145958168 0 0 0 0 -1447.8461256816408 -1052.3275189303786 0 -1052.3275189303786 -972.66493515136403 0 0 0 0 -2374.1158817543837 -268.47549042233078 0 -268.47549042233078 571.2782813527599 0 0 0 0 -539.91467088089848 -307.58054842771173 0 -307.58054842771173 -718.19196634535228 0 0 0 0 -3493.041947588601 -1244.6656206563514 0 -1244.6656206563514 24.303456740327427 0 0 0 0 -1455.1036365557266 -1888.2392845370241 0 -1888.2392845370241 -2479.9735841619245 0 0 0 0 -457.36170825765112 -373.11742516959043 0 -373.11742516959043 -873.81434634582411 0 0 0 0 -64.812241552908347 -6.4859735697661645 0 -6.4859735697661645 0.50684973770920905 0 0 0 0 -534.67443237985935 -529.38191755850562 0 -529.38191755850562 -637.8072905900226 0 0 0 0 -105.60066823461239 -145.44175704881354 0 -145.44175704881354 -793.8598489645517 0 0 0 0 -17.328805459532305 -194.67725938732667 0 -194.67725938732667 -538.78451299343158 0 0 0 0 -81.182438025693045 -9.2834849270483808 0 -9.2834849270483808 1.1047835578652123 0 0 0 0 -74.478157002422449 -255.07649424055018 0 -255.07649424055018 -400.201462512121 0 0 0 0 -105.6356129032431 -146.85626559166278 0 -146.85626559166278 -533.2515362173699 0 0 0 0 -42.643452061151038 -66.665426867368751 0 -66.665426867368751 42.990923183966515 0 0 0 0 -16.805392652682741 -2.5158501140333556 0 -2.5158501140333556 3.6076180169302354 0 0 0 0 -35.728452397910587 100.33773927876427 0 100.33773927876427 303.24799586686095 0 0 0 0 -238.40703689837392 -213.99450396201178 0 -213.99450396201178 -26.226252538878498 0 0 0 0 -92.900792887528212 -9.4492206674548207 0 -9.4492206674548207 2.1871375183188193 0 0 0 0 -220.66168682090938 -164.54978326414766 0 -164.54978326414766 -74.849240495529102 0 0 0 0 -273.54990028746397 -226.08012539082574 0 -226.08012539082574 -9.1661384163608091 0 0 0 0 -534.19235943414242 -60.968830990458173 0 -60.968830990458173 62.766978119993837 0 0 0 0 -319.14394487178652 166.3722043067628 0 166.3722043067628 79.067632409315593 0 0 0 0 -982.40539859799901 -572.49916038517449 0 -572.49916038517449 -36.918985485713094 0 0 0 0 -849.98348423294374 224.9432146326036 0 224.9432146326036 248.45232607030977 0 0 0 0 -238.04719079704228 -791.20826037034726 0 -791.20826037034726 -607.1074707876819 0 0 0 0 -12.225330184379885 -8.1301076052399637 0 -8.1301076052399637 -5.6029658399258135 0 0 0 0 271.88192842901481 -356.11535556459103 0 -356.11535556459103 -731.65318597037231 0 0 0 0 -1418.1174957940239 248.32365767423971 0 248.32365767423971 357.00728040651484 0 0 0 0 -1585.8219994057072 17.231642222545588 0 17.231642222545588 566.78903870469321 0 0 0 0 -28.251999021755182 -374.63634877778475 0 -374.63634877778475 -541.95358527537007 0 0 0 0 84.357650820653362 -219.17398117343782 0 -219.17398117343782 -343.44601701953644 0 0 0 0 54.792646238493035 -387.82009889746314 0 -387.82009889746314 -382.11981250028987 0 0 0 0 88.805125080078142 -400.24436693831689 0 -400.24436693831689 -408.01428450739826 0 0 0 0 192.4953581145528 -266.79817085688614 0 -266.79817085688614 -325.83958241003813 0 0 0 0 91.087214614050026 -131.18288243468371 0 -131.18288243468371 232.72087872970155 0 0 0 0 -106.73080241682328 -169.99050617318358 0 -169.99050617318358 24.511038707403031 0 0 0 0 44.768859714764403 -379.84765278918974 0 -379.84765278918974 -236.82708188663315 0 0 0 0 46.316744842370099 -229.9871192529302 0 -229.9871192529302 178.01257160895761 0 0 0 0 -55.317070798657369 -387.73603746346794 0 -387.73603746346794 577.82614062521839 0 0 0 0 2.7238633829474566 -150.73737384668129 0 -150.73737384668129 475.57172207404938 0 0 0 0 298.57865857177239 -341.42343828347998 0 -341.42343828347998 117.08912486018835 0 0 0 0 -398.14433018500858 -613.05163911498312 0 -613.05163911498312 97.086165878926295 0 0 0 0 110.21443921995524 -539.55614135778251 0 -539.55614135778251 420.65463159573812 0 0 0 0 -30.836757178633377 -20.106648228597571 0 -20.106648228597571 -11.831860635830623 0 0 0 0 270.66203076530655 204.30282265345977 0 204.30282265345977 73.456354160802221 0 0 0 0 -58.4161299157131 252.69749198477621 0 252.69749198477621 232.48036249500728 0 0 0 0 78.349630091193831 318.84405343665367 0 318.84405343665367 249.37913802485537 0 0 0 0 134.73260334077349 62.356366714785509 0 62.356366714785509 12.914053595857695 0 0 0 0 -166.25611302500329 140.72381782841376 0 140.72381782841376 180.88051500293295 0 0 0 0 0.19883697430886649 1.2958711674993992 0 1.2958711674993992 -5.5094133850767228 0 0 0 0 -187.80127645775792 55.068383137744149 0 55.068383137744149 62.398103056397304 0 0 0 0 41.246759007932269 64.218221129474387 0 64.218221129474387 12.878634415199485 0 0 0 0 -9.9274210799048888 -35.665568769013589 0 -35.665568769013589 -71.382249498637975 0 0 0 0 -94.373103271558648 46.603677003394296 0 46.603677003394296 -88.215397425621632 0 0 0 0 10.826674387026287 18.191594362585874 0 18.191594362585874 -26.717039784178269 0 0 0 0 -116.7851613471139 12.139728829391061 0 12.139728829391061 -27.003345352231918 0 0 0 0 -101.76910414968734 15.636129395970784 0 15.636129395970784 -38.537245557772621 0 0 0 0 -34.734721568862597 -26.451097573937197 0 -26.451097573937197 -15.989195004468833 0 0 0 0 108.69506752557209 -96.476538919697759 0 -96.476538919697759 -60.517856411747744 0 0 0 0 217.54101998281476 -105.62361163989499 0 -105.62361163989499 -59.849241384642482 0 0 0 0 36.704121893536126 -2.9564630040911126 0 -2.9564630040911126 -11.419395476427255 0 0 0 0 94.370624217641307 -76.689174959042248 0 -76.689174959042248 -55.25659526076879 0 0 0 0 301.73025982278341 13.991376930780461 0 13.991376930780461 -35.229880850938571 0 0 0 0 -4.2985816193670203 -7.8499592679833796 0 -7.8499592679833796 -15.334374613404764 0 0 0 0 -1334.8022093367763 -120.04817810923441 0 -120.04817810923441 583.72604871510975 0 0 0 0 -2089.5935425605785 -325.88030618934272 0 -325.88030618934272 622.40633671522255 0 0 0 0 -1228.889367649972 133.37507429035168 0 133.37507429035168 348.52897959861457 0 0 0 0 54.783253936417168 -48.794312587883724 0 -48.794312587883724 -206.90798040314553 0 0 0 0 145.10460552859877 -201.04090982877779 0 -201.04090982877779 -229.99071075404805 0 0 0 0 272.55117665216676 -65.701396193060646 0 -65.701396193060646 -218.38725517009425 0 0 0 0 354.17674980628362 -238.37322070498612 0 -238.37322070498612 -229.6648654147084 0 0 0 0 -101.24193584568275 -119.01227670424123 0 -119.01227670424123 -185.03788115065072 0 0 0 0 -944.56886791231227 -1298.7309788173031 0 -1298.7309788173031 -576.37080618439541 0 0 0 0 -1229.3161404459024 -737.31194696186367 0 -737.31194696186367 -281.7773571243506 0 0 0 0 -871.12888500014378 655.31230228960385 0 655.31230228960385 -523.88282242912976 0 0 0 0 -623.78812828479931 95.509678350697641 0 95.509678350697641 103.71018543763921 0 0 0 0 -4.5390928057062396 3.7651249725767428 0 3.7651249725767428 5.2562053292017019 0 0 0 0 439.91604856171034 -131.15214075219751 0 -131.15214075219751 -206.34646152696268 0 0 0 0 -30.177392173380213 17.242987519688995 0 17.242987519688995 5.8192113350978616 0 0 0 0 -8.3030653235369414 4.1245432528153785 0 4.1245432528153785 -7.5479399646436924 0 0 0 0 -5.6287804889030753 -2.390129240538613 0 -2.390129240538613 -5.8098039504509895 0 0 0 0 -26.756245743405088 0.8639194681745721 0 0.8639194681745721 -6.9598924510219149 0 0 0 0 -11.200030309082649 1.4125551767360776 0 1.4125551767360776 -8.823041732503043 0 0 0 0 -22.573881620177417 0.25612324340181658 0 0.25612324340181658 -6.9744118416253045 0 0 0 0 -19.979074241673516 -1.2349389363978389 0 -1.2349389363978389 -8.3361595410343625 0 0 0 0 -23.276351850057836 -2.0905532055110143 0 -2.0905532055110143 -8.5568687809811763 0 0 0 0 -22.476885065544892 1.0165855290436454 0 1.0165855290436454 3.8497445430917869 0 0 0 0 3.817598410671053 -68.02722589577661 0 -68.02722589577661 -64.021317504480521 0 0 0 0 -11.75675554703048 -39.597446980283394 0 -39.597446980283394 -63.625253676657039 0 0 0 0 21.502479380302248 -56.733726702395415 0 -56.733726702395415 -56.860947403374666 0 0 0 0 -45.789307025494054 -74.675955376688762 0 -74.675955376688762 -19.067822537426764 0 0 0 0 -63.861367411387619 -60.543379434801409 0 -60.543379434801409 -21.304071773925898 0 0 0 0 -5.5541207199356606 -17.684252888595935 0 -17.684252888595935 -18.059669503039416 0 0 0 0 -11.755591676897893 1.6388438888558312 0 1.6388438888558312 -6.8490084951164363 0 0 0 0 -19.590823720423941 2.0596606170439742 0 2.0596606170439742 -16.303378120130446 0 0 0 0 -96.915397341625066 71.332862761226352 0 71.332862761226352 -325.59112813573302 0 0 0 0 4.3418471653397717 3.0062244929611239 0 3.0062244929611239 -2.9078257845140048 0 0 0 0 -52.38305258366745 -77.192396844203813 0 -77.192396844203813 -95.362866508075967 0 0 0 0 -108.80344577989308 -14.385622181095187 0 -14.385622181095187 -162.68577808294503 0 0 0 0 -3.2585246810929789 -5.6160170503625189 0 -5.6160170503625189 -16.155156035939978 0 0 0 0 -18.610622165389941 -2.4141974409463955 0 -2.4141974409463955 -12.674338738872535 0 0 0 0 -15.929077649125247 2.0331432771080244 0 2.0331432771080244 -18.923266577381241 0 0 0 0 -0.53261663620149235 0.75554428768613491 0 0.75554428768613491 -9.6878454736097073 0 0 0 0 -14.318359952674655 0.53718647177066714 0 0.53718647177066714 -18.600507406000361 0 0 0 0 -30.97814196186664 -15.512904906727272 0 -15.512904906727272 -12.066849360340484 0 0 0 0 -64.461135996883968 -47.915472320092249 0 -47.915472320092249 2.7458252297524268 0 0 0 0 -12.187052022360149 -21.657829675773883 0 -21.657829675773883 -1.1077217829815709 0 0 0 0 -103.06474783277372 -57.505557103249885 0 -57.505557103249885 5.8503305685849227 0 0 0 0 -103.1882919349955 -54.803557492443815 0 -54.803557492443815 20.067953709160065 0 0 0 0 -5.9051552567801338 -15.2591502208126 0 -15.2591502208126 29.321525714975095 0 0 0 0 -1126.8337777693159 -504.51963641445781 0 -504.51963641445781 -245.98364236936908 0 0 0 0 -63.355377398678684 -169.98087577088131 0 -169.98087577088131 319.74437200037801 0 0 0 0 -61.020127927833187 25.121979704994963 0 25.121979704994963 -3.1115344352397027 0 0 0 0 -658.62929962589988 37.012133449408111 0 37.012133449408111 -106.20642990127999 0 0 0 0 241.28521145863488 -202.10404444805499 0 -202.10404444805499 -127.31657208190836 0 0 0 0 -49.72073557357362 -84.657587100264891 0 -84.657587100264891 -14.06550346401491 0 0 0 0 -59.914358955462376 -74.67807162924737 0 -74.67807162924737 -5.9593772705829906 0 0 0 0 -183.83847336114559 -125.20050024734201 0 -125.20050024734201 89.398448894725789 0 0 0 0 -105.17046015313827 -157.56761876055589 0 -157.56761876055589 -109.93101474171135 0 0 0 0 60.24097632363555 -56.846751306317401 0 -56.846751306317401 -246.60965180693347 0 0 0 0 -132.69635796020884 -146.07412149737024 0 -146.07412149737024 -290.34343266182077 0 0 0 0 -5.3254389102782795 -6.6216075468718003 0 -6.6216075468718003 -2.2807899068275446 0 0 0 0 -181.33450499951141 52.537086852100856 0 52.537086852100856 916.19284359798849 0 0 0 0 -197.47660191789328 -91.430770503194253 0 -91.430770503194253 -46.976163996813739 0 0 0 0 7.8142164791134405 -3.9508783588082963 0 -3.9508783588082963 -8.2846966994536011 0 0 0 0 3.526200916728385 -3.7973376270811201 0 -3.7973376270811201 9.0142201046718888 0 0 0 0 -544.79358731121465 309.3183110239807 0 309.3183110239807 -407.66358260345368 0 0 0 0 -109.94922197831193 121.46336661233285 0 121.46336661233285 344.22238848275538 0 0 0 0 -438.96662498966907 -19.353526776574199 0 -19.353526776574199 641.71640127753403 0 0 0 0 -899.33781020603419 -183.41783101451233 0 -183.41783101451233 584.46171318138022 0 0 0 0 52.449711090004712 -121.57782739122877 0 -121.57782739122877 538.83917733890394 0 0 0 0 -365.91562391543994 -189.19761020389683 0 -189.19761020389683 389.53073768739569 0 0 0 0 -463.25402212760127 -179.92830601793457 0 -179.92830601793457 725.62902975230736 0 0 0 0 -109.21329111294472 -277.90515928072364 0 -277.90515928072364 387.71279713909337 0 0 0 0 -3499.9304438503823 194.71240868317844 0 194.71240868317844 910.26429591818317 0 0 0 0 -2830.073943933392 -254.16366786012873 0 -254.16366786012873 873.04376600453497 0 0 0 0 -2184.5814649120875 669.57869476755707 0 669.57869476755707 981.61247122186228 0 0 0 0 -723.97346343053869 192.80158331422606 0 192.80158331422606 451.49087698285439 0 0 0 0 -948.2505687361845 -179.22601439958072 0 -179.22601439958072 447.4631485401672 0 0 0 0 -3651.1983428875537 923.63109410015068 0 923.63109410015068 103.1622106997101 0 0 0 0 -2379.826305540817 883.29411657337823 0 883.29411657337823 33.75579586944221 0 0 0 0 -4479.4885211222863 -429.63017861736301 0 -429.63017861736301 578.1566472392135 0 0 0 0 -3290.2800663115013 -520.00571330874834 0 -520.00571330874834 481.96827300988355 0 0 0 0 -4908.9075655873203 -595.18731004045276 0 -595.18731004045276 -1014.3177245975382 0 0 0 0 -3500.6180860706227 -321.67505764522815 0 -321.67505764522815 -2157.3771979966132 0 0 0 0 -1002.3964779708185 1045.8327137692356 0 1045.8327137692356 -296.97572003729329 0 0 0 0 -25.741867170955487 7.4608390516860226 0 7.4608390516860226 -4.101229968039406 0 0 0 0 -459.85550819267519 765.08863856026801 0 765.08863856026801 -244.23634106518148 0 0 0 0 -3611.7265392632253 -2191.8107408291526 0 -2191.8107408291526 -1422.5632093396077 0 0 0 0 -2308.7415698872574 -2108.674141174411 0 -2108.674141174411 -1420.7852101815167 0 0 0 0 -3500.2425686090428 -1291.5931000602691 0 -1291.5931000602691 -743.53836913224802 0 0 0 0 -3315.1415258941852 -828.48124031270527 0 -828.48124031270527 195.88114189773142 0 0 0 0 -2679.8281325302814 -892.83641440009433 0 -892.83641440009433 48.151562459688023 0 0 0 0 -2679.3229925865307 -885.73699676824094 0 -885.73699676824094 133.24442640780975 0 0 0 0 -3499.6547086611827 -776.17096534530754 0 -776.17096534530754 439.51507694073092 0 0 0 0 -31.518906438279487 7.3786292412186185 0 7.3786292412186185 3.1772907955785854 0 0 0 0 -751.1839750431609 -577.10193158745142 0 -577.10193158745142 -316.36241853710754 0 0 0 0 -109.22656949161683 104.17950187782644 0 104.17950187782644 -201.72429449630783 0 0 0 0 -1003.5754312871977 -653.97632088939849 0 -653.97632088939849 -420.48740010976951 0 0 0 0 -1588.6498674740869 -1044.1646962707077 0 -1044.1646962707077 -477.0325677092826 0 0 0 0 -1359.1635958972511 -489.82689210587614 0 -489.82689210587614 -46.50194079360643 0 0 0 0 -1825.4555660471742 -690.6916066907595 0 -690.6916066907595 39.467207462922659 0 0 0 0 -1831.6757831610812 -649.87106019730675 0 -649.87106019730675 -99.803826584456772 0 0 0 0 -1221.8222371786323 -709.03284654730999 0 -709.03284654730999 -233.69512252108115 0 0 0 0 -1154.4509372517846 -147.14638156721873 0 -147.14638156721873 86.148982513333948 0 0 0 0 -1396.5683019516182 -499.09750608671288 0 -499.09750608671288 -208.13939385442472 0 0 0 0 -5.1874584589064341 -1.4505058777828381 0 -1.4505058777828381 -2.6968865306693974 0 0 0 0 -1469.4163504799399 -426.64744605401796 0 -426.64744605401796 -112.94553135541113 0 0 0 0 -1809.599812476592 -263.17919581776198 0 -263.17919581776198 165.8553031798283 0 0 0 0 -1696.1797363000514 -415.25833027337364 0 -415.25833027337364 -231.12998256948856 0 0 0 0 -2418.9574828532495 -260.8679238240781 0 -260.8679238240781 214.5222844388893 0 0 0 0 -921.67434528601552 -699.46513541886998 0 -699.46513541886998 -406.48823317046703 0 0 0 0 -1261.6373814831895 -78.229058816560041 0 -78.229058816560041 -1.1921772831697126 0 0 0 0 -2651.1957259149094 -426.40177597548268 0 -426.40177597548268 545.06032775436461 0 0 0 0 -2632.6563455650612 -575.45831754627034 0 -575.45831754627034 133.72821570439049 0 0 0 0 -3499.0389479966761 -331.74442485355479 0 -331.74442485355479 615.91529292694258 0 0 0 0 -3501.2691415022819 385.68549058121522 0 385.68549058121522 562.16119084659454 0 0 0 0 -2550.254637426111 37.342757506959231 0 37.342757506959231 564.0624548213309 0 0 0 0 -2665.3385713002899 5.2885076757119691 0 5.2885076757119691 561.48774855119211 0 0 0 0 -2512.5023293228305 149.01872154179469 0 149.01872154179469 366.68325236817941 0 0 0 0 -1582.5438653935198 93.484842305165387 0 93.484842305165387 293.84010262657148 0 0 0 0 -962.20339985530518 59.189310160052571 0 59.189310160052571 41.189218688404708 0 0 0 0 -1520.2424365057668 -249.1225375200886 0 -249.1225375200886 31.466366079354501 0 0 0 0 -1166.8246332844283 -155.08159765076641 0 -155.08159765076641 116.44173228703858 0 0 0 0 -659.3406097015577 126.3107212286875 0 126.3107212286875 152.04426949991074 0 0 0 0 -1434.4770440471511 389.91298701831636 0 389.91298701831636 205.3724774322784 0 0 0 0 -2121.7912427056272 66.064122681393599 0 66.064122681393599 413.33478522380216 0 0 0 0 -423.26190832167958 -161.12367414067103 0 -161.12367414067103 237.39557124077123 0 0 0 0 -991.46562854940566 621.44315314569019 0 621.44315314569019 587.6815016175434 0 0 0 0 -283.5306492419295 29.632240516984517 0 29.632240516984517 359.58669398392755 0 0 0 0 -7.8808931383503307 3.223549153122768 0 3.223549153122768 2.062176373164518 0 0 0 0 -3480.1069863323755 -1320.7202149080911 0 -1320.7202149080911 -528.21506103638899 0 0 0 0 444.89247006297228 769.64737622074051 0 769.64737622074051 500.33501405831294 0 0 0 0 -1763.2247220854188 292.07884552758458 0 292.07884552758458 -256.35055999837317 0 0 0 0 -2341.7564138911248 1038.5212364663873 0 1038.5212364663873 -808.8633071401872 0 0 0 0 -3491.8589473749216 828.24857936991498 0 828.24857936991498 93.161639623111569 0 0 0 0 -2565.1258105163179 318.57090584303069 0 318.57090584303069 373.01167092064668 0 0 0 0 -2341.1654441712144 447.84986622357866 0 447.84986622357866 -242.13616458187545 0 0 0 0 -58.157990146468364 -237.56844999140117 0 -237.56844999140117 356.76460702099337 0 0 0 0 -0.20397786191606571 0.12052355589905517 0 0.12052355589905517 2.592895228267059 0 0 0 0 -508.62740918832787 170.69319600660799 0 170.69319600660799 42.846012326753225 0 0 0 0 -177.27903966275335 -37.349298459698048 0 -37.349298459698048 11.219297450624197 0 0 0 0 -2.086470269462545 0.41946968766514914 0 0.41946968766514914 9.1939145638030304 0 0 0 0 -354.804201234223 129.5336204789993 0 129.5336204789993 14.218313608998869 0 0 0 0 246.46245770583482 -425.88261283626747 0 -425.88261283626747 303.93870929056402 0 0 0 0 3.2375089198394562 -154.52697745728955 0 -154.52697745728955 257.2234298352281 0 0 0 0 -312.05659269911507 -248.80668805606032 0 -248.80668805606032 360.19978125851037 0 0 0 0 -333.83377502320582 -5.4726557851805637 0 -5.4726557851805637 442.10836591245743 0 0 0 0 -41.570626229131449 -199.0177189881241 0 -199.0177189881241 206.15010307904993 0 0 0 0 -499.36125793985775 -316.40807433234346 0 -316.40807433234346 222.43450256808501 0 0 0 0 -678.6778490303077 -343.1515378307061 0 -343.1515378307061 -228.32622288271864 0 0 0 0 -332.94428765820703 -11.262817110193794 0 -11.262817110193794 -13.421878530128936 0 0 0 0 -107.815897460423 -323.33207594761711 0 -323.33207594761711 68.621061765090587 0 0 0 0 77.845782378248884 -152.13086755261943 0 -152.13086755261943 -213.23255918203012 0 0 0 0 -81.942610109730595 -162.12823807919574 0 -162.12823807919574 328.00884943221399 0 0 0 0 577.89955315619954 -589.18278069372911 0 -589.18278069372911 287.90088367125099 0 0 0 0 163.85440799202115 -144.45058188142946 0 -144.45058188142946 88.898849144492715 0 0 0 0 76.554655542910041 -189.04473589685341 0 -189.04473589685341 -8.9946820886980845 0 0 0 0 43.055669675199169 -158.35115510391307 0 -158.35115510391307 87.950747098151169 0 0 0 0 63.008952653079177 -109.09902385101849 0 -109.09902385101849 27.884620525817041 0 0 0 0 31.566135108696471 -71.385696895560756 0 -71.385696895560756 -16.963559146138778 0 0 0 0 47.673385415502707 -63.030735302244437 0 -63.030735302244437 -26.646870299050931 0 0 0 0 -11.484431187382484 -2.9962735512528131 0 -2.9962735512528131 0.71112835525212592 0 0 0 0 -35.777266160785075 12.954225827561402 0 12.954225827561402 -0.60496146132959439 0 0 0 0 -11.686341849534074 15.786036456628722 0 15.786036456628722 -51.848185075943462 0 0 0 0 -20.682879315572791 -5.5858950138936621 0 -5.5858950138936621 2.7278817443177701 0 0 0 0 27.81222914980026 -47.579130835614606 0 -47.579130835614606 6.2725499707029488 0 0 0 0 -2.8120532328317438 -2.6326561059461504 0 -2.6326561059461504 0.032666328623333074 0 0 0 0 16.098404086069422 -36.782985119433498 0 -36.782985119433498 36.177748083756768 0 0 0 0 -397.3668790078882 -111.03160128190281 0 -111.03160128190281 -223.02931382876659 0 0 0 0 14.802160483868647 16.660669109531653 0 16.660669109531653 -189.03749451103818 0 0 0 0 -267.5047868314432 17.384397959312594 0 17.384397959312594 -3.8029219901100078 0 0 0 0 -51.571714835707098 54.034809432174825 0 54.034809432174825 -80.16010984464674 0 0 0 0 -1.2392322083587644 0.45841955008599911 0 0.45841955008599911 -1.9925744980182216 0 0 0 0 0.10969119229982027 0.84445534924782306 0 0.84445534924782306 -0.68907396628646522 0 0 0 0 -292.19636361406401 -206.71649798279796 0 -206.71649798279796 -239.62175511437317 0 0 0 0 -38.188255189284973 -231.64715146792309 0 -231.64715146792309 -185.12503266899358 0 0 0 0 -100.9676173307962 90.435346620312885 0 90.435346620312885 75.181492157364346 0 0 0 0 -119.25036283889494 80.97798529534731 0 80.97798529534731 121.22858191056162 0 0 0 0 83.238026467333839 -65.844580492897421 0 -65.844580492897421 28.556500705489725 0 0 0 0 -74.600090951025777 2.3504724880592676 0 2.3504724880592676 0.25524826315069049 0 0 0 0 -51.697009242743661 -84.063558533711898 0 -84.063558533711898 15.653586899365564 0 0 0 0 -5.6711070436404754 -1.3958024867991128 0 -1.3958024867991128 0.19030877728062512 0 0 0 0 -89.767491723134299 -40.578846399362646 0 -40.578846399362646 201.27170811264614 0 0 0 0 -79.783290173974819 14.820289859310378 0 14.820289859310378 59.54345322209565 0 0 0 0 -88.871666280567297 1.0033821500186377 0 1.0033821500186377 41.967205724113683 0 0 0 0 -67.076290798882837 -28.789962855996919 0 -28.789962855996919 45.497204335830418 0 0 0 0 -36.457696402203325 -1.4592499502027607 0 -1.4592499502027607 5.0977797837164562 0 0 0 0 -62.38027546605008 -19.579536244773408 0 -19.579536244773408 9.7952656436448606 0 0 0 0 -46.968888944640639 24.589033531285395 0 24.589033531285395 12.769545327101469 0 0 0 0 -60.552219886041712 18.161144431391335 0 18.161144431391335 11.085770529472029 0 0 0 0 -57.545627587460331 73.895194061308189 0 73.895194061308189 78.02078141583047 0 0 0 0 -58.796255682653282 59.415824815617498 0 59.415824815617498 -49.042620664964673 0 0 0 0 -14.761481054549222 -7.5784213806527418 0 -7.5784213806527418 0.43142894617659522 0 0 0 0 -21.130088641901239 0.34580209586792421 0 0.34580209586792421 1.7013482489187481 0 0 0 0 -9.5823232014823105 4.1839231182518262 0 4.1839231182518262 3.1875458491292217 0 0 0 0 -3.6048604839952718 -0.56059296700966854 0 -0.56059296700966854 -0.054270969189275098 0 0 0 0 -12.826324081147632 -7.1249101989899799 0 -7.1249101989899799 -6.4523226726432545 0 0 0 0 -7.9533057400675613 -0.61482138956633037 0 -0.61482138956633037 -2.9886264504231872 0 0 0 0 -16.227860678336583 0.69965124298823866 0 0.69965124298823866 -1.331192156465022 0 0 0 0 -8.7935197097219628 -0.36988400615649653 0 -0.36988400615649653 -3.2079620276085006 0 0 0 0 -26.798604610764414 -11.677805806559093 0 -11.677805806559093 -11.267973649501982 0 0 0 0 -1.499487312508478 -2.4917653700756119 0 -2.4917653700756119 -6.2610481019552022 0 0 0 0 -4.1133964525659215 -2.1130301615635858 0 -2.1130301615635858 -6.9101041745714387 0 0 0 0 -34.83173927975804 -9.8769363831522696 0 -9.8769363831522696 -8.6881045402692507 0 0 0 0 -20.084747740518651 -0.24026587348890871 0 -0.24026587348890871 -5.7262729938119037 0 0 0 0 -32.973813636472187 -12.415972695495327 0 -12.415972695495327 -9.2081508936062164 0 0 0 0 -72.690268282574834 -32.464800708486791 0 -32.464800708486791 -7.647436423560066 0 0 0 0 -50.966390058063553 -15.695684095349559 0 -15.695684095349559 4.5590684659705687 0 0 0 0 -23.53357081978411 -21.230214317379719 0 -21.230214317379719 -14.82371123682805 0 0 0 0 -34.750263069188804 -12.194679787626569 0 -12.194679787626569 -8.9120516791708724 0 0 0 0 -43.956123455103011 -5.4042005003681837 0 -5.4042005003681837 18.998096844691137 0 0 0 0 -29.857961247681779 -16.364448372717703 0 -16.364448372717703 -6.3211575627187013 0 0 0 0 -18.758158220341926 -5.7677684875799642 0 -5.7677684875799642 -0.051429903700377283 0 0 0 0 -22.453823241306964 -2.3984234787122318 0 -2.3984234787122318 6.6127690998380331 0 0 0 0 -13.461758897303383 -3.0029229589947946 0 -3.0029229589947946 0.70732907490744878 0 0 0 0 -12.95566890113696 -4.1462220713207216 0 -4.1462220713207216 2.3519789382393128 0 0 0 0 -22.145201239400194 -3.8619042147254561 0 -3.8619042147254561 -2.3313884638857587 0 0 0 0 -20.68902084087631 -4.9998423518904556 0 -4.9998423518904556 -3.9583499683527634 0 0 0 0 -21.768860819691326 -5.6243090845269421 0 -5.6243090845269421 0.29171976317280723 0 0 0 0 -24.093391205777152 0.77511726436358686 0 0.77511726436358686 -6.0265786548288816 0 0 0 0 -21.568280260154438 -2.3266086803163639 0 -2.3266086803163639 -4.426557545565629 0 0 0 0 -21.551440397997794 -0.041286855347607343 0 -0.041286855347607343 -7.8691298334666726 0 0 0 0 -23.105645158331754 0.20790381900422972 0 0.20790381900422972 -5.0873088950195324 0 0 0 0 -20.909082549504092 -0.35496636011970395 0 -0.35496636011970395 -4.3531484630543673 0 0 0 0 -19.921465423267364 -3.5266136125174654 0 -3.5266136125174654 -2.4655633349948403 0 0 0 0 -21.366203380974184 -0.43188005224055814 0 -0.43188005224055814 -1.2882979273011301 0 0 0 0 -16.222566586524408 -8.2124650186626411 0 -8.2124650186626411 -14.71242212000061 0 0 0 0 -16.128050260776945 0.4164652771329429 0 0.4164652771329429 0.54416098893136677 0 0 0 0 -13.971879864265247 -9.3329147338735243 0 -9.3329147338735243 5.9612014067570236 0 0 0 0 -14.404511055802516 -5.8114979974821228 0 -5.8114979974821228 -0.35436388673326946 0 0 0 0 -16.333594381099829 2.1387143210786519 0 2.1387143210786519 9.6373630265899237 0 0 0 0 -20.822155887584813 -3.5516703614641756 0 -3.5516703614641756 17.675373631073626 0 0 0 0 -13.818960974553193 3.2666468638130937 0 3.2666468638130937 -5.4743410381886406 0 0 0 0 -6.8993960990698326 -2.4137461197887262 0 -2.4137461197887262 1.8847443864249822 0 0 0 0 -637.74927265959195 -909.52497796708792 0 -909.52497796708792 -1012.4617421477798 0 0 0 0 -1107.8735407564018 -660.16506660519747 0 -660.16506660519747 -396.43236887736657 0 0 0 0 -694.66531338463028 -645.41353192155714 0 -645.41353192155714 -583.88583710127693 0 0 0 0 -6.1199893294105436 -3.1352372965032327 0 -3.1352372965032327 -0.26461642905840321 0 0 0 0 -1.7429785420063126 -11.585107396531953 0 -11.585107396531953 -20.281085018890394 0 0 0 0 67.938696226982302 -163.74069239043152 0 -163.74069239043152 108.02210926655403 0 0 0 0 54.758679455146194 17.422751871194706 0 17.422751871194706 127.36778211713028 0 0 0 0 -437.70393024298755 10.953362514435 0 10.953362514435 500.8528052501922 0 0 0 0 -246.30292844338578 -96.963798151440784 0 -96.963798151440784 113.43070239822708 0 0 0 0 -246.11134317758206 -99.889746912220431 0 -99.889746912220431 143.91633648453285 0 0 0 0 8.0023591246572323 -82.22992846160065 0 -82.22992846160065 60.651381527830097 0 0 0 0 34.304185519100429 -144.15373149474061 0 -144.15373149474061 79.702876862163293 0 0 0 0 43.353512353067345 -111.99214337826425 0 -111.99214337826425 49.335556589501245 0 0 0 0 58.999431469688716 -153.46478316126468 0 -153.46478316126468 45.522497051901013 0 0 0 0 42.837546711984032 -129.82344337200399 0 -129.82344337200399 101.0857413405374 0 0 0 0 4.9965810425328527 -80.874703942679631 0 -80.874703942679631 102.94262794055592 0 0 0 0 -4.9211088757110701 -134.76490661599581 0 -134.76490661599581 254.94394760840638 0 0 0 0 -4.7056552354972467 -1.6731018929086154 0 -1.6731018929086154 2.2773364578351303 0 0 0 0 -177.52715498940597 213.02493473076663 0 213.02493473076663 535.86527198035162 0 0 0 0 -430.46936332153007 -48.559368770664783 0 -48.559368770664783 265.34978095379938 0 0 0 0 -392.0442247121282 -14.156625690019496 0 -14.156625690019496 70.046303692950005 0 0 0 0 -420.28310993158902 -292.41715170160677 0 -292.41715170160677 -66.174508920543531 0 0 0 0 -490.14239277503657 -230.85634585846867 0 -230.85634585846867 -117.62805437774227 0 0 0 0 -589.02083607749046 -418.4888817533602 0 -418.4888817533602 -253.21921448091462 0 0 0 0 -507.95345847762837 -107.51493939356578 0 -107.51493939356578 -159.94751869254219 0 0 0 0 -847.72173656780797 -340.26760892276059 0 -340.26760892276059 -293.44054493925614 0 0 0 0 -626.07139562381417 -307.58270110811407 0 -307.58270110811407 -384.93498505212551 0 0 0 0 -941.87659133183479 -583.22124194187791 0 -583.22124194187791 -448.98976107193965 0 0 0 0 -726.21361812631585 -266.65623296432409 0 -266.65623296432409 -354.20655968819074 0 0 0 0 -903.93514681663873 -341.79654630800519 0 -341.79654630800519 277.40282654188223 0 0 0 0 -808.57366768683642 -699.69869143401957 0 -699.69869143401957 -309.02804464162563 0 0 0 0 -601.78722251889485 -328.9559103464876 0 -328.9559103464876 48.922931803448023 0 0 0 0 -558.26927976069055 -401.31391646717606 0 -401.31391646717606 20.093969721575604 0 0 0 0 -648.22532838273946 -471.85522905558634 0 -471.85522905558634 23.398295710998923 0 0 0 0 -698.78845594385348 -438.94056363718897 0 -438.94056363718897 31.276554483204393 0 0 0 0 -681.62477328976456 -473.11252235951633 0 -473.11252235951633 43.864348458736401 0 0 0 0 -680.37778838103554 -513.41481545074191 0 -513.41481545074191 -37.28598596012796 0 0 0 0 -744.22792480468888 -455.37581708781522 0 -455.37581708781522 -13.457249547015579 0 0 0 0 -676.74133777984025 -455.70806348209828 0 -455.70806348209828 -171.25031758979677 0 0 0 0 -716.48878930606315 -499.17917971855002 0 -499.17917971855002 39.848850902315803 0 0 0 0 -729.10538556417805 -516.32738761115081 0 -516.32738761115081 110.6045407709035 0 0 0 0 -445.39096888872155 -586.5118334886796 0 -586.5118334886796 -156.76927279023346 0 0 0 0 -625.10102569083551 -519.49954950250185 0 -519.49954950250185 -84.799442027902046 0 0 0 0 -630.95303253820202 -552.9096577744009 0 -552.9096577744009 -4.7777450587996668 0 0 0 0 -591.67600709665021 -482.01220532329251 0 -482.01220532329251 -237.06901607126861 0 0 0 0 -487.24399758491927 -428.8203707868463 0 -428.8203707868463 -241.87222678803337 0 0 0 0 -554.22816542781584 -376.33998151930302 0 -376.33998151930302 46.878495194697848 0 0 0 0 -83.66707790120563 -184.07250943497388 0 -184.07250943497388 2.6814223367004786 0 0 0 0 -432.41310354990128 -420.12147807942068 0 -420.12147807942068 -85.085746408599107 0 0 0 0 -1.3452980244382005 -1.5292388088395441 0 -1.5292388088395441 -1.1913547495966483 0 0 0 0 185.42825209405419 -218.73761598479211 0 -218.73761598479211 -44.513910755703591 0 0 0 0 27.361289623675475 11.304356378533157 0 11.304356378533157 -123.79224436177174 0 0 0 0 -41.838730540745019 -20.107580872301014 0 -20.107580872301014 35.059534982761761 0 0 0 0 1.0892171989196147 3.0747053328119307 0 3.0747053328119307 6.0640533340081557 0 0 0 0 -34.048708465277741 32.159055384721341 0 32.159055384721341 -114.11047631000429 0 0 0 0 -364.59285718082901 -97.410668741616291 0 -97.410668741616291 -93.887572651045843 0 0 0 0 -117.0942020548664 65.349209322361617 0 65.349209322361617 -27.219047993939057 0 0 0 0 -650.09381395154014 -193.93414120393425 0 -193.93414120393425 -6.0653980790852984 0 0 0 0 -509.41511860107676 -444.72370280902976 0 -444.72370280902976 -245.83880385108932 0 0 0 0 -395.54466576177174 -238.71224125565629 0 -238.71224125565629 -156.27137331478571 0 0 0 0 -364.91958529066869 -183.58441669898957 0 -183.58441669898957 -371.15910571660652 0 0 0 0 -268.17214054522628 -59.696199171094122 0 -59.696199171094122 -176.02538394323642 0 0 0 0 -560.66103602939984 -180.37874808905326 0 -180.37874808905326 -135.52546916888605 0 0 0 0 -572.2633851401074 -108.68485784026868 0 -108.68485784026868 -528.19382475999737 0 0 0 0 -510.27324803129795 -423.42966240377604 0 -423.42966240377604 -559.62822974845471 0 0 0 0 -81.312605222541606 -12.447780176112019 0 -12.447780176112019 70.783668893953291 0 0 0 0 -50.67998749371327 -41.152236409222269 0 -41.152236409222269 95.169461375980518 0 0 0 0 -151.11835724810226 -92.531516535089395 0 -92.531516535089395 205.78238228343287 0 0 0 0 17.463387060721288 -197.61261231137496 0 -197.61261231137496 181.50437674357337 0 0 0 0 -59.407403989309387 -120.93284912446597 0 -120.93284912446597 107.25721825194046 0 0 0 0 48.57825950838378 -150.09281477949742 0 -150.09281477949742 82.106947716337913 0 0 0 0 -11.954378075122804 -87.773747785796502 0 -87.773747785796502 58.626512545714149 0 0 0 0 -36.795457160333171 -63.81807924604891 0 -63.81807924604891 4.2822588391003364 0 0 0 0 -38.921515711277607 -88.934302762268089 0 -88.934302762268089 84.086499951521319 0 0 0 0 -116.05244115359528 -64.891957757787054 0 -64.891957757787054 63.290425213680919 0 0 0 0 -52.210530256095808 -52.470937779101632 0 -52.470937779101632 41.586191216526231 0 0 0 0 -55.678731382755359 -49.925324353054975 0 -49.925324353054975 110.56181152205863 0 0 0 0 -21.501985344941204 -19.950443202076258 0 -19.950443202076258 62.836234415714898 0 0 0 0 -66.087367033072951 -61.651392555007646 0 -61.651392555007646 155.8330664363707 0 0 0 0 55.947842131201469 -149.55988473237858 0 -149.55988473237858 141.71269215291744 0 0 0 0 -2.9334893407945373 -5.4447615706995478 0 -5.4447615706995478 -7.5805010063206559 0 0 0 0 -78.11772533020121 -34.595494713624703 0 -34.595494713624703 79.390839597497234 0 0 0 0 19.080769275423336 -57.735136647921877 0 -57.735136647921877 79.764304295284091 0 0 0 0 -53.134121858158323 -98.89313294552403 0 -98.89313294552403 79.02525877514563 0 0 0 0 -77.661808236502111 -86.842507478696461 0 -86.842507478696461 113.52849053944283 0 0 0 0 -55.811659830799272 -46.719954233241495 0 -46.719954233241495 37.500145335237448 0 0 0 0 -120.17890368058124 27.47907985951997 0 27.47907985951997 82.206693973590973 0 0 0 0 -38.363172145753197 -133.66183893570656 0 -133.66183893570656 95.554516008409792 0 0 0 0 134.41780093587658 -92.533880181422774 0 -92.533880181422774 4.7730318907251785 0 0 0 0 -21.835569239010511 -42.439031380011784 0 -42.439031380011784 15.021348541240059 0 0 0 0 -145.80667985872424 8.9953717582757236 0 8.9953717582757236 8.0978012754294468 0 0 0 0 -307.20037395857798 70.959190280609619 0 70.959190280609619 49.565351547873206 0 0 0 0 -180.82877852948877 -52.402423244805505 0 -52.402423244805505 108.81171308190096 0 0 0 0 1.1049786125715775 1.1583987480749158 0 1.1583987480749158 1.276441551070139 0 0 0 0 -238.8139919682701 -13.872402501018513 0 -13.872402501018513 86.486941258790466 0 0 0 0 -56.248397680697963 -48.130309269323789 0 -48.130309269323789 69.678725169488871 0 0 0 0 -2.0738288710573869 -3.4069329911674302 0 -3.4069329911674302 -5.2610423548864773 0 0 0 0 -65.36677077081913 -27.662347313041209 0 -27.662347313041209 24.798343343510169 0 0 0 0 6.2161352004108892 -61.543176125776142 0 -61.543176125776142 31.453506078489227 0 0 0 0 5.5503757122051809 12.280136095110354 0 12.280136095110354 -37.824337236965221 0 0 0 0 -87.774881624038244 -0.90747032607578149 0 -0.90747032607578149 47.576472897226267 0 0 0 0 -0.019624124913356411 -0.92472202206127463 0 -0.92472202206127463 -2.6412580534122689 0 0 0 0 23.096229778555426 10.805365812840591 0 10.805365812840591 11.449846113666126 0 0 0 0 32.248958585987111 -75.999894543718625 0 -75.999894543718625 34.716548576868263 0 0 0 0 -76.201663376011311 -17.17903866409371 0 -17.17903866409371 -1.7188162654022241 0 0 0 0 -116.24889967919648 -2.5401866664343231 0 -2.5401866664343231 44.543355368015227 0 0 0 0 -22.709613642489785 -35.662255392210227 0 -35.662255392210227 -27.009417272298379 0 0 0 0 -136.44854303576221 -23.483058928620892 0 -23.483058928620892 22.830181020833038 0 0 0 0 -15.216383642342773 4.7904642214797146 0 4.7904642214797146 10.81707093130415 0 0 0 0 -110.04165519912749 -3.8968025757367144 0 -3.8968025757367144 8.4758311988821262 0 0 0 0 -75.473950884748092 -46.482525170033313 0 -46.482525170033313 14.819955013772528 0 0 0 0 -152.98239396856025 -40.581274908210077 0 -40.581274908210077 16.400112232859158 0 0 0 0 -14.144531355522501 -25.744423326130448 0 -25.744423326130448 -8.1280111708370306 0 0 0 0 -98.765839685633637 -62.947075228811485 0 -62.947075228811485 23.219003811353218 0 0 0 0 -71.066356245616134 -60.448033789114028 0 -60.448033789114028 4.8949892061280593 0 0 0 0 -57.997167479577911 -25.037221036111873 0 -25.037221036111873 -11.676008531302386 0 0 0 0 -42.059800503124279 -19.425495685397323 0 -19.425495685397323 -22.863862594936563 0 0 0 0 -52.283404361875981 -13.626727051353258 0 -13.626727051353258 -3.9764121684751288 0 0 0 0 -40.196903514231963 -45.127389315222445 0 -45.127389315222445 17.528274508480081 0 0 0 0 -50.982930153855705 -44.988219592022688 0 -44.988219592022688 23.512581952777964 0 0 0 0 27.221104236730753 -167.92373414058284 0 -167.92373414058284 -244.54218314333957 0 0 0 0 -18.033899873239278 -3.4731823337358065 0 -3.4731823337358065 3.8436673976595586 0 0 0 0 -85.588004668811521 -24.941002366120379 0 -24.941002366120379 -4.5861808139732663 0 0 0 0 -326.5816371000401 -188.56802925279226 0 -188.56802925279226 73.062395309010299 0 0 0 0 -2733.7406699220628 -42.974566477737426 0 -42.974566477737426 271.92308982387794 0 0 0 0 -20.487398909997452 -1.6148227982852212 0 -1.6148227982852212 -0.35742021224923892 0 0 0 0 -705.3127613029319 -511.1307855335308 0 -511.1307855335308 -13.537080388628056 0 0 0 0 -845.18299162771382 63.334472362324789 0 63.334472362324789 236.05432527437551 0 0 0 0 -894.35439023434765 -187.60259171466714 0 -187.60259171466714 -21.298103436889505 0 0 0 0 -366.17733707526713 -245.37506005976047 0 -245.37506005976047 -137.9400724046418 0 0 0 0 -1.6491514275294321 -216.42648336465436 0 -216.42648336465436 -246.60645079611459 0 0 0 0 -144.67533072608603 125.44653238239528 0 125.44653238239528 202.14974505357895 0 0 0 0 -29.613583504549752 97.795109107305052 0 97.795109107305052 181.93118751407474 0 0 0 0 -53.390715165193306 -9.3815170219313657 0 -9.3815170219313657 0.47705315150239525 0 0 0 0 -14.761126758577831 2.397206444331303 0 2.397206444331303 2.9396557693804368 0 0 0 0 -47.631695639927784 -52.239913961860111 0 -52.239913961860111 150.05989357851081 0 0 0 0 -252.66648010198878 -99.519209797384974 0 -99.519209797384974 -86.20965437227278 0 0 0 0 120.65862321920577 30.543892925522869 0 30.543892925522869 -125.93382615935661 0 0 0 0 -97.052163248281431 92.769461428667 0 92.769461428667 206.76277444077641 0 0 0 0 -38.917701194857727 42.563767054719676 0 42.563767054719676 3.847780114328998 0 0 0 0 -85.117462680314929 63.600273675671815 0 63.600273675671815 7.0462991024925259 0 0 0 0 -67.05773180426695 5.5851594961577575 0 5.5851594961577575 -6.2782037382567069 0 0 0 0 -84.946137040849862 31.690640672270547 0 31.690640672270547 85.972113681656083 0 0 0 0 -10.742817243982937 2.5824255050715195 0 2.5824255050715195 4.4364835896636095 0 0 0 0 -58.980507736259824 -0.45895436689079361 0 -0.45895436689079361 2.1853567198049859 0 0 0 0 -45.691972049087269 -8.0993196210515901 0 -8.0993196210515901 -0.021181613034583435 0 0 0 0 -23.767068519746648 -13.966903532008185 0 -13.966903532008185 0.54452006002410158 0 0 0 0 -53.666470006868849 -5.5672728362609121 0 -5.5672728362609121 -12.076318835258917 0 0 0 0 99.487914206652476 -518.43284428373272 0 -518.43284428373272 -46.319853094762891 0 0 0 0 -131.29222331919459 94.474548339700618 0 94.474548339700618 -90.367348483642672 0 0 0 0 -282.75201577997996 560.83284402162155 0 560.83284402162155 -127.75796582313978 0 0 0 0 -713.81127896996622 -26.561727367669164 0 -26.561727367669164 473.96036752370958 0 0 0 0 -1302.8501537939228 -545.06650175956793 0 -545.06650175956793 -105.04415103789597 0 0 0 0 -1670.9045218375504 962.90641048536327 0 962.90641048536327 -79.426776322309905 0 0 0 0 252.30353808255779 8.9889693592728523 0 8.9889693592728523 -31.103154063439327 0 0 0 0 87.803670600209443 -735.81529456085877 0 -735.81529456085877 112.97000602261494 0 0 0 0 -12.727516150860003 -6.9964723856503941 0 -6.9964723856503941 -1.6738840754880964 0 0 0 0 -556.96833394777423 897.09651333423608 0 897.09651333423608 -532.30877463226716 0 0 0 0 -1056.7317697977014 -117.9445503876583 0 -117.9445503876583 -105.8269510875341 0 0 0 0 -562.70477214916605 -334.2017139754567 0 -334.2017139754567 -166.35742790235292 0 0 0 0 -588.92117356534504 -89.451622584230122 0 -89.451622584230122 -172.94381690816476 0 0 0 0 -326.03678915173532 -115.95447959641177 0 -115.95447959641177 -173.90457846870913 0 0 0 0 -301.80297722130285 -338.94746171134807 0 -338.94746171134807 -176.6970421461217 0 0 0 0 -862.67823973793838 -538.41249139197771 0 -538.41249139197771 188.96620879613283 0 0 0 0 -196.68315627387346 106.16878633753623 0 106.16878633753623 -961.56003066245785 0 0 0 0 -1644.2520893463925 48.958432515383151 0 48.958432515383151 269.26080295816882 0 0 0 0 -293.29280946436847 -485.10905756387035 0 -485.10905756387035 389.1128435964373 0 0 0 0 -956.26401103019134 336.57013489634272 0 336.57013489634272 -136.19286155155635 0 0 0 0 -3.0851118810274407 0.0034281231739914375 0 0.0034281231739914375 2.0234497402749438 0 0 0 0 -54.508517989209395 268.55466215042782 0 268.55466215042782 -58.047970834872331 0 0 0 0 37.222938159564819 139.27557335836218 0 139.27557335836218 120.32173757481451 0 0 0 0 123.73651744720792 261.40595155874882 0 261.40595155874882 -133.02081950554691 0 0 0 0 -186.1135497055202 -50.299797445626041 0 -50.299797445626041 -186.84114134034382 0 0 0 0 -73.490311911752542 26.811737313314552 0 26.811737313314552 1.5765644852353944 0 0 0 0 367.30531358047358 -47.28170300183632 0 -47.28170300183632 -115.99262164917286 0 0 0 0 -11.413587433909505 -10.503656058553137 0 -10.503656058553137 4.2576625488457216 0 0 0 0 18.912846977424579 92.257384709027974 0 92.257384709027974 2.6775825900085692 0 0 0 0 -7.0313519784820073 -15.250700853081327 0 -15.250700853081327 -6.6995000581000568 0 0 0 0 -21.270509606791165 54.929212416271866 0 54.929212416271866 113.67005981768324 0 0 0 0 -85.72264017500504 -30.123410496968233 0 -30.123410496968233 3.7289788092102754 0 0 0 0 -1.1203238535003539 4.0111686557466317 0 4.0111686557466317 5.2501273048990695 0 0 0 0 -52.250752550018035 119.2215386864241 0 119.2215386864241 -140.74757824366634 0 0 0 0 -231.09132842437748 138.2527602783465 0 138.2527602783465 -65.790901113309133 0 0 0 0 -381.48111175419035 199.4683016417182 0 199.4683016417182 -60.340202145008277 0 0 0 0 -4.4789312535765351 0.95767800911032985 0 0.95767800911032985 5.0092837502004155 0 0 0 0 -233.65898496400587 105.00728806444113 0 105.00728806444113 -19.688460607671459 0 0 0 0 -232.96498150989237 92.006711988831114 0 92.006711988831114 -136.65708547464715 0 0 0 0 -402.50628951465796 302.00656720951849 0 302.00656720951849 -141.96074563379827 0 0 0 0 -648.68365397686694 29.880928372367634 0 29.880928372367634 -97.001736720519375 0 0 0 0 -579.63154371428436 121.88107117767629 0 121.88107117767629 -32.655687995987648 0 0 0 0 -438.70872340525148 89.049012311255979 0 89.049012311255979 -100.78693311782126 0 0 0 0 -566.73466978274337 49.031917688097678 0 49.031917688097678 -147.58643898662254 0 0 0 0 -659.50317918635619 -43.699044010296717 0 -43.699044010296717 -137.75307371655526 0 0 0 0 -628.8161663005194 11.607410321538168 0 11.607410321538168 -85.402075431858862 0 0 0 0 28.519452473714409 -41.548161792940732 0 -41.548161792940732 -95.518389413566979 0 0 0 0 -1.4733251762613304 -23.516301295615786 0 -23.516301295615786 -5.6137494456938226 0 0 0 0 -26.332408390742785 -32.546963064084679 0 -32.546963064084679 2.7574538212404605 0 0 0 0 -63.441284745553276 -22.697101898687151 0 -22.697101898687151 11.267205140945975 0 0 0 0 -34.486292342455044 -28.461377878457853 0 -28.461377878457853 -12.396843586368959 0 0 0 0 -95.488621997275004 -74.398546099520772 0 -74.398546099520772 2.9045929416218428 0 0 0 0 -99.596412411812707 -41.006329263835397 0 -41.006329263835397 13.283174622838203 0 0 0 0 -112.87216902219461 -62.206041308540641 0 -62.206041308540641 -20.248492566777983 0 0 0 0 -0.048299242934910946 6.0866885410412142 0 6.0866885410412142 -4.2721163916782157 0 0 0 0 -185.06886491638943 11.019731292385302 0 11.019731292385302 -1.3922705355043945 0 0 0 0 -228.42198457993345 -8.5751504744332294 0 -8.5751504744332294 18.688647753387613 0 0 0 0 -3.8667719045523548 -0.80667663513673027 0 -0.80667663513673027 -4.2469872397672352 0 0 0 0 -23.15097441430953 8.6242514766417457 0 8.6242514766417457 -5.2116878920160161 0 0 0 0 83.009493766235664 46.436026242172602 0 46.436026242172602 35.336925044651252 0 0 0 0 -262.38858491502924 42.667348371052412 0 42.667348371052412 -13.934626935468657 0 0 0 0 -335.75258187135114 34.990715473941805 0 34.990715473941805 1.4323049157087553 0 0 0 0 -4.39454609070083 -0.42815605179400151 0 -0.42815605179400151 -1.9399551445606269 0 0 0 0 -296.76905193424955 -101.14088309647636 0 -101.14088309647636 -27.223548238790642 0 0 0 0 1.1329851586981157 -3.5689073766275947 0 -3.5689073766275947 -1.5840175630996802 0 0 0 0 -52.089614200429423 -89.709040234741423 0 -89.709040234741423 -105.90825158858985 0 0 0 0 -439.18693438057016 171.6300969904479 0 171.6300969904479 215.68135019439723 0 0 0 0 -249.13892954820676 -60.045059498685077 0 -60.045059498685077 355.97720336481677 0 0 0 0 -243.56866061464052 32.229981098537507 0 32.229981098537507 -121.19998337909351 0 0 0 0 -365.85866056341092 -89.044477074981842 0 -89.044477074981842 364.79711427063216 0 0 0 0 -475.82252647644873 144.40101387064567 0 144.40101387064567 197.64470681745104 0 0 0 0 -536.94482735283327 300.8296384651631 0 300.8296384651631 122.60357978615343 0 0 0 0 -394.00695937640421 365.54441762445765 0 365.54441762445765 299.72949780970134 0 0 0 0 -368.25024282961249 56.798739603721515 0 56.798739603721515 365.71242434287774 0 0 0 0 -23.23320414855425 8.125936256872393 0 8.125936256872393 -4.0419536350953535 0 0 0 0 -0.8194650364050613 -0.3387823388830391 0 -0.3387823388830391 -0.25886312929990662 0 0 0 0 16.001543506413327 28.610469240795965 0 28.610469240795965 -32.205849997155497 0 0 0 0 48.13850577471419 52.460985517861246 0 52.460985517861246 22.053098844090641 0 0 0 0 0.26730534904826309 -0.79825404467670147 0 -0.79825404467670147 -11.192295186705572 0 0 0 0 -212.69979898758675 237.4635165335489 0 237.4635165335489 -73.727664142693357 0 0 0 0 -260.52321584814126 201.0450561716311 0 201.0450561716311 -68.584120202708078 0 0 0 0 -361.32040681562967 276.75208466403018 0 276.75208466403018 -35.250930773979007 0 0 0 0 -229.78386241536964 359.80295598321561 0 359.80295598321561 -598.50639223518658 0 0 0 0 -896.64727522890462 362.15132046688586 0 362.15132046688586 15.376596833478629 0 0 0 0 -142.24420525340611 81.596237717266831 0 81.596237717266831 48.575363917713062 0 0 0 0 -104.39300060109417 -184.61082178385777 0 -184.61082178385777 867.56480827570635 0 0 0 0 24.688768026820071 382.60121589119922 0 382.60121589119922 440.85246902037511 0 0 0 0 573.64178594335715 -466.31955590882836 0 -466.31955590882836 565.83214511803908 0 0 0 0 -6.3220965826875979 -3.7580458005983197 0 -3.7580458005983197 2.0641927874180839 0 0 0 0 -356.47389479514368 136.41132321899295 0 136.41132321899295 569.60033587808812 0 0 0 0 127.92771705611085 -178.42260233315892 0 -178.42260233315892 389.62408522050112 0 0 0 0 -24.059245509513318 36.035333918845687 0 36.035333918845687 333.27692070226658 0 0 0 0 -147.40149393765023 -343.4686132170674 0 -343.4686132170674 459.45671912299372 0 0 0 0 -36.124941925546899 -12.324191678889155 0 -12.324191678889155 -0.17440897015219803 0 0 0 0 -7.8159941681551572 -478.96670637816197 0 -478.96670637816197 -259.30568303420353 0 0 0 0 -58.460753057025727 -500.17034033603704 0 -500.17034033603704 72.184132575204671 0 0 0 0 -581.64326599143078 -485.40956100602364 0 -485.40956100602364 75.509134659732354 0 0 0 0 50.927457432052961 -343.31136920134912 0 -343.31136920134912 -50.107342055163258 0 0 0 0 80.715475709789644 -275.44349343240242 0 -275.44349343240242 -237.72695331900852 0 0 0 0 -116.51803079029423 -370.13468449535708 0 -370.13468449535708 580.57105360369098 0 0 0 0 -22.71919323417896 -6.2080103158668916 0 -6.2080103158668916 -1.6916826510899052 0 0 0 0 11.156197872449411 -88.81769353785262 0 -88.81769353785262 98.591595641389176 0 0 0 0 33.931806024455 -17.860915328963983 0 -17.860915328963983 -7.2024215072758579 0 0 0 0 -14.79892665310399 -14.814594637538562 0 -14.814594637538562 5.4109290733242688 0 0 0 0 98.686480569780542 -87.476152159029084 0 -87.476152159029084 -50.05550245977156 0 0 0 0 43.150930139794582 23.393161759549685 0 23.393161759549685 -118.41503114433726 0 0 0 0 -39.970752861321671 33.606049581576372 0 33.606049581576372 33.994887196430227 0 0 0 0 75.01064334563489 117.26207374153159 0 117.26207374153159 -6.9814359777008121 0 0 0 0 -35.130032774948205 -7.9320260828511628 0 -7.9320260828511628 1.185661739268653 0 0 0 0 -48.286906443918269 -23.263780555387939 0 -23.263780555387939 -11.305324634153976 0 0 0 0 -861.24824021713357 -711.21936720839358 0 -711.21936720839358 -492.37323793288363 0 0 0 0 -4693.2557555083695 -206.72086294296651 0 -206.72086294296651 -90.047636047617118 0 0 0 0 -1754.9841267898282 -861.33766088001221 0 -861.33766088001221 -47.449732825837145 0 0 0 0 458.6014318943744 550.19876928575786 0 550.19876928575786 -114.25959730160258 0 0 0 0 205.14245434843178 -156.01384618357997 0 -156.01384618357997 -339.97795214539019 0 0 0 0 -13.638909896712921 -4.633373806893907 0 -4.633373806893907 2.6717861172772137 0 0 0 0 -718.70941322916769 -376.25628616069696 0 -376.25628616069696 -67.612484535128033 0 0 0 0 -182.21506369523195 -420.98070525634375 0 -420.98070525634375 -329.28864676854869 0 0 0 0 -270.12155781785259 -132.56039936566833 0 -132.56039936566833 -75.363679601570993 0 0 0 0 -20.266184874236387 89.114013959504859 0 89.114013959504859 -16.033437983373915 0 0 0 0 -473.37851982860593 -217.11804225512128 0 -217.11804225512128 -76.638887909767647 0 0 0 0 -687.27435351024724 -109.5272028893873 0 -109.5272028893873 41.996859165430692 0 0 0 0 -1117.0306317259565 -372.97475753849227 0 -372.97475753849227 56.648047247846222 0 0 0 0 -738.06365910164413 -294.99333621947829 0 -294.99333621947829 3.909514476039476 0 0 0 0 -1317.6765118290218 58.015985374349583 0 58.015985374349583 -126.40729194622327 0 0 0 0 -694.87273242308038 -172.95742407103415 0 -172.95742407103415 -687.82510269339161 0 0 0 0 -917.82030028616646 -361.81049913513726 0 -361.81049913513726 23.140908777502545 0 0 0 0 -7.5719601481436243 -2.4559242515142632 0 -2.4559242515142632 -0.85205170610949355 0 0 0 0 -551.16965631312269 -25.558145072749994 0 -25.558145072749994 225.11602038200397 0 0 0 0 56.188601588674828 -430.82068242503209 0 -430.82068242503209 -766.0088624374921 0 0 0 0 -660.98683174325197 346.87584065888376 0 346.87584065888376 780.99314912153113 0 0 0 0 -153.37527624652012 418.8763244501796 0 418.8763244501796 -275.41648620141962 0 0 0 0 -533.12945423943711 221.27505683967587 0 221.27505683967587 388.40618825395057 0 0 0 0 -184.67561019936875 728.62141515259941 0 728.62141515259941 112.10364307182886 0 0 0 0 -819.88793404669741 1082.2027274764446 0 1082.2027274764446 -444.00476645562259 0 0 0 0 -679.67893136304701 446.71049581387041 0 446.71049581387041 -29.931465734816527 0 0 0 0 -633.56994640221637 605.93462467252698 0 605.93462467252698 -245.06217997733063 0 0 0 0 -500.39861425948311 129.03064302839789 0 129.03064302839789 -221.12707493276685 0 0 0 0 -2110.9059972068344 1384.9580218825213 0 1384.9580218825213 80.99652678026375 0 0 0 0 -1938.2350331856496 790.56332196529218 0 790.56332196529218 96.556951077005749 0 0 0 0 -3500.7420995110569 939.04551284089564 0 939.04551284089564 738.50774400921603 0 0 0 0 -2315.0657804991697 521.59685765808536 0 521.59685765808536 865.09483521469247 0 0 0 0 -2281.956481823951 374.6007578207429 0 374.6007578207429 463.04062127975749 0 0 0 0 -1602.9602270419491 311.53443710726174 0 311.53443710726174 465.02562325242263 0 0 0 0 -2471.1530568810213 -270.54851105116973 0 -270.54851105116973 974.34342798931914 0 0 0 0 -3498.6239819062921 235.67057172431328 0 235.67057172431328 1047.820558937138 0 0 0 0 -1068.8123371369802 440.14245441465869 0 440.14245441465869 10.23387707670895 0 0 0 0 -1068.1402538599741 422.3036976734536 0 422.3036976734536 322.14513676703746 0 0 0 0 -1181.2387368980553 517.19673457992576 0 517.19673457992576 -42.450661584168301 0 0 0 0 -1220.9094110415199 681.60784595973189 0 681.60784595973189 96.302919334913781 0 0 0 0 -386.59899213356221 516.86003248502516 0 516.86003248502516 18.798479268886013 0 0 0 0 -1379.6863683773699 51.091021400518287 0 51.091021400518287 488.4680707619782 0 0 0 0 -1265.3908370644385 987.12579947721542 0 987.12579947721542 632.10120623059356 0 0 0 0 142.93552427963004 1430.1549090406563 0 1430.1549090406563 506.66489321262088 0 0 0 0 -2436.470469367734 362.56713278646089 0 362.56713278646089 458.4074494723518 0 0 0 0 -13.550057184438195 4.8350508104298449 0 4.8350508104298449 1.554617210742018 0 0 0 0 -3726.5444614496696 -285.78615000704929 0 -285.78615000704929 99.411832234409303 0 0 0 0 -3588.6975500930403 -2269.0476556081321 0 -2269.0476556081321 -679.64383327996939 0 0 0 0 -3341.4869489906087 -1929.1241075262287 0 -1929.1241075262287 -1305.3553930825419 0 0 0 0 -2200.2706226174305 -1105.7678532140742 0 -1105.7678532140742 -458.09245850292433 0 0 0 0 -6.0402415679207024 -131.68005875679481 0 -131.68005875679481 354.20864195574882 0 0 0 0 -941.32929790030539 243.15656156211946 0 243.15656156211946 671.12535339338763 0 0 0 0 -1557.3002095416846 -572.53501448344718 0 -572.53501448344718 65.569549579566342 0 0 0 0 -30.207859725587369 13.155098204470445 0 13.155098204470445 3.6793485996800421 0 0 0 0 -1558.1357004206179 -554.47125918306801 0 -554.47125918306801 -7.8497446697756459 0 0 0 0 -1717.3079588550936 -545.89900360957654 0 -545.89900360957654 33.05379009472324 0 0 0 0 -2358.7274100287264 -46.937675649408533 0 -46.937675649408533 813.78582517162795 0 0 0 0 -2542.1152672568242 -212.45066530949015 0 -212.45066530949015 977.79083646184176 0 0 0 0 -2071.2412968633635 -768.01356209163373 0 -768.01356209163373 44.393685983291874 0 0 0 0 -1235.1084885451533 -640.03670357936028 0 -640.03670357936028 15.226484277840996 0 0 0 0 -3499.7151203912999 -883.20935628467146 0 -883.20935628467146 752.99912344066047 0 0 0 0 -2095.0306620372066 -959.90878723387539 0 -959.90878723387539 -104.67242365710604 0 0 0 0 -3497.0863596966738 -2004.3203275127312 0 -2004.3203275127312 -882.29505777311999 0 0 0 0 -30.314534408349687 14.413206511921896 0 14.413206511921896 0.81861751214106282 0 0 0 0 -683.22675723124848 507.08217719474419 0 507.08217719474419 586.4979039709192 0 0 0 0 -1641.2005390618015 -647.14618240669301 0 -647.14618240669301 347.1242203641184 0 0 0 0 -14.359300940996299 5.4803845334050187 0 5.4803845334050187 -1.8783337924797521 0 0 0 0 409.49216250085374 1069.8539658653212 0 1069.8539658653212 -814.15556468547038 0 0 0 0 -1404.4481637927202 -578.87333523233758 0 -578.87333523233758 -257.39172866064587 0 0 0 0 -1174.3703346740076 -826.48648634047686 0 -826.48648634047686 -23.532060324837232 0 0 0 0 -1279.6894570183576 -644.23320046127014 0 -644.23320046127014 -634.24287452476437 0 0 0 0 -2426.2400386470108 -1054.5479396948808 0 -1054.5479396948808 -45.347297927494594 0 0 0 0 -20.332993110007152 11.344179797776562 0 11.344179797776562 3.7541503290850007 0 0 0 0 -28.185888728714417 125.51938194324956 0 125.51938194324956 385.79656619975896 0 0 0 0 -79.6820819029017 1.1209853182182874 0 1.1209853182182874 88.943364952336267 0 0 0 0 -27.36328783054104 22.976999198721998 0 22.976999198721998 1.6301328054844302 0 0 0 0 -51.600685936733498 33.35452599586074 0 33.35452599586074 90.593142606225697 0 0 0 0 -114.37501992005127 34.066921829356943 0 34.066921829356943 -2.4709150609812696 0 0 0 0 -11.312322740497734 6.3179474728602329 0 6.3179474728602329 18.864657247492758 0 0 0 0 -234.87038168541403 74.914875707939473 0 74.914875707939473 24.482314158080044 0 0 0 0 -33.111262824262667 -82.588028026947796 0 -82.588028026947796 239.37497112856403 0 0 0 0 -1.2573711355639716 1.9782543545272802 0 1.9782543545272802 14.352306112178749 0 0 0 0 -186.94515078060795 -2.5229288317659666 0 -2.5229288317659666 27.645687500901602 0 0 0 0 -163.02612980785125 -59.26902518733641 0 -59.26902518733641 86.120780286946683 0 0 0 0 -153.71122400354398 9.3817204525665545 0 9.3817204525665545 23.160868481686521 0 0 0 0 -99.984004000398272 -42.603107692480989 0 -42.603107692480989 29.909118442854378 0 0 0 0 -38.478023466048398 -87.760744044907824 0 -87.760744044907824 41.230237649297123 0 0 0 0 -101.30166586716223 -41.307366384146462 0 -41.307366384146462 42.208689880534166 0 0 0 0 -141.90540249000696 -6.7954749393486509 0 -6.7954749393486509 44.029511551588257 0 0 0 0 -72.88717258887209 -6.481710936040713 0 -6.481710936040713 38.762427155091245 0 0 0 0 -57.27627932076939 -47.744639914613799 0 -47.744639914613799 29.252026934939238 0 0 0 0 -82.973551158551345 -3.9590434807644215 0 -3.9590434807644215 1.6740453543393414 0 0 0 0 -98.111587825398601 -9.6238370417972874 0 -9.6238370417972874 54.816161453799623 0 0 0 0 -63.488640144675763 -10.524728217696259 0 -10.524728217696259 0.37174790508649114 0 0 0 0 -36.768430835882114 13.390858014337482 0 13.390858014337482 11.327957833368494 0 0 0 0 -12.057931157932032 2.1842686581937816 0 2.1842686581937816 1.1531127923556435 0 0 0 0 -395.40618402103428 812.29087478857218 0 812.29087478857218 -547.27343552933326 0 0 0 0 26.835651423374657 129.84830783655207 0 129.84830783655207 179.80703955301669 0 0 0 0 -1237.9091660389095 562.38879058887824 0 562.38879058887824 -433.0161566152392 0 0 0 0 -894.5743504948332 -739.88962970241028 0 -739.88962970241028 39.787289883914582 0 0 0 0 -1679.5936530940614 -316.25796921760877 0 -316.25796921760877 35.276355970054283 0 0 0 0 -18.955581943968237 2.1495211389405462 0 2.1495211389405462 7.3938069555741137 0 0 0 0 -904.68745049987774 21.723760064126736 0 21.723760064126736 10.818032455777256 0 0 0 0 -66.859655888496491 11.89313075036921 0 11.89313075036921 22.310315241224998 0 0 0 0 -112.24081000209662 24.298452742096515 0 24.298452742096515 25.785988057032228 0 0 0 0 -215.37040586404328 -33.595691101211742 0 -33.595691101211742 0.32973736342978555 0 0 0 0 -101.77769307639392 -14.815276868433102 0 -14.815276868433102 3.119993453281495 0 0 0 0 -93.39974374420126 -4.8942914647996076 0 -4.8942914647996076 -20.83765239594868 0 0 0 0 -94.172233073826646 -5.0328877860574721 0 -5.0328877860574721 10.062605330746919 0 0 0 0 -83.804249994835118 -4.1882447430652974 0 -4.1882447430652974 -2.0450445846872753 0 0 0 0 -80.346359451106764 5.545906885579825 0 5.545906885579825 16.118911477409711 0 0 0 0 -88.274169883006834 -6.7885772247609566 0 -6.7885772247609566 18.018814886949258 0 0 0 0 -86.628108446217084 -7.0910432801920251 0 -7.0910432801920251 9.0142861554322735 0 0 0 0 -102.19822011607903 -10.851929036965885 0 -10.851929036965885 20.17145912279193 0 0 0 0 -125.48541662821663 18.909180746641141 0 18.909180746641141 -32.272578230994441 0 0 0 0 -33.399646022211527 0.011958273315030965 0 0.011958273315030965 4.1853106349062728 0 0 0 0 -51.273844609068448 -15.551246852548545 0 -15.551246852548545 10.991477291794983 0 0 0 0 -41.443744937349479 -5.6091730281110017 0 -5.6091730281110017 3.6587070020427781 0 0 0 0 -115.39148664088589 39.575581647351328 0 39.575581647351328 -18.049537745930138 0 0 0 0 -1.179737073847221 2.319824519091898 0 2.319824519091898 0.97795475490930395 0 0 0 0 -97.439614669376169 -43.403688966089248 0 -43.403688966089248 -4.5918041851873568 0 0 0 0 -39.984607075632127 -0.87540281314896617 0 -0.87540281314896617 1.7336431974495454 0 0 0 0 -148.68616008397294 -1.9169761765451767 0 -1.9169761765451767 3.122962288587587 0 0 0 0 -45.50477346156098 -28.40010514723949 0 -28.40010514723949 7.6749841565400203 0 0 0 0 -196.94922847728594 -67.027099494171125 0 -67.027099494171125 54.088413922203472 0 0 0 0 -59.462987266457837 8.2010225585669367 0 8.2010225585669367 4.992415423639244 0 0 0 0 -47.517447798232752 -6.0799817250172055 0 -6.0799817250172055 0.51762290519764065 0 0 0 0 -74.388677355047548 -17.643395008608422 0 -17.643395008608422 11.356915307871532 0 0 0 0 -69.41319901013776 16.937369035576921 0 16.937369035576921 6.855252230352562 0 0 0 0 -73.870268916685745 15.019927252001253 0 15.019927252001253 14.962785689214797 0 0 0 0 -65.848221488879062 24.729431657866371 0 24.729431657866371 6.1871598419870679 0 0 0 0 -74.193105057769571 22.249461565716047 0 22.249461565716047 5.690294843691845 0 0 0 0 -84.932767794163738 30.872818241347659 0 30.872818241347659 -1.2276081810778123 0 0 0 0 -80.778059699194273 10.860758005395837 0 10.860758005395837 3.6628464445075224 0 0 0 0 -76.961239055322949 5.8460534461428324 0 5.8460534461428324 -35.961372809888417 0 0 0 0 -79.976199584609276 8.4538334840417519 0 8.4538334840417519 -12.004203609158139 0 0 0 0 -78.362191673746565 15.587430695224612 0 15.587430695224612 11.413685536568664 0 0 0 0 -80.798471180907654 14.788086312725227 0 14.788086312725227 21.187443262708257 0 0 0 0 -77.079241257612011 14.391509020719241 0 14.391509020719241 0.038893451833928339 0 0 0 0 -81.171591401340265 12.964882268403016 0 12.964882268403016 12.912351075385232 0 0 0 0 -78.486978499771794 31.689241917070376 0 31.689241917070376 11.508592331920227 0 0 0 0 -71.573461810403387 31.929966142059129 0 31.929966142059129 9.5877376654825639 0 0 0 0 -72.374146146416024 21.681733089226327 0 21.681733089226327 28.649422768374279 0 0 0 0 -61.72327415971813 5.5598435960728239 0 5.5598435960728239 36.513067838190182 0 0 0 0 -45.795036510616129 12.165554248495738 0 12.165554248495738 0.15647265094288798 0 0 0 0 -15.895183980851016 10.136359552893509 0 10.136359552893509 28.260115949484316 0 0 0 0 -66.60130182064313 1.6612177167735354 0 1.6612177167735354 33.343923536036527 0 0 0 0 -75.573306848702487 19.057096141361399 0 19.057096141361399 26.060022667181329 0 0 0 0 -75.062417653258308 22.303452148480574 0 22.303452148480574 15.507904952915851 0 0 0 0 -42.640917259996058 -5.7081577597637079 0 -5.7081577597637079 38.512165334712336 0 0 0 0 11.807479217883156 31.051986320963579 0 31.051986320963579 8.1694519564516668 0 0 0 0 -3.5801263849934912 -11.399903656316383 0 -11.399903656316383 21.431880102860305 0 0 0 0 -30.463738861762977 5.2246669601954636 0 5.2246669601954636 18.444817405517824 0 0 0 0 -54.416250303074776 5.7626030802639434 0 5.7626030802639434 19.574771021442302 0 0 0 0 -29.263186469914217 28.871054168830597 0 28.871054168830597 10.481231674166338 0 0 0 0 -76.293085117540613 4.6851605643478251 0 4.6851605643478251 12.272780460990361 0 0 0 0 -75.896424531847515 7.6918018588810355 0 7.6918018588810355 30.602069620326802 0 0 0 0 -63.287636949971784 3.3231452751369943 0 3.3231452751369943 20.974757396346831 0 0 0 0 -64.324800822898396 7.5412532144109719 0 7.5412532144109719 32.068525535883964 0 0 0 0 -60.164532580514788 -3.5169239185597689 0 -3.5169239185597689 35.33011674046702 0 0 0 0 -54.60888023548614 -3.5479268486669753 0 -3.5479268486669753 14.720892091398127 0 0 0 0 -72.412819147270056 -4.4506455296323111 0 -4.4506455296323111 23.283443509010795 0 0 0 0 -75.451818548644951 -0.5048770810917631 0 -0.5048770810917631 18.330439661869605 0 0 0 0 -87.155569987706258 -7.3873794076334889 0 -7.3873794076334889 19.797856359534762 0 0 0 0 -78.507200799176644 -2.6765220259094349 0 -2.6765220259094349 16.955349078994573 0 0 0 0 -69.304087685133709 2.3349837905352615 0 2.3349837905352615 17.085968721925383 0 0 0 0 -79.631455973700213 9.9437458077845804 0 9.9437458077845804 7.7622937476025982 0 0 0 0 -60.608821213494593 9.685450718292941 0 9.685450718292941 5.9717623144770187 0 0 0 0 -78.501580493430083 0.26117537075151631 0 0.26117537075151631 6.5735302382154259 0 0 0 0 -88.81303623482745 5.9841416983199451 0 5.9841416983199451 12.301516628504032 0 0 0 0 -30.850772905454505 29.765279530274711 0 29.765279530274711 10.316076449940738 0 0 0 0 -33.538151341497723 25.089099522609104 0 25.089099522609104 8.2895913230722726 0 0 0 0 -31.762375253245409 8.6863439565986482 0 8.6863439565986482 9.7399278232824145 0 0 0 0 -58.628653097810457 6.3735431635595887 0 6.3735431635595887 11.48996492418064 0 0 0 0 -52.918522162472073 18.279784198399284 0 18.279784198399284 3.8487848758286418 0 0 0 0 -46.414866176388387 27.094017895732577 0 27.094017895732577 8.9666308606410894 0 0 0 0 -57.21674427617836 16.446168131689774 0 16.446168131689774 -5.0727908188664514 0 0 0 0 -67.224968786141289 21.354747766774295 0 21.354747766774295 5.993112058729821 0 0 0 0 -66.608165618690464 5.5409742430248912 0 5.5409742430248912 -2.6004600346295774 0 0 0 0 -80.874467700537934 2.9181943549638163 0 2.9181943549638163 -17.088476217397329 0 0 0 0 -96.948625906548841 13.510588034444481 0 13.510588034444481 -2.3696538497988513 0 0 0 0 -81.379533831321169 10.348696306406055 0 10.348696306406055 -0.11070725282479543 0 0 0 0 -183.4596631077643 -70.937222240812389 0 -70.937222240812389 -32.72833085917955 0 0 0 0 -302.05658732036102 -86.159301251056945 0 -86.159301251056945 17.482236097606801 0 0 0 0 -17.405394927932072 -5.657309993889414 0 -5.657309993889414 -11.144753362942303 0 0 0 0 -110.06262226698891 -10.297302072863204 0 -10.297302072863204 16.93694172292453 0 0 0 0 -17.901579888364477 -2.6506505128512803 0 -2.6506505128512803 -4.4572882364234339 0 0 0 0 -111.79311290190526 2.1807614386011664 0 2.1807614386011664 15.449019878542458 0 0 0 0 -22.381228200075597 20.249699689090416 0 20.249699689090416 11.234161282136466 0 0 0 0 -93.280399372762076 -7.867809738170763 0 -7.867809738170763 17.69381791372507 0 0 0 0 -91.630444502898172 -3.6715057524379517 0 -3.6715057524379517 19.484883531813466 0 0 0 0 -330.71893862639553 -6.820652402870337 0 -6.820652402870337 55.801475575048698 0 0 0 0 -310.03776442365631 -3.9830719102289383 0 -3.9830719102289383 -21.53216714233713 0 0 0 0 -310.11990762733467 -25.321638768458456 0 -25.321638768458456 17.518769969616187 0 0 0 0 -323.33102140872523 24.431967640485709 0 24.431967640485709 11.298473260977971 0 0 0 0 -176.62468592863434 -83.910258691292896 0 -83.910258691292896 36.297439939194192 0 0 0 0 -258.61680316372531 25.851664950484292 0 25.851664950484292 56.808560301245961 0 0 0 0 -172.34034192381921 -21.428948344786477 0 -21.428948344786477 -6.7278620338038309 0 0 0 0 -198.18390943207487 -111.79488814911156 0 -111.79488814911156 7.702252787409634 0 0 0 0 -292.31784464446537 -155.72053785671142 0 -155.72053785671142 97.951140120076161 0 0 0 0 -101.76011575911889 -8.4308901013958604 0 -8.4308901013958604 4.8313531119167559 0 0 0 0 -316.7621556833459 8.5650122725905931 0 8.5650122725905931 72.333199826315649 0 0 0 0 -308.16283711083815 -128.937899367098 0 -128.937899367098 133.65097361221615 0 0 0 0 -285.50072059189552 -106.99532410473512 0 -106.99532410473512 87.519557003403861 0 0 0 0 -249.8235548241064 -60.74869744210082 0 -60.74869744210082 92.724776516934071 0 0 0 0 -158.9993583188043 -99.221344563477032 0 -99.221344563477032 -24.157129487466591 0 0 0 0 -224.51808839429577 -110.35732654326966 0 -110.35732654326966 -7.1280679771407449 0 0 0 0 -279.14532354785115 -111.43549760231281 0 -111.43549760231281 21.229459514799601 0 0 0 0 -365.53048396403028 -174.74250933565963 0 -174.74250933565963 3.6274073586400846 0 0 0 0 -261.44257184455637 -227.50836978585676 0 -227.50836978585676 -171.25682773529843 0 0 0 0 -13.883260418212501 1.2220899348535141 0 1.2220899348535141 -2.6415175053653144 0 0 0 0 -323.11794689622911 -72.320885116428826 0 -72.320885116428826 -4.7153798541385186 0 0 0 0 -976.90623816368316 -263.48887909970426 0 -263.48887909970426 -12.939493309041154 0 0 0 0 -825.2947036068399 -365.68012313246982 0 -365.68012313246982 -175.23403500026416 0 0 0 0 -118.23407832632074 186.17722532320113 0 186.17722532320113 -106.2681758730032 0 0 0 0 -1.6620882663384009 2.4645800828390989 0 2.4645800828390989 -3.0838985856726211 0 0 0 0 -394.92290049570147 275.53962263471885 0 275.53962263471885 -58.262692823218458 0 0 0 0 -122.87861195852747 -11.876082319175111 0 -11.876082319175111 10.326565447325265 0 0 0 0 -9.167585679902075 -5.4275171957080843 0 -5.4275171957080843 7.4528264610052801 0 0 0 0 -51.051485734111338 -35.90271301437906 0 -35.90271301437906 47.55340074781634 0 0 0 0 10.731289941664727 -21.380701791889123 0 -21.380701791889123 -74.794699373967887 0 0 0 0 -169.4154419208935 -0.39315874528892891 0 -0.39315874528892891 124.60678004375586 0 0 0 0 -0.16124615669832565 19.182410199186961 0 19.182410199186961 30.406976108533399 0 0 0 0 -4.1867207890827558 88.489801098108131 0 88.489801098108131 107.16737939858103 0 0 0 0 -44.610755200992571 69.874988048250998 0 69.874988048250998 104.77090048245782 0 0 0 0 -46.088926802229253 61.05557428641896 0 61.05557428641896 114.13677718900738 0 0 0 0 -42.417769434439833 36.781567700922096 0 36.781567700922096 108.23478508180597 0 0 0 0 -13.241381022104179 52.189629649481049 0 52.189629649481049 48.043362877318941 0 0 0 0 -113.11059214192937 -53.970202526743378 0 -53.970202526743378 -13.455676214359301 0 0 0 0 -73.335052849550266 7.2520269193846616 0 7.2520269193846616 -14.836102118806593 0 0 0 0 -6.9838764712538648 -2.3220810931683857 0 -2.3220810931683857 0.012105135065358041 0 0 0 0 -6.4306814757334934 -2.9007074508249744 0 -2.9007074508249744 2.3630427010802038 0 0 0 0 31.020420590532012 95.873374174953824 0 95.873374174953824 83.776881358065111 0 0 0 0 -18.650882233210691 -18.39609028145199 0 -18.39609028145199 -0.73951407474138975 0 0 0 0 -105.16019791088911 -31.903449757819999 0 -31.903449757819999 -2.7086802401972818 0 0 0 0 -65.662133489982807 26.653048846157617 0 26.653048846157617 22.279606306748974 0 0 0 0 -53.262454344272555 16.31406922345468 0 16.31406922345468 24.942073827125569 0 0 0 0 -36.043367315096475 2.6100329267102325 0 2.6100329267102325 28.077749102212692 0 0 0 0 -63.811564591205439 -9.8201145534134788 0 -9.8201145534134788 24.040893163957154 0 0 0 0 -45.995115913421614 -15.809069921533592 0 -15.809069921533592 -2.85502096408527 0 0 0 0 -9.9173777228356226 -0.12582455394104386 0 -0.12582455394104386 0.31487257875109975 0 0 0 0 -28.887324549989955 10.927075727543858 0 10.927075727543858 1.1944805173000059 0 0 0 0 -58.004794121909072 26.774941407896222 0 26.774941407896222 15.635448515088683 0 0 0 0 -33.307766436395468 18.177834618410088 0 18.177834618410088 51.858265126757033 0 0 0 0 -93.557896707148757 -19.484113951007203 0 -19.484113951007203 3.6245760124238586 0 0 0 0 -32.338000949590374 -16.53477416116089 0 -16.53477416116089 4.7385349037783726 0 0 0 0 -80.878873934289004 -7.3358141797571079 0 -7.3358141797571079 5.8314194944578048 0 0 0 0 -29.661510479871236 -13.150001408132336 0 -13.150001408132336 4.0836996015173206 0 0 0 0 -26.703618703850225 -5.1486859933984306 0 -5.1486859933984306 4.2144074029183685 0 0 0 0 -40.877774280612357 18.287880728502387 0 18.287880728502387 13.704910988260963 0 0 0 0 -80.958316768846998 -7.4667547786742716 0 -7.4667547786742716 5.6682552940692403 0 0 0 0 -30.224140161546671 -9.5689334171704203 0 -9.5689334171704203 4.1724640339040064 0 0 0 0 -49.827327566180216 -16.849916253722252 0 -16.849916253722252 9.6800280859918413 0 0 0 0 -18.363864177670621 28.512013185664728 0 28.512013185664728 14.782991233602843 0 0 0 0 -29.110137307470723 0.99407929066001088 0 0.99407929066001088 8.0450630011191606 0 0 0 0 -28.881210594734242 17.218237023354497 0 17.218237023354497 0.43402548109362726 0 0 0 0 -37.905286315914054 38.709432050435737 0 38.709432050435737 73.001663030363488 0 0 0 0 -54.817897618886491 19.886977006447069 0 19.886977006447069 117.47788059945015 0 0 0 0 -54.130430965473352 12.451328840824999 0 12.451328840824999 87.364137017436633 0 0 0 0 -32.646154287765967 32.670800737253558 0 32.670800737253558 74.397405812639363 0 0 0 0 -66.607194029747916 37.494922627813366 0 37.494922627813366 181.88268556514413 0 0 0 0 -96.559134615075891 33.209142895946115 0 33.209142895946115 0.076025527988747399 0 0 0 0 -150.3814485416151 -10.237702714934244 0 -10.237702714934244 7.9549396128363696 0 0 0 0 -123.7991908856493 0.31783069209859605 0 0.31783069209859605 11.370497619680464 0 0 0 0 -29.840230793004594 0.0027962343210674589 0 0.0027962343210674589 74.594493586024328 0 0 0 0 -79.654579922516859 0.88701316430160659 0 0.88701316430160659 1.8708040567503303 0 0 0 0 -8.226077284454874 1.7930130037768279 0 1.7930130037768279 9.6631345480634394 0 0 0 0 -109.46794670478266 -42.626281145524445 0 -42.626281145524445 2.4811221126745977 0 0 0 0 -39.119113147229172 -42.845273562075363 0 -42.845273562075363 -4.358299924799927 0 0 0 0 -130.23014231814705 -7.5775750898328624 0 -7.5775750898328624 -12.810333557883496 0 0 0 0 -140.94274159090855 -25.711903595116155 0 -25.711903595116155 23.000010646508343 0 0 0 0 -215.48611003159749 -6.022236211619429 0 -6.022236211619429 25.103951004966589 0 0 0 0 -129.83545760217021 -21.67225858871393 0 -21.67225858871393 -1.0980028398844297 0 0 0 0 -151.42690359357948 -5.5103586987752351 0 -5.5103586987752351 0.15048218101806299 0 0 0 0 -123.27619307528221 -14.242190680720796 0 -14.242190680720796 -11.567058821400678 0 0 0 0 -34.223007240297747 -42.847005172535845 0 -42.847005172535845 -1.943446108953756 0 0 0 0 -125.33236052465691 -16.446730392605218 0 -16.446730392605218 5.3942561978719823 0 0 0 0 -139.70816339666635 -19.90153271611166 0 -19.90153271611166 5.1900499223302177 0 0 0 0 -43.601535194708717 -39.62205071940717 0 -39.62205071940717 0.079228132138068119 0 0 0 0 -77.404496454007131 -57.74982477055255 0 -57.74982477055255 -21.501247613960004 0 0 0 0 -138.89300475244818 17.205196096816962 0 17.205196096816962 -18.190073553174443 0 0 0 0 -134.77525704498112 -13.552824240927066 0 -13.552824240927066 1.817785232672577 0 0 0 0 -131.26028072668123 -9.2434725655825787 0 -9.2434725655825787 6.8522685513643182 0 0 0 0 0.51473981246817857 42.639939027802029 0 42.639939027802029 48.163743560966395 0 0 0 0 -36.610187225023665 8.5768844414363201 0 8.5768844414363201 1.7175682774669507 0 0 0 0 -68.062740601337282 30.284451642315616 0 30.284451642315616 8.6422277766532716 0 0 0 0 -36.067586931332343 16.084043247902297 0 16.084043247902297 0.249566725706444 0 0 0 0 -31.377684831135866 62.80655811587485 0 62.80655811587485 35.632245080011671 0 0 0 0 -40.67878341114556 52.093352645473715 0 52.093352645473715 32.613882835868935 0 0 0 0 -78.354991476269788 22.33288302184701 0 22.33288302184701 13.233954844922664 0 0 0 0 -58.141735826589866 24.253137936684652 0 24.253137936684652 0.57792615758194188 0 0 0 0 -16.379948393336235 49.247136378236974 0 49.247136378236974 18.502968788525322 0 0 0 0 -71.636246947949985 28.279044751203401 0 28.279044751203401 11.049763702334076 0 0 0 0 -89.296671368530951 13.274678277384282 0 13.274678277384282 7.389865640354401 0 0 0 0 -73.485393950497382 18.148752920486686 0 18.148752920486686 -0.034499020932344138 0 0 0 0 -86.360818127599487 -8.3548511847158409 0 -8.3548511847158409 -6.2642534568149131 0 0 0 0 -64.347775125497719 4.3335264193246985 0 4.3335264193246985 -7.012913962415098 0 0 0 0 -123.12427864207712 5.5002409029148112 0 5.5002409029148112 30.873761010763701 0 0 0 0 -55.70763956949537 2.1317596774106917 0 2.1317596774106917 4.4098452725531665 0 0 0 0 -126.02693480788002 -8.7289045609443292 0 -8.7289045609443292 -7.3930650838487963 0 0 0 0 -75.840458410249909 25.898446355523404 0 25.898446355523404 1.8427787955448949 0 0 0 0 -47.305472688669852 38.397651707378145 0 38.397651707378145 9.4215210557222235 0 0 0 0 -41.2714281044573 29.662867910511522 0 29.662867910511522 7.2517207587779922 0 0 0 0 -43.208430313292411 27.319721442868286 0 27.319721442868286 15.593106387168518 0 0 0 0 -48.392231974034075 26.704758020329791 0 26.704758020329791 32.292915730777167 0 0 0 0 -48.223562368744751 33.292617265198714 0 33.292617265198714 7.4970686271735758 0 0 0 0 -51.518426448181344 29.677719559271281 0 29.677719559271281 23.297488954522123 0 0 0 0 -50.501349318969005 35.542697336835772 0 35.542697336835772 18.126605952931641 0 0 0 0 -54.109116091913165 40.135558776952166 0 40.135558776952166 41.705612989560905 0 0 0 0 -47.528872693474113 43.43188266193647 0 43.43188266193647 21.812683669541002 0 0 0 0 -45.359086714284786 32.866456921863573 0 32.866456921863573 15.696277092312357 0 0 0 0 -21.106052898474445 39.095132165311952 0 39.095132165311952 14.372226608793426 0 0 0 0 -33.622909968122258 49.710108663839492 0 49.710108663839492 22.335816100450756 0 0 0 0 -39.682034672958252 45.34374658662091 0 45.34374658662091 22.703093235440519 0 0 0 0 -49.435981950873611 36.36172306160438 0 36.36172306160438 16.149265861085951 0 0 0 0 -46.263718821071961 36.087439485230789 0 36.087439485230789 15.608440317011627 0 0 0 0 -57.547692341468064 29.561854762891926 0 29.561854762891926 9.7153071424590962 0 0 0 0 -62.647982041646173 22.450071698131069 0 22.450071698131069 8.1095945559973188 0 0 0 0 -52.011711576917151 26.005473187253301 0 26.005473187253301 5.7092308015617164 0 0 0 0 -68.970989745823317 27.835428268918804 0 27.835428268918804 -3.8835459913016166 0 0 0 0 -52.113278735278072 20.940420492438989 0 20.940420492438989 -2.6400576162977814 0 0 0 0 -13.320019645454817 2.5369340901237116 0 2.5369340901237116 3.7462739936992158 0 0 0 0 -54.517682111074464 31.309841943237302 0 31.309841943237302 7.8774640666761115 0 0 0 0 -51.836696194599426 25.115753731941822 0 25.115753731941822 -7.8667082887732249 0 0 0 0 -55.196729175258497 30.933391455689161 0 30.933391455689161 9.1247763586834481 0 0 0 0 -54.134792138693228 27.143538050233019 0 27.143538050233019 -9.6506916864518644 0 0 0 0 -37.848561422795683 27.153853916139724 0 27.153853916139724 -10.306549041438529 0 0 0 0 -84.166126594378511 29.496952822230014 0 29.496952822230014 0.48436185497484985 0 0 0 0 -54.416317444658944 23.550082877125305 0 23.550082877125305 -12.089234368420875 0 0 0 0 -178.37005063656034 -78.30395725123708 0 -78.30395725123708 -22.22402067462076 0 0 0 0 -206.9376047040605 1.0700754775053269 0 1.0700754775053269 -1.0160828292355291 0 0 0 0 -9.3875801374519838 -4.3083433668317035 0 -4.3083433668317035 -0.56051756287372534 0 0 0 0 -43.811470420808746 3.7321618084259853 0 3.7321618084259853 -23.246316821509936 0 0 0 0 -77.722094737424413 44.523450346427126 0 44.523450346427126 -10.455839818769164 0 0 0 0 -82.831497902539127 -15.877687198454336 0 -15.877687198454336 6.3383426428552561 0 0 0 0 -166.20995502231062 -52.936465407881371 0 -52.936465407881371 113.18006275595326 0 0 0 0 -137.36686365826426 40.048347651263612 0 40.048347651263612 43.488961674540406 0 0 0 0 -73.750645578720253 -14.038343557706371 0 -14.038343557706371 5.690398366753243 0 0 0 0 73.732632926938095 -358.12476245161065 0 -358.12476245161065 334.76485416630646 0 0 0 0 -85.840315219294098 37.663269206140285 0 37.663269206140285 21.891002016087441 0 0 0 0 117.158641972037 -92.507646449176946 0 -92.507646449176946 10.321125176017176 0 0 0 0 192.66401099382438 -196.70466027731896 0 -196.70466027731896 29.37545913086069 0 0 0 0 -50.280508804618876 45.467376772678563 0 45.467376772678563 5.3223806583891928 0 0 0 0 -111.66529884170268 35.339223765542101 0 35.339223765542101 46.384300551997057 0 0 0 0 -25.539493930309618 -13.339448048893018 0 -13.339448048893018 33.603307843547555 0 0 0 0 1.0772227677299817 0.20692928208994843 0 0.20692928208994843 0.80165234687333609 0 0 0 0 -90.153440831783882 42.083537615322257 0 42.083537615322257 67.911418472379637 0 0 0 0 -19.123714253561957 -10.721967963091856 0 -10.721967963091856 -54.559751758618404 0 0 0 0 -123.46754161217177 -17.888207759829129 0 -17.888207759829129 -13.995187414054271 0 0 0 0 -83.07833032324379 -45.933834983400402 0 -45.933834983400402 5.2929377266127631 0 0 0 0 -264.5286485414581 -48.971336674466784 0 -48.971336674466784 11.081380567721681 0 0 0 0 -22.132224243183266 28.760644212987998 0 28.760644212987998 -5.127548448160347 0 0 0 0 -214.59477297557942 16.681447307588542 0 16.681447307588542 -19.132927446595204 0 0 0 0 -122.54095892263013 40.574862195422611 0 40.574862195422611 -2.5835588848740372 0 0 0 0 -224.15139219768935 -122.5866515937398 0 -122.5866515937398 82.662783244982165 0 0 0 0 -0.63539382056881832 0.61646070333964431 0 0.61646070333964431 -0.2452117495728956 0 0 0 0 -60.418738416931774 -40.78556719554399 0 -40.78556719554399 -38.716290710848625 0 0 0 0 -253.72790991425768 -11.423478381964514 0 -11.423478381964514 47.495781363869355 0 0 0 0 -146.75700955942739 -4.1389497000238862 0 -4.1389497000238862 22.731530564809873 0 0 0 0 -15.372469028127069 26.252079763091121 0 26.252079763091121 1.6887456665607239 0 0 0 0 -100.85395418769258 21.229548170786529 0 21.229548170786529 -3.7440736346156882 0 0 0 0 -84.608277932636639 11.793842502415231 0 11.793842502415231 -15.485651962098018 0 0 0 0 1.9275500077264711 0.46500136141376114 0 0.46500136141376114 -1.6119523089215448 0 0 0 0 -101.83515318325954 -66.420331308865116 0 -66.420331308865116 -51.672728850526255 0 0 0 0 -208.78196995911017 -127.04550086637281 0 -127.04550086637281 29.274301606936206 0 0 0 0 -14.494015815822166 24.70870104141326 0 24.70870104141326 7.8015764690074825 0 0 0 0 -245.34679889394965 -2.1031700476478363 0 -2.1031700476478363 49.947823876629627 0 0 0 0 -86.498517290041491 -6.8303640684080165 0 -6.8303640684080165 -13.000714850729764 0 0 0 0 -114.49126345184595 -3.8935590736675749 0 -3.8935590736675749 3.4402912731566175 0 0 0 0 -91.051462623974658 -2.0547843431968431 0 -2.0547843431968431 -3.4867692422919845 0 0 0 0 -79.675547534603538 17.136803784901531 0 17.136803784901531 -0.99598526120735187 0 0 0 0 -68.40077256708571 12.689639251032744 0 12.689639251032744 -6.6576672142618918 0 0 0 0 -322.63874752411073 -7.3589845380874976 0 -7.3589845380874976 0.28830271665856344 0 0 0 0 -314.07379476775981 13.161892443780289 0 13.161892443780289 -13.518474274143955 0 0 0 0 -244.46171314905789 -16.779564042286893 0 -16.779564042286893 -2.1025830577909801 0 0 0 0 -250.71175049303235 -28.975724814051318 0 -28.975724814051318 -19.287984859697644 0 0 0 0 -232.0305189474453 -10.838730971095359 0 -10.838730971095359 -15.390026051072709 0 0 0 0 -233.96652276989704 -51.619800496498357 0 -51.619800496498357 7.1751516590520623 0 0 0 0 -289.37768825224509 -9.2523161110161709 0 -9.2523161110161709 25.853296298713303 0 0 0 0 -39.302830865364967 73.847005105447806 0 73.847005105447806 -75.188272146759573 0 0 0 0 -277.94505858655992 10.981085307741523 0 10.981085307741523 -29.651518219243371 0 0 0 0 -458.78498074423777 56.984765574424273 0 56.984765574424273 12.845427321496572 0 0 0 0 -0.25858989128841986 -5.7409661172060487 0 -5.7409661172060487 -9.3188368938685482 0 0 0 0 -374.37257754507834 90.795512243946177 0 90.795512243946177 -41.32793045763492 0 0 0 0 -313.06736989278966 37.21658172191087 0 37.21658172191087 -64.993717004516839 0 0 0 0 -369.96181578263713 19.144784208374858 0 19.144784208374858 8.6289783996762708 0 0 0 0 -398.6260611013434 23.166868776123465 0 23.166868776123465 -1.6761306061562209 0 0 0 0 -411.7734457437557 1.7435623825710991 0 1.7435623825710991 -31.388293559853082 0 0 0 0 -394.42789446639108 37.685224916671359 0 37.685224916671359 -76.088303248010561 0 0 0 0 -329.91111542106842 -24.24743166282633 0 -24.24743166282633 -25.80768083865496 0 0 0 0 -408.5434498825187 10.973489900671211 0 10.973489900671211 -17.788231880680542 0 0 0 0 -324.53506656623006 -5.2556275648894371 0 -5.2556275648894371 -31.710983919133923 0 0 0 0 -327.94489641786731 -15.773348646613726 0 -15.773348646613726 -4.8039356807985314 0 0 0 0 -286.00331871837909 -6.8557456976895992 0 -6.8557456976895992 -37.676577693774561 0 0 0 0 -432.62238270654711 8.8736511265119589 0 8.8736511265119589 -12.342863042886393 0 0 0 0 -302.61258945945849 -27.198076599321951 0 -27.198076599321951 -18.034484706349758 0 0 0 0 -1.7216677190853651 -3.5069087346500063 0 -3.5069087346500063 -6.628847193050678 0 0 0 0 -562.21468598552201 57.340365263139574 0 57.340365263139574 39.314037893761451 0 0 0 0 78.05440784974553 65.418730607305406 0 65.418730607305406 -80.969365699195009 0 0 0 0 -439.9030124143635 86.327471686671288 0 86.327471686671288 -56.869506302109585 0 0 0 0 -488.61365595187954 -25.898173358475105 0 -25.898173358475105 19.351327638587463 0 0 0 0 -345.37830778513 52.819695858158184 0 52.819695858158184 -60.372134813582079 0 0 0 0 -33.228359049152459 57.878801388891816 0 57.878801388891816 83.314399525199178 0 0 0 0 -325.37334710988807 -65.924892135272785 0 -65.924892135272785 35.508758109998553 0 0 0 0 -325.93871219330873 -106.78362946610383 0 -106.78362946610383 -49.049225750116875 0 0 0 0 0.21766574112660542 0.15148324670938695 0 0.15148324670938695 -0.038528629494209099 0 0 0 0 -122.77809182382191 -84.204397298372442 0 -84.204397298372442 -62.051184086906233 0 0 0 0 -0.0063008122625376473 -41.516269918304715 0 -41.516269918304715 36.083908030158 0 0 0 0 -50.252991244871907 -28.446190148125879 0 -28.446190148125879 -5.8399490540136867 0 0 0 0 -3.2775380258389042 -5.7363644603212505 0 -5.7363644603212505 -1.120848014776219 0 0 0 0 -72.393987075617346 -85.418522747155748 0 -85.418522747155748 9.8870820614670265 0 0 0 0 -766.32708111352304 -201.87420069212726 0 -201.87420069212726 1.8487355497364888 0 0 0 0 -767.41572172462475 -125.25039129161314 0 -125.25039129161314 75.278705095929354 0 0 0 0 123.74481297605774 -49.907404985542371 0 -49.907404985542371 -17.630802675408404 0 0 0 0 -980.81887317867631 -272.86402789384113 0 -272.86402789384113 25.467932501730388 0 0 0 0 -735.44030682998959 -266.69073851480306 0 -266.69073851480306 -1.2768865849284339 0 0 0 0 -394.05985498273691 -354.81868308922282 0 -354.81868308922282 -265.91406071175356 0 0 0 0 -5.7680388447830326 -6.2637163993236893 0 -6.2637163993236893 -9.1044910309199096 0 0 0 0 -199.25374360945852 -132.22562296538365 0 -132.22562296538365 -157.0843333252094 0 0 0 0 -377.74813756785079 -77.32224468813456 0 -77.32224468813456 -37.188036199981752 0 0 0 0 -43.699180127327054 -38.056076902408449 0 -38.056076902408449 59.861679073170649 0 0 0 0 -26.354952918368078 3.4458612684510612 0 3.4458612684510612 -2.571977028357046 0 0 0 0 -9.2161074277776756 -23.3056405900907 0 -23.3056405900907 -5.9562962285025396 0 0 0 0 -8.5623237973134536 3.3958368961267089 0 3.3958368961267089 -1.8687426566291023 0 0 0 0 -557.9448908197437 538.83813521495335 0 538.83813521495335 -188.81912485981593 0 0 0 0 -34.015188900985777 49.261342419146132 0 49.261342419146132 -237.89690621613727 0 0 0 0 -769.32833443337586 257.3561693396739 0 257.3561693396739 -81.998546623257567 0 0 0 0 17.892860205030956 60.769818381504649 0 60.769818381504649 -148.71443747115183 0 0 0 0 -134.00854273061441 -102.81847819312188 0 -102.81847819312188 13.595065077014397 0 0 0 0 -15.876066378265453 -22.637234235530492 0 -22.637234235530492 -14.796858195094705 0 0 0 0 -64.406175912815598 -47.294334816699575 0 -47.294334816699575 3.4624158394035476 0 0 0 0 -69.393603434743738 -55.677459570501469 0 -55.677459570501469 -8.1634254506043931 0 0 0 0 -46.658169331667182 -18.800279506199786 0 -18.800279506199786 -12.77986716678663 0 0 0 0 -88.425106589607253 -38.745719898732659 0 -38.745719898732659 -0.31756298417712969 0 0 0 0 -171.71322461046208 -26.785188261375879 0 -26.785188261375879 2.235166229834249 0 0 0 0 -170.36212052967471 -55.393895667343259 0 -55.393895667343259 23.34808918138242 0 0 0 0 -149.73284989841022 -37.088715993659662 0 -37.088715993659662 -12.167579551363588 0 0 0 0 -94.727032977198775 -52.061827369813727 0 -52.061827369813727 -20.370891405506882 0 0 0 0 -80.456302546143604 -68.526686357489552 0 -68.526686357489552 -50.757316673039895 0 0 0 0 -54.907902745944995 -14.527838643460655 0 -14.527838643460655 -46.506234121146008 0 0 0 0 -162.83501856091269 -65.346021897457831 0 -65.346021897457831 -34.082634071943176 0 0 0 0 -278.96413974056208 -55.067828979074363 0 -55.067828979074363 -7.919794678483413 0 0 0 0 1.8651631679003771 -37.855336438375787 0 -37.855336438375787 -44.582446945829361 0 0 0 0 -631.16670509267897 3.130045300696338 0 3.130045300696338 -257.25224796624775 0 0 0 0 -670.22744529599368 2.2793007632460558 0 2.2793007632460558 -83.209405456648028 0 0 0 0 -866.21496225197279 -78.94351166174954 0 -78.94351166174954 -61.667805716521798 0 0 0 0 -667.36638245963604 12.970578041403883 0 12.970578041403883 -159.56903265217323 0 0 0 0 -796.51212964032402 -2.3073881433674615 0 -2.3073881433674615 -138.57518353074914 0 0 0 0 -819.37439139782191 50.379363730519401 0 50.379363730519401 -255.8619430104211 0 0 0 0 -1105.4541106460906 -67.599514445879549 0 -67.599514445879549 -38.973494998868773 0 0 0 0 -837.86697397043417 -120.96293267318015 0 -120.96293267318015 -29.22598662185726 0 0 0 0 -1074.7791480290693 -84.699783509385043 0 -84.699783509385043 -59.880052822265498 0 0 0 0 -1254.6193742961605 -369.48574566587035 0 -369.48574566587035 18.960389160439149 0 0 0 0 -1517.5038143621268 -819.23700001342684 0 -819.23700001342684 -420.91329956579034 0 0 0 0 -1756.7172315064317 21.937103717218633 0 21.937103717218633 -56.685768899392755 0 0 0 0 -1062.4224015171785 -2.336561988462222 0 -2.336561988462222 106.64345530058642 0 0 0 0 -2055.110028135874 -56.197932086210443 0 -56.197932086210443 182.48512238619958 0 0 0 0 -982.58594986254457 -52.571696394381043 0 -52.571696394381043 3.4414220661103201 0 0 0 0 -1176.637447812901 -386.04312089344216 0 -386.04312089344216 -513.53247695419532 0 0 0 0 -1066.8472696116223 177.18697421465458 0 177.18697421465458 -586.0686606235314 0 0 0 0 -968.44399118774891 -32.720858924605267 0 -32.720858924605267 -201.20598213966014 0 0 0 0 -744.59096257408464 -24.55394687000657 0 -24.55394687000657 -211.41611541535735 0 0 0 0 -772.98750099481003 46.151213356242579 0 46.151213356242579 -272.69045718245479 0 0 0 0 -806.7398966115652 -132.63871038607749 0 -132.63871038607749 -236.06701533367814 0 0 0 0 -786.00056691648933 -71.33232756868847 0 -71.33232756868847 -83.20457226653599 0 0 0 0 -496.48847179614586 -133.9700689690066 0 -133.9700689690066 -2.6887434804368251 0 0 0 0 -453.28499829120722 124.79445503399454 0 124.79445503399454 25.000534034852791 0 0 0 0 -639.64447882552804 -26.795915155170405 0 -26.795915155170405 -238.61583102945087 0 0 0 0 -516.14063159435045 -65.648208515735917 0 -65.648208515735917 -236.90224005013818 0 0 0 0 -598.63100153943651 62.343780934037682 0 62.343780934037682 -191.53916702078789 0 0 0 0 -382.84863621597833 -214.52940710403254 0 -214.52940710403254 240.38946346800367 0 0 0 0 -24.443887717004031 -16.593135224090499 0 -16.593135224090499 -7.3016878563657315 0 0 0 0 -753.26812882589184 -113.63737753699075 0 -113.63737753699075 146.94355419367383 0 0 0 0 -431.15200667897534 197.69829254188386 0 197.69829254188386 344.28046094362719 0 0 0 0 -1167.1273357638106 -155.48514355934773 0 -155.48514355934773 185.47798857782323 0 0 0 0 -981.1298202996727 158.42986100736846 0 158.42986100736846 317.1224298889656 0 0 0 0 -1396.1710542816945 -14.765177057419123 0 -14.765177057419123 284.36090796481255 0 0 0 0 -1290.9813762010363 -123.473447768781 0 -123.473447768781 322.03485402965521 0 0 0 0 -1500.1677947831304 -149.0492878985217 0 -149.0492878985217 326.49897909037986 0 0 0 0 -1247.7106366950939 -135.51343804275064 0 -135.51343804275064 248.18458048694703 0 0 0 0 -1249.3630696755263 -232.1185426377107 0 -232.1185426377107 126.65150156223189 0 0 0 0 -1391.7965607244987 -120.5651379746356 0 -120.5651379746356 247.7644693411014 0 0 0 0 -1122.6706776740903 -221.50486159635977 0 -221.50486159635977 137.67045868423656 0 0 0 0 -956.29111203280445 -89.827354994528037 0 -89.827354994528037 122.26227123367664 0 0 0 0 -836.67067668658001 -13.865083499690257 0 -13.865083499690257 97.710166081846069 0 0 0 0 -1241.0501209169488 -465.64832088859941 0 -465.64832088859941 52.064828979546292 0 0 0 0 -769.36092505494526 -216.45368372446524 0 -216.45368372446524 109.74796638523594 0 0 0 0 -610.21752790087066 -573.10875598971393 0 -573.10875598971393 -207.85907514814244 0 0 0 0 -1017.4415450725101 -227.37370913796065 0 -227.37370913796065 -53.406280768555916 0 0 0 0 -21.186250774701655 22.906683932023618 0 22.906683932023618 -24.949745289244589 0 0 0 0 -430.65795821402935 212.11147148759278 0 212.11147148759278 -246.86303230817322 0 0 0 0 -1871.1202558035075 -1062.9665787922618 0 -1062.9665787922618 -422.4053264837878 0 0 0 0 -605.57428653916213 -398.78175612920234 0 -398.78175612920234 -1008.5166325590798 0 0 0 0 -2729.0291562513476 -90.952727021191663 0 -90.952727021191663 254.86895997279953 0 0 0 0 -1366.7838149667805 -108.71033724903259 0 -108.71033724903259 224.33859899734625 0 0 0 0 -506.57831254420216 430.03481934811498 0 430.03481934811498 -119.00741722518978 0 0 0 0 -2214.576938702658 842.50560674043868 0 842.50560674043868 -218.61370663461776 0 0 0 0 1044.6800159258928 -105.72334687899456 0 -105.72334687899456 -525.49179372683147 0 0 0 0 -869.39520794911732 -294.09468874035247 0 -294.09468874035247 -432.31571151730554 0 0 0 0 -12.41020148163377 -8.6882595183562437 0 -8.6882595183562437 -6.7137962778840414 0 0 0 0 -527.11211656197338 316.06976209665208 0 316.06976209665208 -230.29140562748967 0 0 0 0 -1096.9061473531601 1573.9774289030156 0 1573.9774289030156 30.019103034735963 0 0 0 0 -1978.9764852932058 -1235.664773679855 0 -1235.664773679855 265.54171789760949 0 0 0 0 -16.699313607805379 68.469919942194792 0 68.469919942194792 11.111971602388621 0 0 0 0 -15.70914646565539 5.0754733140723189 0 5.0754733140723189 5.2013445587331866 0 0 0 0 -63.620152013740153 37.820262073755657 0 37.820262073755657 -8.7333872267718107 0 0 0 0 -141.62859244201536 28.556150456761316 0 28.556150456761316 109.44490241123594 0 0 0 0 -307.13823042441436 65.467220531855219 0 65.467220531855219 102.37886992702624 0 0 0 0 -176.18819602863141 -69.763347955024528 0 -69.763347955024528 79.299626536922005 0 0 0 0 -106.47171360059957 -40.467756360938438 0 -40.467756360938438 91.171955942529166 0 0 0 0 -101.26830949287697 -0.23161162884585185 0 -0.23161162884585185 2.6024796710829952 0 0 0 0 -103.57166259323344 -20.164241582632712 0 -20.164241582632712 41.906397698558976 0 0 0 0 -63.754512277419622 -46.08121907288205 0 -46.08121907288205 1.2550219625741192 0 0 0 0 -70.331548979906486 -49.335182258352006 0 -49.335182258352006 33.144895434144928 0 0 0 0 -95.486492186326871 -2.8173265222449118 0 -2.8173265222449118 -4.506158678110296 0 0 0 0 -28.694450414077579 -4.8954564220108256 0 -4.8954564220108256 11.889360696551648 0 0 0 0 13.989542027540665 -8.7149467394427518 0 -8.7149467394427518 -43.057984420088815 0 0 0 0 -38.739383921102004 12.754269668006469 0 12.754269668006469 -23.003473502721732 0 0 0 0 -57.596514995471381 13.883301792923231 0 13.883301792923231 -8.4206849791134104 0 0 0 0 -29.703640441788593 3.1575783490470712 0 3.1575783490470712 1.6444325908887549 0 0 0 0 -51.819248593436335 -2.5955366040450158 0 -2.5955366040450158 -11.430443906496953 0 0 0 0 45.745955211396904 -4.0511889077275924 0 -4.0511889077275924 -35.553422233468154 0 0 0 0 -241.54809866388132 -49.835086788042247 0 -49.835086788042247 9.7394030070138342 0 0 0 0 -206.83241871392602 74.430568959249058 0 74.430568959249058 29.080106129235446 0 0 0 0 60.988230784139887 33.799185478737172 0 33.799185478737172 -67.111286951042985 0 0 0 0 1.4111062523538465 -0.78681448292593803 0 -0.78681448292593803 -9.6549870549704 0 0 0 0 20.02364638979634 -21.960365026028285 0 -21.960365026028285 -31.779912278921643 0 0 0 0 -257.03559080343621 20.538510364905392 0 20.538510364905392 -65.721402649113202 0 0 0 0 -379.5480168357808 -43.148561876407598 0 -43.148561876407598 3.5152652952733661 0 0 0 0 -464.02308986969365 104.78011271166474 0 104.78011271166474 -10.439408210202032 0 0 0 0 -696.096854687421 -124.81226901441613 0 -124.81226901441613 67.133407135744619 0 0 0 0 -357.96106085349038 -208.65739757258882 0 -208.65739757258882 -109.88061279089152 0 0 0 0 -770.91858489054334 -73.471527744867842 0 -73.471527744867842 82.118168294117822 0 0 0 0 -30.55110403391517 30.647825405580662 0 30.647825405580662 -36.497037030522357 0 0 0 0 -58.069817225628867 71.22466459155703 0 71.22466459155703 -66.184919407935354 0 0 0 0 -89.23940304358257 81.333357493970198 0 81.333357493970198 16.73782801561174 0 0 0 0 12.829644689401903 4.0035284668106215 0 4.0035284668106215 -34.041663550582825 0 0 0 0 -72.746039053148706 74.163816220465378 0 74.163816220465378 -65.1696984652135 0 0 0 0 -164.05729920677913 -16.171437156692491 0 -16.171437156692491 -121.91825541741855 0 0 0 0 -50.605084320708556 56.970561265557762 0 56.970561265557762 -110.10154258409892 0 0 0 0 -39.64141085571282 4.4177671399339715 0 4.4177671399339715 -3.4313517162718199 0 0 0 0 6.2625067865483288 141.9264924282802 0 141.9264924282802 59.019774091565523 0 0 0 0 -26.172088729989934 29.142780503242726 0 29.142780503242726 -31.475922551973124 0 0 0 0 -181.64410078519359 0.72042443439841009 0 0.72042443439841009 -88.870538986634671 0 0 0 0 -33.021755966754426 23.656246781632262 0 23.656246781632262 61.459831480997401 0 0 0 0 -180.9187244664754 56.060588376985834 0 56.060588376985834 46.025133144255506 0 0 0 0 243.39190068667085 152.02421836538485 0 152.02421836538485 -106.97618918723674 0 0 0 0 0.35895459123414852 -1.7028818597670963 0 -1.7028818597670963 2.5395304028601373 0 0 0 0 -156.44187657126895 33.196391667441276 0 33.196391667441276 3.6967465863536972 0 0 0 0 -115.74157970619854 122.92910387303391 0 122.92910387303391 17.582271420775214 0 0 0 0 -447.36734982596863 249.26775260976387 0 249.26775260976387 -61.516404052050348 0 0 0 0 -211.51623658413882 82.428683055105012 0 82.428683055105012 81.338847756180257 0 0 0 0 -268.97531730943592 -81.868022258840938 0 -81.868022258840938 -372.39859443627847 0 0 0 0 -305.38854304169945 -203.74621060504796 0 -203.74621060504796 -71.218857203094331 0 0 0 0 -439.81741048257391 6.2692517563523324 0 6.2692517563523324 119.17743569070262 0 0 0 0 -319.79489379965889 82.755443459830417 0 82.755443459830417 168.99481733952325 0 0 0 0 -94.518973444792664 167.86334648197368 0 167.86334648197368 -89.504568802582753 0 0 0 0 -272.185809250288 69.575946278388642 0 69.575946278388642 -49.551941770822765 0 0 0 0 -21.668371366864449 10.421785347459149 0 10.421785347459149 -38.443795189752109 0 0 0 0 -90.745759093013476 65.853747882633343 0 65.853747882633343 44.824760726038221 0 0 0 0 -56.278751837959135 104.95610422523691 0 104.95610422523691 -139.39060830320977 0 0 0 0 66.147479622923129 204.72931604904636 0 204.72931604904636 40.906352937212432 0 0 0 0 16.876652187338038 220.27298509420299 0 220.27298509420299 -650.81171218212876 0 0 0 0 -113.02103996158576 260.93553889289774 0 260.93553889289774 -293.30135538261572 0 0 0 0 15.09878954929809 118.55123060731907 0 118.55123060731907 -138.1529978992026 0 0 0 0 -194.62318884194974 411.53841804522335 0 411.53841804522335 -232.55962577145681 0 0 0 0 -87.797328238351838 631.73512891593248 0 631.73512891593248 -617.58133092337823 0 0 0 0 -216.73312869481379 591.15619921561938 0 591.15619921561938 -99.534387874554398 0 0 0 0 -98.696644815205218 511.15233995698327 0 511.15233995698327 -131.90370514999847 0 0 0 0 -319.66414231913586 362.61058277622095 0 362.61058277622095 -7.9279149173428891 0 0 0 0 -329.90364765620325 207.14104249598086 0 207.14104249598086 45.863026565198766 0 0 0 0 -381.02127168388051 223.02201461234873 0 223.02201461234873 60.837927862292275 0 0 0 0 -194.72931245203813 347.57715430395524 0 347.57715430395524 -155.27774450447487 0 0 0 0 -645.2011536605678 -295.62328496704095 0 -295.62328496704095 -911.18678595361075 0 0 0 0 -1124.6405196962078 -355.75121060247841 0 -355.75121060247841 -662.58246218789645 0 0 0 0 -651.04647991784077 -416.37350019222083 0 -416.37350019222083 -404.93819947354751 0 0 0 0 -721.21196655905624 -31.930374851786382 0 -31.930374851786382 -749.73786042255733 0 0 0 0 -725.46973625873579 -115.8712999168954 0 -115.8712999168954 -328.43417701059678 0 0 0 0 -2475.4761674972306 224.28219324194589 0 224.28219324194589 -450.55312798249719 0 0 0 0 -1627.0354767914796 -368.09096909409163 0 -368.09096909409163 -386.48713724243692 0 0 0 0 -1295.5590840254672 240.47432116170771 0 240.47432116170771 -1286.5737238272061 0 0 0 0 -892.79779831779524 -456.58056083558967 0 -456.58056083558967 -1303.519009512042 0 0 0 0 -9.6254492389640305 8.9679365947820067 0 8.9679365947820067 -10.482895314048662 0 0 0 0 -2586.2842551779372 -36.810533355070959 0 -36.810533355070959 61.901418766930874 0 0 0 0 -77.505401446389442 -91.156487924040675 0 -91.156487924040675 -18.483480256759179 0 0 0 0 -274.75652501959121 860.08791005631531 0 860.08791005631531 -1378.1602297526126 0 0 0 0 170.72644719657183 64.160733931412778 0 64.160733931412778 -1192.0175326578251 0 0 0 0 -641.60261108728992 506.8000709383773 0 506.8000709383773 -107.83122227400804 0 0 0 0 -4.5349454678653274 292.03196616220521 0 292.03196616220521 -525.78859850090976 0 0 0 0 -176.98556816263954 656.36458691797998 0 656.36458691797998 -98.544783007814601 0 0 0 0 -282.7798781211095 335.60405285134766 0 335.60405285134766 450.0564946559798 0 0 0 0 -761.22177649764126 352.89069380920262 0 352.89069380920262 355.76360815041198 0 0 0 0 -249.88502930168033 -78.674369397399801 0 -78.674369397399801 -22.761127722707101 0 0 0 0 -1731.1396014644856 -417.72213264732545 0 -417.72213264732545 -331.48144846842308 0 0 0 0 -1347.0465329859489 1041.1400240483101 0 1041.1400240483101 -469.45441232877636 0 0 0 0 -1050.9351972737304 -566.88005214532097 0 -566.88005214532097 -520.81993243620036 0 0 0 0 -828.91538732433401 76.314521287269031 0 76.314521287269031 -60.96542884903738 0 0 0 0 -998.48289955897599 -588.76400514590341 0 -588.76400514590341 10.193640345484027 0 0 0 0 -429.79294907372241 -380.90186909425353 0 -380.90186909425353 22.074173493962476 0 0 0 0 -615.67831154503256 -492.62302188300202 0 -492.62302188300202 -544.11998991287714 0 0 0 0 -697.79240190429118 -663.15684352839128 0 -663.15684352839128 -203.25736212307697 0 0 0 0 -4.3719988849879883 -201.43084791024285 0 -201.43084791024285 38.495776760239323 0 0 0 0 -510.11161780649491 -605.30954940671393 0 -605.30954940671393 -21.096720257450613 0 0 0 0 -674.56598277712328 -431.12722372625979 0 -431.12722372625979 397.24233627106355 0 0 0 0 -359.40759917211471 108.69030531840599 0 108.69030531840599 863.39510260068164 0 0 0 0 -202.15713117179621 -74.86188276374412 0 -74.86188276374412 311.80699687658534 0 0 0 0 -700.81912224277039 -200.71245557238126 0 -200.71245557238126 400.9024559846016 0 0 0 0 5.4673937699626549 379.18038895201164 0 379.18038895201164 687.88128102526321 0 0 0 0 -6.2657527171881924 -1.9167409199707048 0 -1.9167409199707048 3.9732419679918483 0 0 0 0 403.80138010777591 -169.63728675260018 0 -169.63728675260018 783.16883066168964 0 0 0 0 -435.51964834217506 57.416776543227002 0 57.416776543227002 1031.335716289851 0 0 0 0 -0.54159864328339324 10.52313153502887 0 10.52313153502887 6.8665421287305239 0 0 0 0 -347.41885075212485 -419.44578636423921 0 -419.44578636423921 1781.6742016511359 0 0 0 0 -801.10236408622404 639.88605001476662 0 639.88605001476662 1728.0312322840455 0 0 0 0 -181.78528917659787 -289.26834403276473 0 -289.26834403276473 840.97828430101163 0 0 0 0 437.55004294963146 390.62255259207717 0 390.62255259207717 309.54520579190671 0 0 0 0 -0.89756739013101594 0.49932383654131129 0 0.49932383654131129 1.0201121628110732 0 0 0 0 -298.76401944339705 833.22432384702324 0 833.22432384702324 776.46269021461603 0 0 0 0 24.131413954291929 -93.018115932892442 0 -93.018115932892442 185.07993623557013 0 0 0 0 67.594392228467086 144.38637708099324 0 144.38637708099324 452.64102909905068 0 0 0 0 162.93019320451276 198.89005190322041 0 198.89005190322041 285.89026197984049 0 0 0 0 113.16089867959818 -348.89604937383092 0 -348.89604937383092 926.50784359463978 0 0 0 0 575.15863755659666 -54.048545839359576 0 -54.048545839359576 1098.3800126519345 0 0 0 0 -94.026296272095351 -5.4483099239951116 0 -5.4483099239951116 66.403502771939202 0 0 0 0 -55.634911326422298 -11.711336905038479 0 -11.711336905038479 8.0579799135266512 0 0 0 0 -8.0906145809394019 -0.29698886432932525 0 -0.29698886432932525 4.4822166781557709 0 0 0 0 -110.73284355710348 -3.6007383325317051 0 -3.6007383325317051 20.260521520341172 0 0 0 0 -124.7913401160622 40.565850869068527 0 40.565850869068527 53.827839281060733 0 0 0 0 -61.481475296250466 9.667386079812843 0 9.667386079812843 22.966604358242968 0 0 0 0 10.533760879126433 5.5703072152589321 0 5.5703072152589321 -1.470987057031202 0 0 0 0 -131.86394269732409 -39.969713361219874 0 -39.969713361219874 38.620096067448685 0 0 0 0 -159.97734420884808 -41.264569978062809 0 -41.264569978062809 176.19386104865634 0 0 0 0 -72.93791202775094 12.448304293592717 0 12.448304293592717 20.422533737819684 0 0 0 0 -87.987350647659696 1.0308265949025781 0 1.0308265949025781 61.801736269228059 0 0 0 0 -99.034547988550912 -58.274230984328369 0 -58.274230984328369 -29.387215165535736 0 0 0 0 -29.604913287772931 19.005516946518171 0 19.005516946518171 -16.648961904468912 0 0 0 0 -90.415191197934206 51.711658412107603 0 51.711658412107603 20.936806109122948 0 0 0 0 -86.525204846138877 32.00710564835407 0 32.00710564835407 204.06754020067706 0 0 0 0 14.779659300547792 180.28029298737624 0 180.28029298737624 -63.337022292496954 0 0 0 0 -62.033277190101217 -19.392748719569568 0 -19.392748719569568 1.9067481779138689 0 0 0 0 -30.854311960429186 29.156447042681521 0 29.156447042681521 35.708974592557524 0 0 0 0 -50.183536741340092 20.078473027691409 0 20.078473027691409 21.661458137708685 0 0 0 0 -42.526794691750951 -9.1311358160071805 0 -9.1311358160071805 27.715387539999448 0 0 0 0 131.81270864158432 364.44706894298065 0 364.44706894298065 226.13171262147284 0 0 0 0 -14.69694588452694 151.93461792500324 0 151.93461792500324 467.48154027860363 0 0 0 0 64.943516364135576 202.16291666653996 0 202.16291666653996 385.2413839878194 0 0 0 0 -10.159406495239431 11.921113425056538 0 11.921113425056538 2.1206939221182255 0 0 0 0 -19.499147780967178 73.106116441462518 0 73.106116441462518 36.581664156117654 0 0 0 0 -86.530300162755537 25.906224075070881 0 25.906224075070881 10.638121622409258 0 0 0 0 -242.04153575647797 60.9879110733375 0 60.9879110733375 23.486622136447295 0 0 0 0 27.605491443631763 178.59441319586017 0 178.59441319586017 -0.27135747493980489 0 0 0 0 -7.3787258558186295 153.95232227578776 0 153.95232227578776 114.55140094733872 0 0 0 0 -6.4508941083113314 111.02716048562826 0 111.02716048562826 122.350822238245 0 0 0 0 -65.797566007982823 382.12759709791271 0 382.12759709791271 600.36447837395963 0 0 0 0 -17.526263290965289 202.5168065811215 0 202.5168065811215 344.27661511158919 0 0 0 0 94.018494067298889 215.8096985532847 0 215.8096985532847 342.34099607156571 0 0 0 0 -488.18971739682092 470.85270957888406 0 470.85270957888406 41.006371721792675 0 0 0 0 -617.32879238135865 283.3932322612086 0 283.3932322612086 14.966912218950824 0 0 0 0 -920.85624273698613 24.513223440374873 0 24.513223440374873 -19.215045712701794 0 0 0 0 -587.71722187031628 181.01479137789141 0 181.01479137789141 -1.9734780095136557 0 0 0 0 -497.21606884280118 409.64247275262528 0 409.64247275262528 37.819589129587712 0 0 0 0 -416.83999728875642 357.74384151154254 0 357.74384151154254 -6.7807511862411047 0 0 0 0 -344.20373450211628 480.9571870979745 0 480.9571870979745 112.11478300212457 0 0 0 0 -320.93884183367118 458.23376950088397 0 458.23376950088397 74.7271990385143 0 0 0 0 -326.67000999719676 459.46059191582617 0 459.46059191582617 75.50578945686982 0 0 0 0 -540.58662520096186 182.8141507077828 0 182.8141507077828 551.49671940020835 0 0 0 0 -345.47499634200722 387.11632397660992 0 387.11632397660992 302.53188175301284 0 0 0 0 -331.85009910470762 355.27398556656135 0 355.27398556656135 -34.759179405434679 0 0 0 0 -260.15728397586645 133.16052863205368 0 133.16052863205368 104.14372778930283 0 0 0 0 -36.956973743233874 -11.593956460408506 0 -11.593956460408506 -3.7316705970825765 0 0 0 0 -61.685785024281358 118.39669489626795 0 118.39669489626795 37.245183740214543 0 0 0 0 -206.11947384615269 -60.680942401152606 0 -60.680942401152606 647.65662944872702 0 0 0 0 -56.589968943862033 -16.665694185982193 0 -16.665694185982193 0.55471281217887203 0 0 0 0 -81.089869354043913 -27.703425771030197 0 -27.703425771030197 90.377837094218194 0 0 0 0 59.308056208410562 -218.69371016941432 0 -218.69371016941432 406.66741902972808 0 0 0 0 -57.759301912206865 35.753378253010851 0 35.753378253010851 28.287510334162107 0 0 0 0 -60.549262778367847 6.7218814432244471 0 6.7218814432244471 77.601598129299873 0 0 0 0 -91.25155182652361 -10.065110895321141 0 -10.065110895321141 68.510884433644605 0 0 0 0 -23.10807870923054 -72.030327797297559 0 -72.030327797297559 109.23482345718912 0 0 0 0 127.29291552353243 33.731294482769044 0 33.731294482769044 30.928639443980501 0 0 0 0 -32.532695621477615 -3.8593044889839803 0 -3.8593044889839803 258.01569831163943 0 0 0 0 -130.74041290274909 -3.4949821348272962 0 -3.4949821348272962 133.65508710784161 0 0 0 0 -35.874129545820864 -6.9097733484259543 0 -6.9097733484259543 22.706984314775113 0 0 0 0 -748.9379849725301 779.83744544072897 0 779.83744544072897 -652.34210329453617 0 0 0 0 3.1503601697477279 70.151721956416623 0 70.151721956416623 134.19826305223251 0 0 0 0 -125.49135043716524 -350.41383106662215 0 -350.41383106662215 -389.13099289870024 0 0 0 0 -179.30221842644096 150.4860594246104 0 150.4860594246104 -231.51077620137403 0 0 0 0 -1552.380726900119 423.95031682141189 0 423.95031682141189 -31.646452692064713 0 0 0 0 -749.52787480159532 412.71666390216114 0 412.71666390216114 -51.2026567111443 0 0 0 0 -14.652541234213047 -3.0736242519561046 0 -3.0736242519561046 -1.0328392619699791 0 0 0 0 -639.2185797554921 -11.008859876260431 0 -11.008859876260431 -816.42139567653612 0 0 0 0 -966.81393626335921 -495.68049805655437 0 -495.68049805655437 -554.99773853119905 0 0 0 0 -489.23588891729742 -231.04794647918106 0 -231.04794647918106 -242.7559726221034 0 0 0 0 -519.06778784387097 -164.46148408187196 0 -164.46148408187196 -366.31030924911374 0 0 0 0 -808.98246982212004 -254.39028820907151 0 -254.39028820907151 -210.55335427929413 0 0 0 0 -794.39885316038271 1.6297770116948413 0 1.6297770116948413 -60.307601982331107 0 0 0 0 -1595.7539242801843 -237.55554023247362 0 -237.55554023247362 -126.94218040462874 0 0 0 0 -207.66229305882007 170.06177493365976 0 170.06177493365976 172.2166325756732 0 0 0 0 8.9749366759592419 7.6433901738832049 0 7.6433901738832049 -12.035863936996556 0 0 0 0 201.36922626144951 388.50977103165133 0 388.50977103165133 -368.83021306537557 0 0 0 0 -68.005635591893608 49.666591646204395 0 49.666591646204395 -34.618639993385543 0 0 0 0 -137.12029420921499 87.720623049225651 0 87.720623049225651 -123.20022866480122 0 0 0 0 -261.12953257386107 -154.19373690990597 0 -154.19373690990597 -362.75901989821386 0 0 0 0 -309.60243514269678 -189.51712055393727 0 -189.51712055393727 -293.16679622804622 0 0 0 0 -371.57652595832587 -148.2221340125509 0 -148.2221340125509 -162.57119652037545 0 0 0 0 -442.67159126339902 -214.08252481697355 0 -214.08252481697355 -264.37009168936322 0 0 0 0 -286.47356657080127 -139.20198826024534 0 -139.20198826024534 -231.47006434698551 0 0 0 0 -312.90092416818152 -57.149429113669044 0 -57.149429113669044 -307.31796602249284 0 0 0 0 -305.37354519350993 -211.81926644528619 0 -211.81926644528619 -510.27593225588225 0 0 0 0 -556.61028053775954 152.85419494685812 0 152.85419494685812 22.726824147506022 0 0 0 0 -431.02096689364043 -105.73243655111287 0 -105.73243655111287 -152.64034106205304 0 0 0 0 -372.97380377868831 73.917800735341757 0 73.917800735341757 -72.516284274106624 0 0 0 0 -660.18141601209572 -44.247098118266649 0 -44.247098118266649 -107.36223270635605 0 0 0 0 -437.95716282366629 259.67447576376009 0 259.67447576376009 38.847847369971674 0 0 0 0 -388.56776544922923 60.836024134709049 0 60.836024134709049 -32.233547483031089 0 0 0 0 -267.94300170082715 174.67362324864314 0 174.67362324864314 49.932074432176648 0 0 0 0 -102.52422795636812 61.265358720657105 0 61.265358720657105 116.26789310022673 0 0 0 0 -393.55670049367473 64.062035909053435 0 64.062035909053435 -8.9779157947695012 0 0 0 0 -374.29632440289424 84.872346034962248 0 84.872346034962248 -33.602991777532679 0 0 0 0 -334.32641699613669 56.887081823744623 0 56.887081823744623 -23.582731723016984 0 0 0 0 -315.94016617357192 68.934729079293106 0 68.934729079293106 -324.58128867303179 0 0 0 0 -504.75300347628036 -97.973396764540396 0 -97.973396764540396 41.434423784360149 0 0 0 0 -245.19386003886029 -47.113300917062929 0 -47.113300917062929 44.426704468473929 0 0 0 0 -197.23864636410872 67.838745147800182 0 67.838745147800182 157.88899593382871 0 0 0 0 -288.68553151655942 56.476030586254979 0 56.476030586254979 365.47113211460419 0 0 0 0 -270.82919237808346 -70.536715965618413 0 -70.536715965618413 233.12858252318597 0 0 0 0 -101.86485346677 -44.788795005774489 0 -44.788795005774489 235.7421525417285 0 0 0 0 -162.69042584447379 16.378596558376103 0 16.378596558376103 179.30063049556156 0 0 0 0 -128.5781978412233 114.22617248812685 0 114.22617248812685 263.53972502526904 0 0 0 0 -12.992808179082203 209.33060500339457 0 209.33060500339457 341.27199365554497 0 0 0 0 48.59002729531494 142.49798092731726 0 142.49798092731726 113.55106146050309 0 0 0 0 -298.41129795204324 43.385342634835297 0 43.385342634835297 17.015236805456425 0 0 0 0 203.07481861035558 212.40042895174361 0 212.40042895174361 161.69101923747485 0 0 0 0 1.6217513433027833 -1.8849809916655147 0 -1.8849809916655147 2.0969816406939898 0 0 0 0 47.705658042759751 75.556708250199335 0 75.556708250199335 52.918679841943003 0 0 0 0 -245.73626675410196 69.28513165433651 0 69.28513165433651 -27.143391863411807 0 0 0 0 -414.89680784621305 8.9061556976873817 0 8.9061556976873817 114.00316581696563 0 0 0 0 -320.2583343039978 252.98713172008615 0 252.98713172008615 259.31286685652731 0 0 0 0 -505.73025621753914 35.522755974276038 0 35.522755974276038 451.35777231506518 0 0 0 0 -2.2194270636724838 -0.8610689335440469 0 -0.8610689335440469 2.9194196525961273 0 0 0 0 -464.37616616535524 -42.458850662470283 0 -42.458850662470283 -14.275684437919381 0 0 0 0 -487.61388538541723 238.87863143094725 0 238.87863143094725 -26.77658929141279 0 0 0 0 -75.164641524621402 31.160699436323512 0 31.160699436323512 -46.926714970517651 0 0 0 0 -149.21275503438846 -177.14618317164093 0 -177.14618317164093 15.750177589119289 0 0 0 0 -87.597233050742943 -69.178126233401258 0 -69.178126233401258 -12.586424801443457 0 0 0 0 -190.09955663928122 -66.940298773515167 0 -66.940298773515167 182.46340108654653 0 0 0 0 -12.033186466796906 110.462057083937 0 110.462057083937 114.55994370734913 0 0 0 0 -19.595594672580759 -9.2722039172099002 0 -9.2722039172099002 1.2354542222504614 0 0 0 0 -221.13258577430679 2.2589561587333833 0 2.2589561587333833 58.629223831852073 0 0 0 0 -226.7995403583991 96.882925089452328 0 96.882925089452328 -97.390801115057343 0 0 0 0 -156.60321315911278 -98.514309264262863 0 -98.514309264262863 128.43584614624433 0 0 0 0 -276.56089211144717 61.330408835733067 0 61.330408835733067 185.93876312210341 0 0 0 0 -231.18162268436572 64.251377060977092 0 64.251377060977092 4.7357566700555189 0 0 0 0 -3.409799641831583 -1.3421145652736826 0 -1.3421145652736826 7.2213174137870588 0 0 0 0 -3.0928165945160799 -170.25786377332608 0 -170.25786377332608 214.34103446493305 0 0 0 0 -51.723969569615292 -33.596551777383183 0 -33.596551777383183 134.01288770890778 0 0 0 0 159.2411650611466 -64.668524299830892 0 -64.668524299830892 152.30705866318561 0 0 0 0 83.404474224615115 -191.17440667785075 0 -191.17440667785075 -124.43843785853267 0 0 0 0 301.43649253658532 -466.80221689777073 0 -466.80221689777073 79.484137467664411 0 0 0 0 -200.6202336106835 -211.13348369689794 0 -211.13348369689794 153.05107292410935 0 0 0 0 -140.05055124366481 -66.313331763867893 0 -66.313331763867893 37.240456346014753 0 0 0 0 -121.5586779547084 -172.54164988133419 0 -172.54164988133419 -101.15098763584274 0 0 0 0 9.9049725439430887 7.2087524447969855 0 7.2087524447969855 -23.046542401071793 0 0 0 0 -120.91645057170535 -299.69839785000914 0 -299.69839785000914 -154.30602286698092 0 0 0 0 -35.48011546133057 -148.15832920683573 0 -148.15832920683573 -184.86223921473427 0 0 0 0 -96.567640624391061 -300.30501927899513 0 -300.30501927899513 210.73825839870739 0 0 0 0 -255.39499295151472 -139.79705356441181 0 -139.79705356441181 -105.57950338276623 0 0 0 0 -262.16048667729137 -150.34499946710375 0 -150.34499946710375 -96.247888853401719 0 0 0 0 -253.82427771692892 -133.18847972078299 0 -133.18847972078299 -85.263657402699835 0 0 0 0 -263.26964107772073 -146.32775500034862 0 -146.32775500034862 -76.683986842752944 0 0 0 0 -140.58563760318793 -118.92168338360216 0 -118.92168338360216 -98.715880089871462 0 0 0 0 22.351512930017634 -7.8540860552798222 0 -7.8540860552798222 -144.2398933473678 0 0 0 0 -41.990041682962328 -51.39530148496624 0 -51.39530148496624 -66.169544890512952 0 0 0 0 -158.98518719198182 -298.49506304159308 0 -298.49506304159308 -519.77522134737342 0 0 0 0 -50.337011966514183 -172.84953891553488 0 -172.84953891553488 -251.20083899785277 0 0 0 0 -46.735893800672784 52.050395795438362 0 52.050395795438362 -299.77343811370292 0 0 0 0 -8.1457891898333941 9.6116592279913107 0 9.6116592279913107 -33.251544201409423 0 0 0 0 -45.679391787161876 45.452892329611586 0 45.452892329611586 -424.53366723026767 0 0 0 0 -546.52661450127562 -141.02273428711101 0 -141.02273428711101 -157.32382075327087 0 0 0 0 -13.467392910240491 5.5171622532629385 0 5.5171622532629385 -9.6420976179799247 0 0 0 0 -145.74543005114538 42.168966633497348 0 42.168966633497348 -116.28417498607121 0 0 0 0 -174.33890525810421 83.480696056393754 0 83.480696056393754 131.21172178009328 0 0 0 0 -69.353497426025484 46.265557098017439 0 46.265557098017439 -39.852037612547193 0 0 0 0 -172.72783196867488 25.441556732255187 0 25.441556732255187 28.46597237142214 0 0 0 0 -70.702837630844812 -39.219658202008802 0 -39.219658202008802 -22.429140064868321 0 0 0 0 -176.251753718484 25.693265410909305 0 25.693265410909305 28.976733775125467 0 0 0 0 -209.04276135619148 46.792418831253599 0 46.792418831253599 16.540378828050052 0 0 0 0 -239.75092130864505 -62.116318978642084 0 -62.116318978642084 136.71679998021534 0 0 0 0 -171.81154623030125 49.579769348535251 0 49.579769348535251 -118.36496535594961 0 0 0 0 -251.84692841948709 131.92846578639455 0 131.92846578639455 26.510815162863537 0 0 0 0 -165.05536137480522 141.87602277861333 0 141.87602277861333 25.408492040269266 0 0 0 0 -224.333671962464 127.90479845496884 0 127.90479845496884 94.891371656140109 0 0 0 0 -256.25062573452306 249.99837685377679 0 249.99837685377679 59.059288678652138 0 0 0 0 -190.02613745511189 226.12388122904167 0 226.12388122904167 -250.97837810277997 0 0 0 0 -187.77828136371681 -389.36237446121595 0 -389.36237446121595 -441.38965118073611 0 0 0 0 -128.16352809201453 -65.165478806310148 0 -65.165478806310148 -21.140662654803236 0 0 0 0 -149.06024772778619 -39.951709547713563 0 -39.951709547713563 -18.452421792017958 0 0 0 0 -60.877174240045861 -66.109674372324662 0 -66.109674372324662 -65.969161486291171 0 0 0 0 -71.50619716054382 -57.475819620325005 0 -57.475819620325005 -23.438616842889736 0 0 0 0 -77.718627449397445 31.07479691119471 0 31.07479691119471 35.411446965838046 0 0 0 0 260.3825593906804 -388.55487479962812 0 -388.55487479962812 491.4753991787984 0 0 0 0 -231.87958493886981 1.3859710813467245 0 1.3859710813467245 593.27176802136455 0 0 0 0 41.271027536713518 -121.50240401591873 0 -121.50240401591873 468.4532749523496 0 0 0 0 471.45517633095733 -1014.8446934242174 0 -1014.8446934242174 1904.2182534897074 0 0 0 0 525.74782765499549 -642.94357942552051 0 -642.94357942552051 682.99854142872937 0 0 0 0 -34.850970660721373 2.5195331160341681 0 2.5195331160341681 21.926284034397675 0 0 0 0 82.915313922683708 -456.7390861040185 0 -456.7390861040185 1036.7958238985411 0 0 0 0 249.0891210710397 -35.188854366218948 0 -35.188854366218948 1015.6546029115143 0 0 0 0 -145.90305074120988 562.91085965445563 0 562.91085965445563 758.86608222003633 0 0 0 0 -80.26156740883016 -56.535051522129834 0 -56.535051522129834 142.39599011600467 0 0 0 0 -164.85018041031435 -236.39722520698797 0 -236.39722520698797 319.26504170904809 0 0 0 0 -118.70315918968845 -182.14221615016868 0 -182.14221615016868 243.14114032715406 0 0 0 0 -304.90544932385092 -173.02036177633363 0 -173.02036177633363 504.98424106415769 0 0 0 0 -142.61301818105858 -128.17526898372671 0 -128.17526898372671 341.20726306397728 0 0 0 0 -363.07787961541908 4.5088843827315941 0 4.5088843827315941 227.56222345708011 0 0 0 0 -435.56410725350725 42.688879739239383 0 42.688879739239383 216.75917419942743 0 0 0 0 -492.00148596870713 116.10638734194799 0 116.10638734194799 128.26017378675169 0 0 0 0 -546.63002150099783 116.80608844802737 0 116.80608844802737 258.3707115495472 0 0 0 0 -375.29977301097824 11.757196091828519 0 11.757196091828519 75.962809830336482 0 0 0 0 -446.16778107581194 80.244966182871394 0 80.244966182871394 135.55446202744861 0 0 0 0 -472.03742331085959 -11.108442344600917 0 -11.108442344600917 290.71898007743221 0 0 0 0 -358.11809615633683 19.710243630167497 0 19.710243630167497 228.87888346663021 0 0 0 0 -301.55209262229619 -90.9383922570305 0 -90.9383922570305 338.00968884294707 0 0 0 0 -295.30657488584984 -51.803349190582594 0 -51.803349190582594 552.93434913277451 0 0 0 0 -211.29124070954276 57.808669414705946 0 57.808669414705946 174.04475986582111 0 0 0 0 -408.04216949647525 5.8361926447214501 0 5.8361926447214501 162.09621298231832 0 0 0 0 -324.87217806710396 -114.13276751929607 0 -114.13276751929607 -156.13732845173581 0 0 0 0 -513.91804859426338 -128.42377054874487 0 -128.42377054874487 -157.1891538775219 0 0 0 0 -613.66800804654486 -237.70151191386685 0 -237.70151191386685 -276.86942960184388 0 0 0 0 -653.77494266736903 56.16722248507358 0 56.16722248507358 -119.26889308208411 0 0 0 0 -699.98533495992888 47.99119879439786 0 47.99119879439786 -62.481443599544036 0 0 0 0 -680.3216003558482 -6.3218573967496923 0 -6.3218573967496923 -29.923212326968496 0 0 0 0 -503.77977113990346 80.753024661817108 0 80.753024661817108 12.617730436315469 0 0 0 0 -571.41641700535547 -1.4093201252126164 0 -1.4093201252126164 80.955983616284357 0 0 0 0 -574.99699737649644 114.24356441331565 0 114.24356441331565 41.63844001598045 0 0 0 0 -617.81117412570165 98.743713645793832 0 98.743713645793832 152.41290842408671 0 0 0 0 -602.90562385314843 166.50745657610105 0 166.50745657610105 9.5179924916919845 0 0 0 0 -842.08507355157053 73.9537156007882 0 73.9537156007882 -23.755423518507087 0 0 0 0 -685.58953672500502 291.28959530208112 0 291.28959530208112 -69.883382644165977 0 0 0 0 -594.42453751838184 214.98002423733305 0 214.98002423733305 -15.259431337639398 0 0 0 0 -647.7368872800289 219.67392156479718 0 219.67392156479718 88.289428963180399 0 0 0 0 115.49523565475829 -469.10719855028037 0 -469.10719855028037 173.03728255338501 0 0 0 0 -7.9321286678750766 -282.80830709098882 0 -282.80830709098882 -55.244085704620375 0 0 0 0 -186.90850407280959 -461.59379939188693 0 -461.59379939188693 112.35738543166735 0 0 0 0 -127.70127247342316 -229.77325192713897 0 -229.77325192713897 123.29119352388989 0 0 0 0 -51.87856372341048 -478.62840268453147 0 -478.62840268453147 668.72796043833125 0 0 0 0 501.32433107725228 -204.82220171051176 0 -204.82220171051176 282.39848205440649 0 0 0 0 82.206013093295041 -223.17346275704949 0 -223.17346275704949 416.25015673048256 0 0 0 0 372.51001111834194 106.13840743187393 0 106.13840743187393 696.97594397577632 0 0 0 0 98.806077604705933 66.584999225324282 0 66.584999225324282 392.42300894902473 0 0 0 0 -58.328923761990154 -82.825063697451696 0 -82.825063697451696 252.69270143181348 0 0 0 0 -94.570267307630274 15.314660807029213 0 15.314660807029213 102.13115575816482 0 0 0 0 -225.39528906274791 -64.524369453227564 0 -64.524369453227564 258.87981033286269 0 0 0 0 246.60779713574448 -43.158293159733148 0 -43.158293159733148 153.92477971168773 0 0 0 0 54.436474535352318 -238.80774258030397 0 -238.80774258030397 -29.521297225826856 0 0 0 0 -74.470173297973815 -136.23598111303181 0 -136.23598111303181 -60.969539283583799 0 0 0 0 -204.13786819821689 -104.44158242801859 0 -104.44158242801859 8.3760356268030591 0 0 0 0 -277.27355709383846 -32.096410141670276 0 -32.096410141670276 -20.80451602773519 0 0 0 0 -136.39326430585061 -272.4778980948945 0 -272.4778980948945 -275.48330337721927 0 0 0 0 -245.81951132975519 -246.6227714576562 0 -246.6227714576562 -277.95369735894701 0 0 0 0 -188.42665635992307 -277.50633459325672 0 -277.50633459325672 -291.22329013526451 0 0 0 0 -15.532880787788599 -446.41144605850798 0 -446.41144605850798 -214.32368489868531 0 0 0 0 -339.51617315155454 -404.71173502814054 0 -404.71173502814054 -887.46740570575002 0 0 0 0 -40.636156873777509 -360.70181454687645 0 -360.70181454687645 -585.67066193297615 0 0 0 0 -125.14287769115617 -297.96206347364387 0 -297.96206347364387 -720.16942376635416 0 0 0 0 -22.009915286346143 2.3116019405517925 0 2.3116019405517925 0.19929638679964601 0 0 0 0 -87.926139085651812 -503.61636401076794 0 -503.61636401076794 -511.09767966223626 0 0 0 0 -65.711241205201077 -342.8060266492829 0 -342.8060266492829 7.0678807389049325 0 0 0 0 151.33017434595968 -69.068991591808299 0 -69.068991591808299 -699.58240367966027 0 0 0 0 -175.62445170932915 -367.02587864992029 0 -367.02587864992029 -638.72813334712555 0 0 0 0 -205.09398792264983 -403.33339924761367 0 -403.33339924761367 -585.53090883714867 0 0 0 0 -263.87708075364935 -307.08581074954509 0 -307.08581074954509 -418.50837245225193 0 0 0 0 -533.05864273488987 -418.17631582423564 0 -418.17631582423564 -455.79351229884742 0 0 0 0 -551.23971728369361 -202.40210803060654 0 -202.40210803060654 -281.24420173325257 0 0 0 0 -450.2337659089535 -472.44932546345444 0 -472.44932546345444 -675.61100096976043 0 0 0 0 -1203.4078954007418 -560.85005431570971 0 -560.85005431570971 -682.80499009991672 0 0 0 0 -713.76838054742257 -313.24647539381431 0 -313.24647539381431 -339.74169567793797 0 0 0 0 -1057.4358170650376 4.4559961319114336 0 4.4559961319114336 -121.7965351001767 0 0 0 0 -1304.8146471911459 -450.2347892345424 0 -450.2347892345424 -366.99137321236049 0 0 0 0 -605.47046158323064 394.13649207134586 0 394.13649207134586 -218.92443662130063 0 0 0 0 -841.27428606047761 239.9797441537321 0 239.9797441537321 -86.793567748247369 0 0 0 0 -1003.7561596968444 317.55240328181935 0 317.55240328181935 -120.22749620626564 0 0 0 0 -900.72385009977734 52.562329703489922 0 52.562329703489922 -242.2246186149132 0 0 0 0 -1144.2877118864562 79.005181455961065 0 79.005181455961065 -245.06099620786972 0 0 0 0 -1071.0212547837436 570.31975751189611 0 570.31975751189611 -271.12980771538787 0 0 0 0 -970.09119634781382 309.51551840644333 0 309.51551840644333 -187.30116283733878 0 0 0 0 -1664.4626678454224 560.21410544908576 0 560.21410544908576 -251.27545689951876 0 0 0 0 -148.94043725827942 865.10149465072209 0 865.10149465072209 -815.70370530197761 0 0 0 0 -1070.1026726981654 1037.7831922503055 0 1037.7831922503055 -796.75583392287444 0 0 0 0 -1282.4936222816177 33.577076975886939 0 33.577076975886939 -242.66620492829497 0 0 0 0 -2784.5992571234601 161.729094604593 0 161.729094604593 -230.64881850705206 0 0 0 0 -2084.6858718377916 2121.1827476806966 0 2121.1827476806966 -1267.7631408515408 0 0 0 0 -19.825459538025342 -3.5340752629797265 0 -3.5340752629797265 -0.76463051733367848 0 0 0 0 392.93834164837608 -904.6577407237603 0 -904.6577407237603 -1068.7266613896284 0 0 0 0 -1396.0331765816663 471.51048263027587 0 471.51048263027587 -334.92876380811504 0 0 0 0 673.02384767727926 1616.4101176122294 0 1616.4101176122294 -2272.1516893772096 0 0 0 0 113.55324501436553 -814.0238470894958 0 -814.0238470894958 -626.00910575309945 0 0 0 0 -261.98838536802214 -462.5038250407033 0 -462.5038250407033 -466.0500739780631 0 0 0 0 790.49750124651473 -1523.5623147461793 0 -1523.5623147461793 -965.65528599031575 0 0 0 0 -1823.4994896323187 1075.0033451713416 0 1075.0033451713416 605.1495752208989 0 0 0 0 -1055.1179782168256 1690.7378397753087 0 1690.7378397753087 -2220.8242615713461 0 0 0 0 -19.3209037429624 77.320000246872382 0 77.320000246872382 21.257314261323245 0 0 0 0 1000.6606246391311 -2054.9185213160627 0 -2054.9185213160627 -282.16351904957401 0 0 0 0 -9.3738128225303967 -3.3797120016711375 0 -3.3797120016711375 0.13082353951793912 0 0 0 0 -274.92047622281825 -531.88830941394974 0 -531.88830941394974 1023.0674488983359 0 0 0 0 -13.869150746087314 -0.027018989132706395 0 -0.027018989132706395 1.9564637484848038 0 0 0 0 -247.02583224972477 986.47788305721724 0 986.47788305721724 -788.50442130361432 0 0 0 0 279.08611008439038 -443.47889845164309 0 -443.47889845164309 619.5762375180982 0 0 0 0 -225.71484413085273 -187.84575240816162 0 -187.84575240816162 642.7358335793615 0 0 0 0 -831.58960020594532 298.39554793093475 0 298.39554793093475 411.33931492873307 0 0 0 0 -130.78192473240779 -125.21269548132307 0 -125.21269548132307 -827.42588795535596 0 0 0 0 -2173.7761618080549 -293.19730528685739 0 -293.19730528685739 -227.56323473610303 0 0 0 0 -1358.3056590723863 872.53719368804263 0 872.53719368804263 419.19657011481604 0 0 0 0 159.64591315755388 824.6314161002017 0 824.6314161002017 185.4740749391658 0 0 0 0 -1369.5497149522707 984.36916620660077 0 984.36916620660077 520.11808246048486 0 0 0 0 -98.767533950849611 87.552515248882628 0 87.552515248882628 -294.13134313617138 0 0 0 0 -33.801479349075237 -8.362958531239876 0 -8.362958531239876 -2.0334025917451317 0 0 0 0 156.88525811699219 -212.52847768303627 0 -212.52847768303627 -357.39459709442417 0 0 0 0 345.52616636361927 192.19934230182025 0 192.19934230182025 -786.33677984370479 0 0 0 0 1313.1654657152285 -155.79863162749916 0 -155.79863162749916 -1435.0411799361682 0 0 0 0 -311.62397058604984 619.29859270645284 0 619.29859270645284 -1024.0449033567374 0 0 0 0 -250.44479171669809 482.53354578866038 0 482.53354578866038 -647.06464349669568 0 0 0 0 -540.33819585412857 732.34281454280972 0 732.34281454280972 -663.48759701423842 0 0 0 0 -441.92056057410809 424.78512528875467 0 424.78512528875467 -408.03570110189685 0 0 0 0 -651.28534845850663 552.86387551576809 0 552.86387551576809 -355.99027986020246 0 0 0 0 27.417475130641833 213.81167048896441 0 213.81167048896441 -404.77396743895406 0 0 0 0 -195.1390068900364 336.94074771026681 0 336.94074771026681 -415.09093479821604 0 0 0 0 -76.532136867739609 170.5398635386473 0 170.5398635386473 -319.62121679433722 0 0 0 0 790.91183548919798 92.266770383457526 0 92.266770383457526 -986.96641008970062 0 0 0 0 -120.05935100570787 195.70492843028023 0 195.70492843028023 -300.82738659683764 0 0 0 0 -105.06025800797215 189.78412183938372 0 189.78412183938372 -331.60941622231894 0 0 0 0 -76.024328502310709 163.50902536296454 0 163.50902536296454 -314.3756478455889 0 0 0 0 -84.128271948095062 74.777469788532471 0 74.777469788532471 -221.65695376177246 0 0 0 0 -86.577334123561741 140.26756686894305 0 140.26756686894305 -321.52799494064857 0 0 0 0 -145.76504360346007 139.49618783337064 0 139.49618783337064 -232.08154814658724 0 0 0 0 -99.503425475268159 154.55190487847631 0 154.55190487847631 -230.31486789685914 0 0 0 0 -194.39501708240641 107.48918447195251 0 107.48918447195251 2.8705674508855736 0 0 0 0 -202.29962304114179 168.5466598166314 0 168.5466598166314 -103.28543283201907 0 0 0 0 -204.05152545387864 191.78956381038824 0 191.78956381038824 -115.99648439238808 0 0 0 0 -231.00173709361115 202.98413920004714 0 202.98413920004714 -110.44216569104219 0 0 0 0 -224.99108728670399 181.71976385347261 0 181.71976385347261 -102.39442614381346 0 0 0 0 -186.88245416370773 127.03945158763838 0 127.03945158763838 -95.96788587926676 0 0 0 0 -140.11345690433882 112.19791678368165 0 112.19791678368165 -100.70810960485505 0 0 0 0 -402.90880310628563 289.69802314858043 0 289.69802314858043 -42.809096756194776 0 0 0 0 -431.90277822737698 366.74684866129519 0 366.74684866129519 -178.35265856250453 0 0 0 0 -622.98194895433699 264.15700263243184 0 264.15700263243184 66.286100841087318 0 0 0 0 -370.05555535221356 339.11921386063295 0 339.11921386063295 -193.70916097477675 0 0 0 0 -248.68599030515179 274.55498151461416 0 274.55498151461416 -202.34563042056425 0 0 0 0 -373.29265132400542 354.98840899783283 0 354.98840899783283 -226.06837736863781 0 0 0 0 -103.74233217799338 219.99346281732505 0 219.99346281732505 -270.53515314366268 0 0 0 0 -248.00453195537557 276.89221927613926 0 276.89221927613926 -225.06023380589977 0 0 0 0 -321.31787243747385 191.01861705903548 0 191.01861705903548 54.336618211815221 0 0 0 0 -336.54447036306374 232.40767545603194 0 232.40767545603194 -41.769820630897485 0 0 0 0 -443.22604829544434 153.14993935754501 0 153.14993935754501 152.99431404537427 0 0 0 0 -514.79609599012838 248.29472860780845 0 248.29472860780845 46.687105367760523 0 0 0 0 -177.89981478630216 5.4086242128905724 0 5.4086242128905724 71.399582216123235 0 0 0 0 -362.18740633472044 140.16383084339441 0 140.16383084339441 137.65674007145026 0 0 0 0 -335.68910001851327 48.728009593950446 0 48.728009593950446 226.50101038115372 0 0 0 0 -333.52813161385893 120.97815758978646 0 120.97815758978646 92.328854838462576 0 0 0 0 -284.1241045101342 136.55953319126274 0 136.55953319126274 57.234721365270161 0 0 0 0 -249.67287330054387 62.189016138667284 0 62.189016138667284 128.27728722525899 0 0 0 0 -220.83187443147472 132.45608705368841 0 132.45608705368841 60.516090334567707 0 0 0 0 -150.27155207107717 53.040220646488706 0 53.040220646488706 8.5479339595717647 0 0 0 0 -281.95141556665476 128.57223138664403 0 128.57223138664403 78.726336039186208 0 0 0 0 -263.12108611143776 147.40246068996476 0 147.40246068996476 24.917733342363135 0 0 0 0 -247.28231754168928 112.05993859234729 0 112.05993859234729 70.4429671623584 0 0 0 0 -249.2834259426163 148.38150806356361 0 148.38150806356361 90.446728444834662 0 0 0 0 -235.78025112286559 110.1480135350057 0 110.1480135350057 75.299621724932877 0 0 0 0 -109.34914040073636 53.661883798449708 0 53.661883798449708 194.86221283674581 0 0 0 0 -201.79740298195975 150.91277519771938 0 150.91277519771938 116.58638598709331 0 0 0 0 -181.37352134054527 76.357934738094627 0 76.357934738094627 138.88523885764289 0 0 0 0 -154.39972144752392 65.561742841215164 0 65.561742841215164 59.27082059644431 0 0 0 0 -85.411910729744704 89.545663545214666 0 89.545663545214666 51.147570137820367 0 0 0 0 41.071643426024821 24.869822552225742 0 24.869822552225742 31.083611035094691 0 0 0 0 -95.374080652858538 96.343942435261852 0 96.343942435261852 119.64523105637272 0 0 0 0 141.6145427164156 67.447824667538043 0 67.447824667538043 96.043647205062371 0 0 0 0 -64.484095067520229 48.895275063523783 0 48.895275063523783 -33.71884652606208 0 0 0 0 -258.82390407087223 110.16353284380966 0 110.16353284380966 -186.916086151135 0 0 0 0 168.83475942377299 284.01430683157696 0 284.01430683157696 168.06824887579205 0 0 0 0 -19.62320792231111 4.278286685822394 0 4.278286685822394 3.7829532514305697 0 0 0 0 -365.31718003927381 313.69356947507094 0 313.69356947507094 0.46064095437395736 0 0 0 0 -12.815253499662504 155.74381827619254 0 155.74381827619254 229.31386097941231 0 0 0 0 282.9907512615755 -31.340815320456159 0 -31.340815320456159 -48.862752316112164 0 0 0 0 -0.4365989507350605 162.09487728123804 0 162.09487728123804 -98.668675962618181 0 0 0 0 -8.2868989702777469 1.103400934429537 0 1.103400934429537 0.59992976239304241 0 0 0 0 50.823084992895019 213.37818735396058 0 213.37818735396058 -393.04473488296958 0 0 0 0 -0.07822108847187792 1.5708636473618611 0 1.5708636473618611 -3.8284093229612406 0 0 0 0 169.15100823623652 303.11719349470036 0 303.11719349470036 -155.43129162208243 0 0 0 0 236.82677140599844 117.16228937833239 0 117.16228937833239 -293.49638812590274 0 0 0 0 150.81067050428828 238.92612385651637 0 238.92612385651637 -311.51151222656335 0 0 0 0 10.26482593799301 258.0822235491496 0 258.0822235491496 -321.37611414849323 0 0 0 0 -175.36118701288069 100.28876368647434 0 100.28876368647434 -206.01657734435776 0 0 0 0 -58.135955046687741 -0.037763906542750192 0 -0.037763906542750192 -367.15853270738808 0 0 0 0 -71.671962504347903 105.95657635855514 0 105.95657635855514 -230.1572496865756 0 0 0 0 78.519003281835467 124.9350240456115 0 124.9350240456115 -204.32307312594162 0 0 0 0 -54.836168746216572 108.98381641304059 0 108.98381641304059 -40.049387194276278 0 0 0 0 -96.38006233885244 10.331964874537334 0 10.331964874537334 -83.862072334624827 0 0 0 0 -1067.2306208836817 255.94783069889945 0 255.94783069889945 -389.00410957213353 0 0 0 0 -462.10643387020173 -280.51152409246151 0 -280.51152409246151 -432.98311648838171 0 0 0 0 -973.44468257960762 50.024857637134119 0 50.024857637134119 -65.281523632933386 0 0 0 0 47.115901012468385 -1085.8204418728283 0 -1085.8204418728283 408.68645621612063 0 0 0 0 -1019.6733773817093 524.0668304412892 0 524.0668304412892 21.67446169097002 0 0 0 0 -83.864152474474196 37.912479884428883 0 37.912479884428883 -21.307040305169636 0 0 0 0 -1016.2520362820942 -25.308308570987265 0 -25.308308570987265 -0.32271787530164886 0 0 0 0 -759.94435141288704 1103.3706000165569 0 1103.3706000165569 -156.87537304924081 0 0 0 0 -61.547911128830577 -1.3500990047274115 0 -1.3500990047274115 -0.3751910372897953 0 0 0 0 -330.71579869545531 312.30668862360471 0 312.30668862360471 -52.249013641463534 0 0 0 0 -483.13010460621445 98.985770324528858 0 98.985770324528858 -339.55055681157501 0 0 0 0 -1008.0480395265622 67.352427373853061 0 67.352427373853061 -140.77863711089958 0 0 0 0 -72.431648629742995 -111.24842144990271 0 -111.24842144990271 345.37823587553703 0 0 0 0 -385.92799957842726 423.67495106731485 0 423.67495106731485 483.29407785758849 0 0 0 0 -215.76716364748427 -167.58514371465708 0 -167.58514371465708 567.5446189315403 0 0 0 0 -71.80421804189973 -4.7891056190796917 0 -4.7891056190796917 443.33756854896683 0 0 0 0 -101.91795149170503 -61.211694423311087 0 -61.211694423311087 208.28702672892905 0 0 0 0 -353.45581504423171 86.168534698663052 0 86.168534698663052 310.11704417874677 0 0 0 0 -178.73311212130648 -116.22665524736658 0 -116.22665524736658 327.20656400963526 0 0 0 0 -347.3206316002761 80.127313787547905 0 80.127313787547905 183.73629276130532 0 0 0 0 -350.21932075408404 126.90686831659787 0 126.90686831659787 257.62731500148629 0 0 0 0 -695.3376118313754 38.220557842623748 0 38.220557842623748 314.71008889494124 0 0 0 0 -55.059843969036592 -279.54299222809675 0 -279.54299222809675 811.20126256036065 0 0 0 0 -286.55391213280382 255.17574861117032 0 255.17574861117032 -661.64410668594508 0 0 0 0 -26.788393821261707 150.58718821500315 0 150.58718821500315 -427.20292140620131 0 0 0 0 -616.67548757483019 185.130251865069 0 185.130251865069 -456.83238681110316 0 0 0 0 -22.688833664478182 -3.1590153098883249 0 -3.1590153098883249 -0.51044222597629929 0 0 0 0 -38.553193181654592 -4.4720414864462796 0 -4.4720414864462796 4.4180780936633965 0 0 0 0 132.66330160140205 -276.17641840664396 0 -276.17641840664396 494.86624978747568 0 0 0 0 516.79762033792213 567.04563678494014 0 567.04563678494014 -826.64802552935271 0 0 0 0 -109.14712488777877 10.793614914676482 0 10.793614914676482 395.1052575898994 0 0 0 0 20.790904878631409 -140.39762263978605 0 -140.39762263978605 368.41344296924717 0 0 0 0 93.928776578541147 2.9857656942181166 0 2.9857656942181166 729.86517294466307 0 0 0 0 -7.5185935408080695 -66.880674765294543 0 -66.880674765294543 687.08010302005005 0 0 0 0 350.70588470911389 -54.90011304202622 0 -54.90011304202622 531.96199069922113 0 0 0 0 161.17440509333392 -192.89916154782668 0 -192.89916154782668 432.43603321811611 0 0 0 0 47.828829001984559 -141.50246920161285 0 -141.50246920161285 206.65560973140555 0 0 0 0 51.948568546737079 -19.536300481697253 0 -19.536300481697253 364.92628650747247 0 0 0 0 -16.575117470827536 6.2162532094986318 0 6.2162532094986318 61.489685258546842 0 0 0 0 -33.345506929570547 58.013666162685638 0 58.013666162685638 262.63819928934754 0 0 0 0 -42.214159843279049 -45.390256185012049 0 -45.390256185012049 61.89809617156493 0 0 0 0 -25.939985016666469 -5.5936056806030479 0 -5.5936056806030479 -120.51838100437465 0 0 0 0 -165.78040697397955 22.62821549091916 0 22.62821549091916 42.700020632998076 0 0 0 0 -93.181396607062197 -101.44464674274656 0 -101.44464674274656 1.4850698228174224 0 0 0 0 -650.81270975749067 -19.175502618679616 0 -19.175502618679616 168.80562838903415 0 0 0 0 -214.86344949937484 94.658447580028735 0 94.658447580028735 164.26515447441489 0 0 0 0 -402.6638772044098 -26.652883553660786 0 -26.652883553660786 89.452609581778177 0 0 0 0 -177.73918651126223 -19.595254252254676 0 -19.595254252254676 -88.160086699020781 0 0 0 0 -440.15814841676911 117.44632972652114 0 117.44632972652114 75.862199509210541 0 0 0 0 -463.4912429553915 -36.045980618604524 0 -36.045980618604524 -21.659091187880733 0 0 0 0 -427.72712218331435 -117.34809032231115 0 -117.34809032231115 -112.78141942638746 0 0 0 0 -238.2231900000188 -1.7222868066068031 0 -1.7222868066068031 -90.424329678425735 0 0 0 0 -227.89798302570125 -70.646586466312172 0 -70.646586466312172 -162.26469402406886 0 0 0 0 -448.58910193041083 -179.054224454712 0 -179.054224454712 -165.70127692320676 0 0 0 0 -917.32487581926398 -198.69453350576492 0 -198.69453350576492 -50.219270758636171 0 0 0 0 -161.16560322530859 -117.99467317131695 0 -117.99467317131695 -181.04961221136705 0 0 0 0 -97.222063362954941 -33.126895393254472 0 -33.126895393254472 -196.47545491800787 0 0 0 0 -138.49595452835638 -73.584950331619609 0 -73.584950331619609 -182.94431368955873 0 0 0 0 -125.59336130724114 -46.570752143397726 0 -46.570752143397726 -127.0274274619412 0 0 0 0 -101.54368005378637 -65.868605286826067 0 -65.868605286826067 -188.26127612256624 0 0 0 0 -221.16474876084249 -92.179483660615233 0 -92.179483660615233 -132.63079098992938 0 0 0 0 -101.33320051293049 -65.130865411587806 0 -65.130865411587806 -215.66946045509724 0 0 0 0 0.1382196110108822 -0.4543788880562829 0 -0.4543788880562829 -0.49180640272238962 0 0 0 0 -82.751597143738763 -111.66919011931071 0 -111.66919011931071 -163.82562438115656 0 0 0 0 -354.17832850148261 -116.21264515640613 0 -116.21264515640613 -171.86436259686337 0 0 0 0 -310.6414297499723 -163.44275026512676 0 -163.44275026512676 -196.30614881440806 0 0 0 0 -264.44519954032148 -57.328109573085044 0 -57.328109573085044 -152.42295391065494 0 0 0 0 -471.55009855078242 -197.06351325367984 0 -197.06351325367984 -155.38420451793297 0 0 0 0 -720.59443105598621 -264.43866747134746 0 -264.43866747134746 -222.18019130633979 0 0 0 0 -519.32611627782899 -121.39597515738944 0 -121.39597515738944 -159.51146957242395 0 0 0 0 -562.42302151447075 -181.6353634630795 0 -181.6353634630795 -136.1717537949603 0 0 0 0 -362.67215896409471 -84.818778461003319 0 -84.818778461003319 -140.87431690109247 0 0 0 0 -507.86273179874115 -106.05475140548339 0 -106.05475140548339 -130.02757647149406 0 0 0 0 -749.79797097676783 -212.89159718977527 0 -212.89159718977527 -102.78617824021397 0 0 0 0 -656.29947564854228 -76.765170104447634 0 -76.765170104447634 -148.12897713232152 0 0 0 0 -10.493351423312561 11.078738545248655 0 11.078738545248655 -2.025929404992894 0 0 0 0 -648.96629259070323 -213.69346607206728 0 -213.69346607206728 -73.791472441660176 0 0 0 0 43.560920387666556 29.502504768512836 0 29.502504768512836 -46.036178678793476 0 0 0 0 -0.5562810299548957 -1.2436227332341332 0 -1.2436227332341332 -1.9047720246880067 0 0 0 0 -8.2342199499398703 18.82143093891159 0 18.82143093891159 41.309281423153152 0 0 0 0 82.12314090489599 -23.922919424293752 0 -23.922919424293752 -137.93226218457221 0 0 0 0 15.744070514832856 -20.132196829131999 0 -20.132196829131999 -130.27970435723864 0 0 0 0 16.994765176641522 -109.8081497801096 0 -109.8081497801096 -234.81659281990869 0 0 0 0 -29.493313039907662 -46.885921802938697 0 -46.885921802938697 -109.71473715620141 0 0 0 0 -708.55667566612101 -115.63121192341816 0 -115.63121192341816 -98.256151209370046 0 0 0 0 -819.16935092165659 -78.219939706113564 0 -78.219939706113564 -106.1863416694091 0 0 0 0 59.493067469607922 174.69174008876837 0 174.69174008876837 -36.414839843197797 0 0 0 0 -478.55388567128102 158.28426904848448 0 158.28426904848448 58.028178810124928 0 0 0 0 -199.81712287344271 -207.88451565211926 0 -207.88451565211926 -146.93403941166798 0 0 0 0 -84.087599517806666 -113.98387436203302 0 -113.98387436203302 -71.137784831405042 0 0 0 0 19.016301755531458 -114.89992362126338 0 -114.89992362126338 -113.56757078357532 0 0 0 0 -82.538051852839999 -8.4399027367919643 0 -8.4399027367919643 103.68449826536107 0 0 0 0 -2.5836930452771867 3.625394533399799 0 3.625394533399799 -2.0252460261243916 0 0 0 0 -1093.047305380911 -506.00621987298382 0 -506.00621987298382 786.93690118889594 0 0 0 0 -1208.5301156001369 -85.239727672429552 0 -85.239727672429552 419.59626643870433 0 0 0 0 -439.56205479006167 -1082.3076054765334 0 -1082.3076054765334 384.24893518968759 0 0 0 0 -210.63381743556238 -1621.8265779123863 0 -1621.8265779123863 1254.0787915347203 0 0 0 0 -447.19713262698497 -706.41411552694399 0 -706.41411552694399 20.172388357354066 0 0 0 0 -877.65052542253579 -324.98146125276435 0 -324.98146125276435 592.90457364767894 0 0 0 0 -653.97159695117443 53.723508910981991 0 53.723508910981991 172.5507327161406 0 0 0 0 -879.28185017468616 -127.71049450183718 0 -127.71049450183718 428.08812512117697 0 0 0 0 -681.51735102426028 -183.73847378359096 0 -183.73847378359096 352.01257785538746 0 0 0 0 -641.24194123735651 -142.98924313494808 0 -142.98924313494808 956.55270333032217 0 0 0 0 -216.61990395421162 -168.22615929559151 0 -168.22615929559151 357.37043513371145 0 0 0 0 -204.99067515088245 -245.33561366438107 0 -245.33561366438107 294.65484058477819 0 0 0 0 43.004357168392744 -276.61465835643799 0 -276.61465835643799 381.13627922048204 0 0 0 0 -205.10574699827703 -99.832889880820403 0 -99.832889880820403 301.30965575212099 0 0 0 0 -77.439910089524346 -189.60370518924537 0 -189.60370518924537 160.76864410119902 0 0 0 0 -406.32545544911409 -155.81584740188669 0 -155.81584740188669 258.11701455196385 0 0 0 0 -164.12717553488619 -52.606960685180411 0 -52.606960685180411 -26.631061721194783 0 0 0 0 -109.31019789967104 -29.209916378952812 0 -29.209916378952812 -151.20524582000189 0 0 0 0 -235.05053325210611 -173.11087796767964 0 -173.11087796767964 -56.366522600345434 0 0 0 0 -284.51116364984773 -86.882940679909439 0 -86.882940679909439 -203.63322903966775 0 0 0 0 -534.98203474092588 -154.86228995712656 0 -154.86228995712656 7.8556395104947114 0 0 0 0 -558.6553242335649 -29.353196963595792 0 -29.353196963595792 -426.75440063699648 0 0 0 0 -1002.9324049068382 156.8394698276781 0 156.8394698276781 2.3423178473540247 0 0 0 0 -474.48934921946056 -18.176262491507373 0 -18.176262491507373 -10.489995175015792 0 0 0 0 128.02477462338902 452.68816731262217 0 452.68816731262217 16.615408648825905 0 0 0 0 75.439583487008349 108.80734357626079 0 108.80734357626079 358.75213107270292 0 0 0 0 -897.58391307515558 606.43226844810715 0 606.43226844810715 161.27713867800617 0 0 0 0 -329.7673059811932 441.55062063384656 0 441.55062063384656 -331.42090590643562 0 0 0 0 -7.6931169889668354 7.5147268033448569 0 7.5147268033448569 -9.7210730285633051 0 0 0 0 -131.62246380092984 -339.43839803803621 0 -339.43839803803621 -145.95851297063973 0 0 0 0 274.5397998210974 262.86032865276411 0 262.86032865276411 153.63330476340298 0 0 0 0 285.03241437309771 107.83454667251317 0 107.83454667251317 137.61072735439055 0 0 0 0 -2.6759829203630972 3.2902110711226555 0 3.2902110711226555 -4.7839356213518371 0 0 0 0 279.041081821837 141.89768763558902 0 141.89768763558902 -28.787808963499799 0 0 0 0 247.39160151323449 372.54531377490048 0 372.54531377490048 -195.29010963602423 0 0 0 0 -267.33210454038635 192.96784370942123 0 192.96784370942123 98.616270937328807 0 0 0 0 -429.19677273555862 -435.19348622745014 0 -435.19348622745014 32.469546540675083 0 0 0 0 14.357154437084318 149.11644265612398 0 149.11644265612398 92.244678188833859 0 0 0 0 -75.211062402650583 51.879465620011992 0 51.879465620011992 144.76607195326142 0 0 0 0 -74.211429071521906 31.739107743585222 0 31.739107743585222 15.843043752692989 0 0 0 0 -131.13736812919524 -313.43015852089911 0 -313.43015852089911 -55.419239546330118 0 0 0 0 298.49617339803081 352.64034490214624 0 352.64034490214624 61.454687217955325 0 0 0 0 287.66240871862101 109.05665279014829 0 109.05665279014829 136.13623072571636 0 0 0 0 -8.5216476047477698 11.593599053353032 0 11.593599053353032 -13.848896868758372 0 0 0 0 297.11268276911051 370.08148456634632 0 370.08148456634632 -136.21195116262129 0 0 0 0 -349.45694067544537 252.94769443549612 0 252.94769443549612 -345.26129197270313 0 0 0 0 285.12727918166092 131.53639473232573 0 131.53639473232573 -63.015394281390627 0 0 0 0 -2.340308373697269 3.3236371607593327 0 3.3236371607593327 -4.7367287018747435 0 0 0 0 -40.821039505040972 224.47880512209372 0 224.47880512209372 239.41918673274768 0 0 0 0 -516.07273788480961 73.574008035951692 0 73.574008035951692 255.37056814351445 0 0 0 0 -269.7441225307266 -213.45997441488907 0 -213.45997441488907 -182.95635778117867 0 0 0 0 -82.27190511750814 -28.299132159762848 0 -28.299132159762848 129.32988270816259 0 0 0 0 -235.93009166499542 -117.03624311009821 0 -117.03624311009821 90.501397233738317 0 0 0 0 -282.81635271604682 89.412601089562116 0 89.412601089562116 -55.748031856467151 0 0 0 0 -50.778293495466642 -174.54531242665234 0 -174.54531242665234 -162.81593718382464 0 0 0 0 -10.755672389194302 13.226483815156342 0 13.226483815156342 -12.836888861470172 0 0 0 0 201.11481581283442 250.82962821499723 0 250.82962821499723 213.73825254169515 0 0 0 0 599.92413545044838 448.46501858832653 0 448.46501858832653 94.632114357445516 0 0 0 0 -716.88978279796538 -562.03451365853016 0 -562.03451365853016 19.218941386064955 0 0 0 0 -707.35822711530636 -325.8426529976752 0 -325.8426529976752 -1.2685625120132613 0 0 0 0 -4.7219715608384831 4.4309783202094764 0 4.4309783202094764 -4.9584528380863286 0 0 0 0 255.43264847673709 201.19994063478617 0 201.19994063478617 -40.973521797085709 0 0 0 0 -9.4204722485383456 4.7168699595691521 0 4.7168699595691521 -16.47042298797605 0 0 0 0 169.20666077034548 179.674593560429 0 179.674593560429 -42.344001841732279 0 0 0 0 272.44814099531959 79.840849918834607 0 79.840849918834607 16.832808926798748 0 0 0 0 -106.40774297563621 77.085148621555618 0 77.085148621555618 -113.00929840501931 0 0 0 0 -672.92067888675956 -156.0837592089988 0 -156.0837592089988 92.097324348402253 0 0 0 0 -663.99642522395879 -149.61585446659092 0 -149.61585446659092 -106.11717415610269 0 0 0 0 -708.39977734304557 -183.039798688063 0 -183.039798688063 -119.0327968620104 0 0 0 0 -638.88372615053231 78.415237196850967 0 78.415237196850967 -151.76260820948301 0 0 0 0 -508.99623260904627 -61.877423195653137 0 -61.877423195653137 -117.69383681578194 0 0 0 0 -520.90222656844708 -91.294504434572445 0 -91.294504434572445 -173.09089614922686 0 0 0 0 -686.21328420915233 13.843028966763995 0 13.843028966763995 -14.384203453461396 0 0 0 0 0.35645053029338669 1.7293401640329051 0 1.7293401640329051 -6.5970707921645708 0 0 0 0 136.89645381187074 -105.3856066689761 0 -105.3856066689761 52.289798870247068 0 0 0 0 -900.64654159640486 175.62119723866408 0 175.62119723866408 457.12015473333122 0 0 0 0 652.30776950453583 -6.2738507248559472 0 -6.2738507248559472 -285.73124923812429 0 0 0 0 -84.005425338675252 9.1691171121420325 0 9.1691171121420325 15.278996632061087 0 0 0 0 19.573285111058794 -55.07954382634864 0 -55.07954382634864 20.443665944490931 0 0 0 0 -35.74253205805698 11.45642552135439 0 11.45642552135439 -2.6678434749800264 0 0 0 0 -39.139102197303146 -94.693589587201814 0 -94.693589587201814 40.718318421758795 0 0 0 0 -11.274722846035729 538.50968195704991 0 538.50968195704991 330.26627791004557 0 0 0 0 -192.22720863808536 -292.36666468828764 0 -292.36666468828764 261.4896115763172 0 0 0 0 -203.40374181911466 130.28187578238294 0 130.28187578238294 -224.11698713834403 0 0 0 0 -263.09984812104631 -208.1718568833607 0 -208.1718568833607 -130.78812803595611 0 0 0 0 -647.79437505226815 -24.081272236098812 0 -24.081272236098812 -313.99501816570591 0 0 0 0 -616.38874219531863 -141.77058157847614 0 -141.77058157847614 222.74831987871448 0 0 0 0 -668.94509424049465 -18.091057976604588 0 -18.091057976604588 42.492853657937303 0 0 0 0 -118.72845141119191 -0.49813432328318186 0 -0.49813432328318186 22.1095350887446 0 0 0 0 -272.2780871886207 -250.39720051708355 0 -250.39720051708355 141.94185018010921 0 0 0 0 -1644.5111851556085 -327.59487084648276 0 -327.59487084648276 321.36337174531945 0 0 0 0 -593.33020923745789 -736.17659898122838 0 -736.17659898122838 -240.62521882269903 0 0 0 0 -26.101742457899007 -8.71798743011081 0 -8.71798743011081 8.5278437767828379 0 0 0 0 -123.12785455330588 4.1516097039990356 0 4.1516097039990356 15.571399506103749 0 0 0 0 -1585.8051609714894 -1139.539798138821 0 -1139.539798138821 -173.7676966013064 0 0 0 0 -1511.9562070380489 -32.489731143541349 0 -32.489731143541349 473.81708870844295 0 0 0 0 -513.39964640605558 -234.1930149781856 0 -234.1930149781856 -399.05379184774574 0 0 0 0 -796.25606045821769 -274.42209718476329 0 -274.42209718476329 -72.042393972385526 0 0 0 0 -971.24230121108121 -597.18112542560471 0 -597.18112542560471 -443.13977443123565 0 0 0 0 -721.94093567930395 -105.12205567133833 0 -105.12205567133833 -22.415617605500074 0 0 0 0 -712.1858836183892 -190.70948298322662 0 -190.70948298322662 0.80662298912420738 0 0 0 0 -694.75867789169342 33.249897218653842 0 33.249897218653842 190.92273231852914 0 0 0 0 -769.99533850996522 121.80916957593604 0 121.80916957593604 247.09310636261057 0 0 0 0 -907.64321008601837 -43.15053740460786 0 -43.15053740460786 84.444823063582135 0 0 0 0 -916.67281621783332 139.29162286064593 0 139.29162286064593 124.40415887376471 0 0 0 0 -1170.8727345365551 -14.952061889589231 0 -14.952061889589231 118.49932099022362 0 0 0 0 -676.26133533291431 -26.007612111066862 0 -26.007612111066862 36.689051847653786 0 0 0 0 -859.76560211628384 11.345537152788694 0 11.345537152788694 102.94337962729082 0 0 0 0 -802.47415622968401 35.080937200218102 0 35.080937200218102 50.391498557641377 0 0 0 0 -1131.0360441415833 -107.59136122199848 0 -107.59136122199848 -11.409510527332259 0 0 0 0 -976.15146399987498 29.23618735660337 0 29.23618735660337 103.24981389278122 0 0 0 0 -675.44395399306086 194.86157351833194 0 194.86157351833194 44.762333338866966 0 0 0 0 -1047.0593059913372 219.12649068028915 0 219.12649068028915 134.29726539882998 0 0 0 0 -888.69349657491694 69.000491541068754 0 69.000491541068754 50.636574904530107 0 0 0 0 -1.3814272727409929 1.7666267270979574 0 1.7666267270979574 -0.70161181786750371 0 0 0 0 -326.83891040456911 -9.3359009338534094 0 -9.3359009338534094 6.8650729424584824 0 0 0 0 -337.82850875437725 0.9606196309786128 0 0.9606196309786128 -0.8647567438600845 0 0 0 0 -305.75437768512347 -27.708117798346507 0 -27.708117798346507 -8.4888475949321673 0 0 0 0 -301.56469513264892 -7.4295937573281776 0 -7.4295937573281776 -1.8909983334262961 0 0 0 0 -332.47716994266375 -14.578294575591656 0 -14.578294575591656 4.7013040127819181 0 0 0 0 -288.63793363858713 -38.870539316785766 0 -38.870539316785766 15.230886253167455 0 0 0 0 -369.05661845520081 -25.71987280541623 0 -25.71987280541623 22.300329351488188 0 0 0 0 -384.68949861248257 -78.37583053468984 0 -78.37583053468984 20.567436218641888 0 0 0 0 -449.88496974663576 -137.04002557019999 0 -137.04002557019999 -25.059623631565955 0 0 0 0 -314.51735485217068 -58.659256225601212 0 -58.659256225601212 26.009442041865213 0 0 0 0 -1.1221575947989351 0.24060666418429832 0 0.24060666418429832 -0.19535886704243755 0 0 0 0 -399.99978021156858 42.564081856512303 0 42.564081856512303 -7.6148958600135757 0 0 0 0 -263.91629267212284 -8.5947478359293257 0 -8.5947478359293257 -13.543613347697146 0 0 0 0 -699.34646616673854 16.862076757059867 0 16.862076757059867 1.433303155018848 0 0 0 0 -704.17364711001574 -99.095970018590833 0 -99.095970018590833 -126.9519151678561 0 0 0 0 -437.61029401108317 -289.14839015873179 0 -289.14839015873179 -150.0880732815699 0 0 0 0 -3.2783410076969517 -1.2494736682761882 0 -1.2494736682761882 -7.3578638087769699 0 0 0 0 -326.13282430109393 -195.86166171293223 0 -195.86166171293223 -163.91864514862664 0 0 0 0 27.817197045020293 -47.138149963761066 0 -47.138149963761066 -274.84151604955241 0 0 0 0 -217.23537244947511 -262.12388393035644 0 -262.12388393035644 -156.34761590831249 0 0 0 0 73.86601579692433 197.44307393173062 0 197.44307393173062 228.33244988508795 0 0 0 0 -101.51217551130685 454.24814852797408 0 454.24814852797408 -74.834490522820374 0 0 0 0 -58.723577345797565 10.004749748439096 0 10.004749748439096 -4.5507384433973144 0 0 0 0 -187.10241008549929 29.952650529767197 0 29.952650529767197 54.920134081537981 0 0 0 0 -175.98662450083066 -71.651820292395314 0 -71.651820292395314 -47.347843080529856 0 0 0 0 4.5287341186810917 3.3782952969120288 0 3.3782952969120288 -1.0195860313735601 0 0 0 0 174.30211819216493 -222.64103172061277 0 -222.64103172061277 -17.952999946180398 0 0 0 0 -73.180275028120377 -55.972177378271226 0 -55.972177378271226 -45.582609463408062 0 0 0 0 0.46835764660076507 -0.031910336857649213 0 -0.031910336857649213 -1.2003993349111743 0 0 0 0 -203.60261221199471 -61.076138266591101 0 -61.076138266591101 -60.199035226094338 0 0 0 0 29.580443375656614 -12.940115698808768 0 -12.940115698808768 -46.103505866554769 0 0 0 0 5.6668378983411714 -15.161746762627274 0 -15.161746762627274 -24.219803379182277 0 0 0 0 -205.2076689016103 -59.800212937154583 0 -59.800212937154583 46.093938521860196 0 0 0 0 -253.89231413436937 -144.6808493184094 0 -144.6808493184094 -129.16375426605418 0 0 0 0 -210.93788026559923 -59.535279549112005 0 -59.535279549112005 -11.574512299364436 0 0 0 0 -8.8360220640816891 -4.2375109233007464 0 -4.2375109233007464 -5.2958049976216213 0 0 0 0 -62.570570430187217 -63.033673192217407 0 -63.033673192217407 -54.241925546990501 0 0 0 0 -315.60574346209978 -65.985965548859014 0 -65.985965548859014 7.3474006041672055 0 0 0 0 -281.4225914288545 -31.840901360973145 0 -31.840901360973145 -7.582612646894173 0 0 0 0 -254.5276218297804 -39.248630088054654 0 -39.248630088054654 -6.2357653664274721 0 0 0 0 188.97281596793619 25.341358112998023 0 25.341358112998023 -215.82549922504586 0 0 0 0 -9.9399880867837851 -5.0082097318445449 0 -5.0082097318445449 -3.2894545709006238 0 0 0 0 -304.5682862020476 95.273571851867018 0 95.273571851867018 56.5188188361426 0 0 0 0 2.2610004308886573 -20.52862209653631 0 -20.52862209653631 -22.381674371578359 0 0 0 0 -3.403593404535485 -2.4940716205414617 0 -2.4940716205414617 -3.0542781669268457 0 0 0 0 -28.461414996774693 -43.52038658916635 0 -43.52038658916635 7.1744449467314553 0 0 0 0 -264.64918483508518 -20.549343541437338 0 -20.549343541437338 -20.106121774259009 0 0 0 0 -52.260175234812777 31.814130718587421 0 31.814130718587421 -64.762652909896133 0 0 0 0 -187.32825038248848 82.503463932923296 0 82.503463932923296 -43.706333733149222 0 0 0 0 -169.34590024308636 14.022872976886219 0 14.022872976886219 -10.670258881418704 0 0 0 0 -226.343138578035 79.94667796084309 0 79.94667796084309 -8.2394642163326353 0 0 0 0 -137.06878951399995 96.046852870696057 0 96.046852870696057 -42.661778855872399 0 0 0 0 -300.41515719875315 70.56995691343991 0 70.56995691343991 -39.095379213025808 0 0 0 0 -3.8136222731214957 -5.0700876488317306 0 -5.0700876488317306 -5.4591525544018431 0 0 0 0 -511.73424919796526 115.3692589144448 0 115.3692589144448 23.667111015660339 0 0 0 0 -113.21338204476342 -30.784987448579614 0 -30.784987448579614 153.04331450898826 0 0 0 0 -121.2218714729679 -70.749068968802021 0 -70.749068968802021 95.179145723141573 0 0 0 0 -20.313294976868434 -11.404684489966073 0 -11.404684489966073 -11.546877284662568 0 0 0 0 -79.451693277529557 -60.309612181407829 0 -60.309612181407829 -24.184989636712999 0 0 0 0 -65.285078247077763 -48.32261314983225 0 -48.32261314983225 104.16723037562406 0 0 0 0 -0.51598655213848588 0.8485272670086772 0 0.8485272670086772 -4.3946373320085259 0 0 0 0 -163.93171347505995 -26.608776980010589 0 -26.608776980010589 -16.753750251339738 0 0 0 0 181.8727902956889 -20.46685017573509 0 -20.46685017573509 117.70062670268817 0 0 0 0 -52.077919077091792 64.771464156204956 0 64.771464156204956 101.50990889112563 0 0 0 0 -100.66593170940087 20.846124709907741 0 20.846124709907741 83.394936199803851 0 0 0 0 -73.916395378674309 18.704999332019732 0 18.704999332019732 1.6553143855881647 0 0 0 0 2.5860959722485859 -45.40223296487784 0 -45.40223296487784 19.282706198567212 0 0 0 0 -570.30496748641599 223.41313855657791 0 223.41313855657791 50.095763880595769 0 0 0 0 -249.20170330125256 39.67888495643092 0 39.67888495643092 -18.317161364581807 0 0 0 0 -67.693752692960885 16.272961170413289 0 16.272961170413289 -0.99363939678984536 0 0 0 0 -239.82898850354832 130.5953017123702 0 130.5953017123702 -53.233956159185254 0 0 0 0 -158.27017036141478 92.453220086787951 0 92.453220086787951 -43.580569960222419 0 0 0 0 45.686373251042824 146.01596514694552 0 146.01596514694552 -67.324821639531365 0 0 0 0 -499.55640034578391 -180.81860306518968 0 -180.81860306518968 275.9777971192907 0 0 0 0 -212.94137468756526 65.931865970123908 0 65.931865970123908 446.89148486868726 0 0 0 0 62.205422166385688 -138.28889265400448 0 -138.28889265400448 60.641297323871186 0 0 0 0 49.79470215406036 -59.377675163626918 0 -59.377675163626918 23.418805467265884 0 0 0 0 1.0387539330588993 16.598213424478004 0 16.598213424478004 -2.7841860422134239 0 0 0 0 -67.281146171175351 -102.36479982918331 0 -102.36479982918331 50.703760892914033 0 0 0 0 -16.941545362860779 -1.1017415240191895 0 -1.1017415240191895 -0.74153287697924952 0 0 0 0 -20.10236984436051 -3.6252922611110989 0 -3.6252922611110989 -1.8149897289117689 0 0 0 0 -63.481386100436794 -14.472123499831469 0 -14.472123499831469 46.324147536362489 0 0 0 0 -1.9761885005718796 -23.956886893287447 0 -23.956886893287447 53.951837452083055 0 0 0 0 67.174259883933701 -69.877486675726232 0 -69.877486675726232 -5.5800149513315773 0 0 0 0 -37.109081102134951 -116.61250472269649 0 -116.61250472269649 -110.74151811812226 0 0 0 0 -7.5629875578314341 3.3508148337307659 0 3.3508148337307659 2.3539955252157654 0 0 0 0 -4.4328068229456079 -6.3289250829963635 0 -6.3289250829963635 -0.17851844099313752 0 0 0 0 -0.20117046577676945 0.022625243974175646 0 0.022625243974175646 -2.3043851128652051 0 0 0 0 -2.4147747490360416 -1.5099616564848475 0 -1.5099616564848475 3.4203746969499633 0 0 0 0 -52.834238545092376 -116.88829366206699 0 -116.88829366206699 -262.0167379569466 0 0 0 0 -59.010091885578731 -97.909850612640525 0 -97.909850612640525 -160.905196681284 0 0 0 0 65.981884656117472 -145.92107948166176 0 -145.92107948166176 -1.6371956692082676 0 0 0 0 -154.19801377981275 -199.18447752693601 0 -199.18447752693601 -10.287310862770028 0 0 0 0 -166.67620359598368 -244.97925987334565 0 -244.97925987334565 -152.0375085907217 0 0 0 0 102.69577452703379 -78.120398572619933 0 -78.120398572619933 -59.70677947915101 0 0 0 0 -270.59992957416398 -346.72672993091237 0 -346.72672993091237 10.090280123698903 0 0 0 0 215.34459043962124 85.497045299421188 0 85.497045299421188 -88.676170364453355 0 0 0 0 171.99099155377189 -184.976541339498 0 -184.976541339498 -34.287053496930639 0 0 0 0 -160.41581916871655 79.650719437042426 0 79.650719437042426 -90.412841447237952 0 0 0 0 -179.41012425359077 -87.386627242135091 0 -87.386627242135091 102.55233301937733 0 0 0 0 -192.4737030420074 90.074859270678189 0 90.074859270678189 176.92719314122041 0 0 0 0 -0.75126208197808353 2.0211577828823124 0 2.0211577828823124 -0.9488961468916095 0 0 0 0 -44.167341369779024 -43.309745208623099 0 -43.309745208623099 -66.108285295687892 0 0 0 0 -1049.6937131910236 253.1709689700856 0 253.1709689700856 400.96701191469037 0 0 0 0 -2.2822314560844603 -18.428224172057497 0 -18.428224172057497 -22.240492717323306 0 0 0 0 -69.611931725805334 -683.15783097887197 0 -683.15783097887197 -508.50937983600306 0 0 0 0 -199.68557224485266 -26.806997905351182 0 -26.806997905351182 -34.775233684558998 0 0 0 0 -231.27992733194696 -2.5409278373813891 0 -2.5409278373813891 -22.127336863461437 0 0 0 0 -292.40717979038891 -12.994287400634107 0 -12.994287400634107 1.8681827462550018 0 0 0 0 -229.21946949107905 -13.50277590500459 0 -13.50277590500459 -28.486098188887809 0 0 0 0 -2.0873012302289151 -17.065351030520247 0 -17.065351030520247 -10.610582298345799 0 0 0 0 -233.25874328363716 -25.051373625881524 0 -25.051373625881524 -6.0446913732347411 0 0 0 0 -167.23390300788014 -3.203454406093897 0 -3.203454406093897 38.65978270642654 0 0 0 0 -35.413251310055784 34.269749153800376 0 34.269749153800376 -142.0800008526985 0 0 0 0 -71.249620655740728 -30.000067402030254 0 -30.000067402030254 28.436172840289856 0 0 0 0 -0.28677680447094822 -16.212271097516862 0 -16.212271097516862 2.6048170877295131 0 0 0 0 -239.97058655648289 16.044510136184726 0 16.044510136184726 38.406616122204468 0 0 0 0 -65.88785615186498 57.648637505846182 0 57.648637505846182 -1.7301433475681733 0 0 0 0 -67.160216657663113 63.886703786979069 0 63.886703786979069 43.559403738934179 0 0 0 0 -0.13099818393463636 -0.042535322721050761 0 -0.042535322721050761 -0.063146778705934992 0 0 0 0 266.50558694973006 141.54313270328464 0 141.54313270328464 21.910010388090541 0 0 0 0 -464.8107161141379 -4.9645199419236405 0 -4.9645199419236405 25.590094806076081 0 0 0 0 -240.21276652172673 88.754782501305044 0 88.754782501305044 37.060081481814677 0 0 0 0 -292.13295228128118 -13.043875791561362 0 -13.043875791561362 -29.692631016732548 0 0 0 0 -0.68390062945203667 1.3514218192242993 0 1.3514218192242993 -0.59634626076871733 0 0 0 0 -380.98650720699516 -16.872509786281398 0 -16.872509786281398 7.7340623884839488 0 0 0 0 -3.8515070788435253 4.8566479797987654 0 4.8566479797987654 -3.378607139067181 0 0 0 0 432.4275371167023 112.39638651058624 0 112.39638651058624 -62.791449840612984 0 0 0 0 -5.2155821998585452 264.04373231000585 0 264.04373231000585 -30.891063950937166 0 0 0 0 -3286.8655981467673 -307.28131929268761 0 -307.28131929268761 -51.184293500606827 0 0 0 0 -1179.121146752796 -377.47721347156954 0 -377.47721347156954 -88.088873104152299 0 0 0 0 -1212.0049539244646 193.33074517762313 0 193.33074517762313 -313.25972960555794 0 0 0 0 374.76663259323072 -184.60793115688861 0 -184.60793115688861 -153.342130734715 0 0 0 0 -3453.8697928625552 -258.50815573072379 0 -258.50815573072379 43.375730819590501 0 0 0 0 -2.3155463638407561 -4.7680407954649695 0 -4.7680407954649695 -0.091204663942952902 0 0 0 0 -2696.8775736023817 -295.96661896443641 0 -295.96661896443641 -163.94548727809712 0 0 0 0 -2635.3618214849121 -178.35585525695205 0 -178.35585525695205 37.438526797190661 0 0 0 0 214.74819147736707 154.01812951359261 0 154.01812951359261 32.847495662897018 0 0 0 0 -5.5905553875459404 13.970881667504216 0 13.970881667504216 -8.5364422533820807 0 0 0 0 -2643.4659577698039 -339.22974303184253 0 -339.22974303184253 196.93778530503857 0 0 0 0 102.62948453484751 -97.520507537309015 0 -97.520507537309015 -64.406089088659883 0 0 0 0 -2917.1973769540418 -230.63049069138592 0 -230.63049069138592 194.04749991879294 0 0 0 0 -2770.556444071437 -111.67011480417079 0 -111.67011480417079 168.271672065144 0 0 0 0 -1.7568686138224798 -14.379408055536402 0 -14.379408055536402 -0.5986954242738256 0 0 0 0 -7.2057267411665444 -19.182233932635455 0 -19.182233932635455 0.040059549640526271 0 0 0 0 -2169.4512059166009 -251.97839059172526 0 -251.97839059172526 -479.89305520630296 0 0 0 0 -59.745948993075217 -44.646585513541439 0 -44.646585513541439 40.462247601104536 0 0 0 0 -2342.0157996381167 63.958379830024796 0 63.958379830024796 -942.52756169725217 0 0 0 0 -2495.4468817361048 -404.51656244974311 0 -404.51656244974311 239.44604009520918 0 0 0 0 -1493.3648882571797 89.011504785787906 0 89.011504785787906 -171.64994104239895 0 0 0 0 -2639.8784891346677 837.24726583614722 0 837.24726583614722 95.601776785845232 0 0 0 0 -16.070122843218002 19.699941753834565 0 19.699941753834565 -9.8463766777753072 0 0 0 0 -3463.2810086138852 -176.28177870928783 0 -176.28177870928783 141.251626915001 0 0 0 0 -3206.9365571726557 -1251.6750370526713 0 -1251.6750370526713 -240.19837503766757 0 0 0 0 -1765.5226561414893 -728.00253715892575 0 -728.00253715892575 -169.01399349028407 0 0 0 0 -2734.7158937599743 -276.3829751211324 0 -276.3829751211324 90.75055071310635 0 0 0 0 -3.3453202742985013 4.2312364100674245 0 4.2312364100674245 -3.5920410135442689 0 0 0 0 -2380.9252171791159 -986.30758508252961 0 -986.30758508252961 -159.97073864670267 0 0 0 0 -2414.0069285524078 -192.73294801884833 0 -192.73294801884833 229.28172690052747 0 0 0 0 -2720.8609663478055 -182.01162013769874 0 -182.01162013769874 244.75178203228188 0 0 0 0 -2430.3068481152004 115.85556645357588 0 115.85556645357588 241.67091626591298 0 0 0 0 -2639.029191206675 745.68018278769705 0 745.68018278769705 1132.769444307889 0 0 0 0 -1.3237856803108912 -3.543605642419287 0 -3.543605642419287 -0.024094952928023661 0 0 0 0 -2787.7996618755278 152.57936026445395 0 152.57936026445395 243.72130963697145 0 0 0 0 -2858.7250455052126 -25.669215093899311 0 -25.669215093899311 406.61303792041781 0 0 0 0 -2845.8328437129094 60.907796304889871 0 60.907796304889871 696.1432912415512 0 0 0 0 -2357.4935519606952 101.02334877068984 0 101.02334877068984 162.17498522683428 0 0 0 0 -38.674056267075684 22.36673492185415 0 22.36673492185415 4.2496637823548369 0 0 0 0 -12.936043859660755 6.3018102012570409 0 6.3018102012570409 -3.2210382295279971 0 0 0 0 -2331.12224831192 224.24333497899838 0 224.24333497899838 -28.546023689274584 0 0 0 0 -1989.6734002817539 56.707056397817837 0 56.707056397817837 -54.663981886258057 0 0 0 0 -2206.9508764278144 134.58470093137373 0 134.58470093137373 12.3787329000711 0 0 0 0 -2406.3529469937903 -112.23870823390716 0 -112.23870823390716 152.11723552693044 0 0 0 0 -8.4069065001845047 14.593039495520484 0 14.593039495520484 -16.49999842983997 0 0 0 0 -2.3050351859732743 2.6988129882235796 0 2.6988129882235796 -0.55082609532710336 0 0 0 0 -1850.1277667804388 94.660585745606241 0 94.660585745606241 0.081551317471588169 0 0 0 0 -1152.0257394420623 -435.09988373561231 0 -435.09988373561231 42.326280018632104 0 0 0 0 -1373.2213423803696 -247.71800630266074 0 -247.71800630266074 -230.00525527232628 0 0 0 0 -1832.1677869241394 -91.369118618795483 0 -91.369118618795483 65.39743949893483 0 0 0 0 -1834.0523100251012 -108.52851855217199 0 -108.52851855217199 -48.993684351280535 0 0 0 0 -2222.7899592050817 -119.53441376700164 0 -119.53441376700164 120.38533554793116 0 0 0 0 -2123.7294202602352 -122.37299096748725 0 -122.37299096748725 117.95271026839737 0 0 0 0 -120.16749755787896 16.328024994073502 0 16.328024994073502 36.71443433243752 0 0 0 0 -9.8843528090626762 -0.7459373165345653 0 -0.7459373165345653 2.4130955521897044 0 0 0 0 -739.63361820001228 72.359523536259161 0 72.359523536259161 -0.12570711864927098 0 0 0 0 -99.546235322362918 104.54592710913772 0 104.54592710913772 -0.088973430785340896 0 0 0 0 -272.82615784798691 -97.668738246380656 0 -97.668738246380656 -38.781889229170432 0 0 0 0 -107.98872390609176 99.084766635670178 0 99.084766635670178 51.026364707974352 0 0 0 0 -54.514879561684211 11.475734620662024 0 11.475734620662024 -44.713334714297687 0 0 0 0 -61.229834831399785 76.693400626784523 0 76.693400626784523 16.49849712042942 0 0 0 0 -91.644066292319621 21.841698353366951 0 21.841698353366951 -5.5174841698371893 0 0 0 0 -60.387983913055677 26.12505132418255 0 26.12505132418255 -8.2215635314416744 0 0 0 0 -60.647512885087053 72.433910032044423 0 72.433910032044423 34.751645284634378 0 0 0 0 16.75675800393401 83.266262358417407 0 83.266262358417407 -0.85613002868194599 0 0 0 0 -49.872076329746051 51.740814681460961 0 51.740814681460961 25.766039745652051 0 0 0 0 -152.45828813839762 62.692517495729589 0 62.692517495729589 28.788286315957976 0 0 0 0 -50.609699409957102 56.360549134566099 0 56.360549134566099 -1.8154290169995875 0 0 0 0 -164.90274797085112 -17.754039885465602 0 -17.754039885465602 7.7613850572561205 0 0 0 0 -52.286041674597072 24.585595039740042 0 24.585595039740042 -27.606430158884223 0 0 0 0 -102.40406578129114 -9.0704785018802738 0 -9.0704785018802738 62.973041554299016 0 0 0 0 -333.24772851564921 250.4164678443758 0 250.4164678443758 243.92345167129497 0 0 0 0 -46.26848409473314 -58.85077763485765 0 -58.85077763485765 -47.500488316734163 0 0 0 0 -95.627636489043653 -60.600261791534535 0 -60.600261791534535 -21.145824643959713 0 0 0 0 -4.1619352864491361 -5.0129552870333782 0 -5.0129552870333782 1.3558141899124709 0 0 0 0 -10.91077949355531 -51.619953865541333 0 -51.619953865541333 -46.028175785673966 0 0 0 0 -30.594680995272938 -16.941440897109374 0 -16.941440897109374 2.3412717264913852 0 0 0 0 -75.641177100071218 -38.621465489343109 0 -38.621465489343109 -7.8920028758313947 0 0 0 0 -150.56461453917291 33.40771655592971 0 33.40771655592971 43.711740775113867 0 0 0 0 -123.53643332202046 -34.484387107216548 0 -34.484387107216548 20.544339741815747 0 0 0 0 -108.69322118227865 49.075394038936793 0 49.075394038936793 -228.67830946447521 0 0 0 0 -13.444776442308443 -13.190726853433318 0 -13.190726853433318 17.281664533860379 0 0 0 0 -69.098099970885869 26.162852411857436 0 26.162852411857436 -5.9272649893649616 0 0 0 0 -17.101797604075536 1.4899363603865083 0 1.4899363603865083 0.31325728076893122 0 0 0 0 55.980266655125888 50.371559805841351 0 50.371559805841351 -14.626715415498225 0 0 0 0 -84.081092922920107 3.6996219569572957 0 3.6996219569572957 8.964346986023795 0 0 0 0 -8.0552651208633961 0.15893779560369126 0 0.15893779560369126 1.1098711476211758 0 0 0 0 -63.245051728794351 6.1910466347544908 0 6.1910466347544908 -0.012203020499948572 0 0 0 0 -19.795756740546707 -17.76283622526654 0 -17.76283622526654 -4.600468595868322 0 0 0 0 -46.337496684020152 -29.968059866180681 0 -29.968059866180681 15.060295863941349 0 0 0 0 -46.129560004207349 2.9341817642814334 0 2.9341817642814334 6.8592353067744334 0 0 0 0 -62.032583901484031 -9.0559612985969125 0 -9.0559612985969125 19.917041191257113 0 0 0 0 -89.652496459937538 -5.3753710357482305 0 -5.3753710357482305 23.81896959245546 0 0 0 0 -75.794803425349528 -30.542680039995375 0 -30.542680039995375 21.775804155887727 0 0 0 0 -40.359619582988671 -14.891780521290499 0 -14.891780521290499 5.5073649407357523 0 0 0 0 -34.623894330841722 -15.629555203785564 0 -15.629555203785564 5.3901844308128037 0 0 0 0 -13.710663976125943 -26.834187587715604 0 -26.834187587715604 -22.649631522969429 0 0 0 0 -2.2683196729328756 -2.2587587159763558 0 -2.2587587159763558 -1.3081249359084488 0 0 0 0 -17.713774068877683 -4.2862011043782973 0 -4.2862011043782973 -0.0080467230165629702 0 0 0 0 -59.981718749993888 -30.743252428507393 0 -30.743252428507393 -4.4003099777901937 0 0 0 0 -37.940535857444047 -43.217434583966579 0 -43.217434583966579 -28.557136487624213 0 0 0 0 -48.726459663608694 -5.4819918558867062 0 -5.4819918558867062 -0.087523158438674101 0 0 0 0 -17.068024993801373 -0.81448069974976534 0 -0.81448069974976534 5.7164595780132572 0 0 0 0 -44.128990980963863 -17.247925073129949 0 -17.247925073129949 30.501672633496366 0 0 0 0 -22.46335779384998 -1.2362368527304959 0 -1.2362368527304959 1.5460184298000192 0 0 0 0 7.2881487645136076 -41.302100423403658 0 -41.302100423403658 -40.279908289720652 0 0 0 0 -17.009859630432828 -15.112001303725151 0 -15.112001303725151 0.89859794383094771 0 0 0 0 -8.0242590551503667 -5.0676822825991508 0 -5.0676822825991508 1.7548628886102255 0 0 0 0 0.87942982002277859 -19.809308118651302 0 -19.809308118651302 8.8210218720300873 0 0 0 0 -14.260646407426975 -3.6464968719802755 0 -3.6464968719802755 1.6149958983878605 0 0 0 0 -597.63385792887129 -26.067063129892233 0 -26.067063129892233 75.768033290083281 0 0 0 0 -560.63339291473676 -96.04871193152394 0 -96.04871193152394 182.47403413130954 0 0 0 0 -487.30233094266441 47.651823210666862 0 47.651823210666862 119.91838315428288 0 0 0 0 -501.37367955032096 -190.05775381010531 0 -190.05775381010531 -61.644365543212075 0 0 0 0 -491.21136600967657 32.773318006218631 0 32.773318006218631 72.759020609644267 0 0 0 0 -167.81183131920989 94.106903956898577 0 94.106903956898577 36.874577833847752 0 0 0 0 -247.09182238613721 82.821969667250414 0 82.821969667250414 79.743547314726129 0 0 0 0 -831.41534562650486 115.08917870422511 0 115.08917870422511 227.40021626280668 0 0 0 0 -431.5046509920212 341.66958669953806 0 341.66958669953806 78.86814546764208 0 0 0 0 -688.47031892860832 97.760420676283957 0 97.760420676283957 215.63846718392688 0 0 0 0 -480.31597538392816 -277.92567128934877 0 -277.92567128934877 251.51480856040925 0 0 0 0 -772.6347103931148 -74.43505151184786 0 -74.43505151184786 180.63630252452481 0 0 0 0 341.08955976634752 -239.69030894914863 0 -239.69030894914863 -139.45572528146272 0 0 0 0 -475.9833652816742 -256.57832027358506 0 -256.57832027358506 -13.166665194360007 0 0 0 0 93.030774216764257 91.093054568675313 0 91.093054568675313 32.87733518169307 0 0 0 0 12.736744759953581 -0.88906180783158106 0 -0.88906180783158106 -44.408034087234 0 0 0 0 -21.629775924055139 -17.684907960768442 0 -17.684907960768442 -34.456525924984817 0 0 0 0 -112.56483436761482 -12.190596560149402 0 -12.190596560149402 1.2346296736398017 0 0 0 0 -20.403201206368976 -1.5211785850598858 0 -1.5211785850598858 -5.6357168279058669 0 0 0 0 -74.939010475485702 -37.515989608610028 0 -37.515989608610028 -16.390040432129553 0 0 0 0 -2.6772515318268901 -2.0328437332919123 0 -2.0328437332919123 -4.9931181836344436 0 0 0 0 -58.571889826154802 23.446411965944549 0 23.446411965944549 5.5486678453230525 0 0 0 0 -4.6601571957795329 -5.2429446764961369 0 -5.2429446764961369 -3.9941011954192671 0 0 0 0 -115.27350282781867 -116.26570907905079 0 -116.26570907905079 21.176064662656017 0 0 0 0 -458.91668683794705 -51.888939785098529 0 -51.888939785098529 35.426619754349304 0 0 0 0 -395.84102919037105 -130.49767062486012 0 -130.49767062486012 44.643867051217114 0 0 0 0 -406.49752951213804 3.5234039996125528 0 3.5234039996125528 17.586738388508707 0 0 0 0 -415.26858430161337 -110.6655237113948 0 -110.6655237113948 44.124357076693855 0 0 0 0 -148.59790268296638 21.596324291183009 0 21.596324291183009 3.480210257026215 0 0 0 0 -218.49970751942601 1.4093258092258338 0 1.4093258092258338 -28.928290358974067 0 0 0 0 -2.2888802400348141 -2.4481008378702143 0 -2.4481008378702143 -2.5963387975607191 0 0 0 0 -2.5771190291579344 -3.0969355641394429 0 -3.0969355641394429 -4.3259523577811567 0 0 0 0 -2.4170134790620068 -0.85214632576119698 0 -0.85214632576119698 -7.3064162995076458 0 0 0 0 42.085629963479732 -41.889049349440256 0 -41.889049349440256 1.222853011638108 0 0 0 0 -12.242289111105492 -42.513915194506353 0 -42.513915194506353 42.362560556108747 0 0 0 0 -943.46971846718225 69.671008704922471 0 69.671008704922471 13.973423660201206 0 0 0 0 -2.1223880514255313 -1.3998613469586871 0 -1.3998613469586871 -0.044267083540896035 0 0 0 0 -672.21909422100725 -144.21230745614392 0 -144.21230745614392 12.397350162424246 0 0 0 0 -524.58129283791641 109.97377351566357 0 109.97377351566357 -10.629787397147254 0 0 0 0 -563.71003369209166 -129.32496453011146 0 -129.32496453011146 7.9699305359262098 0 0 0 0 -562.3860883275629 -112.01718874254269 0 -112.01718874254269 -72.322042364803522 0 0 0 0 -521.62294868633398 -130.0303363083855 0 -130.0303363083855 -61.268698645560562 0 0 0 0 -532.93595458340133 -64.511878277289782 0 -64.511878277289782 54.576618714431561 0 0 0 0 -600.56260871842096 -4.7092018849668307 0 -4.7092018849668307 54.546162897317515 0 0 0 0 -521.80642364315781 -58.465249478271446 0 -58.465249478271446 87.214983915875465 0 0 0 0 -167.77475635383598 67.665222620498355 0 67.665222620498355 -56.643887674253634 0 0 0 0 -512.89209534155088 -160.50477644602466 0 -160.50477644602466 -20.161163789723247 0 0 0 0 -141.19142049854418 -46.979964291947176 0 -46.979964291947176 13.490053944085133 0 0 0 0 -125.69506691606875 -64.88415157718542 0 -64.88415157718542 -159.47440872130184 0 0 0 0 -112.7568989777792 -44.291309207744092 0 -44.291309207744092 1.0984034470607753 0 0 0 0 -1.0143229770403295 -0.79476909249640926 0 -0.79476909249640926 1.193888516742061 0 0 0 0 -11.686157673364505 13.428440601980867 0 13.428440601980867 -39.453492055774447 0 0 0 0 -40.443539227075235 40.234618165285326 0 40.234618165285326 -41.554318395055247 0 0 0 0 -1.9213657171478928 1.1869980334623023 0 1.1869980334623023 -0.42354686258392871 0 0 0 0 -451.68647575485465 -154.53643449229506 0 -154.53643449229506 -135.54723133428661 0 0 0 0 -240.47872523516708 -384.64571236288066 0 -384.64571236288066 -185.20914738376015 0 0 0 0 -260.21509008116846 -22.317394028433739 0 -22.317394028433739 -10.620993287306646 0 0 0 0 -184.45957717996498 -87.783620722282677 0 -87.783620722282677 -189.76384334666704 0 0 0 0 -200.50052555999719 -36.506223492751218 0 -36.506223492751218 -22.610883697057233 0 0 0 0 -174.69110735905269 -49.798620486310853 0 -49.798620486310853 9.0202782055279727 0 0 0 0 -121.78759660787182 -27.095622842010641 0 -27.095622842010641 -28.501856723583913 0 0 0 0 -117.60129802973825 -103.83612558782562 0 -103.83612558782562 -1.8837774287710651 0 0 0 0 -69.312473364196194 -24.667626047808199 0 -24.667626047808199 67.537600915315068 0 0 0 0 -65.931054886517813 -140.47493968612116 0 -140.47493968612116 85.52885030210129 0 0 0 0 -111.58267417632487 -77.371356109053323 0 -77.371356109053323 -1.6980948662098854 0 0 0 0 -111.09614106989466 -59.810562546770768 0 -59.810562546770768 10.385219957831737 0 0 0 0 -106.30218700172554 -119.78083672970013 0 -119.78083672970013 -113.17457915578132 0 0 0 0 -0.9619758423236533 0.25483901679746168 0 0.25483901679746168 -0.16543105817638604 0 0 0 0 -138.78210198806482 -231.0129617978132 0 -231.0129617978132 -114.18343072261271 0 0 0 0 -63.32280744361924 38.633486367275736 0 38.633486367275736 222.99962370798767 0 0 0 0 -180.91758977359859 -211.05124488302317 0 -211.05124488302317 -7.843051845214756 0 0 0 0 -110.3924683866353 -9.3181193355717369 0 -9.3181193355717369 24.3025256249623 0 0 0 0 -202.71228816900111 -110.00161672299612 0 -110.00161672299612 -42.718912982041104 0 0 0 0 -1.2743837101749733 -1.0259428096150316 0 -1.0259428096150316 1.596911152296423 0 0 0 0 -59.373846349575615 -6.2206310418510213 0 -6.2206310418510213 -53.588601207197371 0 0 0 0 -3.4383850791502653 1.159671662129341 0 1.159671662129341 0.41662918283515293 0 0 0 0 -9.3972629203635734 3.9256306467206059 0 3.9256306467206059 8.7621209049799518 0 0 0 0 -120.51843082167034 -28.398216358330018 0 -28.398216358330018 7.4472166086276275 0 0 0 0 47.712032647672459 -84.724194301691796 0 -84.724194301691796 86.095310780966429 0 0 0 0 54.590348853394971 -29.221409572800042 0 -29.221409572800042 -2.3224713386405256 0 0 0 0 -17.43150386607158 -16.1261361386928 0 -16.1261361386928 106.83349553866265 0 0 0 0 0.21981650638898032 -0.71858301818036807 0 -0.71858301818036807 0.49873501801359499 0 0 0 0 -75.467029766048654 25.44250145021806 0 25.44250145021806 116.26913369377075 0 0 0 0 -129.04026817437261 -62.426319309691507 0 -62.426319309691507 2.0401587174771976 0 0 0 0 -44.403263263302506 -128.42178576351353 0 -128.42178576351353 302.11908521069654 0 0 0 0 -26.693988729944977 -40.719046433999324 0 -40.719046433999324 352.76366152055789 0 0 0 0 -51.624625343864579 4.6620359299353353 0 4.6620359299353353 1.0880012580798417 0 0 0 0 -10.282379699114244 -82.738168277652449 0 -82.738168277652449 227.4842575821026 0 0 0 0 -85.065668789931806 33.283601253185225 0 33.283601253185225 264.8525905981528 0 0 0 0 492.03546349935641 -21.828340794859617 0 -21.828340794859617 -260.12258694497785 0 0 0 0 -974.38443964955513 779.08621964846861 0 779.08621964846861 1082.1258658440265 0 0 0 0 -237.7360609620373 417.81294149643821 0 417.81294149643821 -1194.5960031289742 0 0 0 0 -974.75184961859486 1405.4250047696414 0 1405.4250047696414 -33.591431408533708 0 0 0 0 -160.97327832471638 -150.67553076610437 0 -150.67553076610437 462.3840678890009 0 0 0 0 -134.64608979404147 -61.377427931217653 0 -61.377427931217653 64.662148135528696 0 0 0 0 -79.740354744892102 -72.111330880147761 0 -72.111330880147761 2.76582934287444 0 0 0 0 -122.25981901367049 -19.201704084372039 0 -19.201704084372039 192.07213040965462 0 0 0 0 -64.548469664470758 20.156389667179383 0 20.156389667179383 99.86011561180635 0 0 0 0 -42.60048685840593 9.1834222157935983 0 9.1834222157935983 129.96388762708602 0 0 0 0 -61.474366671856842 4.8942673677092898 0 4.8942673677092898 161.5353024389845 0 0 0 0 -12.882800659106579 14.198309266052433 0 14.198309266052433 161.02192044681715 0 0 0 0 -6.9370068766766053 34.775827416852245 0 34.775827416852245 -6.2583598268815734 0 0 0 0 -57.843367000182297 8.4444394175231672 0 8.4444394175231672 -0.67863225863322441 0 0 0 0 80.516575318601099 224.87451620121746 0 224.87451620121746 223.73845613440545 0 0 0 0 -18.341929517206154 46.706764322020277 0 46.706764322020277 27.46265731844332 0 0 0 0 -72.690235355694313 -8.1299112983074338 0 -8.1299112983074338 44.728946295287187 0 0 0 0 -88.154957699181978 -26.631497549429469 0 -26.631497549429469 82.389068579492232 0 0 0 0 -60.870486156556069 7.9389775023572042 0 7.9389775023572042 0.025771337600611677 0 0 0 0 -8.7750982618599664 28.48826193940512 0 28.48826193940512 -3.8445966746535314 0 0 0 0 -1.0877899371553212 16.332783660910493 0 16.332783660910493 -57.239242659099702 0 0 0 0 23.639672871577204 53.47687842498739 0 53.47687842498739 -17.361164053314237 0 0 0 0 -46.676702400451177 -30.858745871299618 0 -30.858745871299618 -45.505298790983929 0 0 0 0 -72.470024417561945 -28.813471650298407 0 -28.813471650298407 -0.25755428225826871 0 0 0 0 -16.684327000490157 6.1021062570888969 0 6.1021062570888969 0.037499194752085123 0 0 0 0 -243.79247317111003 -146.25655782630778 0 -146.25655782630778 -158.92118535309342 0 0 0 0 -905.38652112917043 -760.12317316698966 0 -760.12317316698966 -666.25677112158587 0 0 0 0 -179.06169292758568 -210.27719302834058 0 -210.27719302834058 -167.79300144347116 0 0 0 0 103.00709618323162 -81.75489562435466 0 -81.75489562435466 -164.53026709068877 0 0 0 0 -272.79778863754473 -144.16037887480329 0 -144.16037887480329 -47.921871869381697 0 0 0 0 -275.14964914385928 -283.41139259596969 0 -283.41139259596969 -162.92519306566831 0 0 0 0 -670.57293047597341 -127.44760789417772 0 -127.44760789417772 0.12089534784816845 0 0 0 0 -587.95379270494595 -20.029629774919457 0 -20.029629774919457 25.786433222792482 0 0 0 0 -508.50785916572204 -116.69868256704845 0 -116.69868256704845 0.20967350321350181 0 0 0 0 -297.99946164066932 62.226333164652019 0 62.226333164652019 77.50420939031379 0 0 0 0 -3.1576192565599968 -0.31610359981064562 0 -0.31610359981064562 0.16008598502772942 0 0 0 0 -426.86165305293434 -348.22164986263346 0 -348.22164986263346 -286.15772316116454 0 0 0 0 -1225.2587482119416 -29.033165007730133 0 -29.033165007730133 56.5820715134914 0 0 0 0 -21.560384029434431 2.3849279833722363 0 2.3849279833722363 0.79193336814296933 0 0 0 0 -1084.4361634446977 -1967.9309893754423 0 -1967.9309893754423 -976.03700495535259 0 0 0 0 -554.40029936947394 486.18556162132154 0 486.18556162132154 321.4271981744119 0 0 0 0 -593.59035018560826 404.32616962586218 0 404.32616962586218 313.40549381629666 0 0 0 0 344.26337646616594 -72.922933422097998 0 -72.922933422097998 -220.10897382757548 0 0 0 0 -1609.9914785931687 1523.8448297974257 0 1523.8448297974257 -655.0847459259212 0 0 0 0 -1452.1177254417271 -381.10443632853435 0 -381.10443632853435 243.07873151544834 0 0 0 0 -1285.7587863491681 269.57502566777902 0 269.57502566777902 397.94377648699174 0 0 0 0 -23.865924692072213 -1.0223924558052104 0 -1.0223924558052104 0.39068142179539977 0 0 0 0 -24.867841870782286 -2092.5119048305919 0 -2092.5119048305919 -1039.2640542767913 0 0 0 0 -672.45994962085388 418.78161265503297 0 418.78161265503297 177.36384688601083 0 0 0 0 85.610217139852466 37.675788322365634 0 37.675788322365634 41.457974773696719 0 0 0 0 -88.910671302030096 249.43471275839102 0 249.43471275839102 80.000647217495612 0 0 0 0 -25.487715800001752 -33.724595324051961 0 -33.724595324051961 16.445903100262058 0 0 0 0 -101.86792884147144 7.3216664962480991 0 7.3216664962480991 83.045766261281983 0 0 0 0 -38.321521433197631 8.5293781206609438 0 8.5293781206609438 -2.1135982735107817 0 0 0 0 -58.806717264553299 -8.9919963847655708 0 -8.9919963847655708 -1.3391642841908293 0 0 0 0 63.117512778568198 12.459377072872954 0 12.459377072872954 29.665942170322197 0 0 0 0 -40.444308985910084 9.9511187393089671 0 9.9511187393089671 -0.36871550869302572 0 0 0 0 -545.53269852403901 -746.23999286625269 0 -746.23999286625269 -169.12157529611409 0 0 0 0 -152.03896920476109 93.142794480218583 0 93.142794480218583 226.22740204368105 0 0 0 0 -132.72929915020359 27.212714935182021 0 27.212714935182021 211.58189563628792 0 0 0 0 -226.5582827096805 -113.88396430799082 0 -113.88396430799082 100.94863596945825 0 0 0 0 -9.2350095312681333 0.95751370835726135 0 0.95751370835726135 0.61781967609038224 0 0 0 0 -29.943886618260876 -114.69303734225352 0 -114.69303734225352 -177.83199113877384 0 0 0 0 -75.328434264898533 -7.9561369596605118 0 -7.9561369596605118 -1.279419372618122 0 0 0 0 -42.355311346764211 8.6721298925602284 0 8.6721298925602284 125.42102337494075 0 0 0 0 -54.108204921431025 -75.77969100073534 0 -75.77969100073534 34.714246830113524 0 0 0 0 -20.540782277486869 109.8731948069092 0 109.8731948069092 77.447731826161217 0 0 0 0 -33.617169991171977 -56.430492907607061 0 -56.430492907607061 -0.34481870778349366 0 0 0 0 -17.938515890040435 -47.820028006455608 0 -47.820028006455608 0.85045415732225504 0 0 0 0 -0.13352471701091417 -0.14609152226722699 0 -0.14609152226722699 0.12301479059161075 0 0 0 0 -0.8458328058331972 -0.053103261359516853 0 -0.053103261359516853 -0.00020666847761150701 0 0 0 0 -10.487566171614162 -67.796478997535331 0 -67.796478997535331 -49.169564815133995 0 0 0 0 -0.14900974039613857 -0.071982098512251014 0 -0.071982098512251014 -0.018834321219923403 0 0 0 0 -8.7508362716325792 2.2846453041487433 0 2.2846453041487433 -0.0052554980998021569 0 0 0 0 -31.601359453663463 -22.371324630058133 0 -22.371324630058133 -10.534082660126483 0 0 0 0 0.03561824079375242 -0.35809426342905226 0 -0.35809426342905226 0.36651048583392842 0 0 0 0 -28.573874127032468 -5.0174964011233243 0 -5.0174964011233243 -1.2278172597277406 0 0 0 0 -60.390206795138511 -31.683136148467995 0 -31.683136148467995 30.314620672209514 0 0 0 0 5.1790480479248799 -4.8819048898383883 0 -4.8819048898383883 4.2748504931438021 0 0 0 0 -0.8235109645789862 0.27612498187146173 0 0.27612498187146173 0.012540393917218132 0 0 0 0 -0.28382199787301943 0.64785924304062315 0 0.64785924304062315 -1.2893849594872493 0 0 0 0 -62.289716112238239 -15.935430802623607 0 -15.935430802623607 16.767584244565185 0 0 0 0 -3.448411243618466 -9.3585552991389349 0 -9.3585552991389349 -3.0400655331408757 0 0 0 0 -29.303222678048769 0.68378874021918534 0 0.68378874021918534 -6.2807351464711019 0 0 0 0 -11.661534872619086 2.2062236342773929 0 2.2062236342773929 -0.026202171007937414 0 0 0 0 -19.159808653581422 -0.45424304404392341 0 -0.45424304404392341 3.7101926126023286 0 0 0 0 -51.572890469862614 -13.00545698221563 0 -13.00545698221563 -0.038784827169182995 0 0 0 0 -63.729611381771974 -30.974620241212776 0 -30.974620241212776 -10.1288612572475 0 0 0 0 -94.022754457240808 -43.001895760036788 0 -43.001895760036788 -3.9656422970752345 0 0 0 0 0.34171225415045114 -0.046033685520143308 0 -0.046033685520143308 -0.44293504145577745 0 0 0 0 -75.31920920687844 -36.522620125258364 0 -36.522620125258364 -12.767124628437269 0 0 0 0 -42.221397780122061 -40.498520360420819 0 -40.498520360420819 -23.420876965736067 0 0 0 0 -0.27339944694841734 0.098415157697957056 0 0.098415157697957056 -0.063688718639472869 0 0 0 0 -0.49267641245387495 -0.68243336685396772 0 -0.68243336685396772 15.583771544342005 0 0 0 0 -66.588475695694797 -50.003342364003117 0 -50.003342364003117 -27.041965752031768 0 0 0 0 -60.563096608981141 -16.734157879577008 0 -16.734157879577008 2.7831793853240265 0 0 0 0 -26.967468239177833 -1.8411815876435591 0 -1.8411815876435591 3.4679436912837023 0 0 0 0 -8.3177287819211188 -2.2300718601360359 0 -2.2300718601360359 0.76253283412101436 0 0 0 0 -72.95449623123568 1.6903994262639799 0 1.6903994262639799 -14.913059294016421 0 0 0 0 -82.808085426309844 -2.4144225580180319 0 -2.4144225580180319 -5.6514152438726342 0 0 0 0 -55.361801632443957 -14.38817084482065 0 -14.38817084482065 -0.34274750481490479 0 0 0 0 -49.471616167022148 -51.142343528226895 0 -51.142343528226895 -9.859460892244071 0 0 0 0 -56.258929880234064 -8.0878490106204026 0 -8.0878490106204026 -10.752695700968616 0 0 0 0 -70.085950025415514 -22.782661236421518 0 -22.782661236421518 2.6589274616808325 0 0 0 0 -50.018788154817145 -18.415944505894004 0 -18.415944505894004 -3.3244029248802782 0 0 0 0 -42.886004171363311 20.419465194602523 0 20.419465194602523 30.108074854832765 0 0 0 0 -62.593079710088205 -15.801013648459957 0 -15.801013648459957 9.0189292294635379 0 0 0 0 -58.727939717267873 -15.345468128506127 0 -15.345468128506127 0.66309390619426267 0 0 0 0 -92.267910414579092 -19.283106059551095 0 -19.283106059551095 29.117061604832372 0 0 0 0 2.5728555562673137 -21.057650888914601 0 -21.057650888914601 22.209175818801683 0 0 0 0 -27.091157596325502 2.8598405982927271 0 2.8598405982927271 15.168924868857552 0 0 0 0 -50.410465002583805 35.969803414404076 0 35.969803414404076 95.791776049030943 0 0 0 0 55.564418212743476 91.110451503471722 0 91.110451503471722 68.259662789594586 0 0 0 0 -8.8219419595868089 -12.90526904237057 0 -12.90526904237057 5.1855924385558234 0 0 0 0 -64.870818755145592 -8.4827929978034717 0 -8.4827929978034717 7.8912185467879681 0 0 0 0 -64.482804895000299 -3.2069499026079029 0 -3.2069499026079029 14.213001592582714 0 0 0 0 -70.922057346004294 6.3135701327345259 0 6.3135701327345259 28.845351605677934 0 0 0 0 -9.8368083607638255 26.699307634742581 0 26.699307634742581 17.634122668968303 0 0 0 0 -52.4494305580738 7.542043478639016 0 7.542043478639016 9.4310567446718778 0 0 0 0 -53.836905184725765 3.7428783772988936 0 3.7428783772988936 -0.66032855555113201 0 0 0 0 -60.809985041938489 1.0072987164521692 0 1.0072987164521692 -1.7305209151772942 0 0 0 0 -41.748823937028646 -9.6082648308693024 0 -9.6082648308693024 -25.086704743561313 0 0 0 0 -58.177881603536662 2.3232648856724154 0 2.3232648856724154 -8.6736063696835117 0 0 0 0 -65.939857731747907 -3.4346912406949741 0 -3.4346912406949741 1.9749211432722404 0 0 0 0 -65.205524095741566 -1.1938336663324662 0 -1.1938336663324662 -7.4311440954760428 0 0 0 0 -65.677795081399381 -6.3835213602810654 0 -6.3835213602810654 -13.154775804837982 0 0 0 0 -65.795324387871005 -0.71710542405726585 0 -0.71710542405726585 -3.8141176883100343 0 0 0 0 -64.89366580650676 -6.6705829016400457 0 -6.6705829016400457 -2.3137035231402479 0 0 0 0 -63.833821769687347 -5.1327597313338629 0 -5.1327597313338629 0.19632866757046941 0 0 0 0 -65.935075807123212 -5.7922409629079539 0 -5.7922409629079539 4.9810021216535461 0 0 0 0 -69.644015534053324 -3.4536040975035576 0 -3.4536040975035576 -0.30407111236718265 0 0 0 0 -70.174881054037542 -5.6989416240299988 0 -5.6989416240299988 -8.1125460180442133 0 0 0 0 -68.363232680218061 -3.352378832099248 0 -3.352378832099248 -6.3684503241966013 0 0 0 0 -73.439067545012222 -0.68356460323104784 0 -0.68356460323104784 -3.9541426671119098 0 0 0 0 -77.032995423753164 -4.3832877366476168 0 -4.3832877366476168 -5.8813746420282769 0 0 0 0 -37.514244183432311 -52.572578605222475 0 -52.572578605222475 -36.93402854324377 0 0 0 0 -83.463905953249196 -38.795939054167405 0 -38.795939054167405 -3.3601832540869054 0 0 0 0 -22.956140558380866 -36.186877322911897 0 -36.186877322911897 25.681493822128004 0 0 0 0 -50.994292268136633 -36.734773935145213 0 -36.734773935145213 29.603522634877272 0 0 0 0 -19.023640554734811 -1.9554732213560371 0 -1.9554732213560371 -0.37003875574433931 0 0 0 0 -57.099477764510084 -35.125686070101715 0 -35.125686070101715 33.132188486800601 0 0 0 0 -18.122766535670962 -31.114199212803896 0 -31.114199212803896 -34.601755091121959 0 0 0 0 -39.018393960939079 -10.439988658998999 0 -10.439988658998999 -3.9127297207376728 0 0 0 0 -13.574776504246984 -36.377499543939621 0 -36.377499543939621 -37.60026833754803 0 0 0 0 -158.17453677020967 -100.92111150347591 0 -100.92111150347591 153.24978002768239 0 0 0 0 45.316504861984868 -50.77571876626007 0 -50.77571876626007 14.393473466526302 0 0 0 0 -46.627084892941639 -41.501541511665891 0 -41.501541511665891 32.604163558327855 0 0 0 0 9.598126447701361 -22.097286103239298 0 -22.097286103239298 -3.3135815117893799 0 0 0 0 -22.451789302227553 2.756551329442118 0 2.756551329442118 -18.594643067423931 0 0 0 0 -49.544042369641829 -17.259305745385063 0 -17.259305745385063 -2.0542275020657144 0 0 0 0 -82.881376278575772 -16.273086281073859 0 -16.273086281073859 -21.497999323652039 0 0 0 0 -103.94131173120695 -38.348642538252079 0 -38.348642538252079 -22.840048630531783 0 0 0 0 -45.060580950113945 -26.275836948021606 0 -26.275836948021606 -21.412333970642067 0 0 0 0 -83.492163614369929 -14.355697074011914 0 -14.355697074011914 18.654154030894006 0 0 0 0 -62.279120224178769 -36.203392327838174 0 -36.203392327838174 -43.742179921174738 0 0 0 0 -76.691509417229099 -13.591231214346635 0 -13.591231214346635 -26.402268245620689 0 0 0 0 -62.744660387048498 -10.106784897330726 0 -10.106784897330726 -21.834205530088411 0 0 0 0 -410.46654928883072 3.8184597079552987 0 3.8184597079552987 232.22301548650194 0 0 0 0 -1056.4625792470179 413.13864005172854 0 413.13864005172854 144.69148507556929 0 0 0 0 -129.25620820256881 -12.904652084834197 0 -12.904652084834197 -146.93785004686561 0 0 0 0 -152.52477795712184 -57.78208980637055 0 -57.78208980637055 -36.381788189699819 0 0 0 0 -133.1233051076415 -5.9208624318116563 0 -5.9208624318116563 -56.294730474010066 0 0 0 0 -144.85764145461144 -54.804777325927716 0 -54.804777325927716 -76.943792508341176 0 0 0 0 -64.469535306445323 -22.621897598566761 0 -22.621897598566761 27.825966269430978 0 0 0 0 -34.866924352341556 -14.704883276731238 0 -14.704883276731238 -7.0006990772288571 0 0 0 0 264.99013088391803 204.34711706519175 0 204.34711706519175 -309.9259060860316 0 0 0 0 -53.44926080701407 -44.951095460649384 0 -44.951095460649384 -10.579163650183744 0 0 0 0 -13.912835153249034 -8.475602102305416 0 -8.475602102305416 10.401755127450087 0 0 0 0 -49.071261697194132 -28.282734592965024 0 -28.282734592965024 -2.4081022008070931 0 0 0 0 -49.878480857965769 -40.221234562605673 0 -40.221234562605673 18.959382575030986 0 0 0 0 -13.23433727175177 -0.10701198237387644 0 -0.10701198237387644 0.67005677647613027 0 0 0 0 -68.179024507669965 -24.603495596629955 0 -24.603495596629955 29.605624949680191 0 0 0 0 -22.467255465791823 -7.1203193417716406 0 -7.1203193417716406 -3.5451398515496066 0 0 0 0 -2.6681178127124667 -10.27174160744314 0 -10.27174160744314 -5.7600085765078761 0 0 0 0 -8.5194585358502906 -0.31067231611174861 0 -0.31067231611174861 -5.0487666367227293 0 0 0 0 36.590926905540982 -73.46309149707011 0 -73.46309149707011 11.038714448708333 0 0 0 0 1.0831297180693866 -0.39557628104734022 0 -0.39557628104734022 -3.2301488681364257 0 0 0 0 -15.677523191734508 25.155303746007405 0 25.155303746007405 -19.41273493464405 0 0 0 0 -6.0764258951530792 -15.744429277090148 0 -15.744429277090148 -12.6968240721244 0 0 0 0 -4.6847940680177942 -7.1473462850434686 0 -7.1473462850434686 -4.7153518738518212 0 0 0 0 -10.610792800871423 -2.7279956603826463 0 -2.7279956603826463 -6.5065050059645273 0 0 0 0 -40.067437254387187 -12.568727367073961 0 -12.568727367073961 8.0395858255615167 0 0 0 0 -41.081662158045219 2.5940846699161284 0 2.5940846699161284 6.5872116475950264 0 0 0 0 -85.876513413444627 -21.041167963271732 0 -21.041167963271732 13.797220111547631 0 0 0 0 -46.436595591309015 -16.948049435758776 0 -16.948049435758776 5.9561889356655229 0 0 0 0 -72.169912230674527 -9.8011853602861265 0 -9.8011853602861265 9.0378395311897748 0 0 0 0 -98.981712440043339 -25.31985404092552 0 -25.31985404092552 2.5431675452792888 0 0 0 0 -70.974219687253935 21.207898744783506 0 21.207898744783506 3.0240784842712856 0 0 0 0 -80.598604983357291 -21.883224800902099 0 -21.883224800902099 -23.836919159674835 0 0 0 0 -118.59750101319514 -17.032470074562752 0 -17.032470074562752 -20.683842887245873 0 0 0 0 -1.1457345088688271 -1.4174996043395538 0 -1.4174996043395538 -1.6959780078830398 0 0 0 0 -155.48024194024038 -30.676287080878865 0 -30.676287080878865 -16.09383165928466 0 0 0 0 -138.0096564150881 -17.654809608605774 0 -17.654809608605774 -5.2662603777653203 0 0 0 0 -144.44465617393143 -19.814098918620857 0 -19.814098918620857 -5.8186319464464304 0 0 0 0 -130.20809785123856 -28.226615695255418 0 -28.226615695255418 -10.110194895901259 0 0 0 0 -148.08750484150369 -33.971477287061134 0 -33.971477287061134 -11.955866443465766 0 0 0 0 -111.26490218453546 -38.525552743170863 0 -38.525552743170863 -30.343785249767279 0 0 0 0 -78.626434391141629 -20.764478567171849 0 -20.764478567171849 -23.009129755911999 0 0 0 0 -78.903614652634133 -27.890712465298293 0 -27.890712465298293 -30.074562298866113 0 0 0 0 -109.40449604540845 -29.255883976514781 0 -29.255883976514781 -25.980424904685606 0 0 0 0 -63.329984339827206 -19.888009848992169 0 -19.888009848992169 -32.785328346129063 0 0 0 0 -70.482063458795892 -17.098484022790672 0 -17.098484022790672 -22.10575654265142 0 0 0 0 -59.436462697362003 -5.7908210935160014 0 -5.7908210935160014 -17.268038416060335 0 0 0 0 -77.338750767579768 -17.647749124783559 0 -17.647749124783559 -10.852279569146731 0 0 0 0 -67.015815191152797 -10.343402522705674 0 -10.343402522705674 -8.9788388196075175 0 0 0 0 -67.974431797629222 -18.780335755094029 0 -18.780335755094029 -24.957299884837994 0 0 0 0 -79.985597671930009 -29.239431067776465 0 -29.239431067776465 -14.839999927380177 0 0 0 0 -74.252871873388358 -3.6696084326578102 0 -3.6696084326578102 -1.7146064898122404 0 0 0 0 -79.656312766466726 -7.6797048723278465 0 -7.6797048723278465 -2.4898537496176232 0 0 0 0 -75.067766350635793 -6.3949721443634644 0 -6.3949721443634644 -10.111345197891069 0 0 0 0 -87.594657727167942 -15.910787692787835 0 -15.910787692787835 6.1275090225533404 0 0 0 0 -85.922891386420815 -10.91110396237687 0 -10.91110396237687 7.0913313069545438 0 0 0 0 -76.787938463327009 -13.125557524195017 0 -13.125557524195017 0.067876672042530117 0 0 0 0 -76.463077786102076 -20.537680171649754 0 -20.537680171649754 -2.3250797932064415 0 0 0 0 -83.620548794337083 -17.729704983184547 0 -17.729704983184547 0.8189331778576161 0 0 0 0 -82.776399052658235 -20.396618418792741 0 -20.396618418792741 8.0614126130853947 0 0 0 0 -81.366811590938596 -23.829935070984448 0 -23.829935070984448 -0.74479943925803127 0 0 0 0 -83.723524266155437 -16.181509175096153 0 -16.181509175096153 7.6382244141711908 0 0 0 0 -83.254929219532642 -17.952016243889148 0 -17.952016243889148 13.287121106238828 0 0 0 0 -84.976392507902347 -17.539736817328958 0 -17.539736817328958 6.7150391493291863 0 0 0 0 -87.902949543349678 -11.005429208527175 0 -11.005429208527175 8.8190721781165848 0 0 0 0 -90.286305489498773 -13.150036707541858 0 -13.150036707541858 6.1478297908385571 0 0 0 0 -91.088071283818863 -9.3453739682335879 0 -9.3453739682335879 4.5035801020076178 0 0 0 0 -92.278405811783159 -13.510702893836083 0 -13.510702893836083 -2.6180616754876382 0 0 0 0 -88.885172876678553 -14.62999176885458 0 -14.62999176885458 1.0481608665113527 0 0 0 0 -88.878977921820479 -8.0800881465593193 0 -8.0800881465593193 -10.30550254807622 0 0 0 0 -89.618353939556982 -5.6129660024905661 0 -5.6129660024905661 -10.35036695341978 0 0 0 0 -77.969403521507047 -11.148979320663329 0 -11.148979320663329 4.4571451174507501 0 0 0 0 -86.142842929737526 -16.284084449361529 0 -16.284084449361529 12.561714791955637 0 0 0 0 -87.317781299556373 -9.6186195198446285 0 -9.6186195198446285 -4.2486375485873396 0 0 0 0 -91.924447231474915 -5.5695136253157216 0 -5.5695136253157216 1.618221565146797 0 0 0 0 -89.897068475402193 -10.288225114458555 0 -10.288225114458555 5.975219303715221 0 0 0 0 -74.878001279081218 -8.3128899723997165 0 -8.3128899723997165 7.950930686434674 0 0 0 0 -73.90335048615816 -20.955557726321103 0 -20.955557726321103 12.003210451585574 0 0 0 0 -49.802265506466938 -21.99836948787248 0 -21.99836948787248 10.74946718388901 0 0 0 0 -21.242996068918728 -10.794052263546064 0 -10.794052263546064 7.5095267107761288 0 0 0 0 -19.728766053391155 -32.263335738701016 0 -32.263335738701016 10.955583178933523 0 0 0 0 -15.121956407587277 -7.1137070591257725 0 -7.1137070591257725 4.5537109549786692 0 0 0 0 -48.175015396380331 -19.586674434652082 0 -19.586674434652082 18.411473649278832 0 0 0 0 -5.582473410788225 -18.11217753535044 0 -18.11217753535044 2.888512954952148 0 0 0 0 12.179238163080299 -9.4734789560161516 0 -9.4734789560161516 -1.9705931594080539 0 0 0 0 -48.395679431474491 -16.510260140940424 0 -16.510260140940424 6.9652587156192567 0 0 0 0 -68.825370043807197 -20.170569204837875 0 -20.170569204837875 16.177515186094752 0 0 0 0 -72.55587900071987 -14.362224476569281 0 -14.362224476569281 9.8165722664080022 0 0 0 0 -72.464028760732617 -15.89631940166646 0 -15.89631940166646 9.5365225550042396 0 0 0 0 -72.357852336252108 -12.649463869699957 0 -12.649463869699957 15.890262544706552 0 0 0 0 -81.660704730580619 1.5709755898447497 0 1.5709755898447497 14.047861300702607 0 0 0 0 -43.90395758622617 13.83294034985056 0 13.83294034985056 4.8505090359565202 0 0 0 0 -52.407933928727289 42.305485336949971 0 42.305485336949971 104.31032659137372 0 0 0 0 -38.191896487842314 44.294860776637051 0 44.294860776637051 11.020577657235044 0 0 0 0 -34.679220756518333 20.115777882876756 0 20.115777882876756 10.302472684418149 0 0 0 0 -52.96630450504199 -9.0599911507020856 0 -9.0599911507020856 22.355889033208314 0 0 0 0 -62.062913198838942 22.417188003092633 0 22.417188003092633 11.854982410839369 0 0 0 0 -12.151459324913077 3.2996096111672273 0 3.2996096111672273 4.6433656694885332 0 0 0 0 -102.36094645764388 20.730958266210564 0 20.730958266210564 11.668955748653389 0 0 0 0 -62.400644224268035 25.455620538474477 0 25.455620538474477 -9.8537924736442619 0 0 0 0 -106.84885613741062 -10.994842774577478 0 -10.994842774577478 4.288915970494827 0 0 0 0 -97.061804960729205 -8.7905790948381082 0 -8.7905790948381082 -7.0695446852780606 0 0 0 0 -92.722475016766111 -7.2496608070911179 0 -7.2496608070911179 1.9266378172060286 0 0 0 0 -99.569709580988274 -16.74572824260963 0 -16.74572824260963 -7.688976219577853 0 0 0 0 -90.823657355853356 -9.9922943587150712 0 -9.9922943587150712 4.5529466949635662 0 0 0 0 -89.802963017049478 -7.3330342531539827 0 -7.3330342531539827 8.7891620524751488 0 0 0 0 -88.86877519862901 5.0202754937886311 0 5.0202754937886311 15.280121432266583 0 0 0 0 -83.964950315006718 -6.7218441883977675 0 -6.7218441883977675 2.6784385460068734 0 0 0 0 -81.654235548747238 -1.0578132695517297 0 -1.0578132695517297 9.4570991120865244 0 0 0 0 -77.983815675572259 -0.59690638963638776 0 -0.59690638963638776 -4.0117321386601361 0 0 0 0 -79.278303659248195 -1.327846312720169 0 -1.327846312720169 -0.056991973172216603 0 0 0 0 -77.463036727072904 0.43871362427182703 0 0.43871362427182703 -0.039082732387578645 0 0 0 0 19.801625770051032 156.89080771269232 0 156.89080771269232 65.098480435539088 0 0 0 0 -62.591516962580499 15.213659258320035 0 15.213659258320035 12.908973112147692 0 0 0 0 -35.427232057695022 21.190241930457262 0 21.190241930457262 7.1328721471278111 0 0 0 0 -80.623034816540894 72.646894457195003 0 72.646894457195003 105.82590597461422 0 0 0 0 19.3793444113482 75.722525148540896 0 75.722525148540896 -36.292897528657022 0 0 0 0 -60.945834481695783 20.992041350244463 0 20.992041350244463 -213.15733416095162 0 0 0 0 -78.735815572305 43.313659302411509 0 43.313659302411509 46.163053871868044 0 0 0 0 -15.310548065994226 20.358581375470763 0 20.358581375470763 -126.92104050236311 0 0 0 0 -205.43423376568535 -110.36544788397315 0 -110.36544788397315 -94.860232069962748 0 0 0 0 -130.84480275509122 -13.035915874831058 0 -13.035915874831058 -15.092957342009637 0 0 0 0 -17.56238141132053 6.6080854734569385 0 6.6080854734569385 22.461200617594763 0 0 0 0 -132.28077171830228 -60.972179702074051 0 -60.972179702074051 -42.044267758008829 0 0 0 0 -9.3150730154666235 -9.09596767712749 0 -9.09596767712749 -27.333298076074879 0 0 0 0 10.841728056620923 31.378993610572717 0 31.378993610572717 -9.9419129087254259 0 0 0 0 -76.114472746936372 -2.7548021883740148 0 -2.7548021883740148 -11.077304442992464 0 0 0 0 -77.432951503935328 -0.88942035857553492 0 -0.88942035857553492 -7.87001828933262 0 0 0 0 -34.848989889231461 22.157911414511091 0 22.157911414511091 5.3923157451303076 0 0 0 0 60.569754019681568 93.187283897503022 0 93.187283897503022 -2.993532514136561 0 0 0 0 -85.192222080666397 -11.871877309989657 0 -11.871877309989657 -10.83016673910015 0 0 0 0 -40.016260073755632 19.859940568242152 0 19.859940568242152 3.683982589546988 0 0 0 0 -4.0738311746117688 2.9284885422086688 0 2.9284885422086688 -0.13694276781288406 0 0 0 0 -20.936483204917749 3.8023697545222772 0 3.8023697545222772 0.29233772778795641 0 0 0 0 -0.96069999291921704 4.1949677452669558 0 4.1949677452669558 -0.48260095892740873 0 0 0 0 -17.472615633436362 -1.0198811412708666 0 -1.0198811412708666 0.0012955463424601874 0 0 0 0 -45.206090042454889 27.478929983175 0 27.478929983175 -30.811829338243129 0 0 0 0 -169.10823788194102 8.5828021112011417 0 8.5828021112011417 2.1386034224288428 0 0 0 0 0.21947225842961871 -0.49993809046668503 0 -0.49993809046668503 -0.14254943782707685 0 0 0 0 -1.7109057280231355 -1.373915857105354 0 -1.373915857105354 -0.0010986509307710801 0 0 0 0 -162.92797420681018 -21.777213963474214 0 -21.777213963474214 -11.864412694268154 0 0 0 0 -193.34600645079627 -17.578355364558185 0 -17.578355364558185 -0.028576497692334384 0 0 0 0 -224.57557953655487 -27.273353832493658 0 -27.273353832493658 5.9313704563924503 0 0 0 0 -190.53115703456569 -32.730592368831168 0 -32.730592368831168 -5.1466780460345944 0 0 0 0 -218.00512513960712 -12.140517062139287 0 -12.140517062139287 -0.89884514093336976 0 0 0 0 -225.27114021056332 -32.219668302494483 0 -32.219668302494483 -10.42926336733062 0 0 0 0 -218.88404859638831 -49.475638816348223 0 -49.475638816348223 -0.083219205649123398 0 0 0 0 -0.58946343602017026 -0.24630531123639798 0 -0.24630531123639798 -0.2043278732493076 0 0 0 0 -362.6248466550619 12.442333599532089 0 12.442333599532089 19.749353801154385 0 0 0 0 -215.44429941987619 12.549281802965773 0 12.549281802965773 3.5267559146840171 0 0 0 0 -71.301385414466495 -47.510085672693172 0 -47.510085672693172 0.01964719157254188 0 0 0 0 -37.982439880266611 11.278113777815429 0 11.278113777815429 -13.553773167921634 0 0 0 0 -2.3405856529400353 -2.0126967934329087 0 -2.0126967934329087 -1.2046745168443092 0 0 0 0 -37.593593407145818 -33.813847927573491 0 -33.813847927573491 -10.396463549146418 0 0 0 0 -15.476999184525994 -12.561276683705387 0 -12.561276683705387 -8.8550081066417761 0 0 0 0 -45.878282568348368 -3.3158766224143728 0 -3.3158766224143728 -25.431476452495403 0 0 0 0 -201.79162441768858 20.862978828195338 0 20.862978828195338 7.2460697508958845 0 0 0 0 -9.0006646655075713 -8.2313277629441046 0 -8.2313277629441046 -7.4528286879568686 0 0 0 0 -214.74423495147494 -8.6839869839199082 0 -8.6839869839199082 0.11756188217192687 0 0 0 0 1.9993238722236129 -156.49864120638961 0 -156.49864120638961 95.680603209973469 0 0 0 0 -26.725976249785163 -6.6071782543349116 0 -6.6071782543349116 64.93227583363614 0 0 0 0 -168.53497047972633 39.536247414426441 0 39.536247414426441 72.507750186601783 0 0 0 0 -71.917227207464748 -167.69347437318496 0 -167.69347437318496 -99.518731893523636 0 0 0 0 112.4540121434693 -147.18587988358769 0 -147.18587988358769 -242.72858594155105 0 0 0 0 60.691658480194747 -15.094780957113727 0 -15.094780957113727 76.077514656464814 0 0 0 0 -272.40374157878978 -163.56751563296237 0 -163.56751563296237 -847.90033451035765 0 0 0 0 -0.56273307091524127 -0.03714236177503949 0 -0.03714236177503949 -0.97056360453975454 0 0 0 0 -3.0981662601097071 -2.8357780785521811 0 -2.8357780785521811 -3.1144051343382513 0 0 0 0 33.947415814429405 -260.35923798564113 0 -260.35923798564113 -319.01741274257824 0 0 0 0 -594.48782934773772 298.28565872220844 0 298.28565872220844 22.88734738978053 0 0 0 0 -302.02921322885959 -10.363902465055713 0 -10.363902465055713 -13.391211605296416 0 0 0 0 -501.57944634994783 -145.74526793489824 0 -145.74526793489824 -62.465739794671357 0 0 0 0 -191.11344685501535 -3.6526006723603075 0 -3.6526006723603075 -84.224139663923907 0 0 0 0 -269.20038934453623 -40.193802671054712 0 -40.193802671054712 0.16076328768980774 0 0 0 0 -0.65688665764036025 -0.51354341488155342 0 -0.51354341488155342 -1.1754053875201953 0 0 0 0 -248.56537070099148 26.607349134407599 0 26.607349134407599 32.34269639517828 0 0 0 0 -360.00747936671542 -21.926459470567721 0 -21.926459470567721 32.412763948041402 0 0 0 0 -33.215199284488335 -112.54923902569749 0 -112.54923902569749 -303.61669413800303 0 0 0 0 -6.2375141696425658 -3.9518027020226683 0 -3.9518027020226683 -0.25467434649271375 0 0 0 0 -265.03118481091224 158.88038331017069 0 158.88038331017069 -124.07992113862807 0 0 0 0 -325.95193302383996 38.605415755857457 0 38.605415755857457 0.079141949532397893 0 0 0 0 -184.7618138921971 -43.51278812903157 0 -43.51278812903157 28.001023836918307 0 0 0 0 -76.526640496398613 12.289717908395467 0 12.289717908395467 0.11680043612597089 0 0 0 0 26.276988907862687 -202.63651683472605 0 -202.63651683472605 -180.14903823978068 0 0 0 0 -542.92645824005012 -27.939396493454836 0 -27.939396493454836 36.566304067940578 0 0 0 0 242.94269434144371 88.115443592700515 0 88.115443592700515 -48.585491686349613 0 0 0 0 131.66066229128774 -73.950245571616364 0 -73.950245571616364 -41.560263775656253 0 0 0 0 -11.222301176661858 -4.2393564922816775 0 -4.2393564922816775 -0.0014266237558701338 0 0 0 0 -2.3009999232761515 0.87060296505779888 0 0.87060296505779888 1.4190578827775338 0 0 0 0 -34.000677429772168 -5.6652315680185055 0 -5.6652315680185055 48.660801000956326 0 0 0 0 -32.909467211909941 -25.572940762045619 0 -25.572940762045619 73.286880864679461 0 0 0 0 -21.212082850307468 2.8084859420367678 0 2.8084859420367678 10.175489885986545 0 0 0 0 -73.880459403895657 30.003150695753391 0 30.003150695753391 51.4399167042925 0 0 0 0 -55.702090481980122 -7.9722516734515239 0 -7.9722516734515239 87.640499993420008 0 0 0 0 -152.0860161796154 166.52814173816006 0 166.52814173816006 -27.218624299908399 0 0 0 0 -149.69891181243611 42.132292543511767 0 42.132292543511767 64.618791429883231 0 0 0 0 -57.824826537369518 85.945340529492796 0 85.945340529492796 20.089127159878814 0 0 0 0 131.35706824513909 90.795853793077981 0 90.795853793077981 -138.0214545311203 0 0 0 0 -6.8433129638724495 63.410862355779045 0 63.410862355779045 26.561833144093896 0 0 0 0 -2.2915495663082766 30.928915861368615 0 30.928915861368615 6.0435056837188768 0 0 0 0 -27.215813921315771 3.0495135508507047 0 3.0495135508507047 8.4736808710099627 0 0 0 0 -536.60151082690572 411.47947642716849 0 411.47947642716849 100.99896416544902 0 0 0 0 124.78863333840854 367.27585852983952 0 367.27585852983952 72.774763618136603 0 0 0 0 -11.900463405068706 -8.6358201887254751 0 -8.6358201887254751 -9.2605728347203176 0 0 0 0 123.54926586544025 -24.386221212495599 0 -24.386221212495599 -13.442900162788803 0 0 0 0 -184.56199390138499 43.717180487132282 0 43.717180487132282 487.08220271654409 0 0 0 0 -225.31206732860301 -92.830071163377397 0 -92.830071163377397 405.13840895363455 0 0 0 0 -2.6726146999426419 -1.846874397146621 0 -1.846874397146621 30.34106754039658 0 0 0 0 -114.31742232439865 -19.845674137533024 0 -19.845674137533024 210.15360492297441 0 0 0 0 -51.196985264890827 200.0368458374387 0 200.0368458374387 383.27621607991205 0 0 0 0 -38.802008404903319 4.4484555158609993 0 4.4484555158609993 23.240496985378677 0 0 0 0 61.231890066934284 118.94227920600406 0 118.94227920600406 198.81310540410959 0 0 0 0 40.880699227447622 34.110158684291491 0 34.110158684291491 263.78883570890866 0 0 0 0 65.68555033300072 96.883222067464885 0 96.883222067464885 66.575921930751065 0 0 0 0 -21.00875099433091 6.0526278055591547 0 6.0526278055591547 16.682460130151934 0 0 0 0 -22.22929555788869 118.10517422442263 0 118.10517422442263 249.06262261281336 0 0 0 0 -20.40518755861558 14.850599236884591 0 14.850599236884591 121.46143250876048 0 0 0 0 6.8235038581187837 87.618557214728753 0 87.618557214728753 181.51153908316519 0 0 0 0 -95.258855093328748 -6.2134993089557611 0 -6.2134993089557611 176.48579612857156 0 0 0 0 -56.44135011814069 -26.039280835088903 0 -26.039280835088903 106.74194312753207 0 0 0 0 -114.32058402785333 4.6874215490970528 0 4.6874215490970528 261.47523421858557 0 0 0 0 -104.30505361134419 -117.15087362798749 0 -117.15087362798749 83.005636546820824 0 0 0 0 -145.84788244363153 -95.965688971660256 0 -95.965688971660256 250.69557271780809 0 0 0 0 -120.36854430940002 -83.690806945705845 0 -83.690806945705845 145.12087769695745 0 0 0 0 -109.9546243645309 -198.22524661787838 0 -198.22524661787838 22.868862502036336 0 0 0 0 -144.61597331287612 -152.54912526202168 0 -152.54912526202168 109.31302492720351 0 0 0 0 -125.57519389002118 -113.43489021702817 0 -113.43489021702817 180.10380720123339 0 0 0 0 -197.12379817420151 -223.93561069735961 0 -223.93561069735961 156.83633351154049 0 0 0 0 -233.68077449809061 -152.8373794988845 0 -152.8373794988845 292.68135735402257 0 0 0 0 -173.00086665154595 -340.07781366316829 0 -340.07781366316829 -140.16341896554388 0 0 0 0 -153.17111877919524 -177.88769870651254 0 -177.88769870651254 17.941650926887775 0 0 0 0 -74.034114172829049 -4.0130553246944913 0 -4.0130553246944913 6.8715925011277097 0 0 0 0 -63.215016856367583 29.989350922317499 0 29.989350922317499 162.26033173803376 0 0 0 0 -163.46320045565517 59.006250821135609 0 59.006250821135609 291.21776762773521 0 0 0 0 -38.911217061822867 3.4407526644218223 0 3.4407526644218223 13.136141195862056 0 0 0 0 -50.31829086408834 -4.601814169381214 0 -4.601814169381214 31.829318828312353 0 0 0 0 -67.424558011989575 20.061705189190775 0 20.061705189190775 37.515075972739169 0 0 0 0 -44.262740884369123 -79.700268039406751 0 -79.700268039406751 53.644173558367584 0 0 0 0 -226.10033983676112 -89.751783952336609 0 -89.751783952336609 67.56290662806714 0 0 0 0 -10.871650404792092 -22.417567206982241 0 -22.417567206982241 7.8351202253070875 0 0 0 0 -41.320032942479884 -32.723989280542071 0 -32.723989280542071 32.837677879104376 0 0 0 0 -133.12066991609754 -255.83764130933469 0 -255.83764130933469 179.13274327563261 0 0 0 0 -81.585852873165464 -28.272265815648538 0 -28.272265815648538 4.7734731317662344 0 0 0 0 -12.635580111164018 -115.34722494024857 0 -115.34722494024857 64.12097947700687 0 0 0 0 145.38724891302263 -8.7671809879696525 0 -8.7671809879696525 2.1119047046153412 0 0 0 0 106.851835780486 -67.112543666532815 0 -67.112543666532815 94.83057197375183 0 0 0 0 -6.6230641883792032 -8.4579458401130978 0 -8.4579458401130978 -9.1558528522436333 0 0 0 0 45.049938925949391 170.42155046997962 0 170.42155046997962 -184.53079759671979 0 0 0 0 -612.7669924901129 50.49446512999944 0 50.49446512999944 99.824801428534272 0 0 0 0 -15.011522175060236 -241.4833621788822 0 -241.4833621788822 39.010556893945477 0 0 0 0 24.48514037654968 -178.44879746950517 0 -178.44879746950517 -803.80711254358675 0 0 0 0 -76.173487005941809 -31.304461029294885 0 -31.304461029294885 3.6941917871626995 0 0 0 0 48.966139699918131 -206.26385225808991 0 -206.26385225808991 96.177027335909315 0 0 0 0 32.804886040787096 -343.43983133961171 0 -343.43983133961171 130.89111424149405 0 0 0 0 57.602865422522882 -4.5090766318003261 0 -4.5090766318003261 -119.19530288520446 0 0 0 0 -27.986656524117791 -7.0327895472990498 0 -7.0327895472990498 -2.0139280298332833 0 0 0 0 -63.760407774374471 28.084525739317996 0 28.084525739317996 56.255407822240045 0 0 0 0 -14.694097907762625 -79.769564908110169 0 -79.769564908110169 -47.187594081712177 0 0 0 0 -70.780893083676347 -25.093321077741393 0 -25.093321077741393 134.58377692940405 0 0 0 0 128.88101277704118 -132.55889141634862 0 -132.55889141634862 -139.14640008869128 0 0 0 0 -203.29033742843603 -235.35278077788371 0 -235.35278077788371 -79.919463603915574 0 0 0 0 -211.43537811101123 -293.1300479143045 0 -293.1300479143045 -345.38596169146103 0 0 0 0 -67.025055497811991 359.13494017843061 0 359.13494017843061 274.38258486569572 0 0 0 0 -9.7404506568161651 -3.246043456293453 0 -3.246043456293453 -1.0526611945970834 0 0 0 0 -51.258802130767435 -74.022973276692028 0 -74.022973276692028 -484.53125434327103 0 0 0 0 -22.305040172213012 77.317151369189659 0 77.317151369189659 -244.57138192956063 0 0 0 0 -407.73204391106628 -544.00832031781715 0 -544.00832031781715 174.16287905944887 0 0 0 0 -647.43540948483496 -47.7064826060153 0 -47.7064826060153 152.18119671314912 0 0 0 0 -261.60031605657855 219.49323143660177 0 219.49323143660177 -36.494214642364568 0 0 0 0 2.3698154381588949 0.17905803409679777 0 0.17905803409679777 -0.92567666988015196 0 0 0 0 -103.05709928894066 -374.48377230614221 0 -374.48377230614221 360.16280640284003 0 0 0 0 -85.076127077802084 67.467509151751131 0 67.467509151751131 127.8716130317855 0 0 0 0 49.060336224792991 -125.33903596514835 0 -125.33903596514835 115.33355339323245 0 0 0 0 -67.19872957366897 55.688705597132497 0 55.688705597132497 58.947128278368154 0 0 0 0 -434.10155528070754 91.64745147466752 0 91.64745147466752 161.60986950123254 0 0 0 0 -155.48317120924912 116.14567822454703 0 116.14567822454703 -353.29073605684863 0 0 0 0 -179.80958395212656 99.172086593259678 0 99.172086593259678 45.102191777806439 0 0 0 0 -230.12967736748033 -172.75710038309259 0 -172.75710038309259 -352.5759699061951 0 0 0 0 -789.43311065837042 -188.981438441347 0 -188.981438441347 90.182260425093375 0 0 0 0 -306.99251423987153 -171.49414312891133 0 -171.49414312891133 74.559759643311224 0 0 0 0 -270.05654744111234 -61.529415856204508 0 -61.529415856204508 294.22777318748484 0 0 0 0 -226.56032367996522 -474.26933131269266 0 -474.26933131269266 -313.49736996188113 0 0 0 0 -97.81053653685376 -316.62057165494889 0 -316.62057165494889 -166.38976023578607 0 0 0 0 -88.500463770134957 -282.53732531895275 0 -282.53732531895275 -139.34690466807058 0 0 0 0 -10.697561044275062 -201.2028265050406 0 -201.2028265050406 -73.873091015372893 0 0 0 0 -276.1655161456365 -387.60997574770647 0 -387.60997574770647 -132.54653933768304 0 0 0 0 -8.9067288848746102 -197.64418496235055 0 -197.64418496235055 -99.010996217265898 0 0 0 0 108.76217471111158 -258.54073457130653 0 -258.54073457130653 -123.95014353759763 0 0 0 0 -806.23581879298945 525.26599137034066 0 525.26599137034066 151.42685066509483 0 0 0 0 -4.9649642701660639 -3.6148531542057185 0 -3.6148531542057185 -3.0395153104849677 0 0 0 0 -256.88983042212203 -25.634552895445722 0 -25.634552895445722 175.05698716212191 0 0 0 0 122.50076066910697 -81.873441271369302 0 -81.873441271369302 -63.720075664454654 0 0 0 0 -15.505172693461645 -232.04326811890564 0 -232.04326811890564 161.82010001746403 0 0 0 0 -172.43209874217428 3.6731279424448715 0 3.6731279424448715 -73.769995887569053 0 0 0 0 -12.018768653211652 -10.180382456678203 0 -10.180382456678203 -7.8501233425934736 0 0 0 0 -4.0041257880942567 -3.4263606634746537 0 -3.4263606634746537 -2.9174275541572738 0 0 0 0 -548.43742777375155 112.06376572424458 0 112.06376572424458 105.5944205308376 0 0 0 0 556.77232386000105 242.87835763081117 0 242.87835763081117 310.36781776471173 0 0 0 0 -897.55486695603759 -613.27549436263894 0 -613.27549436263894 3.2883580577536407 0 0 0 0 11.07556081248913 -98.236059895776179 0 -98.236059895776179 21.629993745610136 0 0 0 0 -83.453129387806257 -21.316504868351316 0 -21.316504868351316 9.7949523796065776 0 0 0 0 133.87367028204608 15.482345410471709 0 15.482345410471709 -100.62811146741707 0 0 0 0 -325.85533390442652 -283.98345080584528 0 -283.98345080584528 -218.67295821179573 0 0 0 0 -13.299667438288452 16.958498537763347 0 16.958498537763347 -139.24185408821808 0 0 0 0 89.581352403183701 140.82241093369555 0 140.82241093369555 -63.442103173897181 0 0 0 0 -61.038388052460505 -56.149270735328628 0 -56.149270735328628 89.376576802621258 0 0 0 0 -22.545088599169503 75.852150075424689 0 75.852150075424689 -0.85862315055589988 0 0 0 0 -22.846857542562361 -13.259099790784873 0 -13.259099790784873 -7.8446620926321966 0 0 0 0 -125.13457808882231 20.488853720630686 0 20.488853720630686 91.540740019811892 0 0 0 0 8.3334885158656107 5.1293148403977398 0 5.1293148403977398 -42.565440684665646 0 0 0 0 -10.902966015052129 4.3299990202403649 0 4.3299990202403649 5.6977674676189762 0 0 0 0 -56.600387914000748 2.5695958615924752 0 2.5695958615924752 168.09213294456413 0 0 0 0 -119.02677906196914 80.687834157730776 0 80.687834157730776 16.092375593839279 0 0 0 0 -33.492415305621648 14.909512826140215 0 14.909512826140215 15.113210133832375 0 0 0 0 -48.02281231181405 1.4162384067853964 0 1.4162384067853964 17.004643720081827 0 0 0 0 -53.332149166613817 -0.95916178317690992 0 -0.95916178317690992 5.872692196798198 0 0 0 0 -99.645298449686379 1.0079651589583136 0 1.0079651589583136 6.0094032355486888 0 0 0 0 -16.837232593596354 3.1416114958808663 0 3.1416114958808663 10.462909173745938 0 0 0 0 -49.64888218397482 -10.36688155684525 0 -10.36688155684525 -13.583306404670111 0 0 0 0 -51.220886105433237 -35.13731604853561 0 -35.13731604853561 -27.525198860785167 0 0 0 0 -102.80262945091818 -21.65513536717026 0 -21.65513536717026 -4.6134492943110672 0 0 0 0 -64.397114131425042 -15.412381798993465 0 -15.412381798993465 -3.6604520872062949 0 0 0 0 -51.943483483657474 14.888659881144349 0 14.888659881144349 -18.009445972702906 0 0 0 0 -91.758008437231183 14.312098002425955 0 14.312098002425955 -8.1195305587580151 0 0 0 0 -51.669771042303182 9.0683134317628173 0 9.0683134317628173 -9.3686401594800373 0 0 0 0 -58.252253931234009 -14.986865057549494 0 -14.986865057549494 -3.3460252525960641 0 0 0 0 -43.55006696601049 -5.7017199072915901 0 -5.7017199072915901 -5.6707433450493809 0 0 0 0 -36.223467833348991 -15.55758285206764 0 -15.55758285206764 -5.9415915875841021 0 0 0 0 -40.07176768613499 8.4013839234164607 0 8.4013839234164607 -16.598706734814186 0 0 0 0 -184.0231124983984 40.014325439551612 0 40.014325439551612 160.91068715474375 0 0 0 0 -11.421535285025811 -7.056691628326675 0 -7.056691628326675 -2.7528596535347258 0 0 0 0 -76.049712976964656 -5.0892878524041407 0 -5.0892878524041407 -5.678762446462315 0 0 0 0 -64.76023275951593 -15.815676071674261 0 -15.815676071674261 -3.3038569410109631 0 0 0 0 -31.996874176096753 -47.996713906170953 0 -47.996713906170953 55.972567117842118 0 0 0 0 -23.864420710633567 30.666470053293324 0 30.666470053293324 -18.410330569600319 0 0 0 0 -17.936571217825986 -42.958465901145246 0 -42.958465901145246 9.8621162714453021 0 0 0 0 -83.769430822301899 -35.241056373386186 0 -35.241056373386186 4.93879823753662 0 0 0 0 -31.282828963050584 -28.342780871882169 0 -28.342780871882169 8.9684746259581853 0 0 0 0 -3.7912832531728782 -21.399206393620261 0 -21.399206393620261 27.168521429356588 0 0 0 0 -39.95150449888024 -7.2556830605356026 0 -7.2556830605356026 8.0756580876477528 0 0 0 0 -21.145812956381064 -8.9578635437511593 0 -8.9578635437511593 10.437194898261183 0 0 0 0 -41.986529645175324 -17.1216026901551 0 -17.1216026901551 14.544875833337755 0 0 0 0 -47.804112317252788 -25.363367049723166 0 -25.363367049723166 7.8845338557451967 0 0 0 0 -37.99890247931549 -13.613238403597919 0 -13.613238403597919 18.431234091530659 0 0 0 0 -81.883112436102238 62.233940640777291 0 62.233940640777291 -1.6831723945175554 0 0 0 0 -94.171622441732325 -22.971146465999936 0 -22.971146465999936 -34.458991146384506 0 0 0 0 -133.0460085949162 -48.133862277982644 0 -48.133862277982644 -38.988277143543655 0 0 0 0 -35.775310585484391 -56.744793710109981 0 -56.744793710109981 -4.7296195768478384 0 0 0 0 -99.652781962591689 -35.096074786212512 0 -35.096074786212512 -25.10813262757506 0 0 0 0 -103.14341049588984 -25.818861567819908 0 -25.818861567819908 -3.5924939612907565 0 0 0 0 -119.50552235823125 -18.756401747850987 0 -18.756401747850987 3.3656279702117899 0 0 0 0 -144.99234020442236 -31.651133697700516 0 -31.651133697700516 9.3792595880454428 0 0 0 0 -36.394504776043988 -2.5670529677232992 0 -2.5670529677232992 -1.281153148426025 0 0 0 0 -98.821775209216867 -26.126180054697443 0 -26.126180054697443 -8.2562816594775086 0 0 0 0 -98.772413263126509 -22.043354168317137 0 -22.043354168317137 -20.622918373426955 0 0 0 0 -97.900320452754386 -28.355559178723524 0 -28.355559178723524 -6.7426996753087565 0 0 0 0 -175.04834204493091 -69.479556401433911 0 -69.479556401433911 180.46185361295403 0 0 0 0 -102.43659271750221 10.273299319241943 0 10.273299319241943 37.127547771331592 0 0 0 0 -87.278924047830515 -23.681105262554183 0 -23.681105262554183 -6.5753199545545158 0 0 0 0 -25.81865957332775 170.66567194182142 0 170.66567194182142 191.83247453976719 0 0 0 0 165.13005560665624 277.0116686101457 0 277.0116686101457 182.06048222375455 0 0 0 0 -20.101018350970719 -1.5928796262828087 0 -1.5928796262828087 1.8981979716994481 0 0 0 0 -70.559907834576734 172.97721658767489 0 172.97721658767489 380.51752065599476 0 0 0 0 -59.931949253647076 -29.795103681599258 0 -29.795103681599258 12.322773175522604 0 0 0 0 -16.708647958545498 -77.623304751235267 0 -77.623304751235267 11.598741745323082 0 0 0 0 -69.178676936950069 -110.33070313590605 0 -110.33070313590605 20.36590191702544 0 0 0 0 -129.58468803594587 -47.53073807088731 0 -47.53073807088731 38.59880378562201 0 0 0 0 17.714814588467789 -15.445835244232249 0 -15.445835244232249 -11.149865036864831 0 0 0 0 -146.90958874000353 -31.221682389658213 0 -31.221682389658213 13.883183114981421 0 0 0 0 -52.51482246580494 -28.570942815137215 0 -28.570942815137215 5.2289293074958216 0 0 0 0 -96.188598377630115 -127.75316597150413 0 -127.75316597150413 73.734918192116766 0 0 0 0 -7.5461126273439731 -29.562050550670733 0 -29.562050550670733 22.470599585213677 0 0 0 0 -72.834536716620718 -32.076276927406482 0 -32.076276927406482 7.2668760357829001 0 0 0 0 -14.706924159478149 -112.71946300694279 0 -112.71946300694279 13.182995909890735 0 0 0 0 -49.215731713731657 -68.375384758177688 0 -68.375384758177688 64.181010159987011 0 0 0 0 13.734202831306902 -184.44847414760665 0 -184.44847414760665 148.22891609132358 0 0 0 0 -37.413625582058501 -22.340379323284061 0 -22.340379323284061 -2.5104014074172203 0 0 0 0 34.176949048348433 -19.409045059340606 0 -19.409045059340606 -79.683559147120604 0 0 0 0 24.085208928076554 -121.09126644684133 0 -121.09126644684133 18.276749109758271 0 0 0 0 -58.613882816665864 -50.127210545769572 0 -50.127210545769572 -39.606708765336748 0 0 0 0 -67.524729148888582 -77.211310070456236 0 -77.211310070456236 19.87677885655728 0 0 0 0 -41.770831650144828 -78.018477652448453 0 -78.018477652448453 22.277497640373667 0 0 0 0 -49.743663267159718 -91.621200475058117 0 -91.621200475058117 22.147239460261225 0 0 0 0 -47.756177183204272 -108.11263386917926 0 -108.11263386917926 -20.394184317724694 0 0 0 0 -8.5995080448628869 -42.675011097415336 0 -42.675011097415336 -11.687590461596912 0 0 0 0 -52.577392653140123 -83.295632935975902 0 -83.295632935975902 -2.3133160285466374 0 0 0 0 -3.9975808137722169 -15.213605289156689 0 -15.213605289156689 9.175022562500974 0 0 0 0 0.79048737752765419 -1.1644399694969962 0 -1.1644399694969962 -0.44717896163916215 0 0 0 0 -69.102104499615962 -54.288880788259348 0 -54.288880788259348 33.564922752648727 0 0 0 0 -12.316143544216175 -63.212234344674243 0 -63.212234344674243 -109.53605030609401 0 0 0 0 71.301253240526421 -45.488202517373679 0 -45.488202517373679 25.731590994000726 0 0 0 0 -1.4551294149099192 -0.49424744986140468 0 -0.49424744986140468 0.37288267104876782 0 0 0 0 -59.726746729837032 -2.3293842322834735 0 -2.3293842322834735 78.033461418044453 0 0 0 0 -17.199457229522523 -13.683566226309495 0 -13.683566226309495 72.184019624626785 0 0 0 0 -3.2347864406656299 -21.540447623052899 0 -21.540447623052899 -65.675828380960866 0 0 0 0 -58.361751115138759 -12.110873178460906 0 -12.110873178460906 -45.647063164279757 0 0 0 0 -19.926703223736695 -64.570653408584391 0 -64.570653408584391 -76.392449362992465 0 0 0 0 -74.754818239380256 -110.55424460183212 0 -110.55424460183212 -31.514780094027174 0 0 0 0 -66.917140358142206 -36.407386436022193 0 -36.407386436022193 -11.492978680341366 0 0 0 0 -89.456845597014762 -49.378248033714044 0 -49.378248033714044 21.669148245768156 0 0 0 0 -71.715057130008063 -28.374047177978156 0 -28.374047177978156 -12.902075838412429 0 0 0 0 -116.64271827365883 -56.609572491544498 0 -56.609572491544498 -11.398395158655603 0 0 0 0 -31.164177795100841 -48.494743909706585 0 -48.494743909706585 -96.285189779988286 0 0 0 0 -143.84748981450684 -8.4928790846122411 0 -8.4928790846122411 -3.5081347809324086 0 0 0 0 -1.0687306019910068 0.81945336050486794 0 0.81945336050486794 -0.37011469608718151 0 0 0 0 3.956541136969463 -30.922859748794963 0 -30.922859748794963 -3.6185657905914468 0 0 0 0 3.4214589848706964 -54.861429983066955 0 -54.861429983066955 40.788702093501229 0 0 0 0 35.949530796504405 -45.983996934631136 0 -45.983996934631136 -22.854975223162683 0 0 0 0 -12.726604485986172 -7.9441449303737954 0 -7.9441449303737954 -22.744767156792733 0 0 0 0 -3.8957018475943528 -0.46430693004981727 0 -0.46430693004981727 7.4283554247412065 0 0 0 0 -20.064042247933685 -13.146149728424462 0 -13.146149728424462 26.785810849602512 0 0 0 0 -11.355456924502505 -24.729505641103287 0 -24.729505641103287 96.629539132558477 0 0 0 0 -6.2376332799503871 -32.622360236932536 0 -32.622360236932536 -3.5299626332110847 0 0 0 0 -21.384032690591994 -26.337159858305881 0 -26.337159858305881 21.562995976344155 0 0 0 0 -28.230594886644923 -10.105901957314984 0 -10.105901957314984 16.797936612685159 0 0 0 0 -59.512757373951899 -21.529039045138688 0 -21.529039045138688 214.97131078197526 0 0 0 0 -18.903346342711302 -4.0162592814078835 0 -4.0162592814078835 -27.45639243216101 0 0 0 0 -29.595624609035355 -16.267043605735655 0 -16.267043605735655 11.65585914217275 0 0 0 0 -50.82182576264313 9.0392371497055137 0 9.0392371497055137 66.22766060354661 0 0 0 0 -10.463849002611823 -84.277397675294424 0 -84.277397675294424 19.530016214948319 0 0 0 0 -40.414612061763194 -17.266340039805947 0 -17.266340039805947 4.0149256784235607 0 0 0 0 -44.434244890784612 2.2848088984078458 0 2.2848088984078458 71.380762227334344 0 0 0 0 -58.207669709379843 -33.346554201703839 0 -33.346554201703839 17.974566103481266 0 0 0 0 319.83042870278587 -93.708541512976126 0 -93.708541512976126 -272.70683955865388 0 0 0 0 62.443484201896354 -26.208880031105764 0 -26.208880031105764 9.194420629970864 0 0 0 0 -49.658053412982554 -16.21679954754245 0 -16.21679954754245 74.266352116219423 0 0 0 0 -40.865861239217338 -8.1371080802728102 0 -8.1371080802728102 33.428970265027601 0 0 0 0 -9.9106110568276335 -9.1995973819806665 0 -9.1995973819806665 9.1984683209885212 0 0 0 0 -17.698820221259666 -12.209126625350109 0 -12.209126625350109 6.797036952509643 0 0 0 0 -77.663477205991512 -23.137402418587271 0 -23.137402418587271 40.833457672782515 0 0 0 0 -13.783072762176459 -12.296507530981351 0 -12.296507530981351 3.1390706405172608 0 0 0 0 -11.915011655699345 -28.500183718795256 0 -28.500183718795256 21.493266182052366 0 0 0 0 -12.191528305425891 -233.83836374686689 0 -233.83836374686689 -193.85801760500576 0 0 0 0 -21.648892657805845 -220.68462044721747 0 -220.68462044721747 -0.073220765160613155 0 0 0 0 -50.136395248788176 -145.48570025697126 0 -145.48570025697126 -188.18517447078455 0 0 0 0 -149.39536711110122 448.82027484141906 0 448.82027484141906 509.46877555459264 0 0 0 0 -12.980119025382123 -3.1747276026022342 0 -3.1747276026022342 0.95701449739664901 0 0 0 0 -253.49996741414361 319.91908707174048 0 319.91908707174048 740.04499367231301 0 0 0 0 -5.6990824990001556 -0.50352532908379199 0 -0.50352532908379199 0.26810032353816682 0 0 0 0 -152.33643647090503 171.2153647022692 0 171.2153647022692 542.37288637638858 0 0 0 0 -122.08384730625767 -316.64019208787494 0 -316.64019208787494 -541.71665986753169 0 0 0 0 -126.34412438721483 -88.288476821854715 0 -88.288476821854715 -100.76049653753893 0 0 0 0 -491.06503087796591 -187.58836050089224 0 -187.58836050089224 -58.90643792107808 0 0 0 0 -183.97166348028259 -485.49761131974401 0 -485.49761131974401 -243.35743662143614 0 0 0 0 -242.83067332859355 144.06813923295746 0 144.06813923295746 -30.614555494554935 0 0 0 0 -222.31474854021508 -202.57031035524324 0 -202.57031035524324 491.38035246670387 0 0 0 0 150.35761616077798 -47.264567910680569 0 -47.264567910680569 -53.472779809158851 0 0 0 0 -34.651019605022157 -17.198322789003555 0 -17.198322789003555 -35.121804909651445 0 0 0 0 -32.094136730098398 -29.8229007143172 0 -29.8229007143172 -103.33939279576748 0 0 0 0 -72.555660389742116 45.253405086284033 0 45.253405086284033 -105.18340937084031 0 0 0 0 -38.158731612886186 -4.0989315846014733 0 -4.0989315846014733 -70.759540696902604 0 0 0 0 -51.928915964104817 14.759310361569305 0 14.759310361569305 -74.441661987980183 0 0 0 0 -38.632499770348659 -2.8332982848995698 0 -2.8332982848995698 -65.080898832484763 0 0 0 0 -60.217617612659524 38.303520037934163 0 38.303520037934163 -38.361723904978703 0 0 0 0 -115.59480436938611 32.205044559293242 0 32.205044559293242 -14.201651952109955 0 0 0 0 -42.436485701169659 60.865811767245788 0 60.865811767245788 -12.092677195435954 0 0 0 0 -66.103300758637488 3.4763852054875883 0 3.4763852054875883 -30.987494383295314 0 0 0 0 -14.047508085466688 10.699408962552866 0 10.699408962552866 53.61036101308423 0 0 0 0 -21.278189704757096 -38.105111995767942 0 -38.105111995767942 -9.8956936963284079 0 0 0 0 -10.21448338785558 -74.933494669577499 0 -74.933494669577499 4.3490544774806494 0 0 0 0 -60.253392751673346 -87.851726519226901 0 -87.851726519226901 -63.188361019291278 0 0 0 0 -61.827627753565594 -9.4310127012268694 0 -9.4310127012268694 -54.594760103917679 0 0 0 0 -180.55226359267544 -6.7400296456597175 0 -6.7400296456597175 -48.444433291234304 0 0 0 0 -142.62960994555169 -205.05529953836344 0 -205.05529953836344 -126.39819571274052 0 0 0 0 -135.11930198303889 -70.917510090987832 0 -70.917510090987832 -64.555316387714811 0 0 0 0 -6.3074889693380101 -126.30015232127255 0 -126.30015232127255 -80.998249096522045 0 0 0 0 -42.050695557969448 -45.921985988108418 0 -45.921985988108418 -11.50298019195543 0 0 0 0 10.348582788152271 -67.2887104033573 0 -67.2887104033573 -20.335482551698533 0 0 0 0 -36.312856573295448 -124.98066863849044 0 -124.98066863849044 -75.830954966933177 0 0 0 0 0.91199781282921322 -114.34245156086229 0 -114.34245156086229 -95.188678124841203 0 0 0 0 61.104416425405361 -109.24477952414441 0 -109.24477952414441 -122.98639821306199 0 0 0 0 4.4466321882209741 -180.88425418984792 0 -180.88425418984792 -198.09946842099134 0 0 0 0 43.154444535226503 -197.40800973833285 0 -197.40800973833285 -191.82450371881646 0 0 0 0 -24.005675466165485 -1.123909319279619 0 -1.123909319279619 -2.4898452664274373 0 0 0 0 -24.797615541880077 -7.7043859149225682 0 -7.7043859149225682 4.2313369569773727 0 0 0 0 -12.886578102209654 -5.1455979456878467 0 -5.1455979456878467 -2.3312400805916562 0 0 0 0 -19.212470711385322 -13.84380633616945 0 -13.84380633616945 5.1246806653725798 0 0 0 0 -16.017247898151254 -7.7832499303590339 0 -7.7832499303590339 -2.2413978894619504 0 0 0 0 25.093994280265179 -28.032193023070818 0 -28.032193023070818 -21.172611591414807 0 0 0 0 -8.8785364393079362 -9.9039215134312144 0 -9.9039215134312144 87.55637014116428 0 0 0 0 -39.656746326334542 -48.798259023937362 0 -48.798259023937362 143.09964853802285 0 0 0 0 -6.058209740443175 -2.961467977790627 0 -2.961467977790627 -1.2304371484988756 0 0 0 0 -7.7719227624329505 -81.066479733538245 0 -81.066479733538245 -5.8942792940888467 0 0 0 0 -24.237884323525577 -35.242045024967382 0 -35.242045024967382 62.345143028491066 0 0 0 0 39.395469926887017 -50.203437382715833 0 -50.203437382715833 65.17803558381479 0 0 0 0 -21.234716200851835 -9.3797886888460198 0 -9.3797886888460198 5.681929845531613 0 0 0 0 -4.2457795855880249 -10.554687528780278 0 -10.554687528780278 -10.525841729962011 0 0 0 0 -13.617379148089924 -6.5947102018901091 0 -6.5947102018901091 -2.694399120377736 0 0 0 0 -14.45135140196362 -20.726325100149552 0 -20.726325100149552 5.395133111196742 0 0 0 0 13.927646582487796 -21.765520207456802 0 -21.765520207456802 -56.792912262365007 0 0 0 0 -9.2871131608990254 -14.02537653647164 0 -14.02537653647164 -9.2696832783460135 0 0 0 0 -17.223957539961702 -2.1833781241858219 0 -2.1833781241858219 -9.2565935206162067 0 0 0 0 -40.242622912632214 0.33664558094642416 0 0.33664558094642416 235.09214129392581 0 0 0 0 -17.142146700200101 -86.903086070741892 0 -86.903086070741892 123.98491599693625 0 0 0 0 -4.8125476885178102 -1.1579989296601647 0 -1.1579989296601647 0.25071509523492225 0 0 0 0 69.727138071299123 -21.159331918226883 0 -21.159331918226883 -15.56252393798809 0 0 0 0 -74.257947924837936 -8.6663575496509111 0 -8.6663575496509111 114.48420519014007 0 0 0 0 -26.434439629527333 -31.309067896047509 0 -31.309067896047509 -8.2189978229339431 0 0 0 0 30.183509526323178 -16.671846795600231 0 -16.671846795600231 -7.2560227731010229 0 0 0 0 -25.895259353921062 -8.351531569229472 0 -8.351531569229472 5.0174809149344171 0 0 0 0 -140.98112693753501 -9.4106746270135773 0 -9.4106746270135773 120.76366884535582 0 0 0 0 -44.079726588075573 -105.71658824547944 0 -105.71658824547944 -184.28109065988201 0 0 0 0 -0.95658394364173205 0.2435652374823345 0 0.2435652374823345 -0.20642794048148472 0 0 0 0 -0.41719914485292975 30.762441427021031 0 30.762441427021031 -5.4741745843666649 0 0 0 0 -24.567494247876311 6.5612881135031103 0 6.5612881135031103 6.9875748261911212 0 0 0 0 -10.926313608622877 -46.043775719404948 0 -46.043775719404948 33.190728299479815 0 0 0 0 19.935105359589215 -12.242526288549925 0 -12.242526288549925 6.0297633827658501 0 0 0 0 -2.5254250798162445 -2.2120285265201929 0 -2.2120285265201929 -0.80970873065730409 0 0 0 0 -18.711091501149781 -10.977616854369238 0 -10.977616854369238 -3.0119453277274602 0 0 0 0 107.79437270239578 -37.405962538857239 0 -37.405962538857239 12.943892560720542 0 0 0 0 70.607654165214626 -82.149171287563149 0 -82.149171287563149 5.6074988605823819 0 0 0 0 35.659057415090501 19.288977081161647 0 19.288977081161647 3.2798019056745034 0 0 0 0 14.421584533679379 35.023495658183691 0 35.023495658183691 -4.8800812211538869 0 0 0 0 -12.580149092900683 27.04286869583575 0 27.04286869583575 38.245445928021581 0 0 0 0 -19.593478885333752 -13.915945077274955 0 -13.915945077274955 71.625042619860324 0 0 0 0 -4.4165578272953638 1.9537859021864676 0 1.9537859021864676 3.8771428981656975 0 0 0 0 -23.743671897173044 18.968817681914516 0 18.968817681914516 61.768164682327779 0 0 0 0 -19.46071880593081 24.199877292106976 0 24.199877292106976 25.911552285493599 0 0 0 0 -17.41457784245722 15.001052387204709 0 15.001052387204709 25.351587298478989 0 0 0 0 -20.76241204739199 13.592472526682286 0 13.592472526682286 52.622740141836402 0 0 0 0 -13.937308201420819 -6.2294117534438556 0 -6.2294117534438556 46.619995761707742 0 0 0 0 -7.0686116060242057 -5.5599116430548747 0 -5.5599116430548747 -2.0716787955252585 0 0 0 0 -1.8028416227173665 -5.4657574884993991 0 -5.4657574884993991 -4.1235804471236399 0 0 0 0 -10.012416317551356 -4.1499505362596949 0 -4.1499505362596949 0.83390607252669646 0 0 0 0 -13.877220193142421 -1.3394901552683223 0 -1.3394901552683223 30.456150855205124 0 0 0 0 -6.5449099562392803 19.321626933815423 0 19.321626933815423 21.323718795019886 0 0 0 0 -2.6770852260524407 13.416582889845813 0 13.416582889845813 21.376855405034803 0 0 0 0 -10.898931157280458 6.4358366765845858 0 6.4358366765845858 36.59627909624578 0 0 0 0 -15.737877905761707 -26.249482823320477 0 -26.249482823320477 32.109700138851622 0 0 0 0 -6.8952052936529071 -5.9888879830539281 0 -5.9888879830539281 -30.192984478891958 0 0 0 0 -6.0611427667990938 -46.563836879862549 0 -46.563836879862549 -31.990734381183302 0 0 0 0 -3.8354531878644593 -4.4184137937050902 0 -4.4184137937050902 -3.435862848167039 0 0 0 0 -21.003866772843764 -14.242811031475057 0 -14.242811031475057 -7.2551532378298838 0 0 0 0 -18.642844312664238 -26.657751172093867 0 -26.657751172093867 -7.4627568964597231 0 0 0 0 -46.660851145981724 -10.485697966568296 0 -10.485697966568296 12.541418055410759 0 0 0 0 -8.9402760316152126 -11.675859939102111 0 -11.675859939102111 -7.0586389290897387 0 0 0 0 -14.362291967034338 -7.761961606725448 0 -7.761961606725448 -1.7938847955138177 0 0 0 0 -48.660166890007531 -25.872269284550612 0 -25.872269284550612 2.2980341740285439 0 0 0 0 -0.85302879118158614 -0.39041007175446651 0 -0.39041007175446651 1.9089947068116544 0 0 0 0 -22.295036723429803 -31.629077243565916 0 -31.629077243565916 -52.352935098751914 0 0 0 0 13.737136242896668 7.9077022586207022 0 7.9077022586207022 -21.705759777877574 0 0 0 0 -5.9575338269700353 0.31270986827324521 0 0.31270986827324521 -0.067519300499750301 0 0 0 0 0.57077979605998053 -0.69204847461168839 0 -0.69204847461168839 -0.27809519129699112 0 0 0 0 -16.548460403631907 -76.167725473485916 0 -76.167725473485916 -46.118833038093726 0 0 0 0 -169.76472881250083 14.303638603012587 0 14.303638603012587 -4.0603960032130999 0 0 0 0 -67.004718804819277 -20.26340403006725 0 -20.26340403006725 6.8555606113077374 0 0 0 0 -21.033444383821916 -50.529688371938391 0 -50.529688371938391 23.361407140360825 0 0 0 0 38.083912983827759 -66.308889384348731 0 -66.308889384348731 14.830892423431123 0 0 0 0 0.51155197924256868 -0.39600742992740834 0 -0.39600742992740834 0.15726146079457592 0 0 0 0 117.71295874356292 1.9673775654246128 0 1.9673775654246128 -103.52036114746306 0 0 0 0 14.948220431397203 13.564673849683459 0 13.564673849683459 -62.732872873140877 0 0 0 0 58.689111244355445 -37.628468209472885 0 -37.628468209472885 -3.0093349107737595 0 0 0 0 64.4872959452332 9.7143039268503344 0 9.7143039268503344 -104.41753196012723 0 0 0 0 97.619090952117404 -25.151682373106269 0 -25.151682373106269 -98.641135519257659 0 0 0 0 99.290136520197848 -16.644867743994837 0 -16.644867743994837 -85.030427874188717 0 0 0 0 174.37022169210832 18.027512662571098 0 18.027512662571098 -133.00406303020463 0 0 0 0 147.70529300422641 -12.305502696537587 0 -12.305502696537587 -116.01116461737794 0 0 0 0 125.49322542746086 -26.336818956013303 0 -26.336818956013303 -116.12750065558046 0 0 0 0 159.44122291446547 -40.460050338067958 0 -40.460050338067958 -123.2599381267828 0 0 0 0 135.01143355279055 -128.70359350199215 0 -128.70359350199215 -31.426057665472399 0 0 0 0 122.3872832422494 -62.615400240541931 0 -62.615400240541931 -128.22340628741858 0 0 0 0 122.39142762427218 -57.482787140077562 0 -57.482787140077562 -79.171908082127629 0 0 0 0 5.2321697009273578 -2.6304530929329637 0 -2.6304530929329637 -0.67394706692091333 0 0 0 0 56.609848550539027 -39.286521841501326 0 -39.286521841501326 58.546913787226003 0 0 0 0 56.164572853129357 -26.734788514173488 0 -26.734788514173488 -5.1797215309538842 0 0 0 0 -17.892684629779083 -10.785640192998819 0 -10.785640192998819 -0.79777122733809236 0 0 0 0 -13.882585546223453 -8.5580780539070247 0 -8.5580780539070247 11.178714255005278 0 0 0 0 3.6566296665114351 56.768065180327312 0 56.768065180327312 76.953655769909346 0 0 0 0 -1.4641729031313417 6.0043121357639393 0 6.0043121357639393 31.10675207461761 0 0 0 0 35.516859673851286 3.8448887901240596 0 3.8448887901240596 16.90498903990192 0 0 0 0 -26.638311314549355 28.361209710291405 0 28.361209710291405 9.4813584855364752 0 0 0 0 -46.346717290383822 -3.8819507229391093 0 -3.8819507229391093 20.060459573796834 0 0 0 0 -4.9741222022789771 1.0390619038775526 0 1.0390619038775526 4.8794299923141828 0 0 0 0 -11.74100925874518 22.934170918913878 0 22.934170918913878 -16.679671941496053 0 0 0 0 -11.928630875489034 33.238694002346165 0 33.238694002346165 4.5142869258652354 0 0 0 0 -22.429968725340586 50.624841300470052 0 50.624841300470052 35.117366454265721 0 0 0 0 -57.624692400568165 5.4187052403240159 0 5.4187052403240159 79.990428025139408 0 0 0 0 13.963934486857397 -19.20894666247159 0 -19.20894666247159 29.461991696116456 0 0 0 0 -4.4932975902471028 6.624675534209203 0 6.624675534209203 37.474603863566919 0 0 0 0 -62.136039903401979 11.188887464840263 0 11.188887464840263 76.026693771405917 0 0 0 0 30.469082252369844 -6.5232105578149913 0 -6.5232105578149913 34.759299837222443 0 0 0 0 -28.273137849086197 -70.472177783798884 0 -70.472177783798884 13.980346550811419 0 0 0 0 28.635172403834986 -21.441611073021534 0 -21.441611073021534 -64.512298222781737 0 0 0 0 -102.59032651734015 51.872999911305783 0 51.872999911305783 124.44621067752325 0 0 0 0 -175.5470593037644 55.664482028957309 0 55.664482028957309 240.69101859430907 0 0 0 0 -148.93616405771661 -118.14453496422837 0 -118.14453496422837 32.786709735175009 0 0 0 0 -81.750085362873506 -127.39444727982413 0 -127.39444727982413 -67.012746962135907 0 0 0 0 -1.9699303836132742 -0.20731341342269571 0 -0.20731341342269571 0.03778204363354426 0 0 0 0 1.7043404658234067 -24.255943379186135 0 -24.255943379186135 -183.48762110225061 0 0 0 0 -145.04331867639848 82.171641292878348 0 82.171641292878348 -7.3596206123660295 0 0 0 0 47.609273571346421 -17.058306821372071 0 -17.058306821372071 42.407330230115349 0 0 0 0 -1.7720280926332634 -2.1492043952139284 0 -2.1492043952139284 18.524117249824485 0 0 0 0 -43.673977810634824 15.300509025777046 0 15.300509025777046 70.688823650270933 0 0 0 0 -20.875822737355293 -7.7865075535291091 0 -7.7865075535291091 7.7235840380882985 0 0 0 0 -116.52673517883522 83.022617596648161 0 83.022617596648161 172.12305940191277 0 0 0 0 -15.97491970853298 26.723816704481578 0 26.723816704481578 38.223392444902856 0 0 0 0 -166.22260949372139 -166.89148352483448 0 -166.89148352483448 136.45832428386439 0 0 0 0 92.697025308953016 35.518281629735611 0 35.518281629735611 -95.28687645052014 0 0 0 0 -5.6463837877236074 -3.9704749976781386 0 -3.9704749976781386 43.630460861487336 0 0 0 0 -50.98959202975675 -1.4997736397472181 0 -1.4997736397472181 45.20162614414221 0 0 0 0 -31.6518012440647 -10.176194575390582 0 -10.176194575390582 14.026484831818379 0 0 0 0 -34.130424329952803 10.559224476840427 0 10.559224476840427 63.018543576642514 0 0 0 0 -4.9113290499517461 4.9096391426433001 0 4.9096391426433001 11.873327522968793 0 0 0 0 -73.080724734954856 -37.111511621921636 0 -37.111511621921636 21.824556051096806 0 0 0 0 -38.626193344185594 -6.5173485320974578 0 -6.5173485320974578 10.224796641618013 0 0 0 0 -53.056601761018101 -46.82299785343821 0 -46.82299785343821 -19.736510861244597 0 0 0 0 -97.347531459970924 -85.500597049353019 0 -85.500597049353019 -2.7353804379854409 0 0 0 0 16.097396283294074 -44.014742763259164 0 -44.014742763259164 -12.8708705724639 0 0 0 0 -37.351731263333932 -17.163429486286987 0 -17.163429486286987 42.251366221898934 0 0 0 0 -76.756689898698824 -58.992092855928604 0 -58.992092855928604 -32.91317479602003 0 0 0 0 -1.3095763403376353 -1.4486164040761764 0 -1.4486164040761764 0.86589527308072078 0 0 0 0 -20.628108031465672 -83.1082689045611 0 -83.1082689045611 -125.32221092015243 0 0 0 0 -130.8923047728822 -144.1556492925065 0 -144.1556492925065 -21.302149001832731 0 0 0 0 -92.399510308841855 -86.501293531659485 0 -86.501293531659485 -19.797190018720357 0 0 0 0 -202.0117507020841 -127.73694722784512 0 -127.73694722784512 -11.322495567463193 0 0 0 0 -199.43607359289308 -112.56476323988682 0 -112.56476323988682 -5.691918423864081 0 0 0 0 -253.86338895731024 -104.34350861180155 0 -104.34350861180155 17.07071328272923 0 0 0 0 -133.69490590626083 -34.235506551465733 0 -34.235506551465733 -26.496890106494902 0 0 0 0 -250.9796118269951 -22.141827456627652 0 -22.141827456627652 3.9783401425474949 0 0 0 0 -225.22806293297617 141.40529316785296 0 141.40529316785296 233.2341487560152 0 0 0 0 -457.93498006716982 -2.9068708007653186 0 -2.9068708007653186 152.71486172120785 0 0 0 0 -149.51743149100366 47.201504518163006 0 47.201504518163006 51.364723908836822 0 0 0 0 -220.1392301420783 -182.83799346890828 0 -182.83799346890828 -36.961526942339333 0 0 0 0 -506.03878563884064 -277.8161247468588 0 -277.8161247468588 -11.350828533901222 0 0 0 0 11.232391730962263 -26.852303502118048 0 -26.852303502118048 -69.043434592324047 0 0 0 0 -216.53851646473777 -143.2028594565918 0 -143.2028594565918 50.971671032431004 0 0 0 0 -29.089950388588477 38.309173022566938 0 38.309173022566938 3.0174290718414341 0 0 0 0 88.114844978306792 -20.885685128823752 0 -20.885685128823752 -145.59364727664251 0 0 0 0 -61.470689119863891 -256.13035319383243 0 -256.13035319383243 -376.49196741004198 0 0 0 0 -689.64632861082646 16.842345286616364 0 16.842345286616364 23.618574575125422 0 0 0 0 -2.655780460356624 -0.50925283921824871 0 -0.50925283921824871 0.5547586432941376 0 0 0 0 -115.10747381868714 -298.36171646692537 0 -298.36171646692537 -658.95335603212152 0 0 0 0 -6.4273923161993594 -2.505502436413348 0 -2.505502436413348 0.2592744454884981 0 0 0 0 -602.63933831217582 -261.84308404437616 0 -261.84308404437616 -263.15113926878621 0 0 0 0 3.5376747755233566 -1.5773255586002755 0 -1.5773255586002755 -2.5523564914886876 0 0 0 0 -811.90654354744038 192.50585429207786 0 192.50585429207786 205.69200226446446 0 0 0 0 -196.59469197054568 287.90541397410743 0 287.90541397410743 -207.6633693425938 0 0 0 0 -228.20702315971721 -169.69886845879591 0 -169.69886845879591 44.212286427977233 0 0 0 0 -47.707842552626971 -222.23362933995122 0 -222.23362933995122 -272.99965283543452 0 0 0 0 -468.96655024101346 70.748449828876801 0 70.748449828876801 84.540788802012685 0 0 0 0 -290.58901832345873 -135.68645156614366 0 -135.68645156614366 27.111430970604488 0 0 0 0 -44.80924175043765 -241.64969194882178 0 -241.64969194882178 353.92165353116616 0 0 0 0 -45.093422711724997 123.92410048090278 0 123.92410048090278 101.56203580567762 0 0 0 0 -48.053536030107352 -42.916785855679336 0 -42.916785855679336 -109.90421363886344 0 0 0 0 -78.503053343141801 -100.67200305639199 0 -100.67200305639199 -73.260230067695375 0 0 0 0 -183.80597895069513 -208.98317955360471 0 -208.98317955360471 -125.11034005042166 0 0 0 0 -59.872720337603823 -69.233497164311302 0 -69.233497164311302 -265.43044327426924 0 0 0 0 -38.1316347329157 -108.989601293644 0 -108.989601293644 -226.66451555639651 0 0 0 0 -17.050962573034411 -4.1984974359643701 0 -4.1984974359643701 0.88123479827412687 0 0 0 0 -66.340823330334388 37.221303975748015 0 37.221303975748015 288.45192435691024 0 0 0 0 -19.905935196504288 -89.708660645418604 0 -89.708660645418604 110.94453788558712 0 0 0 0 18.749921610971796 -8.1359634496693616 0 -8.1359634496693616 -24.262757480375512 0 0 0 0 -139.83752548754273 1.0522798133850984 0 1.0522798133850984 -7.0623253058947739 0 0 0 0 56.103890262231289 63.35879407462744 0 63.35879407462744 10.838555342912514 0 0 0 0 -53.612133915019513 10.637185133798994 0 10.637185133798994 -154.7024796611704 0 0 0 0 -96.577060535142664 28.468051883760381 0 28.468051883760381 -32.54843259592235 0 0 0 0 -133.55164266534848 -35.208033526999316 0 -35.208033526999316 -105.7205386011301 0 0 0 0 -17.649382668612816 -163.32274998960611 0 -163.32274998960611 -179.87348695094624 0 0 0 0 -167.359714420003 -74.168665689929185 0 -74.168665689929185 -47.272739378917777 0 0 0 0 1.3715501655533444 -116.60609927076848 0 -116.60609927076848 -106.80174478866275 0 0 0 0 -2.495026976524656 1.7621847771914645 0 1.7621847771914645 -0.007414572721014423 0 0 0 0 -72.649015492720537 -23.810199676013212 0 -23.810199676013212 -22.466714769390819 0 0 0 0 -64.474715628587546 10.626178577712039 0 10.626178577712039 -83.091212271603581 0 0 0 0 -42.113454085992998 -25.324137338817309 0 -25.324137338817309 -28.547874704561494 0 0 0 0 -5.8352566821122309 -80.964435140813293 0 -80.964435140813293 -42.918340053362044 0 0 0 0 17.880006380219129 -65.573608861979665 0 -65.573608861979665 -135.48599695727899 0 0 0 0 50.862553181461408 15.10495926141175 0 15.10495926141175 -26.454787817261604 0 0 0 0 -182.40768851435496 -96.816899400977945 0 -96.816899400977945 106.41431117650973 0 0 0 0 -11.428374468561742 -128.82614772025306 0 -128.82614772025306 -93.139832434008895 0 0 0 0 -148.62467245696462 -26.074361994043556 0 -26.074361994043556 -36.20209470549409 0 0 0 0 -167.08171091528493 67.131237309276003 0 67.131237309276003 96.966892548013561 0 0 0 0 -498.14669414574746 -276.29025225281839 0 -276.29025225281839 -2.5385175837004113 0 0 0 0 -302.74828013613296 -149.8618925352439 0 -149.8618925352439 460.56985109576817 0 0 0 0 10.074906875952735 -15.10237735447204 0 -15.10237735447204 -8.5884470226350995 0 0 0 0 2.1078077080944837 1.4956659215295929 0 1.4956659215295929 0.6391544391056172 0 0 0 0 -42.269771592138568 -58.039895568984321 0 -58.039895568984321 -69.614102895069664 0 0 0 0 -42.04854725126188 -26.485732658130132 0 -26.485732658130132 -10.199484920000032 0 0 0 0 1.0571118573425338 -52.777200521802115 0 -52.777200521802115 -62.956793999932415 0 0 0 0 -11.074776780544198 -67.898213818220938 0 -67.898213818220938 -67.115181013705296 0 0 0 0 -23.736292748712003 -68.026555415803159 0 -68.026555415803159 -26.220316074903167 0 0 0 0 -50.821045843578759 -73.449968922503103 0 -73.449968922503103 17.224674517492531 0 0 0 0 -23.12834272433247 -67.186229242266563 0 -67.186229242266563 -35.539922824936184 0 0 0 0 -33.442684916011785 -58.999565229950122 0 -58.999565229950122 -37.402552045074117 0 0 0 0 -32.621042823739117 -55.192009301217695 0 -55.192009301217695 -42.551722287021221 0 0 0 0 7.9958241181612095 -14.744469157319543 0 -14.744469157319543 -11.173699188434878 0 0 0 0 -73.725738868102781 -68.656817494926145 0 -68.656817494926145 -2.8396432118897792 0 0 0 0 -245.03374499664642 -402.23170957933144 0 -402.23170957933144 -252.88012778350094 0 0 0 0 -69.865359545889078 -47.434396031072538 0 -47.434396031072538 -17.631481170998086 0 0 0 0 -141.12855817255331 -443.01552331372204 0 -443.01552331372204 -238.09785346663193 0 0 0 0 -305.35795993861393 -94.865328144483101 0 -94.865328144483101 2.8017975849797949 0 0 0 0 -39.301569206895266 -18.748491697220686 0 -18.748491697220686 -3.6650335869637027 0 0 0 0 -17.394326726876898 -13.82703617678726 0 -13.82703617678726 1.2581778333278635 0 0 0 0 -50.634015171730425 -8.4030219685864722 0 -8.4030219685864722 97.705381326921895 0 0 0 0 -36.932630674806632 -20.435150096836992 0 -20.435150096836992 -9.2577798362080195 0 0 0 0 313.62374827360327 235.51432933737942 0 235.51432933737942 -129.99930858753942 0 0 0 0 -36.998215913208639 -11.145642494934819 0 -11.145642494934819 -4.6128142607625691 0 0 0 0 1.803987517329972 -0.33562838266496442 0 -0.33562838266496442 -4.1096774413034023 0 0 0 0 -58.206394351327617 -37.177423706470108 0 -37.177423706470108 14.360436727660272 0 0 0 0 -43.009195428690873 -46.865711294081848 0 -46.865711294081848 -39.810393273304726 0 0 0 0 -65.781453908231924 -70.285968527176919 0 -70.285968527176919 73.562227118563897 0 0 0 0 -32.136008347467623 -10.817598891141358 0 -10.817598891141358 -4.7304945295612262 0 0 0 0 -25.869667827777448 -45.47481232575683 0 -45.47481232575683 -39.630883570827791 0 0 0 0 -46.393521818803492 -29.529043072079247 0 -29.529043072079247 -22.178498854135864 0 0 0 0 -89.864094422388007 -137.18414439781463 0 -137.18414439781463 48.785570295243133 0 0 0 0 -40.831919724383624 -14.565497140207469 0 -14.565497140207469 66.658558717139385 0 0 0 0 -47.993198213007418 -4.9046740021693722 0 -4.9046740021693722 69.035352502142814 0 0 0 0 -37.69514292787062 -12.604063285572465 0 -12.604063285572465 40.906388677158134 0 0 0 0 -31.810976561755524 -53.642817579764596 0 -53.642817579764596 -123.55339757431148 0 0 0 0 -24.613666693407339 -3.2544653525611622 0 -3.2544653525611622 1.6740202951783503 0 0 0 0 -81.115070081315935 31.959028946527724 0 31.959028946527724 202.02716257088014 0 0 0 0 -17.378951263119234 -102.47917046068869 0 -102.47917046068869 -8.2730850166044547 0 0 0 0 -35.44877285257644 -15.898229826201941 0 -15.898229826201941 -41.255977084272672 0 0 0 0 -53.992022327456652 -62.603899080811289 0 -62.603899080811289 -49.277898876785912 0 0 0 0 -75.564243980866451 -36.364477310062185 0 -36.364477310062185 -7.9849718900947497 0 0 0 0 -69.374855154437682 -90.429998912191877 0 -90.429998912191877 56.566421428447939 0 0 0 0 -54.603540590702323 -74.071612418595578 0 -74.071612418595578 -56.902737006752432 0 0 0 0 -158.74335335298383 -93.994248253640762 0 -93.994248253640762 -41.34587530873182 0 0 0 0 -3.5934100176603465 -9.3387626764960388 0 -9.3387626764960388 -7.8014234322503349 0 0 0 0 -61.515009904520412 -81.784448669362973 0 -81.784448669362973 -1.5359804968670687 0 0 0 0 30.073146959621226 -120.0847855856382 0 -120.0847855856382 -52.364978161588169 0 0 0 0 -54.130719281493896 -37.727211583418274 0 -37.727211583418274 -25.502790939766271 0 0 0 0 -714.06694019117276 -219.86922821245389 0 -219.86922821245389 328.14677681903953 0 0 0 0 265.57215555448784 -54.139724265857012 0 -54.139724265857012 -338.99347691405092 0 0 0 0 -106.67121361274621 -264.38442959591384 0 -264.38442959591384 -285.49863459770944 0 0 0 0 -357.62954196792271 -76.551005885822747 0 -76.551005885822747 -9.8403942248432941 0 0 0 0 -96.360022264125291 67.906841257630958 0 67.906841257630958 -5.0732573493953623 0 0 0 0 358.20439733122475 -209.88848765095827 0 -209.88848765095827 -299.65286285479942 0 0 0 0 -5.4773396967585768 1.0148284523449647 0 1.0148284523449647 0.25565666268975051 0 0 0 0 390.76107059439528 -149.54664216081937 0 -149.54664216081937 -324.85169692752743 0 0 0 0 -105.96055517379136 23.222544365467456 0 23.222544365467456 -35.713366678583952 0 0 0 0 -212.05885271192528 67.512479076507134 0 67.512479076507134 12.6359898937244 0 0 0 0 12.337188698322279 28.243259117152775 0 28.243259117152775 -45.638866752976355 0 0 0 0 31.741974916716572 29.889854224184546 0 29.889854224184546 -27.088722539437185 0 0 0 0 -68.121382553246804 58.84969149059998 0 58.84969149059998 -21.889448823697535 0 0 0 0 -16.150284537870448 4.8319764115753117 0 4.8319764115753117 15.29044331602271 0 0 0 0 -243.85685291167465 10.85670468321905 0 10.85670468321905 42.903803517228766 0 0 0 0 -91.670905170416518 44.059551877867648 0 44.059551877867648 -194.59386088683414 0 0 0 0 -280.20576938381419 -178.41005405523674 0 -178.41005405523674 -103.44508365062734 0 0 0 0 -2.5975114389480609 0.62188514936437223 0 0.62188514936437223 0.48367238316896993 0 0 0 0 -227.74559707668959 -158.96275367143494 0 -158.96275367143494 45.940806216304964 0 0 0 0 39.633989366408059 -31.760450877990678 0 -31.760450877990678 -275.60864673692527 0 0 0 0 -107.44604753490421 79.960269956623506 0 79.960269956623506 174.41553273986531 0 0 0 0 191.48797713287422 206.80247888468045 0 206.80247888468045 -71.409714667664502 0 0 0 0 -15.184124201507075 7.8247887189402263 0 7.8247887189402263 -98.3714376004923 0 0 0 0 70.514610752245062 -22.469027539530089 0 -22.469027539530089 -123.2178958589916 0 0 0 0 -65.967801208185847 -2.4853736564271003 0 -2.4853736564271003 -83.656453106550543 0 0 0 0 -87.510438559810609 -90.295524059377513 0 -90.295524059377513 -63.595715399144183 0 0 0 0 -45.38714921058272 -43.947178929490292 0 -43.947178929490292 -108.77867627538819 0 0 0 0 -24.730172602561652 -23.60024351654738 0 -23.60024351654738 -97.171044876411315 0 0 0 0 -4.6082249029641389 9.0168847638007037 0 9.0168847638007037 -49.56065317181492 0 0 0 0 -18.169453419301135 -25.128188026178407 0 -25.128188026178407 -97.135614519710998 0 0 0 0 -38.432469138017041 -4.422916312691541 0 -4.422916312691541 -56.971154261268566 0 0 0 0 -38.671758668628172 -13.930716518835652 0 -13.930716518835652 -88.710960385349154 0 0 0 0 -26.904790342669003 -9.7609458134643319 0 -9.7609458134643319 -87.473291233005511 0 0 0 0 -13.148364409687929 -37.800623875904705 0 -37.800623875904705 -119.55692635434343 0 0 0 0 -85.584457390054013 -64.178460893675719 0 -64.178460893675719 -95.547407428770384 0 0 0 0 -39.547780717650312 -20.150979613318896 0 -20.150979613318896 -53.844427214515235 0 0 0 0 -74.130501929990714 -29.969155931597015 0 -29.969155931597015 -46.787983089500585 0 0 0 0 -75.496821569184249 -11.967437611336777 0 -11.967437611336777 -8.2526981014902958 0 0 0 0 -49.003763198124943 -15.497435978245448 0 -15.497435978245448 -15.111763121332842 0 0 0 0 -57.585866022884147 -6.5597179877872804 0 -6.5597179877872804 -13.934202245339293 0 0 0 0 -42.757434108963935 -15.906669275786953 0 -15.906669275786953 -52.567508819049408 0 0 0 0 -32.244827025482664 6.2173071414534888 0 6.2173071414534888 -10.642653109863659 0 0 0 0 -14.939132103449083 -7.5134729500068715 0 -7.5134729500068715 -46.185072095103237 0 0 0 0 -89.660461760795442 14.48007804283634 0 14.48007804283634 -21.459478732284879 0 0 0 0 -67.986528721103241 31.069543466385802 0 31.069543466385802 -44.385277021560796 0 0 0 0 -158.35013435523433 20.105115552470579 0 20.105115552470579 -21.867336396035171 0 0 0 0 -68.139520733492191 42.563778905665195 0 42.563778905665195 -42.298776473089674 0 0 0 0 -121.3593341303349 -19.77286404891106 0 -19.77286404891106 -11.506912009258322 0 0 0 0 -134.83809745708277 -34.759442105775861 0 -34.759442105775861 -28.165534633264997 0 0 0 0 -95.502296202088473 -20.481515875137575 0 -20.481515875137575 -32.232097442478448 0 0 0 0 -90.960557225422235 -0.55002438830751998 0 -0.55002438830751998 -14.197542189773685 0 0 0 0 -123.19016568823281 -1.9195362001702279 0 -1.9195362001702279 -14.213483718896441 0 0 0 0 -87.389755886557396 -10.004306437593755 0 -10.004306437593755 -20.910982221392715 0 0 0 0 -92.05687297534314 -17.812220813017348 0 -17.812220813017348 -10.239373543870897 0 0 0 0 -98.420564209714939 -2.9723578793215779 0 -2.9723578793215779 -5.9857440066102754 0 0 0 0 -92.408786867032177 -0.65028770974811323 0 -0.65028770974811323 -10.106466680025733 0 0 0 0 -77.81725768463366 4.8699656534203086 0 4.8699656534203086 -26.139415914138226 0 0 0 0 -86.201916378297028 -0.17774107377749715 0 -0.17774107377749715 -27.649702906346192 0 0 0 0 -83.750399063254008 -7.9868159463576376 0 -7.9868159463576376 -15.900762043412215 0 0 0 0 -85.165372857270995 -13.58787447179111 0 -13.58787447179111 -29.098772194022331 0 0 0 0 -85.392814566796005 -40.099810588271225 0 -40.099810588271225 -41.039397947132784 0 0 0 0 -65.315786325925728 -11.904866907446831 0 -11.904866907446831 -29.784424301672516 0 0 0 0 -74.133055892816628 1.4386625184342847 0 1.4386625184342847 -49.971486746254413 0 0 0 0 -49.848892270827491 -37.682402810600024 0 -37.682402810600024 -41.141631067042454 0 0 0 0 -49.509487231742241 -33.270045152728812 0 -33.270045152728812 -58.250437462556874 0 0 0 0 -9.7727235319616739 5.6685127267758162 0 5.6685127267758162 -50.945447179549205 0 0 0 0 -125.24036579381209 -109.84885368960158 0 -109.84885368960158 -32.562683808814484 0 0 0 0 -222.67066040735517 -26.417421726106454 0 -26.417421726106454 6.3448041333977017 0 0 0 0 -143.61282457084599 -27.826601880826274 0 -27.826601880826274 6.1399810450807308 0 0 0 0 -130.37564299980295 -18.640984649169695 0 -18.640984649169695 -9.8212399801250285 0 0 0 0 -177.09830820983916 56.352610115905691 0 56.352610115905691 -16.975685880714821 0 0 0 0 1.4831385545181206 -0.12418534026204497 0 -0.12418534026204497 -1.1290633627567761 0 0 0 0 -15.52714170247782 -56.030247115151269 0 -56.030247115151269 39.614238769107487 0 0 0 0 -28.455589126417181 23.800713433867713 0 23.800713433867713 13.525002219390217 0 0 0 0 2.0653064453363186 13.665198410817993 0 13.665198410817993 -13.793700370465103 0 0 0 0 -54.373071123591217 12.901413802057618 0 12.901413802057618 -2.9039594030941771 0 0 0 0 -44.849361913496978 2.9261735619985529 0 2.9261735619985529 -11.048320131805667 0 0 0 0 -11.985997912837774 -0.063515692526380008 0 -0.063515692526380008 -28.889721315331371 0 0 0 0 -32.500957416224992 17.723053531177356 0 17.723053531177356 -8.3171448154512291 0 0 0 0 -23.149549519832362 13.165943888379843 0 13.165943888379843 -24.207804899074745 0 0 0 0 -20.747730765957385 19.457146106686196 0 19.457146106686196 -7.7594853513537601 0 0 0 0 -27.348882115329616 6.3494966997052416 0 6.3494966997052416 -30.474953533427197 0 0 0 0 -44.542965069660568 51.877878678445768 0 51.877878678445768 -51.481499090028592 0 0 0 0 -153.04678052649251 -4.9357545882642171 0 -4.9357545882642171 44.13230086113046 0 0 0 0 17.449031878990354 14.626024781387287 0 14.626024781387287 -65.695127041212459 0 0 0 0 -175.23191025418055 21.562918402879973 0 21.562918402879973 14.680932274349288 0 0 0 0 -466.31124033543165 205.57089262078898 0 205.57089262078898 -157.14673070509346 0 0 0 0 -357.73992964951321 5.2497660907361023 0 5.2497660907361023 14.855999108014771 0 0 0 0 -8.7170284098966704 -5.3909202892523354 0 -5.3909202892523354 -3.1118513949801061 0 0 0 0 21.568280809726275 -327.21825945406738 0 -327.21825945406738 162.66184648045692 0 0 0 0 -120.26856307749404 153.96134520920009 0 153.96134520920009 -161.82555997229747 0 0 0 0 268.94434506897232 195.79586867998842 0 195.79586867998842 -406.75775472155146 0 0 0 0 -25.237011008057834 -11.979753036636687 0 -11.979753036636687 -5.3890613852446458 0 0 0 0 -249.33257589166169 -144.12084916016829 0 -144.12084916016829 374.90479133973349 0 0 0 0 11.55693791648082 -93.985833772896399 0 -93.985833772896399 15.750085512352143 0 0 0 0 -241.86742160865106 237.39888691976148 0 237.39888691976148 -28.911455268017107 0 0 0 0 1.5622055273315425 -2.8971240206847853 0 -2.8971240206847853 -6.1530975926681553 0 0 0 0 -337.43872485397151 181.85239350399206 0 181.85239350399206 396.4366659724094 0 0 0 0 433.43542816751869 -247.40685360562975 0 -247.40685360562975 -555.40839977197743 0 0 0 0 -476.85418473015307 -16.071484378913283 0 -16.071484378913283 189.45988511875385 0 0 0 0 160.6254734218237 247.26694505782143 0 247.26694505782143 54.091253738147316 0 0 0 0 -229.70711132776341 -190.53775269109065 0 -190.53775269109065 -413.30540905996622 0 0 0 0 -7.1325460557966665 7.5943968527230616 0 7.5943968527230616 12.369158106139347 0 0 0 0 -111.96069289434672 120.10210669991466 0 120.10210669991466 178.73454689297614 0 0 0 0 -265.07634078746196 -124.20947661551236 0 -124.20947661551236 131.66649534827286 0 0 0 0 -87.848583810338766 -22.978865897427525 0 -22.978865897427525 7.9890679031762426 0 0 0 0 50.371654731905437 109.67917712964118 0 109.67917712964118 -156.74077885584848 0 0 0 0 -5.5934791821890144 6.3782848421520288 0 6.3782848421520288 6.4196198938417615 0 0 0 0 -95.572995488671211 -25.635691482328028 0 -25.635691482328028 2.9274417950505534 0 0 0 0 -326.36044426909211 214.56596917972865 0 214.56596917972865 321.8108315980744 0 0 0 0 -276.13312349413172 -22.087161733701578 0 -22.087161733701578 358.93932773957567 0 0 0 0 532.13607424579095 54.856995855202513 0 54.856995855202513 -807.87042779622379 0 0 0 0 -139.15404802785633 -138.01506804898872 0 -138.01506804898872 149.32294826712678 0 0 0 0 -233.86690016346256 -63.812661731167282 0 -63.812661731167282 116.20644832351536 0 0 0 0 -75.628457995684585 -15.686227948441228 0 -15.686227948441228 106.56839674221555 0 0 0 0 -93.520391992279656 -136.2989342021433 0 -136.2989342021433 153.53323036076108 0 0 0 0 -59.115608279389562 -106.00784391562047 0 -106.00784391562047 -66.421591112943133 0 0 0 0 -101.52156624507188 -77.857901953090277 0 -77.857901953090277 80.793657250493197 0 0 0 0 -79.031821725473407 -19.803816649055577 0 -19.803816649055577 5.6347407948123802 0 0 0 0 86.805362909901305 208.01860755630514 0 208.01860755630514 260.96863027747804 0 0 0 0 90.572541822562926 -79.490661039582847 0 -79.490661039582847 -151.51807174300586 0 0 0 0 -20.16172700891866 -6.4477275888340664 0 -6.4477275888340664 -4.9121845310585854 0 0 0 0 13.082720242004143 -47.576888556160156 0 -47.576888556160156 105.31433437841611 0 0 0 0 -776.3575200131163 301.93651152061648 0 301.93651152061648 -257.16405965595823 0 0 0 0 59.788071043563832 -40.65698383076915 0 -40.65698383076915 9.087350406591213 0 0 0 0 57.229144224635093 -19.015105319638678 0 -19.015105319638678 -60.23516660099699 0 0 0 0 -5.1709555148700019 22.163047373817335 0 22.163047373817335 -6.5899570397104981 0 0 0 0 65.480626300729838 38.473907859969913 0 38.473907859969913 18.958876435079219 0 0 0 0 65.650578976137979 -118.79346206376013 0 -118.79346206376013 -136.75500062472565 0 0 0 0 -159.5742237791128 -108.27082281248659 0 -108.27082281248659 -32.190788619046543 0 0 0 0 -1137.2399621821241 -472.82401669523279 0 -472.82401669523279 176.38633673851973 0 0 0 0 -385.80035343539203 -241.60414541474438 0 -241.60414541474438 -26.021185804017477 0 0 0 0 -353.54070734992274 15.896713644747706 0 15.896713644747706 -16.032878519155929 0 0 0 0 -2.9708062639692798 -270.83801353342642 0 -270.83801353342642 -99.235082679573679 0 0 0 0 -913.39315471818554 18.301609805668704 0 18.301609805668704 14.732184399675816 0 0 0 0 -1056.4574025346374 -697.75580754593659 0 -697.75580754593659 -114.65319897801419 0 0 0 0 1038.8225670836691 -1380.5274153405771 0 -1380.5274153405771 -1439.2072942971026 0 0 0 0 -34.101847077079583 -140.96320179367558 0 -140.96320179367558 -133.32448793797312 0 0 0 0 784.82790670410031 274.55455974454162 0 274.55455974454162 -358.5270584482214 0 0 0 0 -3495.4159816287611 -1077.4996100902074 0 -1077.4996100902074 124.57509299304382 0 0 0 0 -570.4743047762604 -245.97960739242808 0 -245.97960739242808 -1438.286768871093 0 0 0 0 -616.99621799575107 1024.3303018205752 0 1024.3303018205752 -1114.4215838344967 0 0 0 0 243.20997602072021 208.51522411045914 0 208.51522411045914 -1029.0746850297269 0 0 0 0 -5.800307379242156 5.9203277064812454 0 5.9203277064812454 -7.5732999858305758 0 0 0 0 -2068.4340798312696 -119.99486152231654 0 -119.99486152231654 -23.154659836562189 0 0 0 0 -1884.5861191113363 74.567909295332271 0 74.567909295332271 -1077.2303302082298 0 0 0 0 -2452.4167325069939 -411.78673865783503 0 -411.78673865783503 -51.414251780158963 0 0 0 0 -2045.660117357118 51.625788208953793 0 51.625788208953793 335.87044860600986 0 0 0 0 -1152.0862619823893 -583.35423625731869 0 -583.35423625731869 -260.99120417866516 0 0 0 0 -767.91629267422832 36.016605413653423 0 36.016605413653423 -2.4080880653024224 0 0 0 0 -1395.8446891641797 297.13317681250817 0 297.13317681250817 148.81169741518761 0 0 0 0 -1018.9374677920496 -180.94606960551647 0 -180.94606960551647 113.81483888476237 0 0 0 0 -1795.2429148640658 -127.84770502913148 0 -127.84770502913148 266.32805757564142 0 0 0 0 -2561.2683546990593 -97.196350658845091 0 -97.196350658845091 412.41943095922096 0 0 0 0 -2901.8796915489511 -312.23206653573453 0 -312.23206653573453 289.09165835113492 0 0 0 0 -3498.7369831470132 29.567737726373288 0 29.567737726373288 170.93631210553289 0 0 0 0 -3672.2226913345366 316.62068398973003 0 316.62068398973003 0.79853374766895413 0 0 0 0 -3502.7739163351071 -110.90141274775719 0 -110.90141274775719 -291.71221269904146 0 0 0 0 -3968.9741298356093 666.36907118396812 0 666.36907118396812 -73.070501723729976 0 0 0 0 -343.21546516705712 176.13442807216379 0 176.13442807216379 80.29273230578076 0 0 0 0 -780.29875293859368 -182.93210015309469 0 -182.93210015309469 250.96680509273176 0 0 0 0 -358.06523136157193 -597.45373604670783 0 -597.45373604670783 -81.323880215134125 0 0 0 0 -14.042182454183518 -5.8432991391175335 0 -5.8432991391175335 -1.695319835361655 0 0 0 0 -392.09723869391019 -419.22849904523036 0 -419.22849904523036 224.7766061186685 0 0 0 0 -3536.2037832599235 1449.2924889597448 0 1449.2924889597448 -583.15250026161038 0 0 0 0 1.888033720858175 -0.023591524460528035 0 -0.023591524460528035 -0.53410916499167693 0 0 0 0 655.06690622493625 137.55382735834064 0 137.55382735834064 29.467820344400025 0 0 0 0 -91.960037486394867 -253.46853198805161 0 -253.46853198805161 257.85638759030013 0 0 0 0 -55.648062438951456 96.656956281597616 0 96.656956281597616 93.227594626019481 0 0 0 0 -780.95114993722018 20.028917606405315 0 20.028917606405315 -136.32936865610804 0 0 0 0 -281.78635887154087 -152.68781319932089 0 -152.68781319932089 56.568379664064935 0 0 0 0 -2639.8521625550165 297.38725598100689 0 297.38725598100689 433.46817639468031 0 0 0 0 -591.48742126702564 589.21397525591419 0 589.21397525591419 -450.5559234622051 0 0 0 0 -30.290330495924849 -15.66784896697348 0 -15.66784896697348 -4.1485815573014513 0 0 0 0 -2008.6952325559687 1379.2374116809071 0 1379.2374116809071 -690.73231505326703 0 0 0 0 -3262.9324476512265 246.02688195274175 0 246.02688195274175 123.85413780013803 0 0 0 0 -2085.4630202484113 367.2135297279778 0 367.2135297279778 136.30131397795833 0 0 0 0 -2041.2358555618375 501.04632870538592 0 501.04632870538592 32.235247135297527 0 0 0 0 -857.21262874577951 336.61439572414542 0 336.61439572414542 -4.2489199487166616 0 0 0 0 -1097.4753447433177 88.826504669477231 0 88.826504669477231 55.072427208594831 0 0 0 0 -38.887160705198767 15.246468178753275 0 15.246468178753275 -14.138754821536395 0 0 0 0 -9.4964956068915285 -2.5734071972475192 0 -2.5734071972475192 0.4082122978307412 0 0 0 0 -131.34731527745316 239.29825339879119 0 239.29825339879119 -181.40377091590187 0 0 0 0 -45.338580598327098 -23.24048430117108 0 -23.24048430117108 -3.6467526936262402 0 0 0 0 -21.005768885988033 1.4273040770364247 0 1.4273040770364247 -10.158346064615074 0 0 0 0 -27.396396195494845 12.464719159283931 0 12.464719159283931 -2.8470839542555453 0 0 0 0 -61.939716375927674 9.3036674366867373 0 9.3036674366867373 2.1964026684818236 0 0 0 0 -37.970386587519897 15.845057980444039 0 15.845057980444039 -13.912567005336058 0 0 0 0 -34.586951065825076 15.970302083974246 0 15.970302083974246 -15.293956345355237 0 0 0 0 -37.07120345836563 4.7473212099591251 0 4.7473212099591251 8.0339192222533011 0 0 0 0 -55.984264177261139 61.258431099561676 0 61.258431099561676 101.06785611748273 0 0 0 0 -92.742876084572345 -45.189881150114047 0 -45.189881150114047 161.68392423310979 0 0 0 0 -82.106272266886663 -53.077027024547533 0 -53.077027024547533 67.201510294285271 0 0 0 0 -52.538996858012979 65.445732853899074 0 65.445732853899074 -16.580011311827093 0 0 0 0 -2.4789847852687217 2.3439272472183603 0 2.3439272472183603 2.1947776978607134 0 0 0 0 -5.8446363731636666 20.409973813752913 0 20.409973813752913 -4.240780083273421 0 0 0 0 -4.5849330532377621 -0.9076959110144287 0 -0.9076959110144287 9.2969373846082419 0 0 0 0 -6.9291756210441235 30.693322648598269 0 30.693322648598269 122.11820458678289 0 0 0 0 2.5927949207616621 39.13405740241339 0 39.13405740241339 96.154654692661552 0 0 0 0 -26.696359203313477 194.23395341441929 0 194.23395341441929 -0.50060914468341233 0 0 0 0 -7.0175617143104319 58.464760287774652 0 58.464760287774652 120.5769324899081 0 0 0 0 17.116976710327435 107.52376330213465 0 107.52376330213465 78.447371169764693 0 0 0 0 25.182536280248314 75.846196733361012 0 75.846196733361012 56.015234833180173 0 0 0 0 0.99355483475665096 62.828187513630382 0 62.828187513630382 54.84738664010672 0 0 0 0 -322.97260257527523 -194.68637301578985 0 -194.68637301578985 64.775181954443497 0 0 0 0 85.675755155709339 193.28320363742077 0 193.28320363742077 -406.45753312404906 0 0 0 0 0.85552534982771533 -0.62493434543623039 0 -0.62493434543623039 2.2461778303443038 0 0 0 0 220.43833193377213 131.3330604840848 0 131.3330604840848 -42.223535303558094 0 0 0 0 -3695.724861279281 -59.292424849290782 0 -59.292424849290782 0.98905220824456197 0 0 0 0 -3231.0466044363857 1076.4965170063938 0 1076.4965170063938 -27.116733201747891 0 0 0 0 -939.01579386505182 -72.345598905451737 0 -72.345598905451737 -0.43875255788048462 0 0 0 0 -14.105021977753893 11.43022379930963 0 11.43022379930963 -8.8588366449563445 0 0 0 0 -8.5086528316169279 644.96049964985684 0 644.96049964985684 -325.38686406705386 0 0 0 0 -5248.5769590393502 -927.65437415552026 0 -927.65437415552026 580.04201723540746 0 0 0 0 -4620.4718928142211 530.79215713639485 0 530.79215713639485 66.825722764374177 0 0 0 0 -4149.6216091460665 -697.56893349806478 0 -697.56893349806478 408.32626476220275 0 0 0 0 -4258.8699896316957 63.855902275492809 0 63.855902275492809 772.98443662174759 0 0 0 0 -3103.7654104390822 -451.83105705376283 0 -451.83105705376283 953.36633466454532 0 0 0 0 -32.634080789498853 28.87027445448517 0 28.87027445448517 -25.753318136092989 0 0 0 0 -1339.1909372648588 373.02288921436514 0 373.02288921436514 406.98908919787937 0 0 0 0 -1235.8700389395817 643.51756803515855 0 643.51756803515855 -372.96054442980858 0 0 0 0 -872.06630473828409 2225.4036621363016 0 2225.4036621363016 -1621.3932078263551 0 0 0 0 -557.93155262035725 -422.97233549875818 0 -422.97233549875818 171.32919226238437 0 0 0 0 -23.698854722679215 -2.399599776085708 0 -2.399599776085708 -14.406114078666441 0 0 0 0 -5737.7529314394724 -702.6546593945942 0 -702.6546593945942 1150.8246143595279 0 0 0 0 -5464.79437921512 1129.6813129813872 0 1129.6813129813872 356.03175416332442 0 0 0 0 -5536.335067407771 -958.78479505692803 0 -958.78479505692803 -254.60365675630783 0 0 0 0 -4436.305574866914 868.13358256615356 0 868.13358256615356 -422.86022753746329 0 0 0 0 -5698.6032791788166 1139.2965032364677 0 1139.2965032364677 379.99324768326642 0 0 0 0 -7.9187131610451758 5.1696560864280912 0 5.1696560864280912 -2.773830004948703 0 0 0 0 -1170.3617924180289 -991.50808991549752 0 -991.50808991549752 -236.66593024164376 0 0 0 0 -1738.3087978753283 2153.6268558780989 0 2153.6268558780989 -179.71367168816141 0 0 0 0 -362.58916198935185 -527.60831630871871 0 -527.60831630871871 -335.48162901091564 0 0 0 0 -337.15569988402422 -808.68351614631683 0 -808.68351614631683 -991.56193588352835 0 0 0 0 -380.77372550549444 -424.97235085855277 0 -424.97235085855277 -253.83610020800734 0 0 0 0 -39.227730774524389 -313.15153767915854 0 -313.15153767915854 -530.53937229733265 0 0 0 0 -41.84425578157061 159.94365171769959 0 159.94365171769959 -132.73554252421854 0 0 0 0 -102.80874985414266 -177.13226338479762 0 -177.13226338479762 -971.17775822257215 0 0 0 0 -10.305452602054913 -5.7112202604530324 0 -5.7112202604530324 -3.6684078317762872 0 0 0 0 -87.818865211709635 84.19468666546436 0 84.19468666546436 33.025727521888712 0 0 0 0 -8.295218016805876 6.9429518337447149 0 6.9429518337447149 -3.5736922017708554 0 0 0 0 -17.421760867902776 103.54956864384121 0 103.54956864384121 67.662041229677925 0 0 0 0 -48.174573958574911 -35.526263856822425 0 -35.526263856822425 26.104285916842855 0 0 0 0 -118.53983063927444 101.75637351662692 0 101.75637351662692 -112.71159603877356 0 0 0 0 -248.77070365383406 -101.47370968849589 0 -101.47370968849589 -82.432643890784618 0 0 0 0 -16.694912548756633 18.345732112333607 0 18.345732112333607 -21.596661068344609 0 0 0 0 -11.117921793476853 268.46083284184579 0 268.46083284184579 92.153102804632908 0 0 0 0 -12.725427491647793 15.154343168209081 0 15.154343168209081 -17.42938495538348 0 0 0 0 -171.19804384977033 -149.8969989193024 0 -149.8969989193024 -47.607154054007424 0 0 0 0 -125.20573885124759 -143.57213245912681 0 -143.57213245912681 -199.08559911079738 0 0 0 0 -103.91367434918357 -7.0733041014057108 0 -7.0733041014057108 11.811064211096891 0 0 0 0 -180.93172435829183 -23.79620203855211 0 -23.79620203855211 127.73306356588182 0 0 0 0 -460.22906628130295 -277.40700800805098 0 -277.40700800805098 -51.472548891143106 0 0 0 0 -875.8097722685925 -163.27198358666692 0 -163.27198358666692 22.617434646353161 0 0 0 0 -240.74703450443485 -111.9279717846448 0 -111.9279717846448 3.133878569472472 0 0 0 0 -274.22083506839408 -146.28799504150311 0 -146.28799504150311 18.9309943574724 0 0 0 0 -640.29502437313204 304.42675818723865 0 304.42675818723865 -411.66982995151534 0 0 0 0 -343.36950244464242 39.623600042714543 0 39.623600042714543 -444.77953627147645 0 0 0 0 -1063.0149438722146 -196.80439677105619 0 -196.80439677105619 -16.959686850475236 0 0 0 0 -14.34239382503263 13.126614959412322 0 13.126614959412322 -5.7137145139267567 0 0 0 0 -1833.8651931913664 -499.35580995416285 0 -499.35580995416285 -145.47415897945211 0 0 0 0 -1585.3961666340911 -3.0782530319809212 0 -3.0782530319809212 844.1302602412261 0 0 0 0 -4436.333614715033 -460.27313753020917 0 -460.27313753020917 -145.820430840087 0 0 0 0 -799.24648697909288 -616.93623958242461 0 -616.93623958242461 77.923049112706849 0 0 0 0 -782.83294722396749 -455.88186679223975 0 -455.88186679223975 160.77047705459836 0 0 0 0 -1250.2519373187315 1324.4493323421066 0 1324.4493323421066 -1367.8031582249287 0 0 0 0 -3048.5160250939953 554.28830727733566 0 554.28830727733566 -236.39224399173827 0 0 0 0 -2486.9121952106943 75.86349496702303 0 75.86349496702303 412.92130481537833 0 0 0 0 -1483.4713415835722 701.32720492008116 0 701.32720492008116 -230.65887690197849 0 0 0 0 -1574.5772194610945 792.35273869409468 0 792.35273869409468 -35.161640408834501 0 0 0 0 -603.5001893958688 352.05379825402269 0 352.05379825402269 9.7100410124294285 0 0 0 0 538.23263161678187 659.94623492039295 0 659.94623492039295 253.63438462904583 0 0 0 0 0.92400207981707183 0.21839330359541975 0 0.21839330359541975 1.7283977907398285 0 0 0 0 -1515.7733047237925 530.52642366027158 0 530.52642366027158 1.6803224923805828 0 0 0 0 -125.12308435733939 128.33123403232366 0 128.33123403232366 -100.01630451754318 0 0 0 0 -12.385437276908917 -3.3985386068495984 0 -3.3985386068495984 7.5652225309470662 0 0 0 0 -108.76083967755403 108.69569909793358 0 108.69569909793358 -313.51492614275867 0 0 0 0 -886.60207197525597 1027.1051902363729 0 1027.1051902363729 -632.34138147775684 0 0 0 0 -196.77868078667962 -60.127510854998945 0 -60.127510854998945 -98.504476344700379 0 0 0 0 -131.70011604740284 382.5761487253958 0 382.5761487253958 -629.1117680481542 0 0 0 0 122.05585080019955 -123.94208067208274 0 -123.94208067208274 -198.82967279135846 0 0 0 0 267.14670351593668 277.10525867521221 0 277.10525867521221 -509.63925912924606 0 0 0 0 -232.2040371570547 41.717938651062468 0 41.717938651062468 53.090333692566674 0 0 0 0 228.38078089999908 -163.58549442685671 0 -163.58549442685671 -306.67105695838018 0 0 0 0 71.555876527461805 -65.479489936752543 0 -65.479489936752543 -366.52838659846202 0 0 0 0 -37.64378537952399 2.9330925514302244 0 2.9330925514302244 -0.24733521498148958 0 0 0 0 -6.1270370275007622 -2.9867669754634107 0 -2.9867669754634107 2.0715643476556833 0 0 0 0 -30.688621273620811 -84.314002813795014 0 -84.314002813795014 456.03829507709315 0 0 0 0 22.494063830636151 -154.90899401448041 0 -154.90899401448041 -305.89205272830077 0 0 0 0 -118.10333249576797 -102.20633191398838 0 -102.20633191398838 39.799452152969025 0 0 0 0 33.973789023584686 125.03463811746587 0 125.03463811746587 -32.010016142342238 0 0 0 0 615.77612454511109 47.60321287664874 0 47.60321287664874 -483.47900689991911 0 0 0 0 503.5768740187923 -383.59246144013559 0 -383.59246144013559 -112.2482457415681 0 0 0 0 2416.8930906767491 -1131.6311332855948 0 -1131.6311332855948 -293.40230935539785 0 0 0 0 -0.98692984425903774 0.40595552448909622 0 0.40595552448909622 -0.0021925457804661264 0 0 0 0 -1280.2953455158786 464.40259292739938 0 464.40259292739938 527.15085534052287 0 0 0 0 -968.94877709227148 -208.14743820855938 0 -208.14743820855938 -529.82376851544996 0 0 0 0 -14.410337604837366 3.3942887636408408 0 3.3942887636408408 -1.2655836220807517 0 0 0 0 -3133.7153708843107 850.31660849500531 0 850.31660849500531 -31.319391769235153 0 0 0 0 -3405.2450306572282 1254.8541615123434 0 1254.8541615123434 -1545.5063765728773 0 0 0 0 -2401.9523127045395 1831.9209016077584 0 1831.9209016077584 -1248.3160807423228 0 0 0 0 -4560.8008009074911 1669.3472452748024 0 1669.3472452748024 482.70401477890937 0 0 0 0 -1483.7562030295667 1011.5225102543482 0 1011.5225102543482 -1322.0499896385977 0 0 0 0 -43.010741635945919 3.5455661601573478 0 3.5455661601573478 0.54354881200672267 0 0 0 0 -3904.8251494418073 1870.0816348668614 0 1870.0816348668614 131.01568085125848 0 0 0 0 -4004.4973784677059 1892.5468878120616 0 1892.5468878120616 133.57244529161835 0 0 0 0 -2196.5770654872758 -42.869139632352017 0 -42.869139632352017 256.49253411277323 0 0 0 0 -240.17333037403296 -1066.0840544713019 0 -1066.0840544713019 -206.26245603671669 0 0 0 0 -3072.4987781950476 -1539.0507989368093 0 -1539.0507989368093 241.07257885283161 0 0 0 0 -327.33926106915169 584.96205615720373 0 584.96205615720373 1275.870743862728 0 0 0 0 -93.164610725458601 8.3065666125998199 0 8.3065666125998199 1.2111170486419587 0 0 0 0 281.61513558954175 804.36260941063892 0 804.36260941063892 184.32809759228257 0 0 0 0 -1272.9956997437839 352.92765526833443 0 352.92765526833443 -216.19660855544009 0 0 0 0 -57.77166071621059 19.362999343227301 0 19.362999343227301 -292.60673601411054 0 0 0 0 -2705.1533854031877 163.24665357296055 0 163.24665357296055 105.65883818616544 0 0 0 0 -1907.4410374140134 -544.23343742418172 0 -544.23343742418172 184.72231168102985 0 0 0 0 -3081.0095317940431 -411.76923347852846 0 -411.76923347852846 365.45866886679869 0 0 0 0 -307.5593408387067 210.1270625099603 0 210.1270625099603 -503.61071444909032 0 0 0 0 -432.51409610819246 586.77672712909509 0 586.77672712909509 -1.0860638380566714 0 0 0 0 -1937.9008133455209 -132.27462334491608 0 -132.27462334491608 4.0572451341251234 0 0 0 0 -1961.6648957396828 39.321111336299175 0 39.321111336299175 -955.89097595913518 0 0 0 0 118.20543572882889 118.20144341528254 0 118.20144341528254 -9.5427171000838307 0 0 0 0 -3.1531163787585683 -16.411938744450918 0 -16.411938744450918 -0.35927800904226764 0 0 0 0 -18.425672054785537 -6.0400764662364255 0 -6.0400764662364255 11.194774258679363 0 0 0 0 -30.930195655368152 1.9097261272180095 0 1.9097261272180095 13.309284874811873 0 0 0 0 -953.48397587012732 439.84754413433359 0 439.84754413433359 -5.8018663816535687 0 0 0 0 375.11271082329768 -234.65241349997342 0 -234.65241349997342 -223.58715737686362 0 0 0 0 2.2310127544413376 1.8495467516025315 0 1.8495467516025315 1.6057205323895847 0 0 0 0 -310.52775085901703 210.64269484451441 0 210.64269484451441 -207.24613474540502 0 0 0 0 -1.8639862736454234 335.59467967279863 0 335.59467967279863 -271.50036288623653 0 0 0 0 1.4929769984254051 17.472425095485761 0 17.472425095485761 -8.6570963645864314 0 0 0 0 177.82151933515706 164.61849575340079 0 164.61849575340079 -224.92976182125039 0 0 0 0 2.4760908317000769 7.629872567703103 0 7.629872567703103 5.8006029632267255 0 0 0 0 -2.4827241209568456 42.044642059142092 0 42.044642059142092 16.175478019546283 0 0 0 0 -522.02596188307507 388.24565231274528 0 388.24565231274528 1.2667841709908316 0 0 0 0 23.658773270610254 349.29496447864176 0 349.29496447864176 -96.049188306408723 0 0 0 0 24.582011649730703 45.439721718882538 0 45.439721718882538 -15.021436563555653 0 0 0 0 3.7790716040198333 4.3429027327863139 0 4.3429027327863139 -0.82785419253533732 0 0 0 0 21.009861768136034 304.64152292375366 0 304.64152292375366 -333.87728228441756 0 0 0 0 -27.803281479622456 551.83438375599701 0 551.83438375599701 -9.7176545573411204 0 0 0 0 -1490.9320857662242 492.41304739422048 0 492.41304739422048 868.08056339494942 0 0 0 0 91.38763171339815 44.697038371830786 0 44.697038371830786 406.98656237388877 0 0 0 0 -98.963174862864179 10.536309903612107 0 10.536309903612107 2.2358908593679567 0 0 0 0 -565.78966663050232 344.38041045609043 0 344.38041045609043 397.06184031341309 0 0 0 0 375.1237296534091 -199.58328965370811 0 -199.58328965370811 497.81274838229911 0 0 0 0 99.978296007204335 13.608936287781034 0 13.608936287781034 576.24804250055831 0 0 0 0 146.75182723414582 362.40429079356699 0 362.40429079356699 -104.37514587076112 0 0 0 0 -344.48687963857083 269.96608785840181 0 269.96608785840181 926.6602693107252 0 0 0 0 -1173.4960993694258 306.26489788699837 0 306.26489788699837 1024.25802539502 0 0 0 0 -521.46231050620554 -179.23984493359239 0 -179.23984493359239 -168.54784661434678 0 0 0 0 -41.96845247859892 19.759937830459876 0 19.759937830459876 0.71740681940167406 0 0 0 0 -4.7041188557751639 -2.229598635396421 0 -2.229598635396421 1.5995654232219136 0 0 0 0 -9.4682294233571156 287.08949356945573 0 287.08949356945573 916.30894495399662 0 0 0 0 -16.80253528352776 2.1158430746034469 0 2.1158430746034469 3.3457910532350041 0 0 0 0 -52.295388908474706 281.91548604127638 0 281.91548604127638 923.04400905297507 0 0 0 0 -60.081257445136998 16.790149626736525 0 16.790149626736525 -1.0913179470478567 0 0 0 0 -74.220192559761927 -140.31325150366138 0 -140.31325150366138 -220.70129095727953 0 0 0 0 -44.112839798443019 -298.9445105459472 0 -298.9445105459472 -485.56856956236516 0 0 0 0 -97.867005662265001 -52.48286791505052 0 -52.48286791505052 -54.430647159351793 0 0 0 0 -189.55647086005774 -32.61240740296671 0 -32.61240740296671 22.457263273379795 0 0 0 0 -199.51130754943733 -135.44018055378729 0 -135.44018055378729 -74.287626244313287 0 0 0 0 -39.101203614816768 7.9829128070753086 0 7.9829128070753086 5.7260883413325701 0 0 0 0 -54.044008569908328 6.2908549650875329 0 6.2908549650875329 7.4645892908297355 0 0 0 0 -41.105977920116857 20.534693054066565 0 20.534693054066565 1.3393070820425237 0 0 0 0 -42.266316276305588 20.675118605916623 0 20.675118605916623 2.1805851794654245 0 0 0 0 0.54885260988189088 24.625714112213473 0 24.625714112213473 5.8353644047122373 0 0 0 0 -42.143439255873091 20.552014516080362 0 20.552014516080362 2.0367001091217389 0 0 0 0 -22.441837041827966 18.97263330411522 0 18.97263330411522 2.1909517522126407 0 0 0 0 -32.791201010128134 13.074603924858252 0 13.074603924858252 -0.95318081305890701 0 0 0 0 -24.955639559986594 1.8850985800468152 0 1.8850985800468152 8.0953839867547686 0 0 0 0 -19.963658253356698 -32.050481081363174 0 -32.050481081363174 -2.7132301541133841 0 0 0 0 -24.536976892349003 -0.92931075615260994 0 -0.92931075615260994 3.7403307466452178 0 0 0 0 -4.6580635167669016 13.61427216648508 0 13.61427216648508 -9.3834368213068 0 0 0 0 -25.241426370994304 6.0952319817665739 0 6.0952319817665739 2.5909636866784922 0 0 0 0 -106.68801878319937 110.36908123903567 0 110.36908123903567 -38.156931390466291 0 0 0 0 -33.41620193750714 40.19360411717971 0 40.19360411717971 -66.781997510283702 0 0 0 0 -8.4444436072953977 4.569847456104088 0 4.569847456104088 1.9838516556661976 0 0 0 0 -5.7918368836373375 0.55515346104996866 0 0.55515346104996866 0.35313790623277963 0 0 0 0 -54.925445032975404 16.69339177917178 0 16.69339177917178 5.8255347960897925 0 0 0 0 -33.90353557720664 0.30054538832457967 0 0.30054538832457967 29.393125230172629 0 0 0 0 -23.849707005096946 -1.0294671260585631 0 -1.0294671260585631 4.5387359216581675 0 0 0 0 -30.260697139136028 14.931799136568275 0 14.931799136568275 -0.11071023155734711 0 0 0 0 -46.26293963059652 28.542092186459669 0 28.542092186459669 20.644718181575215 0 0 0 0 -32.951930729002925 -1.2756204384716057 0 -1.2756204384716057 12.296725218514439 0 0 0 0 -34.952502307562099 -5.1968139539201275 0 -5.1968139539201275 16.869032647084168 0 0 0 0 -6.0808515060539392 -4.5028855687801865 0 -4.5028855687801865 11.84683052580352 0 0 0 0 -26.382479153209715 -18.323397542544569 0 -18.323397542544569 -80.170520764309913 0 0 0 0 -198.49555319309002 -164.05363560257842 0 -164.05363560257842 -58.189721392548194 0 0 0 0 -9.2110182518591941 -3.9219209387860019 0 -3.9219209387860019 5.3673805485335651 0 0 0 0 -159.01856330732699 -115.75946179932203 0 -115.75946179932203 0.58946604384027523 0 0 0 0 -156.36668833042495 -220.44094015912481 0 -220.44094015912481 16.423967211926993 0 0 0 0 -463.38582163851243 -27.893973846946665 0 -27.893973846946665 96.567242403702039 0 0 0 0 -224.15723107423401 -214.92334213282174 0 -214.92334213282174 -29.746171350346231 0 0 0 0 -180.47218807943864 -171.84446135998996 0 -171.84446135998996 3.0575513581561609 0 0 0 0 -146.57065173209776 -194.4400349776929 0 -194.4400349776929 15.666414030924898 0 0 0 0 -43.497604528864031 0.012666907012089723 0 0.012666907012089723 5.0991069342896935 0 0 0 0 -42.548599380977976 -0.76316516959195724 0 -0.76316516959195724 2.9407002085417844 0 0 0 0 -38.132182812012616 -5.6854209805171649 0 -5.6854209805171649 8.8303070831948389 0 0 0 0 -24.555577429011464 -25.905307379223814 0 -25.905307379223814 51.134542314042847 0 0 0 0 -57.982077447865208 4.6402021231772359 0 4.6402021231772359 2.6909470352208253 0 0 0 0 0.40231392906994756 -26.133819921728275 0 -26.133819921728275 15.053550832996642 0 0 0 0 -113.85089014739788 -71.206409245447503 0 -71.206409245447503 209.92757836316468 0 0 0 0 -115.85060750428238 -225.06754912900806 0 -225.06754912900806 67.134119762933551 0 0 0 0 -74.912616548652295 -8.2281293361811549 0 -8.2281293361811549 -9.5994080734276395 0 0 0 0 -338.24468125947169 -92.548837010637271 0 -92.548837010637271 67.34162039306193 0 0 0 0 -274.21697817236418 -65.549318894557928 0 -65.549318894557928 81.941729218363434 0 0 0 0 -145.32252287439769 -61.354368479412869 0 -61.354368479412869 -34.365084121314794 0 0 0 0 -82.916321841286845 -40.894738597219884 0 -40.894738597219884 58.611372682078581 0 0 0 0 -148.58111325744539 -69.347313215065697 0 -69.347313215065697 101.42934365938527 0 0 0 0 -150.61371893604519 -120.50980691415771 0 -120.50980691415771 49.143609399165143 0 0 0 0 -109.89271222459502 -119.26465396253957 0 -119.26465396253957 27.687393598074777 0 0 0 0 -185.43016889493447 -128.62657343869409 0 -128.62657343869409 -124.4998042482348 0 0 0 0 -181.00323689682409 -162.41262149532395 0 -162.41262149532395 1.9331405408829596 0 0 0 0 -3.4359471986275025 -11.870951792115983 0 -11.870951792115983 2.6924953125006277 0 0 0 0 -418.42067013919586 -232.58571315008066 0 -232.58571315008066 -143.62267717293116 0 0 0 0 -334.14280001906445 18.726734497216057 0 18.726734497216057 -31.645770165616796 0 0 0 0 -309.68509255053868 -119.84056271592902 0 -119.84056271592902 85.576766463615058 0 0 0 0 -157.16939169191755 -10.920023212753222 0 -10.920023212753222 41.906521542594419 0 0 0 0 -288.35898124743471 -0.80731229305843044 0 -0.80731229305843044 129.7728083180009 0 0 0 0 -173.70203297265107 -43.561679361408096 0 -43.561679361408096 49.319767692868481 0 0 0 0 -38.277024553244701 -32.144940521106491 0 -32.144940521106491 118.86526251529358 0 0 0 0 -186.58672125008889 -25.823073617788395 0 -25.823073617788395 161.27028382242679 0 0 0 0 -144.40174474281957 53.52624859118805 0 53.52624859118805 210.39581268095117 0 0 0 0 -82.143033647473203 64.453426176886751 0 64.453426176886751 71.148276545948306 0 0 0 0 -57.832656201062832 20.456800130149531 0 20.456800130149531 15.142300112535009 0 0 0 0 -264.42036627873313 -21.739630607241452 0 -21.739630607241452 48.867989166488769 0 0 0 0 -54.853478702254506 -6.4459385345967917 0 -6.4459385345967917 6.8258217453012549 0 0 0 0 -93.939479614928132 78.852930443785226 0 78.852930443785226 79.847566337948592 0 0 0 0 -120.91514854360503 -47.061686165773381 0 -47.061686165773381 -55.274434638278763 0 0 0 0 -62.400311481468663 13.012900056387986 0 13.012900056387986 8.175786680339959 0 0 0 0 -60.503646572004072 121.87016348227689 0 121.87016348227689 224.11806999934242 0 0 0 0 -74.281130755851336 25.428574648043877 0 25.428574648043877 72.684330912836231 0 0 0 0 -74.420752135962573 8.0181354067093196 0 8.0181354067093196 17.632021770297655 0 0 0 0 -117.77725560471299 203.57186758913213 0 203.57186758913213 143.56906580772352 0 0 0 0 -27.996708075050265 1.4791142386620777 0 1.4791142386620777 31.909328537756664 0 0 0 0 -39.933443934000962 -10.49735334137107 0 -10.49735334137107 5.8827350257318729 0 0 0 0 -35.273712468354233 -7.8884904020820272 0 -7.8884904020820272 17.263728974851478 0 0 0 0 33.07862149180437 65.538054346423451 0 65.538054346423451 130.39658131184464 0 0 0 0 -0.3605785837759754 11.790088089786359 0 11.790088089786359 3.0790807559636599 0 0 0 0 8.1359477575169876 51.935133692718864 0 51.935133692718864 -13.683749781836795 0 0 0 0 -80.916771328657617 5.0296649707364338 0 5.0296649707364338 13.113890188084792 0 0 0 0 -43.878588653281042 -19.988316338804495 0 -19.988316338804495 0.2152643698446326 0 0 0 0 -51.271893052064115 -17.788783996010352 0 -17.788783996010352 5.6789476895296502 0 0 0 0 -66.365707660181215 -23.339573486763584 0 -23.339573486763584 28.38397418337081 0 0 0 0 -19.912019468253277 -33.25806486894939 0 -33.25806486894939 10.033060451189019 0 0 0 0 -70.353881383125554 -26.912475267145965 0 -26.912475267145965 -8.0441684114848613 0 0 0 0 -33.261783832407673 -16.070976303410134 0 -16.070976303410134 -0.005554726665650378 0 0 0 0 -24.760200504257227 -45.221824692942391 0 -45.221824692942391 -10.171041224697547 0 0 0 0 -61.852129256774788 -3.8426730670389588 0 -3.8426730670389588 0.085466889022427495 0 0 0 0 -134.42318131795037 -33.445544015530686 0 -33.445544015530686 -14.622407942633799 0 0 0 0 -78.414565283193951 -14.911947972128473 0 -14.911947972128473 -25.899214110555477 0 0 0 0 -93.409484516232624 -55.332982214361436 0 -55.332982214361436 -92.970442181074759 0 0 0 0 -48.999861077201786 -51.463000939868834 0 -51.463000939868834 -168.71480209560468 0 0 0 0 -109.19027983839624 -38.377276181932757 0 -38.377276181932757 -35.568862553299368 0 0 0 0 -92.680590357951587 -43.24363199554864 0 -43.24363199554864 -34.134832843810727 0 0 0 0 -84.54030847948161 -22.450225796869745 0 -22.450225796869745 -6.2770425601192983 0 0 0 0 -84.730475773947546 -8.6882835096330382 0 -8.6882835096330382 17.638698898341318 0 0 0 0 -78.867736631917069 -23.119417925992821 0 -23.119417925992821 -3.696125526979813 0 0 0 0 -112.70818126354425 -25.702342010955363 0 -25.702342010955363 0.96666292638838058 0 0 0 0 86.089650347781571 25.075526794332745 0 25.075526794332745 -220.96573344061835 0 0 0 0 -601.88956970877189 -699.92741040406145 0 -699.92741040406145 -104.19048382289395 0 0 0 0 -1.4477828850981211 0.63415560788645564 0 0.63415560788645564 -1.4600751502006837 0 0 0 0 -28.277926287672017 -2.0649709837343835 0 -2.0649709837343835 -58.776822589728908 0 0 0 0 -77.93879099827609 -44.925338218299657 0 -44.925338218299657 -7.1518712191773375 0 0 0 0 -71.772612841814407 -30.951314312097566 0 -30.951314312097566 9.1139866654993966 0 0 0 0 -100.19344648678089 -8.3543232211050054 0 -8.3543232211050054 2.7602164801955951 0 0 0 0 -59.636958398989094 -10.475129130306184 0 -10.475129130306184 2.3661352545888454 0 0 0 0 -14.843963656267576 -2.0780957596467147 0 -2.0780957596467147 -7.3090218400522247 0 0 0 0 -345.28671099242638 -236.23569339438291 0 -236.23569339438291 -175.71165454750371 0 0 0 0 -53.036957459786208 -31.072921359433167 0 -31.072921359433167 0.517721310032357 0 0 0 0 -83.176506050396711 -6.6067239464446175 0 -6.6067239464446175 40.412088315351866 0 0 0 0 -33.524087407077104 -1.0295697232553547 0 -1.0295697232553547 4.0455303972782524 0 0 0 0 -106.85615632749978 -47.285362744711165 0 -47.285362744711165 31.951225982005766 0 0 0 0 -56.431185275927419 -16.085426370216737 0 -16.085426370216737 11.72376471558465 0 0 0 0 -97.208350291621173 -27.435027194891518 0 -27.435027194891518 11.768660419940716 0 0 0 0 -6.5617735218752387 -14.620399257193576 0 -14.620399257193576 -0.70136683062779248 0 0 0 0 -56.949086785476538 -8.0976101522296631 0 -8.0976101522296631 -28.842012600442104 0 0 0 0 -124.89000552910147 48.518308242263174 0 48.518308242263174 85.160603488439619 0 0 0 0 -178.75319519167533 -209.15877805147056 0 -209.15877805147056 -76.075721118275396 0 0 0 0 1.8776840296115722 -1.1411563759027672 0 -1.1411563759027672 0.0071933657362635017 0 0 0 0 -165.91123886841524 -2.6697195438605377 0 -2.6697195438605377 454.35325700289013 0 0 0 0 32.421790958280326 103.54529491591893 0 103.54529491591893 171.22802071341539 0 0 0 0 -123.02536125177357 53.404979164321958 0 53.404979164321958 93.830127840075875 0 0 0 0 -26.332833529144409 4.5540251811748931 0 4.5540251811748931 4.8557049250688351 0 0 0 0 -215.52566347572429 -131.58091451145356 0 -131.58091451145356 149.53664229707545 0 0 0 0 -515.4399497507693 256.65074184641117 0 256.65074184641117 461.56776915711146 0 0 0 0 -108.65469721932459 58.711578637704974 0 58.711578637704974 601.84915730946614 0 0 0 0 -112.22947036030382 -234.9825293192855 0 -234.9825293192855 270.77739981217769 0 0 0 0 -122.89771196332731 2.7355892354244702 0 2.7355892354244702 397.37015033339912 0 0 0 0 296.68242054266739 -96.003346077124206 0 -96.003346077124206 178.09826292745902 0 0 0 0 38.956114495726069 52.312202112240129 0 52.312202112240129 -283.29050920967711 0 0 0 0 70.397071789680922 -84.329386936360152 0 -84.329386936360152 310.39956912790012 0 0 0 0 -196.83319949243742 316.51741168393266 0 316.51741168393266 -24.892725571251844 0 0 0 0 108.94210300105624 253.11556845836049 0 253.11556845836049 127.54342250204468 0 0 0 0 -69.35249836503499 130.10761044926414 0 130.10761044926414 137.62659551342722 0 0 0 0 65.214455281107803 161.12698597484086 0 161.12698597484086 95.704609255600644 0 0 0 0 12.294506037331303 -107.6943011350503 0 -107.6943011350503 136.39011741546688 0 0 0 0 -9.9748522091224814 -1.5857316157209027 0 -1.5857316157209027 2.9913349905946758 0 0 0 0 25.786036888704984 -22.150634733180141 0 -22.150634733180141 3.098613193277977 0 0 0 0 262.18468359713188 179.42188206918806 0 179.42188206918806 46.827174090273274 0 0 0 0 -6.2292417360723675 -7.9532950518407688 0 -7.9532950518407688 1.2668874029851462 0 0 0 0 46.191040194775269 -159.71543083160873 0 -159.71543083160873 135.22505052632005 0 0 0 0 -188.44340464332345 -375.95189443833078 0 -375.95189443833078 746.43725021132525 0 0 0 0 71.250897334539331 -258.14992950430457 0 -258.14992950430457 -173.75437798845724 0 0 0 0 -85.993709433088952 -69.671077015442734 0 -69.671077015442734 655.96212533496646 0 0 0 0 -13.885084511829064 -3.0658051787267038 0 -3.0658051787267038 1.1534281395604198 0 0 0 0 -56.404784574348014 -216.1901432681509 0 -216.1901432681509 180.74529797987543 0 0 0 0 -6.7219397302542347 -210.72073475782304 0 -210.72073475782304 161.62053250154418 0 0 0 0 -79.610077355180692 9.0129126878252919 0 9.0129126878252919 154.52672834902228 0 0 0 0 -230.39992655218521 -454.38783680250606 0 -454.38783680250606 -369.79649034859619 0 0 0 0 -6.5429064028800497 0.21798864914884453 0 0.21798864914884453 0.49736029856744601 0 0 0 0 -1129.6708418337657 455.86165439617486 0 455.86165439617486 989.64728159138849 0 0 0 0 -1347.1241604085244 547.28739304498151 0 547.28739304498151 223.66591090401778 0 0 0 0 -1475.370066627569 132.63747087598472 0 132.63747087598472 687.58324219407291 0 0 0 0 -175.68068173188658 425.75161430131607 0 425.75161430131607 349.4233123722363 0 0 0 0 187.15990995519678 -399.48510287152169 0 -399.48510287152169 44.155175866018908 0 0 0 0 -1131.6583848959272 -27.222858538861146 0 -27.222858538861146 136.02126550245998 0 0 0 0 -213.21323838135868 -115.39148917874786 0 -115.39148917874786 -93.379077779642216 0 0 0 0 -590.83554630924482 -276.47567264837721 0 -276.47567264837721 -433.83047616686963 0 0 0 0 -482.22930741329765 -422.52777400488048 0 -422.52777400488048 -431.27730314089786 0 0 0 0 -595.92118440504055 -15.573715230158143 0 -15.573715230158143 -427.45545716876495 0 0 0 0 -963.65116601103364 -1.0845317188199601 0 -1.0845317188199601 -427.45925903364241 0 0 0 0 -1444.2210643027138 -164.20780015833179 0 -164.20780015833179 -469.3771542039085 0 0 0 0 -1230.9077658967581 -225.82033615374485 0 -225.82033615374485 -1090.4678952328195 0 0 0 0 -834.48888964761863 -158.5409177774709 0 -158.5409177774709 -1094.536672806327 0 0 0 0 -870.40579833611264 -531.05461284323883 0 -531.05461284323883 -1082.057547810351 0 0 0 0 -126.29108416500094 -355.20894820402987 0 -355.20894820402987 -1037.29743206696 0 0 0 0 -111.07004031704855 -183.40425383474849 0 -183.40425383474849 -761.26936770364182 0 0 0 0 -535.7859298310359 -451.98816997340873 0 -451.98816997340873 -930.76018758292184 0 0 0 0 -814.95808564943945 -515.51545372052703 0 -515.51545372052703 -687.59733121008685 0 0 0 0 -816.88602878461097 -368.43759917388093 0 -368.43759917388093 -707.38481591842265 0 0 0 0 -2219.928911093697 392.66547370246224 0 392.66547370246224 232.16215202316891 0 0 0 0 -1853.5754282816633 -485.0103092272193 0 -485.0103092272193 -718.36750580029548 0 0 0 0 -1477.9198990465375 8.8722687588992812 0 8.8722687588992812 -200.4697010803884 0 0 0 0 -1096.4368002147457 218.44298853622536 0 218.44298853622536 -86.086723352082117 0 0 0 0 -1194.6631128924055 -183.98968464753375 0 -183.98968464753375 -751.37905225192662 0 0 0 0 -1192.5117248810129 -189.22044042067546 0 -189.22044042067546 -1322.0634498321842 0 0 0 0 -1536.5281712962023 -39.729491419081114 0 -39.729491419081114 -30.70614878606375 0 0 0 0 -2026.1982562779158 565.36745012137635 0 565.36745012137635 -759.55560450433131 0 0 0 0 -1.229401524238753 -1.6093169821438238 0 -1.6093169821438238 -1.6349143725663815 0 0 0 0 -703.97867314511677 -529.55791855695622 0 -529.55791855695622 -277.94367392345885 0 0 0 0 -139.4366235845373 -339.00835039074059 0 -339.00835039074059 -1042.6843981636148 0 0 0 0 -971.27545996944536 -381.95961061362777 0 -381.95961061362777 -601.27837737431344 0 0 0 0 -627.29448205338849 -373.36915372302519 0 -373.36915372302519 -917.80904339602239 0 0 0 0 -1309.0472266650468 55.465558573218004 0 55.465558573218004 -572.08532087048889 0 0 0 0 -1016.9778705450881 -336.30560013284594 0 -336.30560013284594 -124.99073037483504 0 0 0 0 -876.34467797646721 -83.695251805039334 0 -83.695251805039334 215.61588129220399 0 0 0 0 19.777118107391289 86.359430774608427 0 86.359430774608427 -839.03500524678657 0 0 0 0 -31.737924527864379 117.51987235874049 0 117.51987235874049 -33.26013450161463 0 0 0 0 -0.75460118880687332 -1.2090173000291315 0 -1.2090173000291315 -2.0635863756805413 0 0 0 0 -6.6165808829973685 172.91787856994858 0 172.91787856994858 -507.93714762164109 0 0 0 0 9.9142534735728987 -277.97547926757352 0 -277.97547926757352 -997.76206448278344 0 0 0 0 58.009920532327669 -478.94329814416062 0 -478.94329814416062 -390.52984019804785 0 0 0 0 23.413054488675698 -151.85583205252891 0 -151.85583205252891 -493.77334789266115 0 0 0 0 121.29585861258238 -200.35173152259063 0 -200.35173152259063 -542.50408175238817 0 0 0 0 49.977225816037389 -208.43481561819078 0 -208.43481561819078 -210.71692428390531 0 0 0 0 108.20848759316141 -207.86591586492534 0 -207.86591586492534 -227.51939597959301 0 0 0 0 19.51905366149731 50.86962243275525 0 50.86962243275525 -69.677631003880833 0 0 0 0 60.587895128164746 -120.90527614304609 0 -120.90527614304609 -319.45930265845027 0 0 0 0 -1.5746715634122666 -69.475149601816298 0 -69.475149601816298 -7.5844910495413842 0 0 0 0 -17.101726171298651 14.722051513373117 0 14.722051513373117 -3.5531324540224887 0 0 0 0 -4.3025416353958974 -2.8123180436724908 0 -2.8123180436724908 -2.4569681784509223 0 0 0 0 -13.68373386150526 -3.961573296043936 0 -3.961573296043936 -2.06427639730612 0 0 0 0 244.4985660625025 95.079892732553844 0 95.079892732553844 25.468399124976713 0 0 0 0 -43.581168422926567 -41.757235396857595 0 -41.757235396857595 -44.150355677951652 0 0 0 0 -6.0765440040800911 -0.54296903072952318 0 -0.54296903072952318 -2.3856339834298073 0 0 0 0 -25.929729419453963 1.0999766054273588 0 1.0999766054273588 0.3884108053187082 0 0 0 0 -245.3111791248557 26.947057248933788 0 26.947057248933788 143.1489021980783 0 0 0 0 -81.691150893755548 36.77879601562995 0 36.77879601562995 -120.32099110068398 0 0 0 0 -846.49581449773541 333.30697746253827 0 333.30697746253827 -116.90322465018198 0 0 0 0 -21.003681798989419 -6.285468988269713 0 -6.285468988269713 4.5763727014111311 0 0 0 0 -20.088367737649236 -5.2173776241414487 0 -5.2173776241414487 1.5750160486216025 0 0 0 0 46.829662300959171 -94.651588013540277 0 -94.651588013540277 -76.840900516059264 0 0 0 0 41.811817149181479 -117.41566173591195 0 -117.41566173591195 20.44218316133265 0 0 0 0 39.771930443315796 -19.105144885500977 0 -19.105144885500977 -14.480364163748163 0 0 0 0 15.337096415300039 -5.3065723828531191 0 -5.3065723828531191 6.5578423700156918 0 0 0 0 16.496534103804152 -159.37635653219968 0 -159.37635653219968 268.68172515848255 0 0 0 0 216.28322893266159 -227.07926178078742 0 -227.07926178078742 -67.616823449730873 0 0 0 0 160.56225247246039 185.32256153234721 0 185.32256153234721 -162.28266837366027 0 0 0 0 21.347838411405974 16.357751027861013 0 16.357751027861013 -75.940373737441433 0 0 0 0 -92.049987837788649 -53.213032927497807 0 -53.213032927497807 -88.476500143292469 0 0 0 0 0.85527954432086517 1.4377295202382925 0 1.4377295202382925 0.0069576590297160124 0 0 0 0 -731.18452076386893 -62.714587271499113 0 -62.714587271499113 -11.787431091946928 0 0 0 0 -761.66213638971385 248.75898387324924 0 248.75898387324924 358.10053364401529 0 0 0 0 -843.32549299843959 -319.29152127510315 0 -319.29152127510315 -354.28830675595236 0 0 0 0 -573.84021318941086 107.22007174601913 0 107.22007174601913 -249.02225642673147 0 0 0 0 -1087.4051380383899 665.51376813325078 0 665.51376813325078 -502.8149883086719 0 0 0 0 -1906.1880193699326 715.65449924644963 0 715.65449924644963 -3.5825210257935396 0 0 0 0 -1297.8242304098385 128.84308621604532 0 128.84308621604532 14.70783015343477 0 0 0 0 -938.33822391166177 449.73492792444449 0 449.73492792444449 -191.36392121964991 0 0 0 0 -619.35994786613446 31.05994769782501 0 31.05994769782501 -47.432314130777741 0 0 0 0 -333.36497054356732 201.89766190998125 0 201.89766190998125 -211.42694713168021 0 0 0 0 -17.19215097297274 11.919151180130939 0 11.919151180130939 -241.25684591696336 0 0 0 0 -82.010427988367155 -100.39655782858608 0 -100.39655782858608 -143.4857952201528 0 0 0 0 -255.00335810565593 -45.441396554575476 0 -45.441396554575476 -122.98037342459429 0 0 0 0 -38.126633540843613 -36.669641355365457 0 -36.669641355365457 -166.84106894264733 0 0 0 0 139.12092333204782 -118.56685079067347 0 -118.56685079067347 -187.20536557685409 0 0 0 0 189.11889849320869 -8.9146567913321633 0 -8.9146567913321633 -199.23569533160116 0 0 0 0 170.56703395396471 10.874516143245273 0 10.874516143245273 -186.4502483297947 0 0 0 0 153.89994194055907 -58.221647567185755 0 -58.221647567185755 -173.81043537402002 0 0 0 0 106.93809298900305 -26.114949095758675 0 -26.114949095758675 -171.45981220402609 0 0 0 0 57.266332804254489 -97.193540281270543 0 -97.193540281270543 -210.97872203114639 0 0 0 0 65.20406517493393 -35.677723366949976 0 -35.677723366949976 -166.64359270143177 0 0 0 0 157.90647493161669 -116.99318503153518 0 -116.99318503153518 -181.51723486397827 0 0 0 0 -487.27112352307449 215.06390698453106 0 215.06390698453106 -131.81520426057614 0 0 0 0 -24.38250579375017 75.565185698465939 0 75.565185698465939 -283.06886749839578 0 0 0 0 -23.493214259520755 -80.582443983306803 0 -80.582443983306803 -166.17551797237138 0 0 0 0 -15.113610011987362 5.3705268260958761 0 5.3705268260958761 -0.20447462323059185 0 0 0 0 -336.20021065630135 1393.4857615777278 0 1393.4857615777278 767.34767872305872 0 0 0 0 -1418.2773330293057 1335.9887571130198 0 1335.9887571130198 -692.15370887734161 0 0 0 0 -1564.5103413692123 1039.4331238346931 0 1039.4331238346931 701.12219700870855 0 0 0 0 -2065.9449006625073 -68.821322542474263 0 -68.821322542474263 807.12716040400301 0 0 0 0 -2118.9138660154422 745.94749935189884 0 745.94749935189884 677.63541224520668 0 0 0 0 -1342.7718832971295 853.80553902990187 0 853.80553902990187 577.52054075582919 0 0 0 0 -1157.9945973055583 276.26987422051843 0 276.26987422051843 335.70169128279758 0 0 0 0 -945.12709053617436 -4.6538914566514222 0 -4.6538914566514222 454.79887222462639 0 0 0 0 -1009.7042193247762 401.3305294083666 0 401.3305294083666 124.61488102469093 0 0 0 0 -819.94653753588136 309.07630424426304 0 309.07630424426304 166.65772983704483 0 0 0 0 -1020.5903151341045 585.41913046718946 0 585.41913046718946 228.83883920946994 0 0 0 0 -1337.9578130614864 635.40378276171884 0 635.40378276171884 237.21263899773567 0 0 0 0 -1139.8611528880501 1118.3989418391639 0 1118.3989418391639 524.44031869513128 0 0 0 0 -330.46976572680796 276.34506515233147 0 276.34506515233147 28.904865937503928 0 0 0 0 -1558.4638962997396 -81.04328141921016 0 -81.04328141921016 -256.94350355628467 0 0 0 0 -915.03744892124814 63.962968340347743 0 63.962968340347743 -775.72806238721705 0 0 0 0 -594.87747191905146 866.4118108360716 0 866.4118108360716 -843.12262744613372 0 0 0 0 -1508.9243806979648 902.79047791508162 0 902.79047791508162 22.599883685107898 0 0 0 0 -10.490498049034358 2.2981744024243635 0 2.2981744024243635 -0.32043398529987516 0 0 0 0 -880.18471224571113 -364.12966688071401 0 -364.12966688071401 73.836072678168875 0 0 0 0 250.0747096651794 114.30850517550778 0 114.30850517550778 -222.37160515086634 0 0 0 0 -1707.0850823037981 -267.42386182539917 0 -267.42386182539917 273.29263136593181 0 0 0 0 -684.20162289438304 26.719780094764246 0 26.719780094764246 -184.1875450831576 0 0 0 0 -711.28517606203968 210.36122894020536 0 210.36122894020536 166.88536953645064 0 0 0 0 -1942.537951414306 417.77335414902154 0 417.77335414902154 -547.39656904549429 0 0 0 0 -2125.4257244555483 357.92258425868158 0 357.92258425868158 -21.749513846722934 0 0 0 0 -1160.2494393786692 -302.60463121191106 0 -302.60463121191106 -115.22631919776813 0 0 0 0 -613.40606989039225 -60.499887734899858 0 -60.499887734899858 -633.93240697058923 0 0 0 0 -844.7842891768305 -224.62348939680123 0 -224.62348939680123 -624.72349090495641 0 0 0 0 -544.04184180285665 -143.10182467392792 0 -143.10182467392792 -614.11483196645941 0 0 0 0 -300.1900718188117 -75.605288111865775 0 -75.605288111865775 -684.17996779001032 0 0 0 0 -560.72535574709218 -109.94165402886028 0 -109.94165402886028 -631.78222554996137 0 0 0 0 -744.81920246781374 -20.362803063412684 0 -20.362803063412684 -484.68080821321246 0 0 0 0 -425.24389169877395 -105.46455268291675 0 -105.46455268291675 -550.97170370824642 0 0 0 0 -593.96359401682275 -43.838868939338568 0 -43.838868939338568 -542.81899708339824 0 0 0 0 -849.98040677117388 367.35253087230285 0 367.35253087230285 26.840130886481347 0 0 0 0 -590.63841829710145 -230.28026236100186 0 -230.28026236100186 -250.83202800955405 0 0 0 0 -616.69220650982606 21.718401049464774 0 21.718401049464774 -37.421821481155348 0 0 0 0 -27.525749122851266 -324.02458850641324 0 -324.02458850641324 163.20794016197124 0 0 0 0 768.66895269546512 32.215105768947979 0 32.215105768947979 448.64936695682172 0 0 0 0 -470.2374663968294 507.71222360996626 0 507.71222360996626 269.14774906493494 0 0 0 0 -2148.0228829504958 -228.02204748817098 0 -228.02204748817098 413.70635634611199 0 0 0 0 -1319.0867850080831 -245.03001822293572 0 -245.03001822293572 66.05144733585621 0 0 0 0 -1308.9547387737693 -298.61815125641624 0 -298.61815125641624 332.60463915998969 0 0 0 0 -627.72873754129364 -276.02021124136729 0 -276.02021124136729 -91.718898013029502 0 0 0 0 -1305.0214472638909 51.412663112921109 0 51.412663112921109 -224.40716970897347 0 0 0 0 -1685.3176573117089 -305.02838072802683 0 -305.02838072802683 134.64428252568723 0 0 0 0 -747.33168421330629 -41.395550621575694 0 -41.395550621575694 -383.44271976264099 0 0 0 0 -1229.2334731739684 84.944862181897406 0 84.944862181897406 -408.88666744206876 0 0 0 0 -429.71287898622541 299.07517438821901 0 299.07517438821901 -576.40736752178509 0 0 0 0 -936.17116287556564 335.11576891738787 0 335.11576891738787 -431.07097258978314 0 0 0 0 -1768.1884215070713 624.99093788041864 0 624.99093788041864 -420.57782195344316 0 0 0 0 -1999.1174465675285 1311.0355506757992 0 1311.0355506757992 -1083.6133720432317 0 0 0 0 -3017.274233942815 -202.20261696668922 0 -202.20261696668922 -746.0782228938192 0 0 0 0 -339.61051807200511 1074.8598044252976 0 1074.8598044252976 -483.5292288084911 0 0 0 0 -40.385685318894957 -6.9933913273817332 0 -6.9933913273817332 2.6302555781076364 0 0 0 0 -194.04392038502556 -725.62465584830534 0 -725.62465584830534 679.75271369752363 0 0 0 0 -971.86064586827342 246.25620937401976 0 246.25620937401976 -394.15738716032229 0 0 0 0 -96.258469640481053 508.68029068586861 0 508.68029068586861 -346.10208557502961 0 0 0 0 527.99753823748324 -297.67696970963493 0 -297.67696970963493 -605.52769009210374 0 0 0 0 -2303.2491211084671 -77.273042144668693 0 -77.273042144668693 -43.520244817209459 0 0 0 0 -680.98786133360773 -947.36857218731075 0 -947.36857218731075 377.44301717710346 0 0 0 0 -18.850934770288035 -2.3824878087481451 0 -2.3824878087481451 0.95441322766927783 0 0 0 0 -1247.6883727326422 1135.3573096419634 0 1135.3573096419634 -422.91180311249127 0 0 0 0 -249.06881369380062 474.81959087754342 0 474.81959087754342 -87.82111572008057 0 0 0 0 -762.89585438441281 764.67575159270154 0 764.67575159270154 351.35394454310313 0 0 0 0 -909.91571043833392 388.18076866636102 0 388.18076866636102 95.85321072385068 0 0 0 0 -1392.7578658850507 839.29865451147862 0 839.29865451147862 382.86881669264631 0 0 0 0 -928.36084942002162 959.13248787194789 0 959.13248787194789 229.02195023772265 0 0 0 0 -747.29926276000333 569.44968125324431 0 569.44968125324431 12.165130399316439 0 0 0 0 -1351.7261026736087 284.83656482745761 0 284.83656482745761 430.29297733120484 0 0 0 0 -746.0821326814912 -264.82867865653247 0 -264.82867865653247 462.38098795148102 0 0 0 0 -622.52859161192464 -1319.6564911965638 0 -1319.6564911965638 1110.1259191666259 0 0 0 0 -23.372746537153773 -2.5200387950716348 0 -2.5200387950716348 2.8443125851831663 0 0 0 0 116.60470912394521 314.01444445237826 0 314.01444445237826 401.67424719436247 0 0 0 0 -608.26342395679967 137.3150351708357 0 137.3150351708357 1139.0425905009517 0 0 0 0 -2904.8054682228976 1072.5166480665505 0 1072.5166480665505 -56.82576270768368 0 0 0 0 -5.6613209957850188 5.8083331109283023 0 5.8083331109283023 -5.2252648687560219 0 0 0 0 828.49062721971859 1407.0889989454604 0 1407.0889989454604 -925.97836449811768 0 0 0 0 -3105.9560456020117 887.24818560960898 0 887.24818560960898 419.64740874319341 0 0 0 0 -2733.3277299311012 -288.84756650251052 0 -288.84756650251052 1048.8749550736534 0 0 0 0 -2166.0104509712401 -836.80277162951108 0 -836.80277162951108 959.71491787283503 0 0 0 0 -2971.2407825004193 -437.61014350133433 0 -437.61014350133433 36.310234326132679 0 0 0 0 -1191.0275360343876 -395.11639487683351 0 -395.11639487683351 -272.22685299226009 0 0 0 0 -1388.6187721092901 636.71871824791958 0 636.71871824791958 -282.27280042726716 0 0 0 0 -375.78659779192458 638.54159567160491 0 638.54159567160491 -498.19227161455797 0 0 0 0 -356.74446435942082 447.76152021959479 0 447.76152021959479 -454.04348392092538 0 0 0 0 -468.02796766803658 674.06871822891401 0 674.06871822891401 -404.96869257865126 0 0 0 0 -238.5987857512664 1009.5396960709644 0 1009.5396960709644 -629.39984510167392 0 0 0 0 -2381.996653445698 985.49385734621251 0 985.49385734621251 -100.49466846183422 0 0 0 0 -72.157808725379937 -10.691592675135368 0 -10.691592675135368 4.1489568715784291 0 0 0 0 -1013.8671753259532 -409.35082836155027 0 -409.35082836155027 524.64164513313631 0 0 0 0 -348.11516369435412 -538.77340934607582 0 -538.77340934607582 1650.5691541812798 0 0 0 0 411.4219164258684 -337.9363514524598 0 -337.9363514524598 311.94615218192348 0 0 0 0 -409.71528383983241 211.84136305524248 0 211.84136305524248 150.50597376315545 0 0 0 0 -373.64617567235837 390.12986196149814 0 390.12986196149814 436.88810691026174 0 0 0 0 -405.76255225205387 233.4439844219396 0 233.4439844219396 201.46051115817863 0 0 0 0 13.392593511998712 187.36882925474288 0 187.36882925474288 261.3598812726168 0 0 0 0 -272.21751644993492 256.87936903452601 0 256.87936903452601 1187.1162803339225 0 0 0 0 75.951098265402834 123.33601662400088 0 123.33601662400088 162.58517679945271 0 0 0 0 -32.284267733019504 -2.3525477724215875 0 -2.3525477724215875 1.8680256009481653 0 0 0 0 -655.87870431668853 -1327.9492211754755 0 -1327.9492211754755 881.91709565111273 0 0 0 0 -3035.5201959612823 2420.9346430791161 0 2420.9346430791161 -1391.7587688727008 0 0 0 0 -317.00598764131428 988.8693200150891 0 988.8693200150891 -647.1952326651417 0 0 0 0 -4636.1109605662932 1487.5505751069013 0 1487.5505751069013 379.89025026983427 0 0 0 0 -2920.1480596518632 1032.2956263702793 0 1032.2956263702793 286.62492063077207 0 0 0 0 -3547.7942320111833 606.1805852240127 0 606.1805852240127 311.19091944704451 0 0 0 0 -2243.3006956119716 3.434516327557958 0 3.434516327557958 580.1434624647527 0 0 0 0 -3136.0233558011041 -443.25129586195942 0 -443.25129586195942 854.40144378701098 0 0 0 0 -931.65496897256526 -64.982814754648189 0 -64.982814754648189 320.22361072744252 0 0 0 0 -2726.2483344544744 134.66169988572426 0 134.66169988572426 609.36871997251365 0 0 0 0 -2474.4389916354921 -484.16143558106387 0 -484.16143558106387 102.91526039339351 0 0 0 0 -1869.1184662378364 19.591903149820155 0 19.591903149820155 -365.39207532073033 0 0 0 0 -851.44636203903065 1038.8766633353666 0 1038.8766633353666 934.5505947194265 0 0 0 0 -17.725431094844481 1.6192805546435309 0 1.6192805546435309 1.4503937949333432 0 0 0 0 -2555.6866350709024 -858.26194841064284 0 -858.26194841064284 631.58099536323562 0 0 0 0 -2804.1320181305018 -128.82132322204529 0 -128.82132322204529 535.2682599958307 0 0 0 0 -575.02410501263876 481.43602552262257 0 481.43602552262257 1670.434646233588 0 0 0 0 -610.83757941800468 56.222069322303014 0 56.222069322303014 1584.6664841265438 0 0 0 0 48.100881557817047 -499.64934742717378 0 -499.64934742717378 664.11267049488288 0 0 0 0 -355.41400688886097 -363.18372191977983 0 -363.18372191977983 328.37792550586346 0 0 0 0 -1268.4676372103859 -358.53021974365129 0 -358.53021974365129 404.50587701980862 0 0 0 0 108.38234932269552 322.83379747318213 0 322.83379747318213 673.76196625934335 0 0 0 0 23.810034984038793 495.4496209554477 0 495.4496209554477 -9.5860193266180431 0 0 0 0 -1200.152362382054 -1278.2942839365724 0 -1278.2942839365724 -241.30212013156051 0 0 0 0 -176.10971451464866 -640.73381313902973 0 -640.73381313902973 1055.8318380811847 0 0 0 0 -33.480139943530077 4.4341227458845083 0 4.4341227458845083 3.4397730764949204 0 0 0 0 -159.96312165084964 26.662803574916097 0 26.662803574916097 1448.1674938778435 0 0 0 0 -1146.1515696605391 282.30576686864646 0 282.30576686864646 380.29218743022466 0 0 0 0 -1160.2126113199308 1035.2744208940403 0 1035.2744208940403 -344.5429796585513 0 0 0 0 -5.9088384244113001 -1.7381373727834202 0 -1.7381373727834202 6.8820088003767665 0 0 0 0 -506.81263058455079 636.39914779382798 0 636.39914779382798 -16.32281101611261 0 0 0 0 -428.83983638758946 543.79590316655504 0 543.79590316655504 -284.9957670104468 0 0 0 0 -480.41794179395947 343.82365845945878 0 343.82365845945878 -385.26513231392346 0 0 0 0 -567.20039783259563 429.76377005989616 0 429.76377005989616 -100.28037098246477 0 0 0 0 -983.92382148306206 80.135845402365021 0 80.135845402365021 -5.1054686594143277 0 0 0 0 -458.48555492627202 214.35630379103623 0 214.35630379103623 -253.672058341097 0 0 0 0 -273.2546082155859 379.07720193673936 0 379.07720193673936 -120.64374301793032 0 0 0 0 -332.74954154278385 -160.00707208944686 0 -160.00707208944686 -15.484413927557853 0 0 0 0 -199.93167490486667 462.1883676276741 0 462.1883676276741 -248.22287257883454 0 0 0 0 -559.07332554047025 603.12346108749034 0 603.12346108749034 -204.67137973357512 0 0 0 0 -762.82968212716514 372.21403466582206 0 372.21403466582206 -466.13670760782861 0 0 0 0 -854.65334101377266 406.68120349247874 0 406.68120349247874 7.92966286547653 0 0 0 0 -19.537374076550122 1.0694707136596975 0 1.0694707136596975 17.358436172491722 0 0 0 0 6.8240439432120183 -469.38119998533375 0 -469.38119998533375 607.51476240881379 0 0 0 0 -806.54856400576318 8.7837568580571883 0 8.7837568580571883 788.78471244619573 0 0 0 0 -542.04684633544821 261.83645220383562 0 261.83645220383562 708.68901031382916 0 0 0 0 756.029210318884 -1421.0823834323437 0 -1421.0823834323437 1138.261100956312 0 0 0 0 468.81578848625941 -248.80392328770336 0 -248.80392328770336 596.57957911547965 0 0 0 0 139.41810462690773 -70.683662955288582 0 -70.683662955288582 283.17175185656083 0 0 0 0 -89.658342958064168 -230.13139582803183 0 -230.13139582803183 1750.8791138388456 0 0 0 0 -1507.8379486592312 -517.90143602428225 0 -517.90143602428225 885.53024558359539 0 0 0 0 -890.23827473733763 -680.90988359085725 0 -680.90988359085725 -58.920402854254007 0 0 0 0 -1183.6362109497222 198.28788400798618 0 198.28788400798618 873.80687845950479 0 0 0 0 -2569.5911358218509 257.93444109509335 0 257.93444109509335 956.72794355822862 0 0 0 0 -2135.1564417540867 -801.69178876806609 0 -801.69178876806609 -65.902068544151462 0 0 0 0 -15.211224907194037 3.3731680974717726 0 3.3731680974717726 0.25937481840776044 0 0 0 0 -1000.733460983698 1648.5861039962524 0 1648.5861039962524 467.77666377450532 0 0 0 0 601.99912184034292 473.64866952413661 0 473.64866952413661 -158.77034681519945 0 0 0 0 -2970.4328140664511 995.06882567017101 0 995.06882567017101 -484.56498977064399 0 0 0 0 -3051.256795379275 1346.0119664464869 0 1346.0119664464869 -676.98406715081774 0 0 0 0 -3098.0838421480148 1245.4637925225286 0 1245.4637925225286 -254.92444384169292 0 0 0 0 -3019.9212251831632 893.30549589421116 0 893.30549589421116 -230.15665044657763 0 0 0 0 -2948.6967619537099 690.66287224515418 0 690.66287224515418 -1154.060557907469 0 0 0 0 -3597.8059641800828 1227.621835046034 0 1227.621835046034 -4.9771383235902249 0 0 0 0 -2134.9295596218981 584.20432062757891 0 584.20432062757891 951.87208555872712 0 0 0 0 -6.1721776362796845 0.79238715574170726 0 0.79238715574170726 6.5139178627640337 0 0 0 0 -1935.2314161463291 433.57840638356402 0 433.57840638356402 322.9694357604501 0 0 0 0 -3220.6986267947141 1601.0855024350012 0 1601.0855024350012 -225.469122318487 0 0 0 0 -3501.317365279494 1401.2657700045552 0 1401.2657700045552 48.140997550026341 0 0 0 0 -3322.6906735889715 1842.4526314097757 0 1842.4526314097757 997.39063556903352 0 0 0 0 -2084.5287525716849 1141.4927719052689 0 1141.4927719052689 1068.0364484252846 0 0 0 0 -1777.2923404129979 828.67666522757975 0 828.67666522757975 1113.1930614858434 0 0 0 0 -1416.9766825279512 1102.3472508143097 0 1102.3472508143097 11.939673386473942 0 0 0 0 -1946.1931211611954 468.99745787374559 0 468.99745787374559 929.10414959941068 0 0 0 0 -2061.120246258477 1110.4305973169926 0 1110.4305973169926 961.97374277526706 0 0 0 0 -195.21099381922977 256.12748520427607 0 256.12748520427607 -52.010279787877494 0 0 0 0 -268.17593615688384 320.41806424062929 0 320.41806424062929 236.61959856255089 0 0 0 0 -273.21964109070541 154.26060137783566 0 154.26060137783566 176.93185893350801 0 0 0 0 -3494.1283372639841 2205.3547009245754 0 2205.3547009245754 346.40458324333349 0 0 0 0 -686.27531730537157 1687.8481347728548 0 1687.8481347728548 -2044.1673062711802 0 0 0 0 -16.192194702982334 5.1899597613549666 0 5.1899597613549666 -3.173693712220766 0 0 0 0 -1793.4863568608198 -1002.8471246734332 0 -1002.8471246734332 -269.55218448407931 0 0 0 0 -3498.6303610604737 -292.8751123982251 0 -292.8751123982251 1100.5952480755295 0 0 0 0 -759.28024237482896 -318.12103660286374 0 -318.12103660286374 592.93192787179987 0 0 0 0 -2069.7232489549642 650.86449856490776 0 650.86449856490776 936.0453182147694 0 0 0 0 -1066.9702156919957 1041.5444441886516 0 1041.5444441886516 636.35481238765396 0 0 0 0 -3.8991578345452922 9.2811497958984432 0 9.2811497958984432 9.0369585447532153 0 0 0 0 -354.47676064687403 260.26133283073864 0 260.26133283073864 441.28550992543887 0 0 0 0 -40.750212824045434 10.848810662298595 0 10.848810662298595 4.9860059970424508 0 0 0 0 116.64921669873002 259.33596683334946 0 259.33596683334946 -142.1997149165353 0 0 0 0 166.64481815164254 89.048677140914066 0 89.048677140914066 33.407539211983575 0 0 0 0 -154.09375253132021 -20.094746606604645 0 -20.094746606604645 439.80008423076106 0 0 0 0 -5.3678938024976901 2.8839198915204634 0 2.8839198915204634 4.9155400241427403 0 0 0 0 -462.97920613996394 604.20795246534101 0 604.20795246534101 -496.04875731247029 0 0 0 0 -1757.2211385285045 252.86270516981176 0 252.86270516981176 524.30102269297345 0 0 0 0 -449.34309907551597 675.8609612141197 0 675.8609612141197 -608.56415836535052 0 0 0 0 -1450.0108930575225 281.42820809608747 0 281.42820809608747 -5.3978281438394333 0 0 0 0 -316.66977063669765 291.25941416682753 0 291.25941416682753 434.13211760145151 0 0 0 0 -747.86042317476313 138.17520077126434 0 138.17520077126434 908.17158926286186 0 0 0 0 -78.163214102215449 -12.715154445299824 0 -12.715154445299824 3.3988325840976641 0 0 0 0 -59.378523376505143 -10.454208383355173 0 -10.454208383355173 0.56745642904799709 0 0 0 0 -618.45901876636344 -959.54680228098709 0 -959.54680228098709 1037.6943091299138 0 0 0 0 -633.85887507081134 885.43185960083019 0 885.43185960083019 -622.59310322109059 0 0 0 0 -562.63469643925782 692.85863785783965 0 692.85863785783965 160.10596072450971 0 0 0 0 -135.186770701765 -529.66214391012875 0 -529.66214391012875 955.9318867280715 0 0 0 0 108.39677193489479 141.67294071678822 0 141.67294071678822 -165.06501014363357 0 0 0 0 -1628.1921213752648 241.67287063439164 0 241.67287063439164 -121.85146712982191 0 0 0 0 -650.36929259188764 -1942.764177055248 0 -1942.764177055248 -1384.2638882173167 0 0 0 0 -844.39055656974233 -55.84262289810772 0 -55.84262289810772 -251.23946085468174 0 0 0 0 -22.153278684927329 -4.2875612195970305 0 -4.2875612195970305 -2.8949318374488158 0 0 0 0 -3491.5182564509396 1880.3260099967474 0 1880.3260099967474 -1175.0347946343227 0 0 0 0 -2244.3053137363859 -336.04923998382975 0 -336.04923998382975 538.1757271772708 0 0 0 0 -2898.5684650950716 -196.19540658156245 0 -196.19540658156245 979.39102763325491 0 0 0 0 -2983.572482599222 -457.07729769267274 0 -457.07729769267274 1032.8034805599459 0 0 0 0 -3057.1112532675907 -137.83875676868249 0 -137.83875676868249 958.90028364987074 0 0 0 0 -3471.6341889211817 -379.32423306190879 0 -379.32423306190879 915.7094705634612 0 0 0 0 -3074.1151346958341 -518.59787124516527 0 -518.59787124516527 377.05068995308727 0 0 0 0 -2846.0769593024124 -366.86848251565596 0 -366.86848251565596 473.24771999234144 0 0 0 0 -2840.8453756123272 -603.84266070632884 0 -603.84266070632884 154.58359472808996 0 0 0 0 -2815.9519335289078 -172.0707996137553 0 -172.0707996137553 837.16940136601011 0 0 0 0 -2646.5587237597101 -329.8084618198061 0 -329.8084618198061 168.22103578209783 0 0 0 0 -2655.9911543843264 -449.19281254291866 0 -449.19281254291866 -5.7958985012882636 0 0 0 0 -2799.3669741561935 -337.78051964825795 0 -337.78051964825795 396.34591076791514 0 0 0 0 -2222.5234281509765 -363.10536624067225 0 -363.10536624067225 352.03471885898443 0 0 0 0 -9.7117939006803446 6.2932272533707803 0 6.2932272533707803 5.0727522030515928 0 0 0 0 -2568.4722204425289 -312.26013266943221 0 -312.26013266943221 207.3557480811296 0 0 0 0 -2631.6916192605895 -190.83397239236683 0 -190.83397239236683 134.06424956970136 0 0 0 0 -2616.1296577390494 -77.251415042611825 0 -77.251415042611825 416.50366999031365 0 0 0 0 -1472.494644410639 59.689811694393711 0 59.689811694393711 -108.95832479166643 0 0 0 0 -7.9277840262650514 4.7040144788495226 0 4.7040144788495226 4.266589884296172 0 0 0 0 -2009.327059120189 -187.90939124723894 0 -187.90939124723894 124.77451312503445 0 0 0 0 -1210.0436467774653 -283.77953233284939 0 -283.77953233284939 -144.35613210075508 0 0 0 0 -2196.4167381932912 293.89339648546729 0 293.89339648546729 -85.931594868221509 0 0 0 0 -2154.953485729362 -103.51561446310734 0 -103.51561446310734 -10.081171594520299 0 0 0 0 -2513.1113562476603 -22.55470975649996 0 -22.55470975649996 -161.42535314600991 0 0 0 0 -3348.0197915615754 315.05419924135686 0 315.05419924135686 251.37707153843621 0 0 0 0 -7.520582847224814 -0.99216481198376982 0 -0.99216481198376982 13.136418432748044 0 0 0 0 -4.7019383733249853 -0.081962259521809244 0 -0.081962259521809244 5.9505618555501307 0 0 0 0 -3341.978092900179 472.92579496027861 0 472.92579496027861 180.51362250757302 0 0 0 0 -2593.6427642639974 167.23141670982864 0 167.23141670982864 128.81460333470113 0 0 0 0 -5.5658573708748307 0.63088881518768858 0 0.63088881518768858 0.81901956952866783 0 0 0 0 -3510.2975161550476 -129.25741974136403 0 -129.25741974136403 28.588063830733361 0 0 0 0 -3049.8334850450483 70.75410039063604 0 70.75410039063604 515.57493014940451 0 0 0 0 -3036.5262592373219 72.403577223416505 0 72.403577223416505 342.90274136454173 0 0 0 0 -2913.0189994731991 394.04057385322187 0 394.04057385322187 -31.886325190305115 0 0 0 0 -2868.4406658665466 -26.037999532628021 0 -26.037999532628021 242.43536763994297 0 0 0 0 -3512.0816005831293 230.15387340166359 0 230.15387340166359 -58.507461243633443 0 0 0 0 -2937.8848183249174 150.36424333398213 0 150.36424333398213 -163.80121967134824 0 0 0 0 -3498.4993470080262 -129.89423621896483 0 -129.89423621896483 28.617771756567748 0 0 0 0 -3345.1929121159628 -53.058941914404919 0 -53.058941914404919 -264.75705392080806 0 0 0 0 -3879.0966826500699 227.89740542478782 0 227.89740542478782 -61.425381278779156 0 0 0 0 -3408.4552670617886 473.54046859565415 0 473.54046859565415 485.6937140983805 0 0 0 0 -5.922317726780574 0.42343351390593398 0 0.42343351390593398 0.79712664723736004 0 0 0 0 -2500.6160300764022 565.21320895704071 0 565.21320895704071 -138.61875686062831 0 0 0 0 -2410.4090595461712 -143.73450805633831 0 -143.73450805633831 5.934421709696835 0 0 0 0 -2689.342450380369 -152.61599554637218 0 -152.61599554637218 1115.5527301868131 0 0 0 0 -3613.385478038952 746.37987214447435 0 746.37987214447435 523.39048337253371 0 0 0 0 -3639.2007675081695 792.84421189798616 0 792.84421189798616 439.78487777782249 0 0 0 0 -3501.0000225980439 368.08297658729958 0 368.08297658729958 1357.6898893449541 0 0 0 0 -5.523151269285421 -1.0395493724216607 0 -1.0395493724216607 7.2590556070199819 0 0 0 0 -2562.6768319834009 254.85613434205465 0 254.85613434205465 666.71750110397511 0 0 0 0 -2360.7050783851773 445.50437249257891 0 445.50437249257891 374.75261134402484 0 0 0 0 -2755.124901993302 142.88836167969669 0 142.88836167969669 1475.77286560006 0 0 0 0 -3051.4813299121106 1002.1601288640371 0 1002.1601288640371 -94.028269629092563 0 0 0 0 -8.9088042859972063 1.4979176636580149 0 1.4979176636580149 14.020929929580412 0 0 0 0 -2598.1136026470194 1054.7050563000016 0 1054.7050563000016 -118.56352928865311 0 0 0 0 -3498.3538741073035 888.27986682557662 0 888.27986682557662 237.9911666045158 0 0 0 0 -3129.9158924992225 489.00753363163437 0 489.00753363163437 659.55369092239812 0 0 0 0 -1424.4377797881316 722.79548622378661 0 722.79548622378661 -161.8974486659481 0 0 0 0 -124.82989236151479 147.12141218278589 0 147.12141218278589 -181.39006020191573 0 0 0 0 -801.9232052938205 934.26298055685766 0 934.26298055685766 -251.42001255072046 0 0 0 0 -2940.1260062136207 995.74218829015535 0 995.74218829015535 333.45331202362058 0 0 0 0 -1506.876660234695 1352.1206573752102 0 1352.1206573752102 -471.91667911296827 0 0 0 0 -2547.701893557969 1652.4486411621938 0 1652.4486411621938 -68.996517737725526 0 0 0 0 -5.3871095512607354 0.79109806064022337 0 0.79109806064022337 7.9068491568395443 0 0 0 0 -2008.6463519798308 -247.1810705361371 0 -247.1810705361371 987.85503832381255 0 0 0 0 -953.13152243670265 761.78020694320458 0 761.78020694320458 -362.29236463533721 0 0 0 0 -2108.6579438147746 667.71246505181853 0 667.71246505181853 104.70645258626928 0 0 0 0 -1472.5486575061077 133.99978830419639 0 133.99978830419639 -75.616094776959471 0 0 0 0 -1543.2042727804946 97.283232180603818 0 97.283232180603818 404.44673302599176 0 0 0 0 -2265.9614984954023 259.79318699268697 0 259.79318699268697 1072.7212282339224 0 0 0 0 -1573.8286902727377 -47.853098789716341 0 -47.853098789716341 61.458918046205326 0 0 0 0 -1887.3265850805983 123.62688993198094 0 123.62688993198094 51.298260831069456 0 0 0 0 -790.47999013898152 207.58886634622559 0 207.58886634622559 -70.125806216884484 0 0 0 0 -1505.2088147202739 -103.9353303026528 0 -103.9353303026528 -202.28669991452114 0 0 0 0 -1567.5970250594528 -39.845452725216774 0 -39.845452725216774 -268.08045031232632 0 0 0 0 -838.05094320057833 -2.5038863324830345 0 -2.5038863324830345 -179.57873221931368 0 0 0 0 -1198.1827005023733 125.06934932809236 0 125.06934932809236 -210.37137309584591 0 0 0 0 -1177.00674856361 460.16312635183976 0 460.16312635183976 -229.47057380535261 0 0 0 0 -1631.3321816159842 -177.43768008987809 0 -177.43768008987809 46.032959328538709 0 0 0 0 -1064.9120185118772 -700.85657530375136 0 -700.85657530375136 477.87949378828944 0 0 0 0 -1084.6530635018062 -265.57107598538687 0 -265.57107598538687 52.217047066738814 0 0 0 0 -415.08845911855315 -298.03274156858834 0 -298.03274156858834 63.454234626133712 0 0 0 0 -670.378898115232 137.26743663653269 0 137.26743663653269 280.22020535769661 0 0 0 0 -1205.8016180378254 -80.365123727246669 0 -80.365123727246669 8.2228680347016052 0 0 0 0 -2139.8817783623508 -451.10985054159244 0 -451.10985054159244 672.9773962593199 0 0 0 0 -1983.773717909251 -490.27088804188816 0 -490.27088804188816 444.80132191503048 0 0 0 0 -2022.465375161948 -474.72404694937404 0 -474.72404694937404 595.29672176406211 0 0 0 0 -2613.0279780729543 -249.10630448108759 0 -249.10630448108759 527.94594314683809 0 0 0 0 -1648.8610820691156 -138.64311069143878 0 -138.64311069143878 -30.334017663215946 0 0 0 0 -1664.1237095814049 -780.34515151790697 0 -780.34515151790697 10.631199647631092 0 0 0 0 -3241.4967787043324 -1179.2498049286921 0 -1179.2498049286921 -84.593976885313623 0 0 0 0 -2411.6622220049758 238.70946254563364 0 238.70946254563364 -210.11038553525191 0 0 0 0 -2304.9178996943301 -231.09033128574129 0 -231.09033128574129 -372.67839571846184 0 0 0 0 -1491.303610865561 -30.85377372221626 0 -30.85377372221626 -657.62214500895197 0 0 0 0 -1998.0524569898998 387.83367643240649 0 387.83367643240649 -116.16402418694042 0 0 0 0 -96.143959279903356 996.34260255964841 0 996.34260255964841 46.647001954381267 0 0 0 0 -1237.4263361957492 272.20044321702562 0 272.20044321702562 -137.69701556240329 0 0 0 0 -1384.6246933878829 -227.21560156286114 0 -227.21560156286114 -263.37313452679302 0 0 0 0 -1721.790625153074 -584.59285798238284 0 -584.59285798238284 -314.51651685972774 0 0 0 0 -2483.5423753891264 -364.67109645058531 0 -364.67109645058531 -267.48403275541045 0 0 0 0 -3.6704272153577904 1.3191018402829329 0 1.3191018402829329 1.090840163674148 0 0 0 0 -2371.6243889723937 -896.07960195472185 0 -896.07960195472185 29.907376782505253 0 0 0 0 -986.3935158845743 -610.27282397075942 0 -610.27282397075942 94.936487558973113 0 0 0 0 -2057.1014003862838 -292.52689865912373 0 -292.52689865912373 73.913507847893598 0 0 0 0 -2499.2569532870621 -1085.9568380073529 0 -1085.9568380073529 -5.4896268333646887 0 0 0 0 -1121.2709204116109 -848.82858823959032 0 -848.82858823959032 -14.649858877169891 0 0 0 0 -26.5224909903487 9.2198117099627268 0 9.2198117099627268 0.53013332732305862 0 0 0 0 -628.77950080723895 396.25893673040105 0 396.25893673040105 638.66904606201388 0 0 0 0 -725.99615054206151 -268.98307421484463 0 -268.98307421484463 798.79566712808162 0 0 0 0 -1848.4038400626487 -181.52505072215502 0 -181.52505072215502 -260.21498887813709 0 0 0 0 -1130.6977268477658 -984.1646132289269 0 -984.1646132289269 -193.68957893350495 0 0 0 0 -13.554925893616286 4.3956045112253719 0 4.3956045112253719 -0.2667249060562078 0 0 0 0 -2647.9487253935545 -932.74280508476716 0 -932.74280508476716 -78.619429122905331 0 0 0 0 -1556.926871441643 -166.26427428223354 0 -166.26427428223354 -272.94965475718993 0 0 0 0 -2945.0202148216099 265.66515351488715 0 265.66515351488715 -64.141597206426923 0 0 0 0 -1777.9180342682812 -29.570787494501701 0 -29.570787494501701 6.02122861714588 0 0 0 0 -574.45382428498124 140.37434865395062 0 140.37434865395062 -376.37345715590118 0 0 0 0 -559.868457494827 82.140145353397486 0 82.140145353397486 -325.5647080896606 0 0 0 0 -792.53147042431374 239.39232547573596 0 239.39232547573596 -381.89134546964965 0 0 0 0 -596.86429585859878 -144.04725959504071 0 -144.04725959504071 -534.16333773805286 0 0 0 0 -676.58838562098117 -42.119973252130762 0 -42.119973252130762 -377.42998302011074 0 0 0 0 -607.50443080400782 -176.89269731841938 0 -176.89269731841938 -301.20700957055874 0 0 0 0 -712.78449385003842 -117.50114961892348 0 -117.50114961892348 -77.639820431679709 0 0 0 0 -992.59305307271643 -247.02319330485557 0 -247.02319330485557 -100.58985801489689 0 0 0 0 -1252.6910561176555 -72.008184275281792 0 -72.008184275281792 -312.70007005259981 0 0 0 0 -1209.5724387532173 379.28422558889429 0 379.28422558889429 -632.17997285067622 0 0 0 0 -2154.6462908632038 119.60148591964975 0 119.60148591964975 -186.8113886588917 0 0 0 0 -922.06693370702124 559.48322931452219 0 559.48322931452219 -60.633501732900186 0 0 0 0 -58.444421721047547 1129.3724244519663 0 1129.3724244519663 357.9752203031195 0 0 0 0 -2097.0576009944884 469.16596644757487 0 469.16596644757487 181.93083662407298 0 0 0 0 -401.14232530714617 -348.81297187158754 0 -348.81297187158754 263.11727466757839 0 0 0 0 -17.038364366068109 4.5711125040221106 0 4.5711125040221106 0.14519071661300842 0 0 0 0 -872.55953881650203 -149.96382579455644 0 -149.96382579455644 354.83801565760496 0 0 0 0 -37.220891470435475 11.677348883222265 0 11.677348883222265 0.77500135423889738 0 0 0 0 -942.02486855862116 -20.896084279321485 0 -20.896084279321485 641.35759287638939 0 0 0 0 -850.42835367997759 38.730810122049206 0 38.730810122049206 238.74582951687739 0 0 0 0 -457.64288985971871 -323.28345498266856 0 -323.28345498266856 401.94586295825684 0 0 0 0 -1360.2841992362519 -519.61812056323424 0 -519.61812056323424 290.02469334948864 0 0 0 0 -35.935574393566412 12.029404430318138 0 12.029404430318138 0.69037004674832403 0 0 0 0 -276.78857037478519 544.81707845664323 0 544.81707845664323 1236.9507477493974 0 0 0 0 -13.506437451425882 406.68762265126861 0 406.68762265126861 418.71730610480495 0 0 0 0 -417.28334337388878 -359.56595102717802 0 -359.56595102717802 188.14547807567646 0 0 0 0 -605.68645434617065 132.37140814403392 0 132.37140814403392 510.40098597198812 0 0 0 0 -449.63939977261543 -221.84525890040402 0 -221.84525890040402 -133.20528031302183 0 0 0 0 -73.580572698658216 371.65414051933226 0 371.65414051933226 727.84770310274439 0 0 0 0 -566.87703685833912 -60.432674216260921 0 -60.432674216260921 -21.402348951982731 0 0 0 0 -994.37090141153385 -642.33810408994759 0 -642.33810408994759 61.47991413176635 0 0 0 0 -533.41278023575023 -417.62917268499456 0 -417.62917268499456 71.005726393100304 0 0 0 0 -2.3657113444533167 0.43435714452490259 0 0.43435714452490259 2.986003720269732 0 0 0 0 -518.62779257029979 -46.252335962819075 0 -46.252335962819075 181.65391946327281 0 0 0 0 -534.59093015949111 -190.68286176566949 0 -190.68286176566949 -73.711201208363946 0 0 0 0 -1365.8904993812757 -341.67128500091872 0 -341.67128500091872 213.85213296049096 0 0 0 0 -719.71717597680072 -14.493260413318467 0 -14.493260413318467 -183.59510208902111 0 0 0 0 -4.9002139246921459 2.4336880263074505 0 2.4336880263074505 4.5354930291896114 0 0 0 0 -3.9208497230523136 1.9649989560400911 0 1.9649989560400911 1.7141960238490341 0 0 0 0 -2294.7526304192979 -52.905058060696774 0 -52.905058060696774 310.15588112281876 0 0 0 0 -1161.3440250874628 -794.85620534670829 0 -794.85620534670829 -220.59838519601044 0 0 0 0 -409.01913962902108 -355.93534450213485 0 -355.93534450213485 -12.162273660369465 0 0 0 0 58.395021378819365 -122.73122378679318 0 -122.73122378679318 -76.191020518574987 0 0 0 0 -195.85314324486535 -144.50544726531371 0 -144.50544726531371 -5.8202764197176293 0 0 0 0 534.37251684485818 30.821317091927085 0 30.821317091927085 -55.827500726140897 0 0 0 0 249.59765456616879 5.2988708385091741 0 5.2988708385091741 -191.48575785368666 0 0 0 0 -151.3886966672726 -231.61780878519494 0 -231.61780878519494 76.009261076636903 0 0 0 0 283.67847807364888 -121.38640603087651 0 -121.38640603087651 -189.33210190222599 0 0 0 0 -655.63789988302233 250.29748409688 0 250.29748409688 -94.520081472626771 0 0 0 0 -263.72379253848339 38.228137210371642 0 38.228137210371642 -86.934456061786477 0 0 0 0 -557.32199349525763 -75.986810304928895 0 -75.986810304928895 157.56678118647687 0 0 0 0 -1230.8794698562706 313.03120584276712 0 313.03120584276712 28.037039815925993 0 0 0 0 -1668.5419833167762 -225.98549056803131 0 -225.98549056803131 28.667247551964465 0 0 0 0 -988.6657602890773 63.649046298357462 0 63.649046298357462 29.741503122197173 0 0 0 0 -915.67669182469399 305.18993437844392 0 305.18993437844392 2.0076974374747465 0 0 0 0 -1047.3885384043242 -57.103046657351115 0 -57.103046657351115 -73.488910952942661 0 0 0 0 -4.2520675245195889 2.2746850580030653 0 2.2746850580030653 -0.3450948167751573 0 0 0 0 -652.42535180666891 -37.021701258898702 0 -37.021701258898702 -26.413922596708289 0 0 0 0 -49.456921985918598 132.25511989473534 0 132.25511989473534 -221.82010103026732 0 0 0 0 -419.0883885473595 354.2925936622612 0 354.2925936622612 -97.185291577009593 0 0 0 0 -790.75510576483612 80.339276509803085 0 80.339276509803085 115.27360453947767 0 0 0 0 -131.91230472850657 38.912998312470791 0 38.912998312470791 83.366178770740703 0 0 0 0 -4.6409860275543053 1.024468961405276 0 1.024468961405276 1.0797035622491205 0 0 0 0 -539.43624646170429 -414.35933900820771 0 -414.35933900820771 -156.9852735915847 0 0 0 0 -277.05786050321331 336.89151775468315 0 336.89151775468315 229.97921638315802 0 0 0 0 -237.18649353733417 -193.63507014941791 0 -193.63507014941791 -88.611061641949618 0 0 0 0 -8.972258090126445 2.8917929697425464 0 2.8917929697425464 1.0671410644330823 0 0 0 0 -391.76317978026782 -23.768848050618772 0 -23.768848050618772 259.02502575956919 0 0 0 0 -321.92462183921452 -63.828820901523386 0 -63.828820901523386 180.72652598264887 0 0 0 0 -456.66081381246113 -173.41599683136917 0 -173.41599683136917 150.24531688995012 0 0 0 0 -473.06111882349796 -174.28880084476748 0 -174.28880084476748 263.59744754058829 0 0 0 0 -662.01372442948559 -336.95768710952416 0 -336.95768710952416 141.86457997226682 0 0 0 0 -363.88754511387015 -220.19614573325691 0 -220.19614573325691 -115.31699282580087 0 0 0 0 -5.0982570558080198 1.5392515069475436 0 1.5392515069475436 0.30180953771445473 0 0 0 0 -1029.2519447616542 -306.96656752813396 0 -306.96656752813396 -112.20240945171668 0 0 0 0 -173.14985039630119 402.81005174813083 0 402.81005174813083 -166.37831080980038 0 0 0 0 -845.21534512214566 102.72081733990285 0 102.72081733990285 -282.11284061294356 0 0 0 0 -4.4742648013704809 -0.54076268420269002 0 -0.54076268420269002 1.0489010055542496 0 0 0 0 -411.46615776946419 -562.55518571673383 0 -562.55518571673383 -392.80515870198633 0 0 0 0 -368.04880906586914 120.86896662499834 0 120.86896662499834 105.20221199432115 0 0 0 0 60.836158661940317 -78.940294907816167 0 -78.940294907816167 -300.97958047749808 0 0 0 0 69.857875934082131 -159.46958546626294 0 -159.46958546626294 -282.85228311901983 0 0 0 0 -253.58706553432421 -222.38676423112028 0 -222.38676423112028 -116.63565099331572 0 0 0 0 -609.55253959470429 -397.5138681390788 0 -397.5138681390788 26.423118113996679 0 0 0 0 -523.24694685243958 66.260712863917263 0 66.260712863917263 28.725322536353531 0 0 0 0 -592.10890886469133 -346.56883005318406 0 -346.56883005318406 -129.56582024162077 0 0 0 0 -238.50921668357478 -90.335242580337578 0 -90.335242580337578 -134.44875507377685 0 0 0 0 33.193029357706109 -9.8350973263768111 0 -9.8350973263768111 -140.47683548413721 0 0 0 0 56.510583698065602 -12.861056891175565 0 -12.861056891175565 -70.387356232303119 0 0 0 0 -87.864502030577569 82.940857970380591 0 82.940857970380591 -81.86947703514295 0 0 0 0 -311.00921279968316 -356.8138538851681 0 -356.8138538851681 -659.26624997559566 0 0 0 0 -201.30664991576486 92.971374586621494 0 92.971374586621494 -18.297446387364005 0 0 0 0 -3.4072744809910063 -0.77747746558967812 0 -0.77747746558967812 -0.14065656365750018 0 0 0 0 -61.141674680222422 -134.88339350953595 0 -134.88339350953595 -280.52289504257237 0 0 0 0 -47.224093549076315 -40.269274550537396 0 -40.269274550537396 -313.33299993558671 0 0 0 0 -761.19449718070973 -176.27056580999326 0 -176.27056580999326 -39.226228413263243 0 0 0 0 -624.15499717119928 -32.514325129740143 0 -32.514325129740143 -228.3931725404575 0 0 0 0 -947.09343221842573 106.74358381479135 0 106.74358381479135 -154.37667553161583 0 0 0 0 -909.48860838318888 227.84373186577741 0 227.84373186577741 83.294086455203569 0 0 0 0 -1144.7939069628446 63.447344060147799 0 63.447344060147799 45.485717073502769 0 0 0 0 -1057.0803856137754 -93.170943979257444 0 -93.170943979257444 -1.2406804428904934 0 0 0 0 -904.72599962772074 -138.30951901629265 0 -138.30951901629265 -268.03392337798869 0 0 0 0 -890.26331686160484 -40.91992258836575 0 -40.91992258836575 -21.610007848633074 0 0 0 0 -1081.383060374832 -326.93709864193022 0 -326.93709864193022 -19.461960186039391 0 0 0 0 -1193.5012345055475 -66.368597362665611 0 -66.368597362665611 -2.4888925561153883 0 0 0 0 -1665.6913502975804 -518.4034999389778 0 -518.4034999389778 -411.90901739911169 0 0 0 0 -1103.6616913574871 -36.612492015317585 0 -36.612492015317585 -287.68805131000289 0 0 0 0 -969.91118129462484 -344.34662914346188 0 -344.34662914346188 -857.79795187419086 0 0 0 0 -4.3856774442605087 -0.81766690801944009 0 -0.81766690801944009 -0.3681647577875567 0 0 0 0 -740.87952227058122 506.07953534365993 0 506.07953534365993 -406.56776140413893 0 0 0 0 -88.166724514221187 121.40533305241186 0 121.40533305241186 -32.484525170857786 0 0 0 0 -157.83414759292646 -366.39996861725109 0 -366.39996861725109 -192.75846546047114 0 0 0 0 -31.931820263042937 94.240176285889703 0 94.240176285889703 -86.535901134015432 0 0 0 0 -45.397435575352574 20.032606107741586 0 20.032606107741586 -202.61809130194374 0 0 0 0 -8.4710528958699172 -2.8698418741737903 0 -2.8698418741737903 -0.055277785165513516 0 0 0 0 -75.682600283354986 -1.6802557997329899 0 -1.6802557997329899 172.02417502463024 0 0 0 0 -273.53765245476416 151.34801518945355 0 151.34801518945355 -76.959600129083924 0 0 0 0 -207.75359206371286 98.594293027392325 0 98.594293027392325 -56.13474548163623 0 0 0 0 -215.65299786704782 496.15623892944359 0 496.15623892944359 -166.33375481251875 0 0 0 0 -240.91263219518441 297.33002343015261 0 297.33002343015261 -320.16753994213389 0 0 0 0 -716.20556862648664 606.89868464734241 0 606.89868464734241 -38.809838778598305 0 0 0 0 482.61157320279744 38.917387910094646 0 38.917387910094646 -1017.0039946919882 0 0 0 0 -1067.9974342055884 953.4826573315554 0 953.4826573315554 -390.03640231142037 0 0 0 0 -831.54554030794952 78.720395214877115 0 78.720395214877115 111.36492227431586 0 0 0 0 -8.1009096044163726 0.14010170280149303 0 0.14010170280149303 -0.0083959784902468693 0 0 0 0 -255.17192364421862 -130.32251147130751 0 -130.32251147130751 104.12364064608687 0 0 0 0 -307.78543656955299 -937.43658962124664 0 -937.43658962124664 414.33539359731469 0 0 0 0 -16.813312927727154 -4.1781769831769662 0 -4.1781769831769662 -0.2467580510413315 0 0 0 0 -1161.0518336192981 767.0290264088577 0 767.0290264088577 -154.49101402665656 0 0 0 0 -163.89266022147785 476.71718166412973 0 476.71718166412973 -203.77789025368668 0 0 0 0 -266.34562225653917 717.18140073851305 0 717.18140073851305 477.93602056719038 0 0 0 0 -1321.9342571776215 418.41468047707519 0 418.41468047707519 394.54387318965257 0 0 0 0 600.52195684506387 -698.58955974746834 0 -698.58955974746834 -429.85278898856137 0 0 0 0 -349.44527621553425 -983.12425404655426 0 -983.12425404655426 -512.28898033446796 0 0 0 0 -309.62372703008441 128.99355041617784 0 128.99355041617784 -1027.5875717194203 0 0 0 0 -1450.235768462062 204.4697007749462 0 204.4697007749462 -193.14358644836784 0 0 0 0 -249.24024579388788 -273.25229193527105 0 -273.25229193527105 2.9990853119747314 0 0 0 0 -340.24223697262642 -142.71780370908346 0 -142.71780370908346 309.1871698801192 0 0 0 0 -441.388320146345 401.60628015365057 0 401.60628015365057 71.342417433135608 0 0 0 0 -4.5722953120657621 114.12988289933526 0 114.12988289933526 256.22559249055462 0 0 0 0 -1599.5985069124981 -700.06057078559911 0 -700.06057078559911 -103.75318339378418 0 0 0 0 204.67104306976762 597.42142110033831 0 597.42142110033831 -209.51613813926892 0 0 0 0 -11.294368223513786 9.0997426409349131 0 9.0997426409349131 -5.5899263212640307 0 0 0 0 -120.85901690571336 374.18198980784234 0 374.18198980784234 219.24569508316313 0 0 0 0 -386.77445464351695 741.05365301287293 0 741.05365301287293 -164.65401588755293 0 0 0 0 -520.96636596753524 318.6711213069259 0 318.6711213069259 743.2798928835623 0 0 0 0 -117.02780999671458 208.78300192908975 0 208.78300192908975 -140.81661026420593 0 0 0 0 -12.758523605073236 -3.4929070809453329 0 -3.4929070809453329 -0.92513089950055649 0 0 0 0 -29.958787880775631 -7.4739235245037641 0 -7.4739235245037641 0.013563090647792153 0 0 0 0 -182.54763480365727 -287.98910214056531 0 -287.98910214056531 592.86458423548868 0 0 0 0 -406.05503346725527 468.10147264276861 0 468.10147264276861 292.19382144334941 0 0 0 0 -551.42424006223519 -890.26753660803706 0 -890.26753660803706 -68.724083202922543 0 0 0 0 256.97259176417174 -151.47412955552863 0 -151.47412955552863 -303.65402715514165 0 0 0 0 -965.59988956811503 -788.77901363900492 0 -788.77901363900492 -91.352957264287539 0 0 0 0 -841.82498154375207 203.16018872663696 0 203.16018872663696 -574.60228950800138 0 0 0 0 -488.85465522611048 -166.95625161543018 0 -166.95625161543018 -999.41251375115326 0 0 0 0 -801.0973858340767 -490.33621502851202 0 -490.33621502851202 -522.58807789189837 0 0 0 0 -1232.8481733251156 -74.971196869113015 0 -74.971196869113015 -3.7020037173096227 0 0 0 0 -765.9993345146213 673.46434569790915 0 673.46434569790915 -443.64691294435659 0 0 0 0 -431.48697912748321 -327.47192602840568 0 -327.47192602840568 56.002769493004848 0 0 0 0 -641.24674412231252 128.37498853806784 0 128.37498853806784 61.736332083254439 0 0 0 0 -592.72384974077431 -39.90095940843149 0 -39.90095940843149 293.47012357792073 0 0 0 0 -323.3344146874515 -61.032975852045411 0 -61.032975852045411 174.12208986845189 0 0 0 0 -282.55678543333124 -298.61252419777793 0 -298.61252419777793 -466.27594943421104 0 0 0 0 -4.9633615424627191 -0.90581622859516386 0 -0.90581622859516386 2.7236119674300197 0 0 0 0 67.769140778782457 -77.304848405928823 0 -77.304848405928823 55.772603649543839 0 0 0 0 -24.084170120535418 -199.58399020762025 0 -199.58399020762025 -106.9941656279681 0 0 0 0 -0.63295937271652747 -0.18730243891803511 0 -0.18730243891803511 0.67039533699807063 0 0 0 0 -260.29096107976693 -549.63425839314709 0 -549.63425839314709 147.2509610411937 0 0 0 0 -242.07751814890071 127.22475463868994 0 127.22475463868994 546.03356428430538 0 0 0 0 -368.52978869685467 -469.75635235115533 0 -469.75635235115533 -126.41485253931205 0 0 0 0 -393.56745896801294 -119.08306112481861 0 -119.08306112481861 -214.32377625018631 0 0 0 0 -324.10220717486021 -662.87500829372436 0 -662.87500829372436 -470.76855482477367 0 0 0 0 -316.28531946986897 -324.77405680568421 0 -324.77405680568421 -452.25385744847421 0 0 0 0 -594.0441427875885 -390.19833616703113 0 -390.19833616703113 -460.11052426866166 0 0 0 0 -550.44538633669799 -462.96193345459653 0 -462.96193345459653 -426.68945691496913 0 0 0 0 -452.52869328227098 -303.43999463530321 0 -303.43999463530321 -486.79380913208854 0 0 0 0 -696.47084598316178 -154.83831518153136 0 -154.83831518153136 -94.902177989358734 0 0 0 0 -1268.7109658926565 -297.11321068881955 0 -297.11321068881955 119.22791961321531 0 0 0 0 -1523.9101619083995 -301.65688709178113 0 -301.65688709178113 153.21498731566226 0 0 0 0 -652.13530166128476 -106.92561095708629 0 -106.92561095708629 -558.99229843898547 0 0 0 0 -713.86592910058607 -115.23154897746198 0 -115.23154897746198 -241.21704378411027 0 0 0 0 -987.81041658444474 -927.94444339211486 0 -927.94444339211486 -274.96285702217693 0 0 0 0 -13.453620637337735 -974.33291123941865 0 -974.33291123941865 -294.22170229767607 0 0 0 0 -7.6550484690600342 -4.8596540651768301 0 -4.8596540651768301 -2.6622592056548999 0 0 0 0 -1606.956021859879 254.22752204761318 0 254.22752204761318 51.257821556104716 0 0 0 0 -58.897219494941965 236.28561510963493 0 236.28561510963493 -60.02558954181427 0 0 0 0 -431.82238100708855 -321.34623007440371 0 -321.34623007440371 386.66959781648399 0 0 0 0 -272.53440386961393 -286.81074762431524 0 -286.81074762431524 297.09954601660922 0 0 0 0 -15.693250707107268 -9.4892566764929711 0 -9.4892566764929711 -4.0196908436218548 0 0 0 0 -544.2336669334145 447.40845485608611 0 447.40845485608611 2.8228211232399474 0 0 0 0 -623.44154129809795 241.31080790876675 0 241.31080790876675 100.91624734475958 0 0 0 0 -7.9832003843794865 -4.2390960681107153 0 -4.2390960681107153 -2.3446418499513042 0 0 0 0 87.49263461467126 -486.42571689533315 0 -486.42571689533315 -223.37061410753259 0 0 0 0 -2309.2093572646327 -601.48886075732673 0 -601.48886075732673 319.62525896140198 0 0 0 0 -2248.6266593660434 465.38459477619352 0 465.38459477619352 160.66317789311461 0 0 0 0 -795.33585901894003 402.37154226174982 0 402.37154226174982 148.87702992864433 0 0 0 0 -798.91997033017105 -699.03664688337801 0 -699.03664688337801 80.50240766742624 0 0 0 0 -1360.6180833031431 -538.48402108792902 0 -538.48402108792902 152.93038639949054 0 0 0 0 -1369.4078346380629 -462.11128892744551 0 -462.11128892744551 307.36295087602622 0 0 0 0 -1370.2927395033294 -513.55470818285141 0 -513.55470818285141 114.98784553964401 0 0 0 0 -739.16052656757711 -110.43739106156086 0 -110.43739106156086 108.75582673346889 0 0 0 0 -142.93951811447187 -19.307262203193801 0 -19.307262203193801 -39.579158373789596 0 0 0 0 -940.19021343540226 1113.5378626537599 0 1113.5378626537599 1038.4458471180906 0 0 0 0 -14.310272465803607 3.980834859758037 0 3.980834859758037 1.1428585505061093 0 0 0 0 -2315.8541031873247 196.8859250341676 0 196.8859250341676 564.38521678410552 0 0 0 0 -975.58069279771735 67.477403062012172 0 67.477403062012172 257.27752706813283 0 0 0 0 -1480.9858841634741 -106.10909116418327 0 -106.10909116418327 200.92653786455338 0 0 0 0 -1187.6179553577467 -520.2589576145283 0 -520.2589576145283 79.344963025925608 0 0 0 0 -1579.2185493436664 -165.95841139087713 0 -165.95841139087713 291.50923784605538 0 0 0 0 -1955.9383363496127 204.59391300984078 0 204.59391300984078 522.64254607741509 0 0 0 0 -1877.5739457759009 -239.85369832736728 0 -239.85369832736728 313.65436197960878 0 0 0 0 -2084.1801348403205 -364.64835339182048 0 -364.64835339182048 282.20000450251109 0 0 0 0 -1513.6577579312725 -586.33953546699672 0 -586.33953546699672 -17.643866042483751 0 0 0 0 -1305.7812940207532 -612.79971381866517 0 -612.79971381866517 -97.830906102455629 0 0 0 0 -1411.7649077822716 -483.81491790966152 0 -483.81491790966152 73.439788652570087 0 0 0 0 -1186.8259746123986 -466.30163747366271 0 -466.30163747366271 82.587017503613652 0 0 0 0 -1055.3956470275025 -464.99288519762484 0 -464.99288519762484 -362.14226928217096 0 0 0 0 -1052.6206582667728 -498.0934531723417 0 -498.0934531723417 -148.36557657187234 0 0 0 0 -1355.2743460405964 -763.42246271821523 0 -763.42246271821523 -325.59222210529856 0 0 0 0 -1198.9126299737836 -585.22638721525755 0 -585.22638721525755 -325.11278719313555 0 0 0 0 -798.75584480708494 -509.18958430599105 0 -509.18958430599105 -404.65609629157177 0 0 0 0 -935.06235477844621 -780.36336004408122 0 -780.36336004408122 -418.46225296513921 0 0 0 0 -683.1086906041055 -610.06088419805099 0 -610.06088419805099 -488.0130996556511 0 0 0 0 -649.80918718434987 -442.43142924338429 0 -442.43142924338429 53.928032658024094 0 0 0 0 -1001.958984157518 -533.43669646882927 0 -533.43669646882927 -277.36418991319181 0 0 0 0 -1381.7345918886876 -575.37359522737233 0 -575.37359522737233 -374.7311006117634 0 0 0 0 -1124.0513241684548 -731.5337036813446 0 -731.5337036813446 -447.34492614921953 0 0 0 0 -919.63433787068061 -700.6819254611537 0 -700.6819254611537 -477.1114440423047 0 0 0 0 -1264.8511648373351 -563.75040314029252 0 -563.75040314029252 -380.17461387227149 0 0 0 0 -906.67550526172636 -672.20753202188848 0 -672.20753202188848 -427.00665785106344 0 0 0 0 -1129.5500846585965 -489.74854533832706 0 -489.74854533832706 -433.33388382770158 0 0 0 0 -483.83221712648083 -413.47072639253201 0 -413.47072639253201 -420.40751957394588 0 0 0 0 -265.37041734694139 -497.7325550428825 0 -497.7325550428825 -590.82508392526506 0 0 0 0 -886.15958435992798 -576.48505584940983 0 -576.48505584940983 -321.06008496019848 0 0 0 0 -2140.4983901747964 -719.17901576771033 0 -719.17901576771033 -356.49071245843152 0 0 0 0 -2380.4267504340578 -1014.1186850930441 0 -1014.1186850930441 -166.78971878251059 0 0 0 0 -1413.3273373707216 -887.28989595643907 0 -887.28989595643907 -501.18333542447658 0 0 0 0 -1913.9914200810526 -919.03907906393738 0 -919.03907906393738 -423.33468817538608 0 0 0 0 -1419.9237323396283 -641.81153590131544 0 -641.81153590131544 -492.63144145557533 0 0 0 0 -1353.7931612379998 -729.12735697061441 0 -729.12735697061441 -517.10907714744417 0 0 0 0 -1982.4822719298827 -588.11771758836312 0 -588.11771758836312 -362.89586202003898 0 0 0 0 -1634.1910792899762 -796.04469486228686 0 -796.04469486228686 -442.64245135722956 0 0 0 0 -1550.8407175585889 -616.46004493267355 0 -616.46004493267355 -436.87939174516009 0 0 0 0 -2269.5991562808449 -910.30757709033446 0 -910.30757709033446 -350.74790069028501 0 0 0 0 -2356.6391148601306 -782.0060813884046 0 -782.0060813884046 -486.77864056314547 0 0 0 0 -2147.0384705340339 -627.96801657379115 0 -627.96801657379115 -334.36298865309891 0 0 0 0 -2192.6246234476093 -695.91288586296605 0 -695.91288586296605 -184.14789540084757 0 0 0 0 -1582.5466555744242 -690.32850364736146 0 -690.32850364736146 -503.17977535514103 0 0 0 0 -1570.875434870195 -804.24268367834839 0 -804.24268367834839 -343.56638346649106 0 0 0 0 -1644.5387502125923 -532.75275693591311 0 -532.75275693591311 -10.249055617592091 0 0 0 0 -1799.9507609314023 -733.64180932764532 0 -733.64180932764532 -222.3320407167655 0 0 0 0 -2349.8874021866995 -397.25548589880998 0 -397.25548589880998 311.97026462550548 0 0 0 0 -2815.9583540192471 552.47926652252318 0 552.47926652252318 24.759827351253989 0 0 0 0 -2969.4558071124411 -827.5809364888936 0 -827.5809364888936 23.636384414613531 0 0 0 0 -11.154395863839646 -6.7116527737125367 0 -6.7116527737125367 1.2236648205957765 0 0 0 0 70.629764421444179 -1780.8046294633434 0 -1780.8046294633434 265.93895506121589 0 0 0 0 -3521.9152528262839 -1006.1188755886856 0 -1006.1188755886856 -255.9306534849602 0 0 0 0 -4889.9970092544099 623.95893598675184 0 623.95893598675184 219.88953494313887 0 0 0 0 -2997.3848767713243 -759.68582357827927 0 -759.68582357827927 -206.45929724519533 0 0 0 0 -3059.3925000775389 -1187.2547367399707 0 -1187.2547367399707 189.52369725132519 0 0 0 0 -2801.5044445549411 -1578.2623210299953 0 -1578.2623210299953 624.82939585688075 0 0 0 0 -2839.562262230455 -1369.1021623890069 0 -1369.1021623890069 13.074154868989339 0 0 0 0 -2493.5930141605986 -1118.5336548326241 0 -1118.5336548326241 -217.61953974491868 0 0 0 0 -2308.1193367209535 -680.41459784516667 0 -680.41459784516667 671.18182232004983 0 0 0 0 -2472.2460724639504 -1076.619466020381 0 -1076.619466020381 632.34149957302498 0 0 0 0 -2904.8077256457768 832.5101756115796 0 832.5101756115796 413.08084856629625 0 0 0 0 -7.7054387900246457 -2.8565592172986731 0 -2.8565592172986731 1.9258339922925933 0 0 0 0 -877.08954339915499 -1526.3520170546981 0 -1526.3520170546981 658.80284840838908 0 0 0 0 -3499.419289506829 -408.74884625312484 0 -408.74884625312484 1078.5527995555317 0 0 0 0 -1475.5847045902133 508.93412869371571 0 508.93412869371571 659.98527150220661 0 0 0 0 -3496.1263827940465 1068.4398802214889 0 1068.4398802214889 521.4743594183019 0 0 0 0 -750.36785467729078 412.56215068986842 0 412.56215068986842 191.56702389150541 0 0 0 0 -795.85547848153874 162.07434582160539 0 162.07434582160539 563.45024877252877 0 0 0 0 -1862.1533353564701 272.10762286094496 0 272.10762286094496 650.13987579246191 0 0 0 0 -1445.2865070975313 -630.06443665136453 0 -630.06443665136453 612.49713139593086 0 0 0 0 -9.8704898862904393 -2.6086547312714714 0 -2.6086547312714714 2.9554740206137793 0 0 0 0 -514.84009759594096 -785.03897323479202 0 -785.03897323479202 550.89830482034245 0 0 0 0 -3490.8071024867627 413.182525086711 0 413.182525086711 133.89371842739808 0 0 0 0 -3503.2197567488465 -975.09255131560064 0 -975.09255131560064 -529.54078539720581 0 0 0 0 -5014.9703161000471 43.146864531978906 0 43.146864531978906 44.19835797331038 0 0 0 0 -10.353094505518975 -6.5805987251218738 0 -6.5805987251218738 0.0067256682370264165 0 0 0 0 283.09216770222702 -1447.708382254621 0 -1447.708382254621 142.54489678863092 0 0 0 0 -20.506599288570456 -13.74148294916785 0 -13.74148294916785 1.4067909466867297 0 0 0 0 -1571.3831227733135 -114.85970333870773 0 -114.85970333870773 630.6973282508626 0 0 0 0 -1669.5880695183423 148.81395290092973 0 148.81395290092973 126.98694273201639 0 0 0 0 -2445.9875845608931 -71.57104157764698 0 -71.57104157764698 689.88590872988721 0 0 0 0 -2122.3758736827513 86.022416409627056 0 86.022416409627056 636.10991618506296 0 0 0 0 -1809.1127282376347 -78.251249349240965 0 -78.251249349240965 499.06372993044965 0 0 0 0 -1033.8850841274598 346.62324075435367 0 346.62324075435367 449.37982780050919 0 0 0 0 -1016.2550339628579 -536.21334042105866 0 -536.21334042105866 -180.95977430811092 0 0 0 0 -2234.678430697315 -41.493236312974147 0 -41.493236312974147 496.33807551704183 0 0 0 0 -2126.5739635526479 -120.30324683846595 0 -120.30324683846595 298.00857399783183 0 0 0 0 -1000.8816273535376 538.7739898315042 0 538.7739898315042 -249.29949185447842 0 0 0 0 -3364.4322626505418 -881.46407952564959 0 -881.46407952564959 -23.550972908109102 0 0 0 0 -5.7285243255867684 3.0065439761200352 0 3.0065439761200352 1.989299398248541 0 0 0 0 -2973.6177062893566 -457.1896992191032 0 -457.1896992191032 -7.34197986723035 0 0 0 0 -2479.0032156090674 -1049.2755362420462 0 -1049.2755362420462 79.755568781025659 0 0 0 0 -3498.8980162852913 -935.10604968093969 0 -935.10604968093969 294.79321666566108 0 0 0 0 -2825.8198707163092 -547.08612553876787 0 -547.08612553876787 365.90898411102597 0 0 0 0 -3302.1881360069528 -817.06594784347351 0 -817.06594784347351 239.29818572066188 0 0 0 0 -3407.4761082688201 -1055.7328210450416 0 -1055.7328210450416 358.21481072899087 0 0 0 0 -3434.1353696615697 -618.28826951174051 0 -618.28826951174051 -153.33415029133229 0 0 0 0 -2579.016656720858 -1249.393419817736 0 -1249.393419817736 305.70070347374792 0 0 0 0 -2393.417600307359 -476.69403397198971 0 -476.69403397198971 -136.28936010251047 0 0 0 0 -61.245551686835825 -14.909812077415154 0 -14.909812077415154 2.7302992286481071 0 0 0 0 -58.171250445317128 -6.0110928256684701 0 -6.0110928256684701 15.485675145855112 0 0 0 0 -56.66733891451895 -0.036793496139424064 0 -0.036793496139424064 14.009697546268626 0 0 0 0 -49.680270149328862 -7.576425874332017 0 -7.576425874332017 -0.24421814616658821 0 0 0 0 -47.715678407956148 1.1434433173324692 0 1.1434433173324692 14.754243663399166 0 0 0 0 -53.352456340784556 -8.4511262667383562 0 -8.4511262667383562 20.060332655981341 0 0 0 0 -54.889532019315084 -5.9087506138182562 0 -5.9087506138182562 21.320419704294522 0 0 0 0 -48.827730701964356 -2.7245576750874498 0 -2.7245576750874498 27.166374753764529 0 0 0 0 -46.158650080978987 -23.897338520725469 0 -23.897338520725469 15.951456520518491 0 0 0 0 -53.766115317615913 -4.177398713739251 0 -4.177398713739251 40.838203016490525 0 0 0 0 -46.170850480630179 -36.33129034913857 0 -36.33129034913857 32.104680866667429 0 0 0 0 -12.451726503031935 -1.9037117923465274 0 -1.9037117923465274 2.1285338347970812 0 0 0 0 -53.726326007856187 -5.9738938406207547 0 -5.9738938406207547 25.552423487787564 0 0 0 0 -45.969209891249193 -17.976731955556595 0 -17.976731955556595 14.216999624713191 0 0 0 0 -52.817396452504909 -15.710865388784214 0 -15.710865388784214 32.335712894407493 0 0 0 0 -50.174652666872134 -13.447747640835637 0 -13.447747640835637 21.718488561999209 0 0 0 0 -54.091341526909673 -11.853677497709114 0 -11.853677497709114 21.349328913112288 0 0 0 0 -50.787901074800175 -11.59244367124856 0 -11.59244367124856 17.940652020395021 0 0 0 0 -50.560432663012762 -10.211036285132437 0 -10.211036285132437 19.565604239047232 0 0 0 0 -50.715166327281622 -7.4511216476422248 0 -7.4511216476422248 16.825181584435782 0 0 0 0 -51.596662940719398 -10.361887280115639 0 -10.361887280115639 20.699432525387124 0 0 0 0 -52.273506374440331 -5.2642596284699152 0 -5.2642596284699152 15.519979892009133 0 0 0 0 -50.870236189090065 -1.6945606309172376 0 -1.6945606309172376 14.431537824057273 0 0 0 0 -54.007776802660374 -4.2192519256669243 0 -4.2192519256669243 17.595215161331566 0 0 0 0 -48.268786421525874 -5.5569913054593769 0 -5.5569913054593769 17.486011209402328 0 0 0 0 -48.692469679386704 -4.3373805405329549 0 -4.3373805405329549 14.939165297526898 0 0 0 0 -48.710269591194333 -1.3325854141108595 0 -1.3325854141108595 14.202553329739203 0 0 0 0 -46.501756507801474 0.96314036852297846 0 0.96314036852297846 16.335165023460842 0 0 0 0 -48.642581664171303 7.264589001873901 0 7.264589001873901 16.579937887609788 0 0 0 0 -45.029625126277097 1.3907379038870857 0 1.3907379038870857 13.374926118009824 0 0 0 0 -45.685584106679016 3.9486327159765509 0 3.9486327159765509 14.919001336668941 0 0 0 0 -38.690384273315431 8.5724713949238378 0 8.5724713949238378 14.825462355149003 0 0 0 0 -53.182455083791865 -0.24787149493192828 0 -0.24787149493192828 16.785865868094049 0 0 0 0 -34.952512394866062 4.0811330089003883 0 4.0811330089003883 16.110151573941536 0 0 0 0 -38.718030548723618 6.6290999003338849 0 6.6290999003338849 21.281797765426735 0 0 0 0 -37.648411513157043 6.9363071421151972 0 6.9363071421151972 14.573444838765454 0 0 0 0 -59.307893046992831 2.4702486774352792 0 2.4702486774352792 19.213959780210132 0 0 0 0 -51.625334624466632 -7.3435573435790502 0 -7.3435573435790502 2.687777138813999 0 0 0 0 -66.979089919288526 1.6966432204046669 0 1.6966432204046669 -6.4167618073760764 0 0 0 0 -38.851481532830803 -6.6479668523180635 0 -6.6479668523180635 -4.8036341839331271 0 0 0 0 -64.383097450850073 -12.505989907871651 0 -12.505989907871651 -8.6136700611589276 0 0 0 0 -58.612644352229836 0.55546193434395263 0 0.55546193434395263 -17.336308304036265 0 0 0 0 -112.89708412972323 -61.800929275500039 0 -61.800929275500039 -76.91349536530538 0 0 0 0 -33.566365466047159 17.23631703120796 0 17.23631703120796 7.3513342193751843 0 0 0 0 -58.961025458884251 0.63225897673089548 0 0.63225897673089548 -4.8779788149286105 0 0 0 0 -104.42198840131095 -18.673568678973879 0 -18.673568678973879 -66.252293740573805 0 0 0 0 -28.077183846024823 12.175046306036968 0 12.175046306036968 13.260103322455986 0 0 0 0 -225.33126927779085 -113.66206135838911 0 -113.66206135838911 -67.301903102830693 0 0 0 0 -126.76178309859324 -127.09278443615375 0 -127.09278443615375 -111.23708378046831 0 0 0 0 -233.95322101110742 -82.406083088694743 0 -82.406083088694743 -67.244193014028497 0 0 0 0 -433.81021127774147 -203.00982387511976 0 -203.00982387511976 -48.099680950401762 0 0 0 0 -1.0205477172281796 1.2632626240544624 0 1.2632626240544624 -1.3332716902430146 0 0 0 0 -742.4853559606272 -118.93557416280873 0 -118.93557416280873 306.34777726305265 0 0 0 0 -10.677137748916721 86.838897784469282 0 86.838897784469282 11.904246643585338 0 0 0 0 -531.47624562228884 -342.78977993186299 0 -342.78977993186299 -35.545071920899773 0 0 0 0 -339.54665145924082 -0.43534751791730741 0 -0.43534751791730741 34.925204815899633 0 0 0 0 -141.01198819857746 -75.303008435646916 0 -75.303008435646916 -145.32762559998355 0 0 0 0 -3.4989215923703512 1.7997129325520405 0 1.7997129325520405 0.32892086467819226 0 0 0 0 -248.24340391005717 -214.08926923412207 0 -214.08926923412207 -225.14460519114527 0 0 0 0 -221.38471379801922 -153.21085734269786 0 -153.21085734269786 -165.51149647090369 0 0 0 0 -251.50605516603537 -146.57458726608002 0 -146.57458726608002 -138.35052291363627 0 0 0 0 -138.75853091226281 -177.56663380245408 0 -177.56663380245408 -196.39138113152876 0 0 0 0 -286.10072307200608 -69.781865904071822 0 -69.781865904071822 67.38138169288186 0 0 0 0 -159.97607233250892 -89.301726012679978 0 -89.301726012679978 -55.418378722610555 0 0 0 0 -90.24829692557978 -56.129143184686654 0 -56.129143184686654 -25.007250302198372 0 0 0 0 4.0755792407905673 -19.311690365493128 0 -19.311690365493128 -7.6164800779312509 0 0 0 0 -107.48831849053386 -39.197247816912068 0 -39.197247816912068 20.455010350257908 0 0 0 0 55.327745982933266 -14.589392696405412 0 -14.589392696405412 -41.8532778456306 0 0 0 0 -14.139191228299751 -47.014449781055191 0 -47.014449781055191 -54.049378185466594 0 0 0 0 -31.986357517758734 6.6394487091902192 0 6.6394487091902192 -15.93859654091375 0 0 0 0 -50.347734658309491 -71.105138685466954 0 -71.105138685466954 34.45274791738666 0 0 0 0 -53.339375108254899 6.7372108310933072 0 6.7372108310933072 16.574701558821175 0 0 0 0 -11.348061363454676 2.5767600615500186 0 2.5767600615500186 -2.4207879933675773 0 0 0 0 -203.06998354332518 -81.514053005207813 0 -81.514053005207813 -88.756937188903066 0 0 0 0 -211.24694784737403 -132.00026404759626 0 -132.00026404759626 -16.523624660877431 0 0 0 0 -134.63173849070154 -107.23931013504045 0 -107.23931013504045 -97.583688496089678 0 0 0 0 11.709559964928587 -15.652895429071613 0 -15.652895429071613 -10.266952392575771 0 0 0 0 -160.00398278060675 -114.61336581000751 0 -114.61336581000751 -105.8444615622202 0 0 0 0 14.214996553666424 7.3634301215524829 0 7.3634301215524829 -2.1446610108832829 0 0 0 0 10.583003883391129 -3.9075066402298191 0 -3.9075066402298191 -14.841804276478673 0 0 0 0 0.55524785775263297 3.2464910103494873 0 3.2464910103494873 -2.6088297503239239 0 0 0 0 -262.02476438682061 -146.1111269099365 0 -146.1111269099365 -72.038089768107739 0 0 0 0 -255.8997318818183 -147.25431964086783 0 -147.25431964086783 -89.05436957836173 0 0 0 0 -259.15924933745964 -137.93336142735194 0 -137.93336142735194 -74.019907248788513 0 0 0 0 -257.1653931659589 -149.58215726745442 0 -149.58215726745442 -199.07525015596912 0 0 0 0 -231.71237360385931 -159.21439704777481 0 -159.21439704777481 -74.46222354792917 0 0 0 0 -235.62654001561168 -213.60288150381712 0 -213.60288150381712 -184.44588673024191 0 0 0 0 -216.61044374422636 -181.00112690270907 0 -181.00112690270907 -168.39183479644544 0 0 0 0 -0.96454131636654594 1.3178350297488066 0 1.3178350297488066 -0.78047038444289996 0 0 0 0 -6.7448692281031981 19.735415762319462 0 19.735415762319462 -5.9354059860631878 0 0 0 0 -404.99699905077068 -262.45016597681524 0 -262.45016597681524 -132.20875726658414 0 0 0 0 -350.32755285948224 -210.65281788673656 0 -210.65281788673656 -118.71910922337975 0 0 0 0 -302.9823597036193 -59.895585235511135 0 -59.895585235511135 -18.254649630148378 0 0 0 0 -329.40233776539617 -222.16930776536964 0 -222.16930776536964 -72.319979105193852 0 0 0 0 -307.0753569560693 -206.11690157166413 0 -206.11690157166413 -135.93867610616027 0 0 0 0 -362.85762129145587 -129.29810375581019 0 -129.29810375581019 -91.235044668009323 0 0 0 0 -361.96886928399908 -183.60188591761471 0 -183.60188591761471 -32.707356485137097 0 0 0 0 -180.5177569052139 -209.51896147774823 0 -209.51896147774823 -126.30271729574451 0 0 0 0 -339.19542459689728 -190.02084486760259 0 -190.02084486760259 -10.92654951903387 0 0 0 0 -194.78440052022779 104.3930684627494 0 104.3930684627494 -8.8164824735868024 0 0 0 0 -7.4839254141227229 5.7664537936721203 0 5.7664537936721203 9.5992801120053279 0 0 0 0 -27.419394363330703 4.7163280495913398 0 4.7163280495913398 20.863115147169388 0 0 0 0 -59.30440216190982 21.321769957082324 0 21.321769957082324 -60.95549941954414 0 0 0 0 -45.542568319728161 -10.139986532633188 0 -10.139986532633188 33.69265863122672 0 0 0 0 -37.456615281782433 13.887383952495313 0 13.887383952495313 29.908864931040227 0 0 0 0 -42.976792779202412 0.77270632650247961 0 0.77270632650247961 13.059058896682942 0 0 0 0 -88.302969461194152 -28.015966940892895 0 -28.015966940892895 -5.4627012496647467 0 0 0 0 -45.297756909571035 -12.254469884290742 0 -12.254469884290742 -5.3965574803869458 0 0 0 0 -15.671668924634687 4.5715725422807054 0 4.5715725422807054 3.7649156430173116 0 0 0 0 -116.46641990667558 20.416159468095429 0 20.416159468095429 77.9456577935307 0 0 0 0 -88.658587034835364 -26.799463086829405 0 -26.799463086829405 -1.425729152252643 0 0 0 0 -57.616752212786707 8.7814477767127315 0 8.7814477767127315 28.247650928772455 0 0 0 0 -276.07976081653032 -51.066006933934659 0 -51.066006933934659 127.47510497600888 0 0 0 0 -37.6272050145908 5.8315228515930357 0 5.8315228515930357 26.539600278403668 0 0 0 0 -26.840662397014089 -12.416901753845629 0 -12.416901753845629 -4.6358461065551708 0 0 0 0 -109.51768480621831 -48.105225398042876 0 -48.105225398042876 -23.183228325156051 0 0 0 0 -3.6314955536362845 -22.910978942461142 0 -22.910978942461142 -13.240570738326401 0 0 0 0 -48.581040378565376 -16.844044486464554 0 -16.844044486464554 -7.5748038704136889 0 0 0 0 -45.788755219851737 -12.87094854656857 0 -12.87094854656857 -4.9660646447771342 0 0 0 0 -311.47673857382324 -246.31509904323684 0 -246.31509904323684 -198.38587935189935 0 0 0 0 -188.87430058899918 -99.673591938154459 0 -99.673591938154459 -193.00246065223678 0 0 0 0 -260.42234922182979 -90.930311842974334 0 -90.930311842974334 1.56073305919017 0 0 0 0 -227.00276386887708 -118.55686816958405 0 -118.55686816958405 -102.15460334143336 0 0 0 0 -187.50166567328415 28.953022103861258 0 28.953022103861258 29.95661111603124 0 0 0 0 -320.32850140054506 -89.724176955771185 0 -89.724176955771185 -12.39763247653525 0 0 0 0 -77.861515643936258 30.811456182922349 0 30.811456182922349 40.11526152627178 0 0 0 0 -150.70498293321725 -35.340242054719056 0 -35.340242054719056 -43.03423355182349 0 0 0 0 -204.53518683749462 -53.785890648777695 0 -53.785890648777695 -48.402862950129929 0 0 0 0 -213.00470397622485 -80.949976159972721 0 -80.949976159972721 -13.008011014927433 0 0 0 0 -171.54807081476247 -55.995195866585163 0 -55.995195866585163 -7.3416455511996901 0 0 0 0 -77.970262422545503 32.266843223590939 0 32.266843223590939 38.941963034909307 0 0 0 0 -170.44801383809317 -39.486802939774293 0 -39.486802939774293 -66.562588077134251 0 0 0 0 -117.7855439281775 -60.232490407348905 0 -60.232490407348905 -32.836699163352023 0 0 0 0 -339.16610621592554 -92.18574928738613 0 -92.18574928738613 28.061529165660431 0 0 0 0 -12.242295470085907 2.6623837305701699 0 2.6623837305701699 7.6417069939817424 0 0 0 0 -40.622707739101315 -11.590289786469157 0 -11.590289786469157 -22.297954065223166 0 0 0 0 15.598506780386735 -16.232838698132284 0 -16.232838698132284 -13.43000000967746 0 0 0 0 -46.169533809863424 -12.878443364058967 0 -12.878443364058967 -4.2923859064071621 0 0 0 0 -8.0345087171197633 6.2084152309151506 0 6.2084152309151506 6.6554556413274675 0 0 0 0 -114.18815694549994 -49.831763248947027 0 -49.831763248947027 -15.541111413987892 0 0 0 0 -56.292286971875001 -19.168418743073744 0 -19.168418743073744 0.57936248575515492 0 0 0 0 -40.788478544294776 -10.548340519846761 0 -10.548340519846761 -28.300569176379039 0 0 0 0 -58.240638795665291 -26.513676065058007 0 -26.513676065058007 -5.841089566501978 0 0 0 0 -52.730286170437466 -30.856130133043735 0 -30.856130133043735 -19.986957195157629 0 0 0 0 -48.909719248611509 -22.186254531855411 0 -22.186254531855411 -11.815134249500261 0 0 0 0 -166.81934323197493 19.940038659648508 0 19.940038659648508 0.79025908872449691 0 0 0 0 -2.3121227139204024 0.77596488824427468 0 0.77596488824427468 0.49741589210058379 0 0 0 0 -87.06973457820277 -91.522464365479209 0 -91.522464365479209 -180.76554847970772 0 0 0 0 -85.918602248845673 -66.133360464748989 0 -66.133360464748989 -87.594105941645466 0 0 0 0 -49.428067694138008 -32.946312581919869 0 -32.946312581919869 -22.026297854050426 0 0 0 0 -62.850114611952449 -11.817206586409611 0 -11.817206586409611 23.983326306434265 0 0 0 0 -3.3482016433129473 2.4456154619588233 0 2.4456154619588233 -1.6887205082115209 0 0 0 0 5.9120273841981543 18.506344730564251 0 18.506344730564251 -28.776935067974591 0 0 0 0 -49.662418459371111 -23.470276404052186 0 -23.470276404052186 -11.184694802653894 0 0 0 0 -43.506177929186379 -18.335027835564688 0 -18.335027835564688 -14.728156033535356 0 0 0 0 -2.8871587966457497 3.5805613104350584 0 3.5805613104350584 -2.1429554732715488 0 0 0 0 -40.337135566645884 -14.072571493534724 0 -14.072571493534724 -11.330233240365033 0 0 0 0 -24.399239305130322 12.874152418557458 0 12.874152418557458 1.5080638157512851 0 0 0 0 -39.034969755080056 -9.445479572397204 0 -9.445479572397204 -7.5262319246251081 0 0 0 0 -23.718690645853485 -4.0196126231235354 0 -4.0196126231235354 -2.9275040473239642 0 0 0 0 -8.2863401728262147 2.9174588728141941 0 2.9174588728141941 -3.2605244358116439 0 0 0 0 -45.418878812924959 -13.22729974281151 0 -13.22729974281151 15.331962666937443 0 0 0 0 -36.209328504774021 -10.97719046688178 0 -10.97719046688178 11.283227534700018 0 0 0 0 -36.209328504788573 -10.977190466966078 0 -10.977190466966078 11.283227534730941 0 0 0 0 -37.967749311166699 -6.0189587159626399 0 -6.0189587159626399 5.8346324997905867 0 0 0 0 -40.520633807911508 -2.2550889971217778 0 -2.2550889971217778 5.8596564640949964 0 0 0 0 -36.149277292657644 -8.4854490510558662 0 -8.4854490510558662 8.5201481020076244 0 0 0 0 -40.615435028681532 -3.9388371335715533 0 -3.9388371335715533 8.280736237744545 0 0 0 0 -40.057710879293154 -5.4287226832317685 0 -5.4287226832317685 11.387315310115582 0 0 0 0 -39.362494474102277 -12.038001332197837 0 -12.038001332197837 13.660490081713874 0 0 0 0 -42.256007959105773 -7.6537483800962605 0 -7.6537483800962605 12.393172179873574 0 0 0 0 -36.209328504686709 -10.977190466942517 0 -10.977190466942517 11.283227534725484 0 0 0 0 -38.138517903222237 -9.7236519145537841 0 -9.7236519145537841 10.573163962606259 0 0 0 0 -44.233785967691801 -5.7796888577128698 0 -5.7796888577128698 15.078614136448898 0 0 0 0 -41.27407717591268 -8.9463033639371758 0 -8.9463033639371758 14.082756561811379 0 0 0 0 -45.842878438459593 -7.3583329537680129 0 -7.3583329537680129 13.972596197977111 0 0 0 0 -44.228359213739168 -1.4254283065417663 0 -1.4254283065417663 14.144937600405498 0 0 0 0 -43.418839057223522 -0.53695005572831178 0 -0.53695005572831178 10.47526913586205 0 0 0 0 -45.631728210180881 -3.8869725208609509 0 -3.8869725208609509 12.598445856457147 0 0 0 0 -44.361225681670476 -10.331732239437031 0 -10.331732239437031 15.899706860539993 0 0 0 0 -41.850807068083668 -11.476045327963476 0 -11.476045327963476 15.084505701796502 0 0 0 0 -45.250967750427662 -8.6763830940874627 0 -8.6763830940874627 16.897575566671975 0 0 0 0 -47.173205696657533 -10.016296877791916 0 -10.016296877791916 16.078519122073459 0 0 0 0 -47.697805250783858 -12.077903459148967 0 -12.077903459148967 17.993449404497085 0 0 0 0 -46.942393352277577 -14.586440438797283 0 -14.586440438797283 14.818650655599228 0 0 0 0 -36.361076663511767 -9.1360052438999197 0 -9.1360052438999197 -3.0992872115867738 0 0 0 0 -43.42010605237374 -10.915805231725756 0 -10.915805231725756 -6.0618261610312629 0 0 0 0 -227.1415492549495 -15.787278609079294 0 -15.787278609079294 -19.977388859774464 0 0 0 0 -28.9091191618827 20.788595950322449 0 20.788595950322449 19.030671601741059 0 0 0 0 -16.051618963431793 12.775223277074197 0 12.775223277074197 -10.480645069639094 0 0 0 0 -26.058217903836265 -1.4800187368488906 0 -1.4800187368488906 -0.99852732206811057 0 0 0 0 -34.160682484092831 10.338979967658588 0 10.338979967658588 2.5071815504851998 0 0 0 0 -33.656442698265892 6.565078134559144 0 6.565078134559144 -3.4493873759829228 0 0 0 0 -40.905384107798454 6.7037307875746706 0 6.7037307875746706 14.046915353378878 0 0 0 0 -43.306191611743998 0.8764787940594374 0 0.8764787940594374 12.566987811947911 0 0 0 0 -40.571031683080946 3.8539928483575636 0 3.8539928483575636 5.6387609653800155 0 0 0 0 -37.189068618317833 -2.4430743483411561 0 -2.4430743483411561 0.21021437880324356 0 0 0 0 -25.75735432210422 -5.5396330826007443 0 -5.5396330826007443 -3.0798269413085109 0 0 0 0 -27.896666752625606 -3.8684961808344269 0 -3.8684961808344269 -0.25606237026113376 0 0 0 0 -8.4136866924842764 2.9407567522785953 0 2.9407567522785953 -2.3907470241107482 0 0 0 0 -28.236527857065084 -6.8517953840623704 0 -6.8517953840623704 -2.3251876062236079 0 0 0 0 -41.92577390518818 -46.543717703622747 0 -46.543717703622747 -137.26777298573779 0 0 0 0 -3.0814793137690515 2.8907021079516859 0 2.8907021079516859 -4.0507202435960643 0 0 0 0 -96.657174742922507 -151.86962416271717 0 -151.86962416271717 -308.14251983111262 0 0 0 0 -171.0847578679859 -118.91726189551184 0 -118.91726189551184 -88.302303429386484 0 0 0 0 -168.25592473763754 -149.73928767058527 0 -149.73928767058527 -99.49674418147697 0 0 0 0 -103.77633914926992 -89.728735107340526 0 -89.728735107340526 -84.612420877398108 0 0 0 0 -120.55889700054104 -122.24786429769165 0 -122.24786429769165 -83.730063146533666 0 0 0 0 -119.73011606586806 -84.372685483800524 0 -84.372685483800524 -82.84342927676721 0 0 0 0 -172.90544366871472 -103.74141034838124 0 -103.74141034838124 -30.188386722069481 0 0 0 0 -159.06801854895093 -71.775570776639142 0 -71.775570776639142 -57.218827391019659 0 0 0 0 -180.24560916486598 -116.53213937130528 0 -116.53213937130528 -38.394226527734645 0 0 0 0 -181.82708588487731 -129.2819109318466 0 -129.2819109318466 -54.568740891334528 0 0 0 0 -161.06264903806732 -131.63399489487938 0 -131.63399489487938 -29.004283085490897 0 0 0 0 -120.92464871248376 -93.609599514629281 0 -93.609599514629281 -45.183030834807141 0 0 0 0 -167.0956454538682 -111.80391443975259 0 -111.80391443975259 -21.747589492182499 0 0 0 0 -198.2807808178477 -141.287164913585 0 -141.287164913585 -62.346575540416325 0 0 0 0 -202.12431745123831 -82.784834443346483 0 -82.784834443346483 -46.011514937392349 0 0 0 0 -132.62170807643997 -100.81408039372309 0 -100.81408039372309 -96.210781214145754 0 0 0 0 -141.56103478766454 -84.306020982128302 0 -84.306020982128302 -115.35717846755176 0 0 0 0 -143.80751080941627 -73.654173199757793 0 -73.654173199757793 -45.371084582458025 0 0 0 0 -94.054467956048029 -69.290924119784904 0 -69.290924119784904 -53.015141366948228 0 0 0 0 -128.97519379571168 -68.391161167832706 0 -68.391161167832706 -11.24327089173039 0 0 0 0 -62.678644738560251 -44.170982931197159 0 -44.170982931197159 -13.695642657477947 0 0 0 0 -97.402143123676069 -30.199032183003965 0 -30.199032183003965 -11.633692219203112 0 0 0 0 -63.417531234045782 -8.9658110560901036 0 -8.9658110560901036 23.275312980813396 0 0 0 0 -49.260231710602966 7.2432065326920565 0 7.2432065326920565 16.247377092973693 0 0 0 0 -40.78458207307267 -13.322831722859974 0 -13.322831722859974 -21.701203766082472 0 0 0 0 -87.870166003398481 -23.405956229171807 0 -23.405956229171807 -28.136604562824687 0 0 0 0 -63.98341935958706 3.2356647493950277 0 3.2356647493950277 -14.40975574017466 0 0 0 0 -77.897298557581962 -34.529378997219283 0 -34.529378997219283 -16.565767968892033 0 0 0 0 -107.04697111183486 -58.753280041174548 0 -58.753280041174548 -52.094323786648602 0 0 0 0 -68.902523742675839 -26.018927915542918 0 -26.018927915542918 -29.60334905257514 0 0 0 0 -125.28933684031654 -59.577584440078681 0 -59.577584440078681 -46.896072593249301 0 0 0 0 -102.01980348136567 -69.728393327233334 0 -69.728393327233334 -51.864654216779854 0 0 0 0 -161.25602039497608 -103.38489549114547 0 -103.38489549114547 -77.868746427649057 0 0 0 0 -134.58373033198995 -52.725459228575943 0 -52.725459228575943 -38.048163910112635 0 0 0 0 -139.74811220612173 -100.33892197638306 0 -100.33892197638306 -91.745859874291455 0 0 0 0 -77.008307243086165 -32.474820461983199 0 -32.474820461983199 -57.160610397950222 0 0 0 0 -144.68584991443458 -18.313128432426083 0 -18.313128432426083 -35.557868956126185 0 0 0 0 -97.446918422078852 -10.437869970088059 0 -10.437869970088059 -33.011893835493538 0 0 0 0 -189.47935524396598 -99.736613805959223 0 -99.736613805959223 -66.49663128618522 0 0 0 0 -248.78791974952765 -86.634363174876171 0 -86.634363174876171 -60.953334784494928 0 0 0 0 -155.21277181964979 -112.49849222930925 0 -112.49849222930925 -102.38895943750867 0 0 0 0 -190.11913121282123 -170.11455737266056 0 -170.11455737266056 -125.92685756733727 0 0 0 0 -212.74839876945771 -125.1217756760559 0 -125.1217756760559 -100.37769227037376 0 0 0 0 -169.05345160693105 -156.21258446062393 0 -156.21258446062393 -119.07893623798009 0 0 0 0 -166.35878704497009 -161.5564557189698 0 -161.5564557189698 -110.3555543972243 0 0 0 0 -168.07099324264709 -175.68251510640926 0 -175.68251510640926 -150.70475267814811 0 0 0 0 -162.03228089370532 -122.11849545191399 0 -122.11849545191399 -109.96260433320941 0 0 0 0 -191.7320904832377 -64.522544080401531 0 -64.522544080401531 -219.87537063750642 0 0 0 0 -331.3832512171648 -194.40838578989724 0 -194.40838578989724 -122.27309683286649 0 0 0 0 -153.3728791268195 -135.9874109792313 0 -135.9874109792313 -140.17083904331685 0 0 0 0 -151.08231596892438 -96.500340149766544 0 -96.500340149766544 -93.365595466816103 0 0 0 0 -1.9817734731695964 -81.340280504321299 0 -81.340280504321299 37.275799155553614 0 0 0 0 6.5888528083960409 8.7854334786147774 0 8.7854334786147774 1.188569182659478 0 0 0 0 -0.34478264401306546 2.071693243662601 0 2.071693243662601 0.60364211132397116 0 0 0 0 58.17080650042044 -16.586987837803463 0 -16.586987837803463 -45.316483025741036 0 0 0 0 -4.9044691644485283 -2.1610222383328619 0 -2.1610222383328619 2.1083231512457132 0 0 0 0 -7.5006200880619076 2.8901769563570596 0 2.8901769563570596 0.45588316343627788 0 0 0 0 4.8336305109114619 13.313256790329433 0 13.313256790329433 1.6501061075678081 0 0 0 0 -1.7582761904591564 1.7910219853672444 0 1.7910219853672444 -0.068085177312458001 0 0 0 0 536.04981235867308 43.460185042014928 0 43.460185042014928 -66.89972474487513 0 0 0 0 -11.587490628713567 8.3549068837819505 0 8.3549068837819505 -10.68224531891974 0 0 0 0 5.5688030678065843 11.456330038709666 0 11.456330038709666 3.5268253942886076 0 0 0 0 -3.0412928980076686 11.06898186082617 0 11.06898186082617 19.216515080734098 0 0 0 0 1.6465541026263963 15.435318657800053 0 15.435318657800053 1.082226699725652 0 0 0 0 6.6124961101013469 9.3026598648839354 0 9.3026598648839354 -8.6114033023309275 0 0 0 0 5.0182052841737459 14.156850297573556 0 14.156850297573556 -18.120651605758212 0 0 0 0 -10.544463833284681 11.455212311722335 0 11.455212311722335 -9.0765622326234734 0 0 0 0 -6.6127005488087889 17.796321095906933 0 17.796321095906933 -7.5233858457777387 0 0 0 0 1.3974249702982888 11.725799494934193 0 11.725799494934193 -3.3109155861202453 0 0 0 0 -5.9451335925987223 19.495317602304567 0 19.495317602304567 5.0823984142771224 0 0 0 0 -8.004842810518312 15.381547489757622 0 15.381547489757622 8.7848188106509042 0 0 0 0 -13.683927598933224 14.677154038854496 0 14.677154038854496 25.159699895062658 0 0 0 0 -11.001218339253683 21.529575473027762 0 21.529575473027762 14.796052046313889 0 0 0 0 -11.822016130783595 23.109009428748323 0 23.109009428748323 -3.5453263838953717 0 0 0 0 -32.575750080988655 25.071537014947012 0 25.071537014947012 -4.1514581340779841 0 0 0 0 -39.671471710709739 -9.3267935431190381 0 -9.3267935431190381 -13.559159125624319 0 0 0 0 -20.571808708264143 12.491248876604004 0 12.491248876604004 8.0634272129191231 0 0 0 0 -10.594583324040286 17.193518372666404 0 17.193518372666404 6.8463761073417118 0 0 0 0 -61.81235961458151 14.943421533470428 0 14.943421533470428 -8.945124420555203 0 0 0 0 -11.085607300759875 14.487829571652583 0 14.487829571652583 -20.267022156387611 0 0 0 0 -81.598863416700624 -15.695705312826249 0 -15.695705312826249 -24.948992797500978 0 0 0 0 -124.52953658841398 25.326138978447034 0 25.326138978447034 -108.86624060592067 0 0 0 0 -58.107676543964772 -70.731943061623269 0 -70.731943061623269 -25.28925420147516 0 0 0 0 0.55083928040818364 -0.22309497006957457 0 -0.22309497006957457 -1.2404151195691639 0 0 0 0 64.288129463209771 -30.193360880654723 0 -30.193360880654723 -185.76821847677502 0 0 0 0 17.140396382135805 -12.68303592492839 0 -12.68303592492839 -15.036114895555897 0 0 0 0 -18.960749674959516 31.279831114873559 0 31.279831114873559 -15.588396604172431 0 0 0 0 31.087514186474436 -130.81504428128892 0 -130.81504428128892 -23.31947357554418 0 0 0 0 0.73775088203282735 -0.3389220302310747 0 -0.3389220302310747 -1.0226402821775338 0 0 0 0 -72.341970896206476 -33.683725419155962 0 -33.683725419155962 -231.47746807417479 0 0 0 0 -36.879958417128364 51.204578724566318 0 51.204578724566318 -28.627556073031613 0 0 0 0 -446.06514193263865 146.22858024874131 0 146.22858024874131 19.823200240249435 0 0 0 0 -81.176554556717747 144.76287747396964 0 144.76287747396964 -33.766039515773627 0 0 0 0 -179.16512938265078 117.70718695550931 0 117.70718695550931 21.792129978946434 0 0 0 0 -536.56573750806456 88.321647129023333 0 88.321647129023333 -71.386806545018771 0 0 0 0 -6.9536125518934568 -52.738047759338997 0 -52.738047759338997 -138.81793885234765 0 0 0 0 -66.268305639470782 74.427322519887184 0 74.427322519887184 64.871743276889674 0 0 0 0 -7.5489259885328579 0.36665547517490182 0 0.36665547517490182 1.3472367694697964 0 0 0 0 71.286453038836044 -32.754018558389134 0 -32.754018558389134 -185.11247199047011 0 0 0 0 -22.539871554105048 99.552552402712649 0 99.552552402712649 -70.508724797622108 0 0 0 0 -194.56631492384622 -256.50072271620115 0 -256.50072271620115 -329.05146683064675 0 0 0 0 -3.4010075804850004 -0.2252217534637424 0 -0.2252217534637424 0.67600327355231471 0 0 0 0 -94.694260781987396 -138.08389409158895 0 -138.08389409158895 -267.70231044672767 0 0 0 0 -65.625268458985374 -87.466997802199785 0 -87.466997802199785 -64.360451147573201 0 0 0 0 -1.5012950718495688 -0.36361491949530489 0 -0.36361491949530489 0.8578309659985206 0 0 0 0 -113.03883501110795 -83.602831188965524 0 -83.602831188965524 -127.77046823013188 0 0 0 0 -203.10464663644234 -154.85591046114598 0 -154.85591046114598 -150.2416669447091 0 0 0 0 -71.465757108182515 1.4945901185227761 0 1.4945901185227761 49.270307617134847 0 0 0 0 -76.10706347379346 -27.293552754345505 0 -27.293552754345505 21.117512726639859 0 0 0 0 -51.245737797988113 -6.092928962201313 0 -6.092928962201313 26.46281085955934 0 0 0 0 -25.833038872035104 -28.769111429628538 0 -28.769111429628538 17.182855759183894 0 0 0 0 -40.119316835043719 -14.484561292417652 0 -14.484561292417652 6.1543638661160003 0 0 0 0 -45.27727937844611 5.4612309011806701 0 5.4612309011806701 42.828545861515067 0 0 0 0 -36.473487948176626 -20.346543915589393 0 -20.346543915589393 -31.858317742523127 0 0 0 0 -58.720747050567297 -107.43830004288759 0 -107.43830004288759 -219.75387671855879 0 0 0 0 -34.500303698443531 -23.547146635474157 0 -23.547146635474157 -9.4590869348968454 0 0 0 0 -3.244044685694405 -0.87472473278664609 0 -0.87472473278664609 0.52280329130866932 0 0 0 0 -109.20653099690389 -146.49719424571651 0 -146.49719424571651 -169.85085999124021 0 0 0 0 -95.070653234368365 -142.46193030302652 0 -142.46193030302652 -191.98982948852245 0 0 0 0 -103.91813871168051 -132.34645445770951 0 -132.34645445770951 -194.47061654458776 0 0 0 0 -83.37066557990147 -148.89252671933622 0 -148.89252671933622 -184.52481535346169 0 0 0 0 -62.163568666534047 -96.3976339498453 0 -96.3976339498453 -178.48299073217777 0 0 0 0 -80.58791999991081 -130.17527028400582 0 -130.17527028400582 -184.85853644391739 0 0 0 0 -91.433462750028411 -123.00404605537472 0 -123.00404605537472 -221.21041186292234 0 0 0 0 -75.273937973455759 -164.34580008351966 0 -164.34580008351966 -196.51496399410857 0 0 0 0 -122.58313668208575 -127.55882450258758 0 -127.55882450258758 -173.16622708875576 0 0 0 0 -204.27472926425253 -186.71528852626966 0 -186.71528852626966 -210.85292715291041 0 0 0 0 -0.79174167997170741 0.20811811276742986 0 0.20811811276742986 -0.13934717172568778 0 0 0 0 -93.043166723235117 -123.4647846912965 0 -123.4647846912965 -150.52088790200196 0 0 0 0 -23.092993209655106 -208.427329742148 0 -208.427329742148 -123.30979009101375 0 0 0 0 -68.545945434718305 -116.65457057901281 0 -116.65457057901281 -262.01699084932449 0 0 0 0 -8.6630561651749645 0.054997761888813557 0 0.054997761888813557 1.8886347193634023 0 0 0 0 -85.848285008665698 -94.47886180048647 0 -94.47886180048647 -49.655475145761329 0 0 0 0 -337.80948991571313 -104.43420564796554 0 -104.43420564796554 82.446061466761876 0 0 0 0 50.757624611760548 118.59653520751351 0 118.59653520751351 -48.442711376506168 0 0 0 0 -8.3300822176170186 -13.803312254914204 0 -13.803312254914204 22.149752194340863 0 0 0 0 -9.8313118193832167 8.4615722438013421 0 8.4615722438013421 -7.1786906376056541 0 0 0 0 -11.171895634084649 48.061328240900629 0 48.061328240900629 53.726532628923763 0 0 0 0 -152.7059509645577 -130.31022998174984 0 -130.31022998174984 -171.73046555357632 0 0 0 0 -152.25858011957541 -113.9328010259599 0 -113.9328010259599 -104.50754439158527 0 0 0 0 -299.45639256940194 -8.3353519993925147 0 -8.3353519993925147 -237.2466536036095 0 0 0 0 -201.5327634901405 -149.32668201010608 0 -149.32668201010608 -185.01382917753835 0 0 0 0 -316.87340656884771 -186.07140220912822 0 -186.07140220912822 -184.97102957268226 0 0 0 0 -278.90431130421439 18.629537498220913 0 18.629537498220913 -202.44719663836941 0 0 0 0 -40.539793928182917 -72.026541372804559 0 -72.026541372804559 -178.20226591535402 0 0 0 0 -497.74988608148851 -106.14463326345492 0 -106.14463326345492 -118.07540459802806 0 0 0 0 -3.8953698163362702 2.9626540809457111 0 2.9626540809457111 -2.4021946112648918 0 0 0 0 -233.39596784093737 -136.84181929478314 0 -136.84181929478314 -117.32904732153338 0 0 0 0 -349.99873494026906 422.88041661615841 0 422.88041661615841 -111.02601816885453 0 0 0 0 -318.86606836188002 57.36205320952422 0 57.36205320952422 66.493103638599678 0 0 0 0 -223.05915362756059 -374.4763162465506 0 -374.4763162465506 -52.697745871198094 0 0 0 0 -360.40388165017066 -389.62786070841696 0 -389.62786070841696 23.568995946420728 0 0 0 0 -720.64620247168932 40.52614207993031 0 40.52614207993031 87.025422672222248 0 0 0 0 1.2779720647077539 -1.817057391998901 0 -1.817057391998901 2.7898667064799199 0 0 0 0 -22.600656121241627 83.119486325031787 0 83.119486325031787 -0.15943208463854042 0 0 0 0 -146.70762105729955 -85.192069329285232 0 -85.192069329285232 -144.70517456196933 0 0 0 0 -171.12045089821913 -121.89215945926708 0 -121.89215945926708 -26.165292276139098 0 0 0 0 32.986053949884081 -71.724124192352861 0 -71.724124192352861 -32.611194661079935 0 0 0 0 -38.23588805449981 15.549753611475353 0 15.549753611475353 31.885479594998856 0 0 0 0 -105.08045792604753 -58.713580343770417 0 -58.713580343770417 17.641880381045155 0 0 0 0 -158.40202855828102 -59.5948979069899 0 -59.5948979069899 8.8144835865741697 0 0 0 0 -82.084922412075684 -47.159976010435003 0 -47.159976010435003 9.9918574160260505 0 0 0 0 -173.55808533387608 28.376458693561744 0 28.376458693561744 72.17463115153555 0 0 0 0 -182.20088454223514 6.0212435565471196 0 6.0212435565471196 33.749283736223333 0 0 0 0 -131.15387301235751 6.7759647058451264 0 6.7759647058451264 31.92235342090396 0 0 0 0 -144.13154991003103 46.526800725257999 0 46.526800725257999 21.111332919554343 0 0 0 0 -190.60528717136185 55.899806511227098 0 55.899806511227098 36.930035686858446 0 0 0 0 -129.46397336503287 92.018391115696204 0 92.018391115696204 -29.755986474037854 0 0 0 0 5.1320897521545703 70.981690178840722 0 70.981690178840722 -42.517362024948397 0 0 0 0 -205.74701888026175 172.25839392468163 0 172.25839392468163 -58.553247543785574 0 0 0 0 -68.233086876614834 19.100119293870875 0 19.100119293870875 -7.0663462422454586 0 0 0 0 -45.066800534598769 26.332299626505034 0 26.332299626505034 -4.8143834259194591 0 0 0 0 -89.649940027527919 15.697023614623049 0 15.697023614623049 -14.718738300780615 0 0 0 0 -53.545114049478798 22.925457194186947 0 22.925457194186947 -17.612778965124107 0 0 0 0 -74.800244594680407 53.293143453446191 0 53.293143453446191 -6.8867572060585189 0 0 0 0 -111.72579428100471 0.34667096886354898 0 0.34667096886354898 -13.63463000800175 0 0 0 0 -119.24184379984217 40.58554274237062 0 40.58554274237062 -0.10545463291146007 0 0 0 0 -138.43324680915975 13.374866111135475 0 13.374866111135475 -36.841061133310859 0 0 0 0 -147.91569089262794 -3.4871523841362944 0 -3.4871523841362944 -13.517470032635174 0 0 0 0 -126.52264494416158 30.714493032142855 0 30.714493032142855 -7.2836174409812884 0 0 0 0 -164.99926634468284 51.027442734104511 0 51.027442734104511 -15.197365006502878 0 0 0 0 -74.896124022779986 58.111358589768315 0 58.111358589768315 -97.436193641069622 0 0 0 0 -108.23386638263764 19.127378196611062 0 19.127378196611062 -15.766228337475923 0 0 0 0 -51.084019907737286 -2.7485094609300624 0 -2.7485094609300624 5.0696338735831628 0 0 0 0 -121.06203374485631 39.709646875249291 0 39.709646875249291 -18.486948482502555 0 0 0 0 -15.612402686893457 3.0580327433454357 0 3.0580327433454357 -0.36173571481297451 0 0 0 0 -113.30765406276896 27.283830673414258 0 27.283830673414258 -0.084934023938330938 0 0 0 0 -125.36895548465691 48.1173407016488 0 48.1173407016488 11.553687872258706 0 0 0 0 -125.62159080173296 45.594131359074254 0 45.594131359074254 -4.0189545461914804 0 0 0 0 -111.92596674252854 31.760556775884197 0 31.760556775884197 27.017885704423861 0 0 0 0 -105.07625968192588 29.921426086106749 0 29.921426086106749 16.079751515778753 0 0 0 0 -131.37100801501947 2.8144650282536077 0 2.8144650282536077 22.862274428891396 0 0 0 0 -60.244307420514815 -9.213686833693373 0 -9.213686833693373 22.487611710357051 0 0 0 0 -12.291522632185604 -6.6673200977419143 0 -6.6673200977419143 11.614919983556424 0 0 0 0 -72.294325028406092 -40.011927745104401 0 -40.011927745104401 33.1019060758058 0 0 0 0 -58.71082188611399 -24.596898208514062 0 -24.596898208514062 20.696644759480023 0 0 0 0 -57.190882072545548 -8.3454602649240819 0 -8.3454602649240819 8.2412136243008955 0 0 0 0 -66.461854389133805 4.749308624740479 0 4.749308624740479 -4.5675794855033303 0 0 0 0 -60.998531816607283 1.7531397699006561 0 1.7531397699006561 -3.6051593762189214 0 0 0 0 -69.432533597603651 11.874127605220167 0 11.874127605220167 24.311196143224606 0 0 0 0 -61.104466109682107 0.19381218210912721 0 0.19381218210912721 6.281419689224208 0 0 0 0 -51.791412752559765 -7.3073936532065673 0 -7.3073936532065673 6.9547217980069087 0 0 0 0 -65.581747608466685 4.5716159402543326 0 4.5716159402543326 2.2066007637548637 0 0 0 0 -62.877017458304181 3.3490222959075027 0 3.3490222959075027 1.4260171978298786 0 0 0 0 -58.777425350057456 5.1155395286802445 0 5.1155395286802445 -4.6036826286599535 0 0 0 0 -59.824379646479429 5.9645884892812546 0 5.9645884892812546 -0.90396895747704775 0 0 0 0 -60.199942313236534 8.482499713431821 0 8.482499713431821 4.6460095033869493 0 0 0 0 -47.152398609177638 17.387287211175874 0 17.387287211175874 7.249066470157576 0 0 0 0 -70.119719780900766 5.7917305965835393 0 5.7917305965835393 0.67987080386564003 0 0 0 0 -162.57425714818373 -7.5829710667176187 0 -7.5829710667176187 3.6898621824302609 0 0 0 0 -95.677969642954849 -18.998976031972006 0 -18.998976031972006 -12.173969640054338 0 0 0 0 -36.921396853166144 -4.3777080612345927 0 -4.3777080612345927 -3.6393827634583187 0 0 0 0 -50.913330189772324 22.74822682773851 0 22.74822682773851 13.688176058732948 0 0 0 0 -181.20927392938574 -28.496996452629219 0 -28.496996452629219 -13.876030483131672 0 0 0 0 -185.68411355063199 -51.98890476173051 0 -51.98890476173051 -25.587782812388468 0 0 0 0 -77.275233072327353 21.725977552324615 0 21.725977552324615 9.8876824987877203 0 0 0 0 -91.699743471668626 -7.0982792433123905 0 -7.0982792433123905 4.1457566970420885 0 0 0 0 -102.15340780393731 -2.913614193043248 0 -2.913614193043248 5.5638295661277049 0 0 0 0 -217.85860163504549 -12.156395312161294 0 -12.156395312161294 35.153249294755369 0 0 0 0 -24.491749687437775 -5.9736755588791937 0 -5.9736755588791937 15.280432626057303 0 0 0 0 -29.446188347447681 1.712811742076866 0 1.712811742076866 7.4224466581212996 0 0 0 0 -94.467653329146742 3.4410210130209293 0 3.4410210130209293 3.4833556018434138 0 0 0 0 -61.693759275844059 0.56600251115732192 0 0.56600251115732192 7.4224442324912303 0 0 0 0 -52.892146824806787 7.1155761100839996 0 7.1155761100839996 11.058137733642699 0 0 0 0 -6.5128124205075437 -6.311437925198959 0 -6.311437925198959 -25.845509822113968 0 0 0 0 16.312234330827778 -10.214929984944035 0 -10.214929984944035 -29.688848793172269 0 0 0 0 1.0449191991174303 13.499950292283295 0 13.499950292283295 -61.476111691303799 0 0 0 0 24.730813498128555 -41.196876723538352 0 -41.196876723538352 17.029041275233112 0 0 0 0 -9.2231383709444401 -0.70037697783455144 0 -0.70037697783455144 0.28906343407196511 0 0 0 0 -6.4290632754891703 -151.4737020838686 0 -151.4737020838686 -351.91844022396361 0 0 0 0 -1.4822678967719298 -1.5523100591949515 0 -1.5523100591949515 -0.12155689177679274 0 0 0 0 -10.000305398145429 -1.0682302626561295 0 -1.0682302626561295 -9.3355477885559139 0 0 0 0 -7.122250467621825 -1.2482435261738143 0 -1.2482435261738143 -0.59066687194177214 0 0 0 0 -7.3308441910994588 -0.71946793602907633 0 -0.71946793602907633 -2.2379992464745442 0 0 0 0 -85.15249180173123 -154.71187115380019 0 -154.71187115380019 -202.55557153280526 0 0 0 0 -8.2679019123898172 0.11578230097916276 0 0.11578230097916276 -0.11247214455506424 0 0 0 0 -8.0227120404670131 6.166983904498025 0 6.166983904498025 -6.4179127513822323 0 0 0 0 -6.9947943695010508 -3.8569898872436674 0 -3.8569898872436674 -15.662946794965762 0 0 0 0 -7.4366523807984777 5.7097610589912051 0 5.7097610589912051 -23.749117258219385 0 0 0 0 -2.7403219050975167 13.0404479575068 0 13.0404479575068 -18.381655614744844 0 0 0 0 -6.3934009403348711 2.9996861034518361 0 2.9996861034518361 -4.0913332058076168 0 0 0 0 -53.847037409002951 5.2606437613690105 0 5.2606437613690105 -4.7391377888737907 0 0 0 0 -8.8786268203948566 10.251578257769715 0 10.251578257769715 -11.76295336437115 0 0 0 0 -33.400583281916624 5.5024567507391566 0 5.5024567507391566 -5.6879421515790227 0 0 0 0 -9.5540032103235717 -0.93820925723849768 0 -0.93820925723849768 -10.716045566846617 0 0 0 0 -38.123658480486483 -4.4113518764763739 0 -4.4113518764763739 2.670636831740012 0 0 0 0 -2.651664521721095 1.567400869159755 0 1.567400869159755 -4.0821192562742361 0 0 0 0 -34.335986548489018 5.0808302234061102 0 5.0808302234061102 2.2624966812733192 0 0 0 0 -23.606018339177126 -1.0317095135264234 0 -1.0317095135264234 -0.54462317398182036 0 0 0 0 -35.571166808935232 3.4406098163593413 0 3.4406098163593413 0.89191901660956319 0 0 0 0 -11.257090366153662 -1.3651917609609328 0 -1.3651917609609328 -3.0406202725354903 0 0 0 0 -14.082578144370927 -4.7480229399084237 0 -4.7480229399084237 -3.8544240285098681 0 0 0 0 -39.034210780278954 1.2383912145031672 0 1.2383912145031672 2.6474928347871582 0 0 0 0 -28.707777560057366 -4.6142543596400003 0 -4.6142543596400003 5.3050171611012047 0 0 0 0 -1.7293626676072051 -5.1688723889514749 0 -5.1688723889514749 1.2137874080666022 0 0 0 0 -3.4055508254331954 2.9928051837082918 0 2.9928051837082918 1.4108577295562712 0 0 0 0 -44.976721877683303 -12.6161086055547 0 -12.6161086055547 11.490703202082841 0 0 0 0 -46.304169313596503 -7.2629588070378759 0 -7.2629588070378759 22.307344798362465 0 0 0 0 -28.773813482861726 -3.3184474840226095 0 -3.3184474840226095 1.7155725238725208 0 0 0 0 -72.093671924052614 -3.4134190174596029 0 -3.4134190174596029 -3.378719223183225 0 0 0 0 -23.488963926772669 11.264281981339593 0 11.264281981339593 1.8670120275961466 0 0 0 0 -53.273844967188779 5.3681322267309497 0 5.3681322267309497 -6.1180253576894756 0 0 0 0 -16.979617656402617 12.256112681707727 0 12.256112681707727 -0.76313397078362666 0 0 0 0 -56.943601152421252 3.3459819746055928 0 3.3459819746055928 -2.9266680330224517 0 0 0 0 -59.848441662030382 -0.15739560640486161 0 -0.15739560640486161 -2.7879028177993348 0 0 0 0 -57.767857070259197 3.7083358939673872 0 3.7083358939673872 -2.7719910290153962 0 0 0 0 -12.293841661716339 -6.6157500960349545 0 -6.6157500960349545 -0.072497056943271687 0 0 0 0 -11.998350469708384 2.5070675963021927 0 2.5070675963021927 1.8203393864164354 0 0 0 0 -0.6115941521456989 19.485121942206376 0 19.485121942206376 -7.8662147856316551 0 0 0 0 -16.378532066045054 11.085895067360589 0 11.085895067360589 -2.9650584121557193 0 0 0 0 -19.196782045636795 13.52311741452818 0 13.52311741452818 -1.4452529890753665 0 0 0 0 -50.851178733479173 16.410043752210953 0 16.410043752210953 5.4010401989971797 0 0 0 0 -72.48028085207261 9.1580721096599405 0 9.1580721096599405 -0.25498803357163524 0 0 0 0 -45.278506401768027 6.9747102938981129 0 6.9747102938981129 -9.2507195166504061 0 0 0 0 -14.82986330219137 6.0747617916640593 0 6.0747617916640593 -2.322155751437549 0 0 0 0 -13.437033644895564 19.038483356334471 0 19.038483356334471 -8.6932918452728867 0 0 0 0 -6.1076957077755551 11.162795144091696 0 11.162795144091696 -3.1637594593146128 0 0 0 0 -11.931582763791084 15.078322472288392 0 15.078322472288392 -5.4604252981395378 0 0 0 0 -33.443077688761079 -4.2756715125233171 0 -4.2756715125233171 -1.3934854573199309 0 0 0 0 -18.847552070241363 31.154298827333179 0 31.154298827333179 -8.2404110335775727 0 0 0 0 -10.907758975787146 20.09509490966218 0 20.09509490966218 -24.294989601765579 0 0 0 0 -25.200537748023635 16.014879641993957 0 16.014879641993957 0.1227791043419586 0 0 0 0 -28.763388552184551 30.734957412213006 0 30.734957412213006 2.2305920752288557 0 0 0 0 -36.518297151087609 28.564844296462979 0 28.564844296462979 1.6916176550761577 0 0 0 0 -18.960139195514785 46.054032357887294 0 46.054032357887294 5.1945119257003967 0 0 0 0 -16.772970593199716 42.817128469887365 0 42.817128469887365 -6.6087566316657202 0 0 0 0 -17.777126871949804 37.463530962856233 0 37.463530962856233 -8.682204363806477 0 0 0 0 -13.976725762622664 49.50664708145716 0 49.50664708145716 -3.7807479059716869 0 0 0 0 -12.758105683406029 46.663522360217428 0 46.663522360217428 -35.303117129496684 0 0 0 0 -21.541600344269682 65.070101482881114 0 65.070101482881114 75.896589848181748 0 0 0 0 -21.026785445210862 3.3570738453136162 0 3.3570738453136162 -1.4083540115989028 0 0 0 0 43.823515403575584 80.962040405145217 0 80.962040405145217 -57.101418470263297 0 0 0 0 0.5898002366975561 37.686822405111059 0 37.686822405111059 -17.19265990363283 0 0 0 0 -38.244150926380826 -25.280407888901323 0 -25.280407888901323 -90.464767977117418 0 0 0 0 -14.738578882266438 1.9916394153024335 0 1.9916394153024335 0.63073739965889442 0 0 0 0 -32.657630163295835 39.644393309219083 0 39.644393309219083 25.920554757106629 0 0 0 0 -43.691206764473463 11.364164974483998 0 11.364164974483998 31.440504234565232 0 0 0 0 -43.554942892653344 29.073467278175286 0 29.073467278175286 11.28757658185441 0 0 0 0 -47.287070465456054 -0.71342643465339961 0 -0.71342643465339961 -7.9608405368890089 0 0 0 0 -20.751418793690796 24.492149678186642 0 24.492149678186642 -5.0137586416991553 0 0 0 0 -22.303062523431436 30.925779060430841 0 30.925779060430841 -9.5275801498200963 0 0 0 0 -12.106775591115998 9.7627807905085788 0 9.7627807905085788 3.4460580507710423 0 0 0 0 -16.498359916491609 22.793254794119093 0 22.793254794119093 -15.086749157729628 0 0 0 0 -19.642906673921892 12.683303872483634 0 12.683303872483634 -1.814320849041601 0 0 0 0 -32.608029250914115 4.5394637026838609 0 4.5394637026838609 -2.0324754396351636 0 0 0 0 -43.099483220557886 8.4847264309648835 0 8.4847264309648835 0.53638347513287954 0 0 0 0 -29.124887391398271 3.747582390945972 0 3.747582390945972 3.0422690559652104 0 0 0 0 -80.568057364434935 14.301232364764019 0 14.301232364764019 7.8933948911612788 0 0 0 0 -66.777189662363526 14.782385494512027 0 14.782385494512027 -10.535684596302531 0 0 0 0 -63.962975780563283 8.5626768342388004 0 8.5626768342388004 -1.0190032869904826 0 0 0 0 -74.74661302648019 40.313534738972976 0 40.313534738972976 -7.7633534450196748 0 0 0 0 -61.373675973620266 5.764915796941068 0 5.764915796941068 -8.7678261254353629 0 0 0 0 -53.897559450007975 10.539878395816345 0 10.539878395816345 2.8796352896447388 0 0 0 0 -5.535639544123498 14.224222961774924 0 14.224222961774924 -2.1213940226136723 0 0 0 0 -40.093761949225154 17.325043873787081 0 17.325043873787081 -5.1808888325849694 0 0 0 0 -60.228912721780944 0.95586018581070675 0 0.95586018581070675 -3.9323156688287781 0 0 0 0 -52.842826112271723 10.325067277653943 0 10.325067277653943 -2.3151345989926995 0 0 0 0 -12.619930193674392 -8.1453677394359048 0 -8.1453677394359048 -1.307351834403276 0 0 0 0 -65.538727598355763 5.1860403126786423 0 5.1860403126786423 -0.48253523538551235 0 0 0 0 -62.435256430225309 4.5518910166346416 0 4.5518910166346416 -4.6737058864657683 0 0 0 0 -51.29849196483292 17.194406686807838 0 17.194406686807838 4.7150517846769162 0 0 0 0 -63.222371888640964 4.1772063072828871 0 4.1772063072828871 -2.4684783121638247 0 0 0 0 -49.333783415619259 7.0433297402042125 0 7.0433297402042125 2.7613269963742284 0 0 0 0 -66.282969445397612 8.863194780625463 0 8.863194780625463 -3.5865272533614529 0 0 0 0 -44.731986656189569 6.0688249964182237 0 6.0688249964182237 3.2875888605760215 0 0 0 0 -70.875100174258478 -1.0934466367989444 0 -1.0934466367989444 24.291364901320719 0 0 0 0 -49.900361399689245 10.318287768060713 0 10.318287768060713 23.182668178782251 0 0 0 0 -84.223563932268007 -3.1344567367832497 0 -3.1344567367832497 23.980881777489458 0 0 0 0 -50.259549889549817 -10.192462679732614 0 -10.192462679732614 40.066422665765231 0 0 0 0 -36.769227149946943 2.1969923158047244 0 2.1969923158047244 23.559628865965585 0 0 0 0 -61.294608541587849 -7.8656721878484035 0 -7.8656721878484035 37.056440135197782 0 0 0 0 -141.41795651003827 39.657493581924484 0 39.657493581924484 26.709984384378913 0 0 0 0 -80.945808024029247 8.3160779355239356 0 8.3160779355239356 24.513936960276624 0 0 0 0 -53.042605556452742 4.405661313795818 0 4.405661313795818 15.904065977721329 0 0 0 0 -60.321850557136173 9.7911928276303879 0 9.7911928276303879 2.5986189419190815 0 0 0 0 -70.615429028958943 14.273931775373057 0 14.273931775373057 23.579662968643333 0 0 0 0 -68.327217246890768 10.72436570742758 0 10.72436570742758 24.952288884296649 0 0 0 0 -36.01707728217589 40.412914968907934 0 40.412914968907934 -18.627550212215084 0 0 0 0 -89.443929422975884 15.383048265722209 0 15.383048265722209 23.815127125336403 0 0 0 0 1055.9874673936283 -47.478153071943552 0 -47.478153071943552 -146.3614391089385 0 0 0 0 -61.586353223178435 38.795964721836071 0 38.795964721836071 -21.211487447562831 0 0 0 0 2.0003783051827497 -3.1556421193722883 0 -3.1556421193722883 -1.4882170706242859 0 0 0 0 409.41393085459276 283.62088062965483 0 283.62088062965483 199.7437537208564 0 0 0 0 -6.0239156979785378 52.190618468708067 0 52.190618468708067 -19.562580174646225 0 0 0 0 -73.861798906935405 44.051447135775106 0 44.051447135775106 -16.167375068233014 0 0 0 0 -84.039579755724333 67.360927570315653 0 67.360927570315653 -12.936579168519529 0 0 0 0 -23.075485497124635 10.15186668225679 0 10.15186668225679 -0.61886958214596 0 0 0 0 -56.211842243519868 64.357256635168596 0 64.357256635168596 -12.855788631994074 0 0 0 0 -68.744100744090773 50.986093899243784 0 50.986093899243784 -24.915960176407939 0 0 0 0 -134.36579742267713 116.34116737163095 0 116.34116737163095 25.001193234264065 0 0 0 0 -39.018006595956081 39.196832347552117 0 39.196832347552117 -16.170801833553924 0 0 0 0 -56.378126165736219 43.296586827636929 0 43.296586827636929 -16.5588886377632 0 0 0 0 -31.412355849094638 45.786856053422071 0 45.786856053422071 -13.60217908832692 0 0 0 0 233.18473939823889 464.38016863282678 0 464.38016863282678 6.5824908670169862 0 0 0 0 -33.757118934084033 36.205453936982323 0 36.205453936982323 -29.727667175297398 0 0 0 0 -1215.4972085546397 748.94083505360595 0 748.94083505360595 99.560027566310282 0 0 0 0 -857.72921807374223 -160.40607218780082 0 -160.40607218780082 269.55868714718918 0 0 0 0 -986.49323099879257 -718.12291832219887 0 -718.12291832219887 17.172258573584088 0 0 0 0 1035.6421058950946 -329.94997419128185 0 -329.94997419128185 -839.60464162245933 0 0 0 0 629.22693745802462 -222.31370084633301 0 -222.31370084633301 59.550643792747906 0 0 0 0 -63.010039557069831 -12.485655202039197 0 -12.485655202039197 -31.899011317809936 0 0 0 0 -308.66463022888456 -39.438439176362976 0 -39.438439176362976 -0.84839640660715077 0 0 0 0 0.34471391364394766 1.5701827130654493 0 1.5701827130654493 -0.7189045375933345 0 0 0 0 -188.90243317024942 -22.346205368118717 0 -22.346205368118717 0.80744468691636939 0 0 0 0 -200.69579168587006 -60.028052403986067 0 -60.028052403986067 -27.64639165846711 0 0 0 0 -205.18443061049129 -61.512277544148219 0 -61.512277544148219 -26.884945470076673 0 0 0 0 -212.67699675921995 -48.538909787041234 0 -48.538909787041234 -8.5106624163063316 0 0 0 0 -160.74045884765474 -31.34287317481926 0 -31.34287317481926 -19.946917777826911 0 0 0 0 -19.712932762879564 -1.0777647514963569 0 -1.0777647514963569 -1.0838483160654349 0 0 0 0 -97.609900387322796 -6.2572757495191809 0 -6.2572757495191809 11.784701680168382 0 0 0 0 -171.8626894517547 -24.257346288557983 0 -24.257346288557983 -18.432124561157252 0 0 0 0 -68.544995113265031 2.2351333450440904 0 2.2351333450440904 1.1647407863013584 0 0 0 0 -44.142306770709503 21.756924746360042 0 21.756924746360042 10.30281872625466 0 0 0 0 -45.981813177914148 20.124465155813844 0 20.124465155813844 6.6114494107173432 0 0 0 0 -56.303514423355409 18.567952911827632 0 18.567952911827632 1.5202345711281851 0 0 0 0 -47.374309771591612 22.427689965966191 0 22.427689965966191 9.8448189618470838 0 0 0 0 -69.230720540642324 3.6521095264255337 0 3.6521095264255337 3.3710839177142304 0 0 0 0 -87.163586657192354 -16.569743326039998 0 -16.569743326039998 11.845880994809329 0 0 0 0 -91.235192257223389 -31.350665826594309 0 -31.350665826594309 -22.529506455293586 0 0 0 0 -67.4186761373021 -29.57245646941999 0 -29.57245646941999 -54.879481775978093 0 0 0 0 -104.04368254269548 59.861500709388054 0 59.861500709388054 10.717831487092781 0 0 0 0 -159.14598502091849 -35.37877597477933 0 -35.37877597477933 -52.935116840143792 0 0 0 0 -56.583848641768782 -5.4326394646267886 0 -5.4326394646267886 -1.629006988854826 0 0 0 0 -3.2342654671699975 10.796608116531743 0 10.796608116531743 4.1072149567143033 0 0 0 0 -80.827762639350112 -47.098372331626194 0 -47.098372331626194 -48.279025881318617 0 0 0 0 -24.919350569146857 5.0593914337541257 0 5.0593914337541257 13.538871185805043 0 0 0 0 -60.013532090684748 -32.996707518903577 0 -32.996707518903577 -1.9153090567589857 0 0 0 0 -100.79368808598656 -22.898663227291308 0 -22.898663227291308 28.361627216259194 0 0 0 0 -154.95488155632847 -12.931831227510003 0 -12.931831227510003 2.7442091085666078 0 0 0 0 -100.79845488791034 -26.047330573517002 0 -26.047330573517002 -2.5964200232638746 0 0 0 0 -192.23942570305007 -7.1699010766610627 0 -7.1699010766610627 12.562362303618272 0 0 0 0 -213.21202080016519 0.84777353421921475 0 0.84777353421921475 10.674522511088071 0 0 0 0 -230.86670207537554 -75.601680627103633 0 -75.601680627103633 -16.366561136549763 0 0 0 0 -220.55323204887463 -18.513354752359618 0 -18.513354752359618 -20.039472101185112 0 0 0 0 -252.87812048693741 -2.1060854679544718 0 -2.1060854679544718 43.695249391578898 0 0 0 0 -242.30834500498713 -21.158136882508963 0 -21.158136882508963 32.276869712118696 0 0 0 0 -243.56090311462458 19.663073228670171 0 19.663073228670171 34.238363380820147 0 0 0 0 -209.95732813931318 172.86089688217976 0 172.86089688217976 -170.80974965386724 0 0 0 0 -0.42431273332786645 -1.2602765580647355 0 -1.2602765580647355 -0.074532552665174584 0 0 0 0 -240.21300638627145 -171.19216242793698 0 -171.19216242793698 424.25635838258847 0 0 0 0 -2.2198731891330681 54.186464696512417 0 54.186464696512417 5.7705117375334112 0 0 0 0 -68.419172442008858 -460.04080582254494 0 -460.04080582254494 575.86583262926968 0 0 0 0 -817.5249355058877 322.77553703189574 0 322.77553703189574 666.06608491099996 0 0 0 0 -613.73556853886294 84.491030921488687 0 84.491030921488687 218.04167458953725 0 0 0 0 475.75088611422143 107.0589121040889 0 107.0589121040889 66.837069391298428 0 0 0 0 -114.94266616349159 -99.327504020333436 0 -99.327504020333436 13.213458530448861 0 0 0 0 -372.20172749729863 -53.062761708044718 0 -53.062761708044718 17.020387077805921 0 0 0 0 -178.7796329864359 -69.814544704407808 0 -69.814544704407808 -73.404380040538399 0 0 0 0 -254.58496071512036 -27.6744721000845 0 -27.6744721000845 99.104675089151442 0 0 0 0 -183.33653726231933 -122.05737625200754 0 -122.05737625200754 26.659090748165113 0 0 0 0 -193.84930769694802 21.265041283343749 0 21.265041283343749 -7.2822778771474077 0 0 0 0 10.558177816379612 -11.450959122472796 0 -11.450959122472796 -28.934730346749348 0 0 0 0 -215.67743877490284 -64.909955904712888 0 -64.909955904712888 -14.666014140406332 0 0 0 0 -23.025985977824689 -5.85439075301203 0 -5.85439075301203 4.1154670577415455 0 0 0 0 -4.1174127243004364 -1.2413125787830523 0 -1.2413125787830523 1.0650206361798862 0 0 0 0 -154.83182415994816 150.54097472159378 0 150.54097472159378 710.21584944102779 0 0 0 0 -1.0579756544352357 7.5543958978401253 0 7.5543958978401253 2.1477192859579146 0 0 0 0 436.18687040059012 355.22026718383688 0 355.22026718383688 178.98335157372236 0 0 0 0 231.01737206285361 396.60341797928044 0 396.60341797928044 557.92275606270437 0 0 0 0 184.65287279597396 -31.962678873525647 0 -31.962678873525647 58.592831674146851 0 0 0 0 -15.408539014520329 3.5956311304153097 0 3.5956311304153097 3.7215847978735987 0 0 0 0 -15.323590865678852 3.3583436606459145 0 3.3583436606459145 9.5904331999468013 0 0 0 0 -30.844048693511382 0.82673090992027376 0 0.82673090992027376 7.6845058521390266 0 0 0 0 100.9664825510381 126.20163308079952 0 126.20163308079952 421.94442116370283 0 0 0 0 127.34787412443256 322.38855557837246 0 322.38855557837246 617.00993242261688 0 0 0 0 233.8857294289719 356.11748263560276 0 356.11748263560276 342.2736264967275 0 0 0 0 217.40473075427872 334.34571656670909 0 334.34571656670909 588.97648515202661 0 0 0 0 -617.02167571664688 -319.09252900974423 0 -319.09252900974423 10.238982574749116 0 0 0 0 269.16998254523241 254.21592913674112 0 254.21592913674112 674.78641360469283 0 0 0 0 -366.62839173234767 -242.93611163397182 0 -242.93611163397182 -149.74417451456156 0 0 0 0 -1.3513804320809477 3.7451608945249486 0 3.7451608945249486 -1.950171210131626 0 0 0 0 71.194655690042509 202.3500177100172 0 202.3500177100172 684.53577033048168 0 0 0 0 72.195527947767914 289.11713356562626 0 289.11713356562626 353.38667229527073 0 0 0 0 -1.8608807513632044 -0.21293830223616972 0 -0.21293830223616972 0.067325899709514303 0 0 0 0 287.56625404353917 359.62435431803499 0 359.62435431803499 266.65564299528114 0 0 0 0 9.7972596349773085 108.23819262332381 0 108.23819262332381 92.851262067498197 0 0 0 0 -242.78537462807441 -113.1788026347723 0 -113.1788026347723 -35.884399594144725 0 0 0 0 -27.128120532269818 3.8867035855248773 0 3.8867035855248773 -4.647914699085252 0 0 0 0 -247.65388995387002 -127.49137075269527 0 -127.49137075269527 -163.36880792764097 0 0 0 0 -242.380705821839 -76.97190702025182 0 -76.97190702025182 -69.885125432569566 0 0 0 0 -200.66246897843394 -107.37105559261204 0 -107.37105559261204 -56.413524020268596 0 0 0 0 -223.16611139321321 -102.22170030368807 0 -102.22170030368807 -65.06428057000511 0 0 0 0 -95.330137704926585 -28.385914318362133 0 -28.385914318362133 -6.515320352754018 0 0 0 0 -220.84277100414215 -136.02755885971993 0 -136.02755885971993 -26.209478291723826 0 0 0 0 -204.1526292028866 -63.720170022129821 0 -63.720170022129821 -30.751680708958247 0 0 0 0 -205.20603055957145 -61.039459258490979 0 -61.039459258490979 -27.141941709015555 0 0 0 0 -303.56569598975557 -60.769319465899969 0 -60.769319465899969 -31.819192457968711 0 0 0 0 -205.90425106805014 -69.25705755985291 0 -69.25705755985291 -48.623119513775464 0 0 0 0 -245.39958280528572 -63.199884973541657 0 -63.199884973541657 -20.395907575373485 0 0 0 0 -203.98293061928416 -62.533138215567988 0 -62.533138215567988 -25.351923058503871 0 0 0 0 -191.14928099907229 -45.315523469648724 0 -45.315523469648724 -24.056307020561462 0 0 0 0 -205.80800834301135 -55.561656021639692 0 -55.561656021639692 -29.533368687837992 0 0 0 0 -184.93482263079204 -38.904437094818263 0 -38.904437094818263 -42.551548420410654 0 0 0 0 -99.071409339108016 -24.120641405756487 0 -24.120641405756487 -8.8383387472144701 0 0 0 0 -187.55941533263831 -47.872793343028746 0 -47.872793343028746 -27.242979659341685 0 0 0 0 -175.62353638882178 -77.287879680017198 0 -77.287879680017198 -39.301608045289186 0 0 0 0 -200.54149656743948 -76.830001956947626 0 -76.830001956947626 -16.254798052408205 0 0 0 0 -89.547580757435242 -33.344389451646428 0 -33.344389451646428 -9.3427095660510133 0 0 0 0 -211.80614388874164 -56.041450356001405 0 -56.041450356001405 -48.412898144499195 0 0 0 0 -170.04667724952014 -106.48098755771855 0 -106.48098755771855 -67.433919658135494 0 0 0 0 -88.621402722736093 -76.504113577565136 0 -76.504113577565136 -61.267527207264607 0 0 0 0 -164.26055482204265 -58.021957988731913 0 -58.021957988731913 -23.386759338501179 0 0 0 0 -173.94139351483682 -73.425077080277106 0 -73.425077080277106 -45.810696310132016 0 0 0 0 -172.23801711657143 -87.486619828340167 0 -87.486619828340167 -54.470489172454108 0 0 0 0 -192.64857383925846 -78.305111021819471 0 -78.305111021819471 -13.479341999705866 0 0 0 0 -219.91404498575866 -101.75649395657911 0 -101.75649395657911 -33.63958741150293 0 0 0 0 -177.19517589930911 -114.58885146134935 0 -114.58885146134935 -68.166083491988672 0 0 0 0 -207.83831746820033 -88.245756775459654 0 -88.245756775459654 -44.391388685552101 0 0 0 0 -156.85948472993186 -86.987951699889891 0 -86.987951699889891 -54.817013444449458 0 0 0 0 -154.27053603640525 -84.26667227166854 0 -84.26667227166854 -71.194963265260242 0 0 0 0 -144.95592781245705 -68.482207635828445 0 -68.482207635828445 -57.014710529468402 0 0 0 0 -34.707457343128787 23.059907498245124 0 23.059907498245124 0.42275235518854259 0 0 0 0 -81.940221963232034 -3.8010288335576661 0 -3.8010288335576661 -18.080910717566439 0 0 0 0 -76.056129499007511 11.769695397630358 0 11.769695397630358 -15.61683389125028 0 0 0 0 -60.112109018101989 19.341742591872542 0 19.341742591872542 -5.8462712267322434 0 0 0 0 -134.73930415515861 -35.790643919576269 0 -35.790643919576269 -34.189295111816136 0 0 0 0 -169.27632708158671 -66.449744749681372 0 -66.449744749681372 -57.181675014202483 0 0 0 0 -164.54916448897711 -75.950501425769289 0 -75.950501425769289 -39.182161928582531 0 0 0 0 -88.732263084388251 -16.394134683247728 0 -16.394134683247728 -1.714444367913984 0 0 0 0 -91.711840821168153 -20.215001592266617 0 -20.215001592266617 -4.7135731180815128 0 0 0 0 -14.550597450576195 0.5435635809503907 0 0.5435635809503907 0.90067597829430301 0 0 0 0 -63.944363082016935 -13.845066889356929 0 -13.845066889356929 -22.395152426772256 0 0 0 0 -61.355553561789613 28.389439364549098 0 28.389439364549098 8.3316736279176862 0 0 0 0 -117.76725351934874 -5.58878566427029 0 -5.58878566427029 -1.849327641185937 0 0 0 0 -110.66567279173978 4.6315596792749147 0 4.6315596792749147 -5.6419855278940076 0 0 0 0 -110.47479717874739 -0.64761475971477012 0 -0.64761475971477012 -15.877550495074956 0 0 0 0 -180.95903010600523 -4.0433144715899232 0 -4.0433144715899232 15.272575428638106 0 0 0 0 -122.29717804151733 49.897360390354834 0 49.897360390354834 97.432967568407321 0 0 0 0 -63.258278953843693 30.28023519050609 0 30.28023519050609 9.2944348406184467 0 0 0 0 -142.87041548004345 -45.844345821898571 0 -45.844345821898571 -26.929602432549132 0 0 0 0 -92.377238056425995 -31.843572698550361 0 -31.843572698550361 -13.122492304014486 0 0 0 0 -10.121885140418375 2.002405458754474 0 2.002405458754474 1.1582765581815559 0 0 0 0 -8.8442457104343362 -23.880692235063464 0 -23.880692235063464 -6.3418688081837269 0 0 0 0 4.6818982024278615 1.6271845606548752 0 1.6271845606548752 -0.024322080039844707 0 0 0 0 -148.41286288653851 -59.423303700716772 0 -59.423303700716772 -24.410641622523144 0 0 0 0 -91.942781741221552 -32.745795703849581 0 -32.745795703849581 -19.884681098990313 0 0 0 0 -62.372287805832457 -33.142639351929574 0 -33.142639351929574 -17.861540893586607 0 0 0 0 -74.270127367213718 -21.848911609772813 0 -21.848911609772813 -17.140063552020365 0 0 0 0 -120.30072809436388 69.438380671175537 0 69.438380671175537 47.029957675842525 0 0 0 0 -48.612813561641815 13.256404342748283 0 13.256404342748283 6.9859926528051801 0 0 0 0 -160.50882756608189 53.54309824796519 0 53.54309824796519 44.42958091032574 0 0 0 0 -335.5602353735012 -21.309487866749691 0 -21.309487866749691 44.424171653390886 0 0 0 0 -154.77810976225737 -13.388091063700358 0 -13.388091063700358 4.5267404034356957 0 0 0 0 -303.51242661941797 -226.12227416668497 0 -226.12227416668497 -278.11889456914469 0 0 0 0 -219.80896342874257 -103.17192540746021 0 -103.17192540746021 -45.267200862608661 0 0 0 0 -0.76394594647393532 0.6423808416688388 0 0.6423808416688388 -2.4502602502210067 0 0 0 0 -209.68438402211177 -95.329947272373829 0 -95.329947272373829 -69.52628643744697 0 0 0 0 -251.56074782983342 -97.069373120176778 0 -97.069373120176778 -38.911850687692549 0 0 0 0 -239.7008758575721 -91.481747688618555 0 -91.481747688618555 -53.919728174453326 0 0 0 0 -228.3349654897429 -31.992509862969143 0 -31.992509862969143 22.454546276710062 0 0 0 0 -150.64663042164466 -19.845840550987532 0 -19.845840550987532 5.7158877012839184 0 0 0 0 -151.87871972189168 -29.400631506933109 0 -29.400631506933109 2.9181696144187299 0 0 0 0 -152.86337796980024 2.1478792538868134 0 2.1478792538868134 -26.711871222450895 0 0 0 0 -146.45290387780187 -74.441074678010352 0 -74.441074678010352 -12.768088380796485 0 0 0 0 -26.526853014006932 12.497264795559623 0 12.497264795559623 12.004435750864703 0 0 0 0 -0.7166225911050752 0.69393094762573782 0 0.69393094762573782 -0.52887652328376777 0 0 0 0 -391.23605625990422 -109.19960534605212 0 -109.19960534605212 19.601969253172001 0 0 0 0 -191.76711533803245 -36.007645845194133 0 -36.007645845194133 -72.287348820413143 0 0 0 0 -173.76861302851103 -161.56829256541496 0 -161.56829256541496 -66.981917779157413 0 0 0 0 -93.416769751032916 -6.4516140389521297 0 -6.4516140389521297 -15.300779315649379 0 0 0 0 -10.439058357288214 -3.2737607231859407 0 -3.2737607231859407 -1.3528954969462994 0 0 0 0 -48.761709331130987 -31.958433596487794 0 -31.958433596487794 -36.040157192768447 0 0 0 0 -101.74743830256557 -19.835860406205938 0 -19.835860406205938 -2.2210232384759365 0 0 0 0 -83.5534355677446 8.8954200799794307 0 8.8954200799794307 -33.423817437666003 0 0 0 0 -103.04791119518927 -21.878120421396162 0 -21.878120421396162 -5.0888893142218876 0 0 0 0 -107.84719193167348 0.20213820399077065 0 0.20213820399077065 -2.5365438422531952 0 0 0 0 -15.807996779323219 -2.1167223145725771 0 -2.1167223145725771 -2.3288529501388346 0 0 0 0 -35.325949955295442 7.4915370926182412 0 7.4915370926182412 7.8814864954144674 0 0 0 0 -118.81326698077282 -5.3033873169315484 0 -5.3033873169315484 3.1922629946975576 0 0 0 0 -126.23697723469741 -6.1497502527772667 0 -6.1497502527772667 3.1502940062794096 0 0 0 0 -131.20361975134074 6.1632110231403203 0 6.1632110231403203 1.070172521587665 0 0 0 0 -139.59563157021421 -1.4749911623441676 0 -1.4749911623441676 5.4635539031332883 0 0 0 0 -120.67137455904594 7.3123887904907861 0 7.3123887904907861 0.34610645598058909 0 0 0 0 -116.02496131829821 -1.7713041983768107 0 -1.7713041983768107 -46.59041418439574 0 0 0 0 -120.72985337640785 -13.992573030373705 0 -13.992573030373705 -23.168162988132508 0 0 0 0 -137.56161186203644 43.449350291570681 0 43.449350291570681 -51.938212928776011 0 0 0 0 1.6357633226537394 0.1459952269815048 0 0.1459952269815048 -0.82725253000391774 0 0 0 0 -91.643112238883191 6.7009789295309758 0 6.7009789295309758 -3.8243490573840973 0 0 0 0 -44.841537770451396 11.072564203878301 0 11.072564203878301 -34.430119730488059 0 0 0 0 -85.091222879559226 -16.132276146367673 0 -16.132276146367673 6.97142324916656 0 0 0 0 -125.8224260336392 -109.33036315494815 0 -109.33036315494815 139.92336455826307 0 0 0 0 -33.670715558006123 -55.882515162497839 0 -55.882515162497839 -38.701206365733015 0 0 0 0 -61.483555810140388 8.0446873147584483 0 8.0446873147584483 -79.777066570122543 0 0 0 0 -50.217644400478093 -33.789433886815914 0 -33.789433886815914 29.588960259382475 0 0 0 0 -45.332880053500745 1.3052420157336968 0 1.3052420157336968 16.721158928551613 0 0 0 0 -42.513373006244365 -76.802452483796969 0 -76.802452483796969 46.324473392918435 0 0 0 0 -12.985887396949693 -50.55154013897527 0 -50.55154013897527 3.7657675874596634 0 0 0 0 -97.155965203171945 -10.528016215308071 0 -10.528016215308071 -3.985104330957256 0 0 0 0 -85.832002255422339 -10.464085576746857 0 -10.464085576746857 9.21742146265162 0 0 0 0 -173.00176284349982 35.094008377130876 0 35.094008377130876 348.12414971123212 0 0 0 0 -84.977778667201164 228.61254456017198 0 228.61254456017198 362.73277494356262 0 0 0 0 -303.1546114105422 43.560919459396246 0 43.560919459396246 105.02157327300665 0 0 0 0 -245.68199134236784 147.64454572539512 0 147.64454572539512 223.02499053682618 0 0 0 0 -328.50393771392191 387.22445277647716 0 387.22445277647716 -267.45326510840732 0 0 0 0 -119.20079071436521 113.96688892562838 0 113.96688892562838 74.324699935133935 0 0 0 0 -240.28806170861634 -291.36366645085923 0 -291.36366645085923 581.89012106719861 0 0 0 0 -835.43103547354985 -302.22628979944102 0 -302.22628979944102 95.093645658309242 0 0 0 0 -27.380249107021882 -9.3127470043484664 0 -9.3127470043484664 195.53031406599041 0 0 0 0 -111.40776566363456 -476.73660707807824 0 -476.73660707807824 559.80530462876663 0 0 0 0 9.6708113925637917 -93.341616594790764 0 -93.341616594790764 -165.69320529259221 0 0 0 0 -23.536985521790484 -50.373027219412961 0 -50.373027219412961 58.710674114516678 0 0 0 0 -85.509802118469452 136.0806364585651 0 136.0806364585651 -565.36003532078917 0 0 0 0 -323.06419270177139 6.8928772434645964 0 6.8928772434645964 20.968089910463377 0 0 0 0 -898.24976163524298 181.21985036109794 0 181.21985036109794 -30.126771130978113 0 0 0 0 -113.2642095762676 173.41323091039112 0 173.41323091039112 -180.7953333381879 0 0 0 0 -348.78908987700561 86.128750628968874 0 86.128750628968874 12.930927038778975 0 0 0 0 -101.1516904390237 -18.046937053437375 0 -18.046937053437375 -9.3859418026008825 0 0 0 0 -8.7167734403632338 -1.4377583112398735 0 -1.4377583112398735 -0.7615198020649161 0 0 0 0 -367.55761391456144 -356.53762489038547 0 -356.53762489038547 -280.12717036596706 0 0 0 0 -78.460355787248773 -85.997154924796462 0 -85.997154924796462 -84.813218732025007 0 0 0 0 -163.95169052163692 -86.758841468834248 0 -86.758841468834248 -46.10777087484098 0 0 0 0 -179.67916915066598 -102.64049193526256 0 -102.64049193526256 -14.159803234005778 0 0 0 0 -165.23106021470994 -99.656588452420948 0 -99.656588452420948 -15.81817381367307 0 0 0 0 -229.18526960771487 -121.39722480919798 0 -121.39722480919798 -14.505850138098197 0 0 0 0 -444.26059373022599 -115.70211043166424 0 -115.70211043166424 73.31866661624781 0 0 0 0 -263.4963404243972 -214.27395687046868 0 -214.27395687046868 -103.48772993449256 0 0 0 0 -271.57633910471486 -64.417478522203282 0 -64.417478522203282 84.259880255030907 0 0 0 0 -306.62241693490796 -105.50932022765676 0 -105.50932022765676 52.000200790953386 0 0 0 0 -220.51227432117958 -29.970481805572717 0 -29.970481805572717 95.760391205984888 0 0 0 0 -247.81276914718183 -81.803641156444201 0 -81.803641156444201 8.1169370814141075 0 0 0 0 -235.51050522230071 -91.268474883114322 0 -91.268474883114322 14.086183640899321 0 0 0 0 -189.04546582364128 -85.769210762768921 0 -85.769210762768921 14.684174445627278 0 0 0 0 -150.80530404366436 72.174498033220971 0 72.174498033220971 11.416083472173334 0 0 0 0 -294.89185937698858 -1.9865122464253773 0 -1.9865122464253773 61.699666404280833 0 0 0 0 -321.2827986430857 23.655720550265869 0 23.655720550265869 37.159908211832999 0 0 0 0 -284.03396777766466 -80.371430014080374 0 -80.371430014080374 152.32226821407494 0 0 0 0 -126.69313775700721 23.563459150971994 0 23.563459150971994 65.44469178633608 0 0 0 0 -198.31652049839067 52.463607301759225 0 52.463607301759225 165.30425036386077 0 0 0 0 -152.08619962407647 -45.189883328554288 0 -45.189883328554288 168.06661247538068 0 0 0 0 -79.563973320150353 -84.800933943993272 0 -84.800933943993272 53.363678546181745 0 0 0 0 -120.39506005774652 -18.121424408535034 0 -18.121424408535034 28.842100385658298 0 0 0 0 -253.13808503055952 52.626151001574726 0 52.626151001574726 -22.473986876417712 0 0 0 0 -335.26935787648813 96.230172205271785 0 96.230172205271785 107.02326820121107 0 0 0 0 -26.620355866183566 -4.9400605575271932 0 -4.9400605575271932 2.4266661638001583 0 0 0 0 -302.72027992382573 20.508918585788251 0 20.508918585788251 217.20482596889883 0 0 0 0 -198.15551772787762 39.818046128746282 0 39.818046128746282 80.874260666551891 0 0 0 0 -295.51577062096476 10.652552748220842 0 10.652552748220842 83.27349333864322 0 0 0 0 -202.33070529018732 -25.29982461543932 0 -25.29982461543932 66.075531607906441 0 0 0 0 -140.41078778628071 -14.589724017181425 0 -14.589724017181425 43.533078113182455 0 0 0 0 -25.327003876603328 4.8999892377942302 0 4.8999892377942302 2.2935406692988245 0 0 0 0 -109.53485094057487 -23.783327928696849 0 -23.783327928696849 61.534599632319441 0 0 0 0 -37.862583816422557 34.939457275333098 0 34.939457275333098 49.593551970674525 0 0 0 0 -254.20812000785372 49.811283753842417 0 49.811283753842417 81.258190285555884 0 0 0 0 -195.86401407492667 55.212468067998543 0 55.212468067998543 49.043099487112443 0 0 0 0 -137.35761967084909 41.932290862332138 0 41.932290862332138 -26.873115452852289 0 0 0 0 -226.09056188769682 114.61897594642591 0 114.61897594642591 -45.420140661117784 0 0 0 0 -104.61547732883449 5.4498637773346452 0 5.4498637773346452 6.953546997738691 0 0 0 0 -120.80028642150137 7.391979767864882 0 7.391979767864882 87.14350539434281 0 0 0 0 -92.926572064778611 9.4848748759319399 0 9.4848748759319399 4.427119529523738 0 0 0 0 -166.3871179271373 42.448614212061329 0 42.448614212061329 29.292192231861463 0 0 0 0 -205.39462629234185 30.351210006620249 0 30.351210006620249 127.64465510699016 0 0 0 0 -78.920171671576099 -63.129132403472113 0 -63.129132403472113 121.7094479987195 0 0 0 0 -23.331557856530495 9.1482402817323987 0 9.1482402817323987 10.155370205189254 0 0 0 0 -343.81856782503019 117.15248030220766 0 117.15248030220766 -6.2508405024987042 0 0 0 0 -333.05255620718526 61.276487784121173 0 61.276487784121173 -9.5919058834899715 0 0 0 0 -183.6973315823634 -19.141174394922928 0 -19.141174394922928 33.381867103045806 0 0 0 0 -145.9549663587095 -28.350321316696864 0 -28.350321316696864 57.496402023789415 0 0 0 0 -237.09336630154712 -48.844068580844748 0 -48.844068580844748 76.418337815070117 0 0 0 0 -335.58178042613144 -13.751665012109697 0 -13.751665012109697 70.95579846031734 0 0 0 0 -28.112811218991215 5.8426025055137245 0 5.8426025055137245 58.843760756326908 0 0 0 0 -105.80041080287488 6.3793117552831546 0 6.3793117552831546 14.736559882248406 0 0 0 0 -473.97634265991655 99.013445192453503 0 99.013445192453503 39.44457394083679 0 0 0 0 -101.77425766842134 -98.815296347232334 0 -98.815296347232334 -34.615822105169173 0 0 0 0 -145.97397820449987 -88.504228385605984 0 -88.504228385605984 -26.281183638926677 0 0 0 0 -163.88556718986365 -198.1951914535814 0 -198.1951914535814 -19.330591803674452 0 0 0 0 -99.760834985863994 -120.76653880305238 0 -120.76653880305238 -145.43856288158622 0 0 0 0 -13.39365402396794 2.7432421870891766 0 2.7432421870891766 -0.50907929187086287 0 0 0 0 -128.94314837200727 -225.2033113040427 0 -225.2033113040427 -301.85191989789882 0 0 0 0 -53.487647747329902 -11.280176410267359 0 -11.280176410267359 14.748632094570894 0 0 0 0 -93.385872731905692 -85.047788063059443 0 -85.047788063059443 -83.103520101545655 0 0 0 0 -22.571880504117615 -0.96511626906858083 0 -0.96511626906858083 -2.2216993939992271 0 0 0 0 -16.541315331777049 -2.4594997250470243 0 -2.4594997250470243 1.9498524572581317 0 0 0 0 -10.726201134326402 76.095188045597752 0 76.095188045597752 58.738234922869879 0 0 0 0 -102.55773879405024 11.155666631289932 0 11.155666631289932 80.273462009874493 0 0 0 0 -101.38254390050861 57.13162972381474 0 57.13162972381474 73.684686992932257 0 0 0 0 -129.83816091149492 70.9191074354394 0 70.9191074354394 45.538175283664714 0 0 0 0 -75.869320671135938 -9.8230727220552581 0 -9.8230727220552581 18.165266430444717 0 0 0 0 -190.67216940921935 17.478540735231945 0 17.478540735231945 11.683660587923896 0 0 0 0 -10.689983207584174 -28.231441723893703 0 -28.231441723893703 -6.9842317801273381 0 0 0 0 -87.317025638467953 2.7762746684633015 0 2.7762746684633015 4.0978989024151069 0 0 0 0 -142.57687961675401 -33.616549023902735 0 -33.616549023902735 46.772735193013432 0 0 0 0 -113.13510897007654 -41.508622001912499 0 -41.508622001912499 19.572070841012646 0 0 0 0 -76.822209746471344 -57.00143384153148 0 -57.00143384153148 -37.531945604704561 0 0 0 0 -153.51327287632739 -69.922378407118686 0 -69.922378407118686 2.7331652569073412 0 0 0 0 80.487607586797822 -127.09877815083064 0 -127.09877815083064 -2.7211024026657356 0 0 0 0 -666.8045692942469 74.825955094079518 0 74.825955094079518 -21.199446136478969 0 0 0 0 -132.11623530001816 11.821996097213741 0 11.821996097213741 -31.16916023991871 0 0 0 0 25.242687394387303 -185.5867555938521 0 -185.5867555938521 25.763690642945676 0 0 0 0 -614.51462563118002 -109.66421875816008 0 -109.66421875816008 -27.211690033539526 0 0 0 0 161.66282476878587 -47.112833243605223 0 -47.112833243605223 -63.874355591243784 0 0 0 0 2.810773965868492 0.71192487359463641 0 0.71192487359463641 -3.0992689910283184 0 0 0 0 -0.47328563125888912 0.38660289457209274 0 0.38660289457209274 0.13177126678732165 0 0 0 0 -577.35770877357936 -42.601213883544915 0 -42.601213883544915 40.474479955854349 0 0 0 0 -217.00789578893819 -189.42341351535947 0 -189.42341351535947 45.886882855622844 0 0 0 0 10.181156356669817 -52.432768971340806 0 -52.432768971340806 6.0155574048030758 0 0 0 0 2.3294511650842549 -28.122712369884468 0 -28.122712369884468 -0.79333005273224622 0 0 0 0 -175.42316352053422 -49.531852921130096 0 -49.531852921130096 15.265210210806799 0 0 0 0 110.42249309825274 27.931694311889601 0 27.931694311889601 -47.022539018054886 0 0 0 0 -183.99478687417286 -41.338867337976808 0 -41.338867337976808 8.2329906415048981 0 0 0 0 -184.73060266720131 -24.382760778211377 0 -24.382760778211377 5.625916595112983 0 0 0 0 -217.53283200851729 -35.050455525466532 0 -35.050455525466532 29.937726847589147 0 0 0 0 -192.13854945768617 -52.237505445260581 0 -52.237505445260581 29.692944156139674 0 0 0 0 -179.4065519394062 -56.891685754131686 0 -56.891685754131686 2.7956806734773636 0 0 0 0 -175.5558774547244 -67.951427513809904 0 -67.951427513809904 32.759281584968676 0 0 0 0 -201.25147342456148 -91.557559485949355 0 -91.557559485949355 11.765035796991469 0 0 0 0 -127.98678233311512 -41.949371032097133 0 -41.949371032097133 4.0760655309795766 0 0 0 0 -194.34598984147397 -126.3689796124263 0 -126.3689796124263 95.737763930744222 0 0 0 0 -291.16992226543516 -72.440316613417735 0 -72.440316613417735 68.24458303192705 0 0 0 0 -218.820381846489 -36.985079250987098 0 -36.985079250987098 84.6410275596063 0 0 0 0 -229.73924549323419 -5.1035254976557098 0 -5.1035254976557098 54.984510807651304 0 0 0 0 -237.81875295900863 15.456224178519619 0 15.456224178519619 9.3878042016112886 0 0 0 0 -202.57912381221831 2.4976715693978804 0 2.4976715693978804 29.478936968770086 0 0 0 0 -186.32184202576173 -17.501891810803954 0 -17.501891810803954 38.15367261585925 0 0 0 0 -200.94433651114377 -1.5381232040829218 0 -1.5381232040829218 22.844057830086967 0 0 0 0 -160.24225241191743 9.6046015117656225 0 9.6046015117656225 15.249734757767328 0 0 0 0 -205.11151372174209 25.095377575324392 0 25.095377575324392 20.204642455183148 0 0 0 0 -166.02264195792395 -19.080487469021705 0 -19.080487469021705 8.3780309600656437 0 0 0 0 -152.44783882539923 10.47722012331451 0 10.47722012331451 29.055017156211761 0 0 0 0 -122.82683625737991 -17.784638539301568 0 -17.784638539301568 8.167473627876916 0 0 0 0 -133.89550566999606 32.200467534915106 0 32.200467534915106 16.337917056882361 0 0 0 0 -236.57670626637264 13.136782700044137 0 13.136782700044137 57.715955121523621 0 0 0 0 -227.10320715371927 4.2750713782841103 0 4.2750713782841103 33.547280386172361 0 0 0 0 -246.48005243642547 15.618319748421527 0 15.618319748421527 57.096973503679578 0 0 0 0 -216.80856460850373 -62.68275851298614 0 -62.68275851298614 22.086349024826632 0 0 0 0 -173.9300908184523 -16.356278170489873 0 -16.356278170489873 10.999918968359225 0 0 0 0 1.5729823032274259 -28.321736127073514 0 -28.321736127073514 4.5966779700650306 0 0 0 0 1.9059731486086093 -26.094862022414276 0 -26.094862022414276 55.609911017421666 0 0 0 0 22.004317991993958 -28.743121418677603 0 -28.743121418677603 -7.409189126666206 0 0 0 0 -100.22407800483779 0.34856591386665059 0 0.34856591386665059 16.369080223396395 0 0 0 0 -2.3032526079974067 -26.362983129565407 0 -26.362983129565407 9.4688365798880376 0 0 0 0 -205.17626699080392 -67.333420633538964 0 -67.333420633538964 -1.5120920813818657 0 0 0 0 0.61125761214714069 -0.94857257111375759 0 -0.94857257111375759 0.93245692315618944 0 0 0 0 -202.80472963802458 -62.847995962742374 0 -62.847995962742374 6.7395409700586129 0 0 0 0 -177.99253499263824 -53.536284193058336 0 -53.536284193058336 0.35971515790447484 0 0 0 0 -78.529258141767059 -33.411088056206836 0 -33.411088056206836 -47.319510711223735 0 0 0 0 -108.281654505392 -18.118411299489594 0 -18.118411299489594 12.830989293912808 0 0 0 0 -60.80946327728816 11.148795384079222 0 11.148795384079222 -26.104891992217972 0 0 0 0 -61.144307526805278 -15.279256125440611 0 -15.279256125440611 9.8639493732980554 0 0 0 0 -12.122819270934997 -8.6181002897804433 0 -8.6181002897804433 1.8363561896319425 0 0 0 0 -76.241759115677269 -37.800390388803862 0 -37.800390388803862 18.120378766931481 0 0 0 0 -3.484822868030804 -13.157620279101574 0 -13.157620279101574 2.2015744577072711 0 0 0 0 -18.525697210730868 8.4260893541436417 0 8.4260893541436417 25.152182209142438 0 0 0 0 -64.885593782397336 -3.6415577460755912 0 -3.6415577460755912 9.3802772768112845 0 0 0 0 -65.569296263827709 -0.68329968116131568 0 -0.68329968116131568 23.989835368467084 0 0 0 0 -40.915912279255281 2.2195647357198141 0 2.2195647357198141 -0.14840494629697787 0 0 0 0 -56.626939148180099 -4.573322462977373 0 -4.573322462977373 2.0396840765256457 0 0 0 0 -41.471555419972063 9.895911516587141 0 9.895911516587141 7.1640522729849065 0 0 0 0 -57.519504254285039 2.3186863532505129 0 2.3186863532505129 -12.616946715653285 0 0 0 0 -5.9849962224526863 -1.7919072115822132 0 -1.7919072115822132 2.5996623514337243 0 0 0 0 -23.909184967154935 -4.9668084427273405 0 -4.9668084427273405 0.20977297106707882 0 0 0 0 -34.609507414789391 -14.360390588073095 0 -14.360390588073095 -30.864028832760596 0 0 0 0 -70.898144537819462 -39.058600250785958 0 -39.058600250785958 5.1243899106248136 0 0 0 0 -269.51946689136821 -1.1928011522331872 0 -1.1928011522331872 44.833954144987274 0 0 0 0 -265.65048883696363 65.237055644831571 0 65.237055644831571 80.144223652816663 0 0 0 0 -280.12360733283458 52.635481845592949 0 52.635481845592949 74.78676146988596 0 0 0 0 -47.431448427436408 24.077045963657163 0 24.077045963657163 -4.458007502684687 0 0 0 0 -268.28758332800066 54.759977308885254 0 54.759977308885254 62.269899568119399 0 0 0 0 -100.55039050678845 4.6660578500070775 0 4.6660578500070775 5.312606664993301 0 0 0 0 -229.63550760000362 142.34849561799257 0 142.34849561799257 26.194725535508951 0 0 0 0 -121.23698408160999 6.0317472517455144 0 6.0317472517455144 37.607176723888188 0 0 0 0 -55.607234664195545 5.9825617807831684 0 5.9825617807831684 2.2721588179072323 0 0 0 0 -112.15876332763582 25.008689904921084 0 25.008689904921084 18.45094819985502 0 0 0 0 -69.562983747684484 8.1221983514241174 0 8.1221983514241174 48.333829693302846 0 0 0 0 -119.46956439789938 3.3837883521516687 0 3.3837883521516687 30.569339340282795 0 0 0 0 -53.330484562677157 21.429901977705867 0 21.429901977705867 28.383536561381334 0 0 0 0 -38.40535415244085 6.0795866913481404 0 6.0795866913481404 26.924905072426156 0 0 0 0 -48.619789016119555 7.2167389260599251 0 7.2167389260599251 7.7188109484342817 0 0 0 0 28.876331824711087 69.456195312294881 0 69.456195312294881 -4.3072459584350327 0 0 0 0 -272.82590291624001 58.811312994288528 0 58.811312994288528 82.413968968739482 0 0 0 0 -19.70873330067343 3.065458109327011 0 3.065458109327011 -19.919166503943643 0 0 0 0 16.748305568312844 19.850967511461249 0 19.850967511461249 -27.409103595844044 0 0 0 0 -392.92822315000922 96.049783772081071 0 96.049783772081071 65.512064676117916 0 0 0 0 -270.52690601210998 57.745181943149873 0 57.745181943149873 77.492149184321988 0 0 0 0 -245.82087810750272 45.097961610610241 0 45.097961610610241 63.830086653340004 0 0 0 0 -324.7765426333608 2.1410517588068103 0 2.1410517588068103 62.292705819829507 0 0 0 0 -191.63926738021473 11.359782740488924 0 11.359782740488924 35.40714836384484 0 0 0 0 -264.35913165139073 23.745437056319417 0 23.745437056319417 78.905684989072597 0 0 0 0 -197.17132785364083 62.101330780490343 0 62.101330780490343 92.209819531995095 0 0 0 0 -96.93261913761296 6.367186306746011 0 6.367186306746011 -0.062921208489515879 0 0 0 0 -79.470385276146772 18.916631246928546 0 18.916631246928546 38.033106274054489 0 0 0 0 -149.13859352582404 13.713891616326009 0 13.713891616326009 16.862038855561991 0 0 0 0 -190.90667754108199 13.049302698905876 0 13.049302698905876 38.929817572221054 0 0 0 0 -107.12369711492283 -18.333363778117928 0 -18.333363778117928 36.764264486778529 0 0 0 0 -144.13245450315912 -32.439612617172351 0 -32.439612617172351 32.279914578707803 0 0 0 0 -72.10463857177092 -34.67012204066657 0 -34.67012204066657 26.185169286540486 0 0 0 0 -102.66332376803985 -32.945627004786729 0 -32.945627004786729 38.936757032152173 0 0 0 0 -56.485261922376594 -21.986652351419252 0 -21.986652351419252 26.465088828009812 0 0 0 0 -75.839359443081776 -22.159483669371411 0 -22.159483669371411 40.238925734613986 0 0 0 0 228.37717905083991 -103.38825131565318 0 -103.38825131565318 28.678027529720566 0 0 0 0 -102.36338620425704 -22.780666304544411 0 -22.780666304544411 40.299346326968134 0 0 0 0 -59.597477116121325 -21.418155199964396 0 -21.418155199964396 15.257424871779488 0 0 0 0 -113.11612364357234 -38.023799496346271 0 -38.023799496346271 48.895310321774105 0 0 0 0 -93.011630440469588 1.6669524915031868 0 1.6669524915031868 4.9754643284467406 0 0 0 0 -105.1138050504087 -18.192026373900035 0 -18.192026373900035 68.545693256698314 0 0 0 0 -10.40619304166502 10.046225866197432 0 10.046225866197432 13.350410717208472 0 0 0 0 -107.00381840163027 64.596254961016939 0 64.596254961016939 74.120352957897239 0 0 0 0 -80.283768772191252 67.764278054516581 0 67.764278054516581 -22.659187448321063 0 0 0 0 -74.625392716161514 -6.0060749989445412 0 -6.0060749989445412 115.6030362735446 0 0 0 0 -143.28966567788302 138.43848891171001 0 138.43848891171001 -120.91417395239841 0 0 0 0 -3.5748064255632812 -12.49367079164119 0 -12.49367079164119 5.4284692297996804 0 0 0 0 -190.18301473218526 56.128055786392906 0 56.128055786392906 169.04462021527252 0 0 0 0 -216.93700152351812 66.862663425166943 0 66.862663425166943 164.74461071482892 0 0 0 0 -235.63485619449602 119.19224448223804 0 119.19224448223804 135.17261329412031 0 0 0 0 0.80928041262819761 2.8596211071124671 0 2.8596211071124671 7.1254884846783764 0 0 0 0 -87.683357735291793 -147.1931212840766 0 -147.1931212840766 330.07249018143966 0 0 0 0 -236.31090278026386 66.722330900156976 0 66.722330900156976 -23.849108796928249 0 0 0 0 -201.75923366994539 29.822324654202475 0 29.822324654202475 10.696962030664722 0 0 0 0 -194.97273154062714 119.10374454993348 0 119.10374454993348 -38.283319471926802 0 0 0 0 -272.08583637837728 -13.413717609413197 0 -13.413717609413197 49.988808130142843 0 0 0 0 -251.12715475258483 9.3669082413035767 0 9.3669082413035767 61.830768341300882 0 0 0 0 -238.08090583426383 -20.732350318401359 0 -20.732350318401359 131.26641154377364 0 0 0 0 -243.39323550116023 7.0701459274275749 0 7.0701459274275749 62.497213331983858 0 0 0 0 -102.10752999968827 -10.181471994943422 0 -10.181471994943422 12.700943925702632 0 0 0 0 -207.02770039507595 546.82898711545386 0 546.82898711545386 -507.03920024509262 0 0 0 0 -1129.130583332173 -123.48992092335834 0 -123.48992092335834 32.530344651949235 0 0 0 0 56.289051361782185 -41.264969512165408 0 -41.264969512165408 -609.04666873384235 0 0 0 0 -99.506709375029459 -159.94324312114531 0 -159.94324312114531 -403.76642031026131 0 0 0 0 -27.09627433335433 -0.10321478131047712 0 -0.10321478131047712 -4.7575960863366404 0 0 0 0 -73.219496907129724 -77.635276556489771 0 -77.635276556489771 -158.12261102981938 0 0 0 0 -135.05626206798479 168.80493443197429 0 168.80493443197429 -136.46925979585831 0 0 0 0 113.43225483847345 246.12824857219312 0 246.12824857219312 -122.27171660031854 0 0 0 0 109.11540089450136 87.836346853995565 0 87.836346853995565 -338.18708838548628 0 0 0 0 -4.8683190878618916 99.592928886284426 0 99.592928886284426 -63.03723426142642 0 0 0 0 -18.600001515096665 65.914960610843536 0 65.914960610843536 -46.373282891028794 0 0 0 0 -80.957620742192375 131.33973250521058 0 131.33973250521058 144.14847514447752 0 0 0 0 53.040688205288461 130.28196982817462 0 130.28196982817462 -299.0359489177772 0 0 0 0 262.94590074727603 20.039839317290671 0 20.039839317290671 -261.57431464804836 0 0 0 0 99.966496570894378 605.6014026913208 0 605.6014026913208 -669.59418312131038 0 0 0 0 -716.43762219354539 -90.221431098204448 0 -90.221431098204448 91.040016800997364 0 0 0 0 -11.128479484818939 10.29433368652802 0 10.29433368652802 -8.4994543900403947 0 0 0 0 230.93050299043534 135.62353792898489 0 135.62353792898489 -678.30313769070926 0 0 0 0 -22.577011285445195 -3.0963199838916466 0 -3.0963199838916466 12.886500293904845 0 0 0 0 -375.73186742399412 52.230737916676844 0 52.230737916676844 34.041425227303989 0 0 0 0 334.93165058962768 881.79209791336143 0 881.79209791336143 413.30256937102263 0 0 0 0 -1409.1293461260357 634.67753105745032 0 634.67753105745032 383.56966715442445 0 0 0 0 -166.06664432013895 -790.71907352508651 0 -790.71907352508651 153.76925674391714 0 0 0 0 -51.679794233100722 -16.076854781743165 0 -16.076854781743165 29.149526526636066 0 0 0 0 -49.587392961402657 -43.520392015627522 0 -43.520392015627522 39.144755403326563 0 0 0 0 382.22224512726461 363.91034273253945 0 363.91034273253945 -484.89760033554376 0 0 0 0 -377.72193955481998 256.7537717473333 0 256.7537717473333 109.86744071861358 0 0 0 0 -951.51504909994037 575.51002790926032 0 575.51002790926032 31.690521810122846 0 0 0 0 5.7831984379008645 763.75851437578422 0 763.75851437578422 -585.92870726311321 0 0 0 0 -1198.3139959942055 -1146.661855783077 0 -1146.661855783077 36.143182928957685 0 0 0 0 -276.27613012450092 180.02949162903496 0 180.02949162903496 130.28586365312367 0 0 0 0 -390.19709070976023 169.92954571669861 0 169.92954571669861 194.89648791958371 0 0 0 0 -239.82031090087185 142.81313836686877 0 142.81313836686877 128.34825171929333 0 0 0 0 -308.10716308926203 84.488934524360047 0 84.488934524360047 232.04571575283745 0 0 0 0 -316.92185154739127 115.12924754472033 0 115.12924754472033 231.72680889308413 0 0 0 0 -385.99531583507701 33.896044974812817 0 33.896044974812817 238.09298467792269 0 0 0 0 -1.3170412113468046 42.531371667452731 0 42.531371667452731 113.66297396351297 0 0 0 0 -35.932203796891713 26.226083085979408 0 26.226083085979408 -18.060183879039023 0 0 0 0 -52.056663576126994 157.17715655205393 0 157.17715655205393 149.83749290132982 0 0 0 0 -161.05209796725103 206.09942498616738 0 206.09942498616738 506.64888484218409 0 0 0 0 -178.56864620754641 93.925305697879594 0 93.925305697879594 252.27169049986378 0 0 0 0 88.839087886932248 262.30601101774437 0 262.30601101774437 188.11820174317745 0 0 0 0 -52.55894982137761 563.90171152236189 0 563.90171152236189 189.309421004521 0 0 0 0 -7.3435344174062038 -156.33356690921818 0 -156.33356690921818 147.53574213798572 0 0 0 0 -103.51956908240663 125.11699508550936 0 125.11699508550936 -59.154404377976789 0 0 0 0 -39.915649781592947 -176.9053954165654 0 -176.9053954165654 -8.8020020870841336 0 0 0 0 -7.4319284108587453 -237.41956056909635 0 -237.41956056909635 520.55081410546154 0 0 0 0 296.70219010244364 14.514754879161273 0 14.514754879161273 -40.095696152836354 0 0 0 0 -157.53291233348136 42.55540389599264 0 42.55540389599264 111.81598302647399 0 0 0 0 -153.99382283724981 -59.724939201098621 0 -59.724939201098621 159.62176065135918 0 0 0 0 -43.305684029937765 -12.803305633914306 0 -12.803305633914306 -358.63882136251414 0 0 0 0 -91.416372430241609 -33.650316875017324 0 -33.650316875017324 12.432527268297235 0 0 0 0 -217.06965150951146 86.949147081731553 0 86.949147081731553 48.653439250254451 0 0 0 0 -138.48123429341649 74.655986030468284 0 74.655986030468284 -189.96880027261977 0 0 0 0 -216.1425800674042 30.878367466380041 0 30.878367466380041 61.412981149543612 0 0 0 0 -309.12751472179662 17.525879076328238 0 17.525879076328238 322.55736773352419 0 0 0 0 -335.86400477936331 74.566084969112353 0 74.566084969112353 202.31094025846778 0 0 0 0 -216.0385258046488 17.092880284984922 0 17.092880284984922 102.6689064832899 0 0 0 0 -337.65089202500349 75.280919726228262 0 75.280919726228262 236.05848563360087 0 0 0 0 -362.04652861358772 159.86907238905587 0 159.86907238905587 135.44126264126498 0 0 0 0 -244.10715825661464 138.52407420474572 0 138.52407420474572 -40.92219107951496 0 0 0 0 -360.54522244741383 360.5378466043818 0 360.5378466043818 -225.29031876529712 0 0 0 0 -220.98071487814013 203.9586563674211 0 203.9586563674211 -62.179575806695993 0 0 0 0 -168.58585480970942 291.40755915248542 0 291.40755915248542 -274.88860485785813 0 0 0 0 -33.85941515090235 242.56895778040484 0 242.56895778040484 -305.63103709171855 0 0 0 0 -158.29967428129021 310.0235444382447 0 310.0235444382447 -339.25216298814121 0 0 0 0 65.682898555576685 153.39073692336001 0 153.39073692336001 -325.36756546464687 0 0 0 0 -37.35013947803418 207.65024826777005 0 207.65024826777005 -348.4520750808615 0 0 0 0 -159.73109822630067 241.26531251090455 0 241.26531251090455 -284.53590349508795 0 0 0 0 -92.444615858010366 157.99478202592195 0 157.99478202592195 -184.01348221806347 0 0 0 0 -37.430704469808916 161.72711438123827 0 161.72711438123827 -399.52554188365093 0 0 0 0 -32.589506364034605 142.45291123521656 0 142.45291123521656 -335.95204963304013 0 0 0 0 -89.813541150324454 171.85677806666399 0 171.85677806666399 -362.9375148774875 0 0 0 0 -25.318913116854674 160.49084965794992 0 160.49084965794992 -331.8790664745452 0 0 0 0 0.57434846161777386 215.98166462077165 0 215.98166462077165 -366.01027533004935 0 0 0 0 -44.263092020089971 194.71919290445612 0 194.71919290445612 -392.75140701672535 0 0 0 0 -55.518266528504682 169.44917231742443 0 169.44917231742443 -413.7830195663023 0 0 0 0 -243.28645527613844 246.84188183265269 0 246.84188183265269 -294.54180811709989 0 0 0 0 -256.30625536162552 170.41161355078725 0 170.41161355078725 -176.0330973580617 0 0 0 0 -105.48648859401874 146.07182000285002 0 146.07182000285002 -383.99000617301522 0 0 0 0 -148.04722130313712 242.58705433778124 0 242.58705433778124 -489.97568488837715 0 0 0 0 -293.49315323519841 -62.386863915602135 0 -62.386863915602135 369.77529782102408 0 0 0 0 -134.06142069284397 -48.748251130055905 0 -48.748251130055905 21.423125795261512 0 0 0 0 -296.22511837115599 -115.40756533804516 0 -115.40756533804516 320.25771408402761 0 0 0 0 -122.08020983833558 -283.56070219076469 0 -283.56070219076469 47.398139913600517 0 0 0 0 -444.18675291240743 228.65646171846453 0 228.65646171846453 -55.404794848303482 0 0 0 0 -390.23623695247807 48.543638739544349 0 48.543638739544349 141.29451552272303 0 0 0 0 -0.85088028288208761 0.71096047583461086 0 0.71096047583461086 3.1561044830074536 0 0 0 0 138.5722288419056 -509.969496423598 0 -509.969496423598 533.96412839065556 0 0 0 0 -35.004680190972067 -41.136364976826826 0 -41.136364976826826 213.76990065339396 0 0 0 0 -274.97007221388776 13.81774303512384 0 13.81774303512384 228.16918265916229 0 0 0 0 -364.10445583697583 82.363627167406548 0 82.363627167406548 267.30757618234736 0 0 0 0 -358.07543602891747 166.31881001446732 0 166.31881001446732 69.507044039139146 0 0 0 0 -435.25229545542243 -34.360540060265748 0 -34.360540060265748 335.61360191137487 0 0 0 0 -398.54301500295696 67.354714129178433 0 67.354714129178433 -229.05415512362197 0 0 0 0 -571.09805219479313 143.73389042637473 0 143.73389042637473 76.108744303345247 0 0 0 0 -793.90674194942403 204.67488358612945 0 204.67488358612945 -249.07989902010169 0 0 0 0 -149.19534575499347 -179.51341479451639 0 -179.51341479451639 -353.76396359121622 0 0 0 0 -790.77544152442715 -480.15678014480955 0 -480.15678014480955 -494.4574989000771 0 0 0 0 -700.65962299567036 -77.707065276874232 0 -77.707065276874232 23.194820159647861 0 0 0 0 -180.25666187165916 -148.54762852737031 0 -148.54762852737031 -80.622701664124634 0 0 0 0 -198.66053205551725 -196.42967288290106 0 -196.42967288290106 -110.89022330027638 0 0 0 0 -85.625233608272538 -18.976227819372866 0 -18.976227819372866 -26.74240949770774 0 0 0 0 -51.496250790529302 33.134417410006563 0 33.134417410006563 -137.82306451975865 0 0 0 0 -104.02684434908588 167.61122374033403 0 167.61122374033403 -155.36160039697396 0 0 0 0 -828.23987164403661 64.857072378631074 0 64.857072378631074 -139.28537582198146 0 0 0 0 -247.25813709319664 329.84686916554091 0 329.84686916554091 -283.21632716605336 0 0 0 0 -5.1576177568123853 0.72837072706074935 0 0.72837072706074935 -0.69545523592984271 0 0 0 0 -708.53416495347483 95.783410963339747 0 95.783410963339747 -806.04867515514411 0 0 0 0 -828.0456246779213 -113.78970653888666 0 -113.78970653888666 -710.49019115161354 0 0 0 0 -711.12414937980111 512.61607246376934 0 512.61607246376934 -351.37083707112356 0 0 0 0 -1048.172191482372 283.28068864648725 0 283.28068864648725 -206.72184626778198 0 0 0 0 -767.88602174222433 -229.52983821872934 0 -229.52983821872934 -60.333112107805846 0 0 0 0 -827.9857867137689 349.99580835524898 0 349.99580835524898 -48.644583931584179 0 0 0 0 -760.36063132605523 -11.413337364908458 0 -11.413337364908458 32.664541010959056 0 0 0 0 -581.86694435848767 51.672033833291948 0 51.672033833291948 50.734843639736141 0 0 0 0 -595.26451317275496 29.386646194098375 0 29.386646194098375 74.608693862657674 0 0 0 0 -463.68709713387943 63.856371727288945 0 63.856371727288945 35.131104728516902 0 0 0 0 -531.8066696724793 177.508659559536 0 177.508659559536 5.577307457065217 0 0 0 0 -670.99404811883869 185.50346065403494 0 185.50346065403494 43.978167299801044 0 0 0 0 -533.64291350784333 208.19632680526377 0 208.19632680526377 23.46581936045466 0 0 0 0 -514.41453623320467 346.30101235221952 0 346.30101235221952 -212.22419657906812 0 0 0 0 -504.87769322525264 256.60087803110179 0 256.60087803110179 -104.15257579625404 0 0 0 0 -387.51131758342672 206.51367120042863 0 206.51367120042863 27.687080300459911 0 0 0 0 -437.51411530738733 134.3906456632966 0 134.3906456632966 28.581080395669005 0 0 0 0 -487.7042782957069 209.00406593999116 0 209.00406593999116 0.32722661154878097 0 0 0 0 -20.462244623868173 61.261237065604263 0 61.261237065604263 56.357677379936263 0 0 0 0 -100.00315434817458 126.75164481785563 0 126.75164481785563 189.91624828486547 0 0 0 0 -36.94779390822805 38.136060065898889 0 38.136060065898889 76.614816244440078 0 0 0 0 -42.522552216643817 95.388625132998982 0 95.388625132998982 -32.186772073483326 0 0 0 0 -195.5239718831217 5.813572642530886 0 5.813572642530886 52.098550453331995 0 0 0 0 -152.62129798283422 75.534489639821686 0 75.534489639821686 -75.411882213292529 0 0 0 0 -305.51274307578569 77.142175644127406 0 77.142175644127406 16.754213441208321 0 0 0 0 -358.38159074901341 195.47334218308174 0 195.47334218308174 -160.72993304415337 0 0 0 0 -286.86877693177667 118.101045435407 0 118.101045435407 -86.319971006380683 0 0 0 0 -92.538631395160337 162.25498629048366 0 162.25498629048366 -251.57698147355711 0 0 0 0 -150.15074229137099 61.771257016272955 0 61.771257016272955 -39.419587059578589 0 0 0 0 -27.693102871675364 91.125911840995883 0 91.125911840995883 -21.806254558343198 0 0 0 0 -24.21972756300238 153.19057271551674 0 153.19057271551674 -173.76479179387556 0 0 0 0 -86.446194957370608 138.77971581010911 0 138.77971581010911 -176.409693063948 0 0 0 0 -1.7178452571970411 192.82195873986132 0 192.82195873986132 -317.49383063432663 0 0 0 0 -4.3475437718370813 170.03148222492615 0 170.03148222492615 -197.0119650031254 0 0 0 0 53.045754943344946 133.30030768215636 0 133.30030768215636 -193.35788421727511 0 0 0 0 -46.282293971184117 24.864159478740021 0 24.864159478740021 274.19815568183321 0 0 0 0 10.956332774323528 161.44483503433199 0 161.44483503433199 18.673406105807075 0 0 0 0 143.72479061663034 72.822860401468404 0 72.822860401468404 74.667954500816222 0 0 0 0 33.051831118944392 256.64753799352218 0 256.64753799352218 156.67431119885714 0 0 0 0 -39.939334301860072 119.69307801678453 0 119.69307801678453 124.05391270441474 0 0 0 0 -17.32524063581188 8.2893738932243011 0 8.2893738932243011 -3.8423058320353043 0 0 0 0 96.74505605763261 26.709768853853934 0 26.709768853853934 -256.63541872708237 0 0 0 0 40.03519708350359 282.51865162493954 0 282.51865162493954 -420.89684359961757 0 0 0 0 8.6318906420165149 307.84330586093131 0 307.84330586093131 -668.01181326765288 0 0 0 0 -6.6547690917168012 3.6288568301931932 0 3.6288568301931932 -2.4336107179312609 0 0 0 0 -42.104818948111642 -113.11410384857879 0 -113.11410384857879 -120.02329608794389 0 0 0 0 -510.94609877527182 -80.883198306469239 0 -80.883198306469239 12.93754316528134 0 0 0 0 -234.79981758868234 -89.033770979646874 0 -89.033770979646874 -4.7974697791526069 0 0 0 0 -127.01824821990886 40.770071424444382 0 40.770071424444382 -10.745155390473656 0 0 0 0 41.506164518345031 -18.618580264636421 0 -18.618580264636421 -63.065059702948446 0 0 0 0 -107.64389008439775 52.566817141572471 0 52.566817141572471 29.416157661228908 0 0 0 0 33.916048220504308 6.6235622853164386 0 6.6235622853164386 -67.438311228100019 0 0 0 0 111.70197873166762 213.0589209031948 0 213.0589209031948 341.17132823905706 0 0 0 0 -26.382036898417184 5.1935175961538249 0 5.1935175961538249 -0.13713249480288869 0 0 0 0 26.041438366948569 18.740920117394353 0 18.740920117394353 32.597402738811752 0 0 0 0 -11.124181457282347 -7.6322055305946321 0 -7.6322055305946321 -1.3670302787058501 0 0 0 0 36.974762100548105 -116.88958231424753 0 -116.88958231424753 78.880798567578438 0 0 0 0 41.970766066944634 -21.836821671507323 0 -21.836821671507323 -45.176340079574175 0 0 0 0 114.56892171654181 -84.910800365127216 0 -84.910800365127216 5.6587263015168219 0 0 0 0 -131.83251858235235 184.24057725589086 0 184.24057725589086 387.95844822233397 0 0 0 0 -26.319422497687668 14.958821484596591 0 14.958821484596591 -6.3843786048662912 0 0 0 0 -51.313254725162551 -27.910695969701123 0 -27.910695969701123 227.53441547103148 0 0 0 0 -225.35010119581966 187.82588033810111 0 187.82588033810111 -87.667843661162806 0 0 0 0 -127.4051220634658 134.09719450320819 0 134.09719450320819 -111.7914022110042 0 0 0 0 -110.61345196795446 -126.89207936443904 0 -126.89207936443904 94.391170774866396 0 0 0 0 217.21650572643557 -174.44848435835206 0 -174.44848435835206 7.8377199075039243 0 0 0 0 -330.01044856345652 69.3871118279136 0 69.3871118279136 340.86086686839008 0 0 0 0 14.879473723938645 -56.107629895693776 0 -56.107629895693776 -32.733472717988207 0 0 0 0 -9.0465814837130551 -15.910442393560402 0 -15.910442393560402 -16.458061541104339 0 0 0 0 -224.24618186159569 125.18095453203682 0 125.18095453203682 -11.112620093107807 0 0 0 0 -306.46625068183494 -44.54470828018998 0 -44.54470828018998 72.118745803745242 0 0 0 0 -581.06206939688491 185.23946770188417 0 185.23946770188417 -20.249156654454211 0 0 0 0 127.68906580023759 -166.09823244997392 0 -166.09823244997392 -203.73998223401105 0 0 0 0 -44.187467447420204 169.18937780935516 0 169.18937780935516 -433.39883946444706 0 0 0 0 -1134.187731111524 -286.84201299277333 0 -286.84201299277333 181.68848420029576 0 0 0 0 -3.3044463714027117 -6.9895876813522193 0 -6.9895876813522193 -14.976131142533747 0 0 0 0 -823.85765870018076 -395.22842319595793 0 -395.22842319595793 -17.59523854266331 0 0 0 0 549.63562815315527 1006.7871844514448 0 1006.7871844514448 -910.42760826575613 0 0 0 0 -706.26892317648162 -418.30207046974738 0 -418.30207046974738 919.72803964455852 0 0 0 0 -818.17809333179321 767.3776172736234 0 767.3776172736234 -918.6584424098337 0 0 0 0 -321.05602798622567 -208.92551397329635 0 -208.92551397329635 -1494.2467129444085 0 0 0 0 -1337.277499228876 -484.12677984746369 0 -484.12677984746369 -88.727281110989679 0 0 0 0 505.47140356547061 -30.500062538245288 0 -30.500062538245288 -115.85211428582261 0 0 0 0 744.51608182093332 -1222.2348269300601 0 -1222.2348269300601 -220.45037952412167 0 0 0 0 -8.1870705058331694 -17.128021822040537 0 -17.128021822040537 -26.278358949020543 0 0 0 0 -324.94518260727637 365.27539461783999 0 365.27539461783999 166.66839894745908 0 0 0 0 -227.71818243720918 281.78197259892386 0 281.78197259892386 13.3400895517143 0 0 0 0 -1013.094620106509 770.2399122569359 0 770.2399122569359 -290.45067011439642 0 0 0 0 -1264.8358708293017 -92.393058109375033 0 -92.393058109375033 -415.75906706917522 0 0 0 0 -793.92794929449883 -786.09798980773667 0 -786.09798980773667 -543.50877619620314 0 0 0 0 -107.95222046289564 666.78612650320883 0 666.78612650320883 -574.08559640506337 0 0 0 0 -12.802532299132679 4.4047339438621673 0 4.4047339438621673 -2.1616270519010357 0 0 0 0 408.07121180622562 135.45945269400499 0 135.45945269400499 -431.60826218840157 0 0 0 0 -35.092951165669859 7.2054499845695705 0 7.2054499845695705 -0.14014630074518308 0 0 0 0 -676.5661036755555 222.24213802143549 0 222.24213802143549 661.49436473332935 0 0 0 0 -226.46082372316664 298.29378279662529 0 298.29378279662529 -471.82881817797715 0 0 0 0 -449.75525421368366 247.38749734770545 0 247.38749734770545 -85.126723181421767 0 0 0 0 -426.35316818791944 90.592263812630662 0 90.592263812630662 -192.42450173530938 0 0 0 0 -298.97777873884479 187.67035575967606 0 187.67035575967606 -200.00002605091919 0 0 0 0 -422.38442412156292 189.36204353206256 0 189.36204353206256 -198.05648664280716 0 0 0 0 -376.1799092868132 251.20801199747342 0 251.20801199747342 -182.00614031428745 0 0 0 0 -408.22217374669344 154.62285946080362 0 154.62285946080362 -129.90030907703249 0 0 0 0 -502.86709473918745 61.372577500484113 0 61.372577500484113 -46.306295489156895 0 0 0 0 -507.29053675730029 53.892468178091576 0 53.892468178091576 -11.134726717847002 0 0 0 0 -429.85433854022267 -17.553562466497056 0 -17.553562466497056 47.279597292371903 0 0 0 0 -667.00337891142408 -155.54842071253915 0 -155.54842071253915 -87.274485061081805 0 0 0 0 -269.61390543612652 46.244462532334751 0 46.244462532334751 -207.31139885820099 0 0 0 0 -376.01532539272557 -185.38039128547132 0 -185.38039128547132 -512.68071890951092 0 0 0 0 -2.7457335723763521 -3.0922340713488481 0 -3.0922340713488481 -3.3958073524956269 0 0 0 0 -700.06063217181145 -674.28718056301636 0 -674.28718056301636 183.70590419665768 0 0 0 0 -21.275287707256211 107.67094024944055 0 107.67094024944055 -572.99868001762002 0 0 0 0 -210.0487075967394 210.47209962778805 0 210.47209962778805 -212.14767202758253 0 0 0 0 -55.949821696398431 201.92436537418294 0 201.92436537418294 -322.00220697426539 0 0 0 0 -154.3379802256095 76.332629023854338 0 76.332629023854338 -138.9777211587926 0 0 0 0 -321.70935543958694 130.21286329486747 0 130.21286329486747 -331.23158009434178 0 0 0 0 -127.92401970156061 187.10967887427017 0 187.10967887427017 -336.02776213676827 0 0 0 0 -309.30389995408768 260.04525119128567 0 260.04525119128567 -240.53269211677366 0 0 0 0 -351.20595048850373 244.71662655441952 0 244.71662655441952 -242.14470978650365 0 0 0 0 -284.84227606058266 269.66005895314146 0 269.66005895314146 -305.98224233608039 0 0 0 0 -391.42252011203527 269.91366419715456 0 269.91366419715456 -209.92511226601118 0 0 0 0 -336.34973283008003 294.31598194301705 0 294.31598194301705 -281.68701410702954 0 0 0 0 -450.52982631345367 232.03119419410302 0 232.03119419410302 -294.47154380091433 0 0 0 0 -310.13698413917155 271.29620244780358 0 271.29620244780358 -372.42512694927274 0 0 0 0 -325.67983499421098 270.8815500909713 0 270.8815500909713 -206.10868400761046 0 0 0 0 -308.32577427066315 195.58116922972087 0 195.58116922972087 -149.0212777528377 0 0 0 0 -309.03685402336851 252.22091420666436 0 252.22091420666436 -219.32439132854356 0 0 0 0 -358.33615593302238 234.47822786445784 0 234.47822786445784 -182.81350005355188 0 0 0 0 -348.14303142017889 258.16354367390795 0 258.16354367390795 -185.64654719576265 0 0 0 0 -3.2189191670240547 0.52961017056019699 0 0.52961017056019699 4.6272876412582358 0 0 0 0 -34.077349024024443 37.252858529930677 0 37.252858529930677 22.534941968226576 0 0 0 0 -8.7840758403253858 8.494787404278668 0 8.494787404278668 -5.1978526907704463 0 0 0 0 -2.7020676184196617 0.44100701821010091 0 0.44100701821010091 3.2406314164622074 0 0 0 0 -0.24090927432125442 3.2538381362451076 0 3.2538381362451076 -7.1464913533592238 0 0 0 0 35.629074153908732 10.535676873871523 0 10.535676873871523 -18.299121297864076 0 0 0 0 -152.36950150409393 34.677180434075353 0 34.677180434075353 -7.9633204957949602 0 0 0 0 5.1523985107887711 23.436308443909468 0 23.436308443909468 0.83908053846312214 0 0 0 0 -12.261617584445048 7.0549230181480418 0 7.0549230181480418 4.4648265825691844 0 0 0 0 -15.796085400259471 34.399172203664143 0 34.399172203664143 -23.41880138959381 0 0 0 0 -0.00085087717392928752 3.8064371225177354 0 3.8064371225177354 -10.459152976612062 0 0 0 0 34.886980270874687 121.86745555044628 0 121.86745555044628 -8.4488538295995568 0 0 0 0 4.0582587072531169 16.37991483730184 0 16.37991483730184 -21.534546899352051 0 0 0 0 -3.7326991746031837 1.7069820026696334 0 1.7069820026696334 5.0489273503266716 0 0 0 0 -253.95207025832497 268.87410434888659 0 268.87410434888659 -232.00383446253113 0 0 0 0 -235.47774228303979 144.43669684891429 0 144.43669684891429 -174.68223948784726 0 0 0 0 -357.53098734506057 252.65259511369641 0 252.65259511369641 -146.1077725284689 0 0 0 0 -336.52804743128945 357.25801710005896 0 357.25801710005896 -353.13932755198266 0 0 0 0 -18.720111421069305 133.61013437580118 0 133.61013437580118 -1.936019382530958 0 0 0 0 -38.108297774491803 195.72721300877947 0 195.72721300877947 -190.78605312624541 0 0 0 0 -40.670078825532983 251.44926829918973 0 251.44926829918973 9.9161515222145908 0 0 0 0 -168.46648085034394 289.45050119673238 0 289.45050119673238 27.897432725691942 0 0 0 0 -162.04349678265862 203.59517537209285 0 203.59517537209285 -172.24934591265105 0 0 0 0 24.924374188209185 303.078316959978 0 303.078316959978 -345.19799361459172 0 0 0 0 -65.856867241931468 526.08089745139284 0 526.08089745139284 409.44102586249164 0 0 0 0 -72.695174552645767 -164.38057615033711 0 -164.38057615033711 186.90192969037435 0 0 0 0 368.72581791436824 360.06652638427772 0 360.06652638427772 -138.20583742869724 0 0 0 0 -273.75341647528694 406.48542537828507 0 406.48542537828507 664.49131304493062 0 0 0 0 -605.22882274076255 110.11929306577395 0 110.11929306577395 389.57351324159083 0 0 0 0 -302.67594782598462 89.518488153326643 0 89.518488153326643 -15.058188881408341 0 0 0 0 -311.41659484376578 30.231053014889653 0 30.231053014889653 23.917061685814133 0 0 0 0 1022.3382333374741 511.24155742542098 0 511.24155742542098 24.108654871831845 0 0 0 0 0.44725159823578675 3.4624153872639312 0 3.4624153872639312 8.5974670304963325 0 0 0 0 -161.39604312831943 83.754620377686251 0 83.754620377686251 31.928521039289535 0 0 0 0 -200.34455216061178 40.96724821086741 0 40.96724821086741 48.483169294315701 0 0 0 0 -157.57518070311926 189.56773214289751 0 189.56773214289751 173.28916031991434 0 0 0 0 -300.08431120738533 65.849373541666182 0 65.849373541666182 129.15043660858419 0 0 0 0 -266.68973557693971 33.915627098350114 0 33.915627098350114 -10.125726525847995 0 0 0 0 -195.17880815145327 78.318679128177337 0 78.318679128177337 17.40799149815075 0 0 0 0 -225.18209651118377 54.562867561745975 0 54.562867561745975 -50.373227708779268 0 0 0 0 -247.1703527228965 30.750790109970126 0 30.750790109970126 -4.6458478889549042 0 0 0 0 -245.27153973694294 74.700697825169186 0 74.700697825169186 -43.878290912263765 0 0 0 0 -243.68955347899464 82.852917079969643 0 82.852917079969643 -42.98753371352359 0 0 0 0 -227.52554933473584 63.295717374543983 0 63.295717374543983 -53.953778728126281 0 0 0 0 0.21996998213477426 7.3325679889041169 0 7.3325679889041169 25.510577896400608 0 0 0 0 151.51783996556833 269.54552947949304 0 269.54552947949304 65.535085334700852 0 0 0 0 -481.53584948650678 72.170919683333068 0 72.170919683333068 9.0854569166885994 0 0 0 0 -295.45623569565214 30.383115527628433 0 30.383115527628433 -31.224499435798503 0 0 0 0 -315.23752404904008 20.262759967198463 0 20.262759967198463 -31.1992160024231 0 0 0 0 -0.53899078846768411 8.6238473470033341 0 8.6238473470033341 40.917995467223776 0 0 0 0 -291.1144447656161 143.76871177874102 0 143.76871177874102 200.03843383664025 0 0 0 0 -204.72614157951466 -159.28867494150654 0 -159.28867494150654 8.5815447263678379 0 0 0 0 -569.01012200221885 -47.07142488746706 0 -47.07142488746706 65.459739760942966 0 0 0 0 -638.20118602731941 127.20732144183154 0 127.20732144183154 246.57905406423833 0 0 0 0 -177.51823768942995 25.826439763915914 0 25.826439763915914 17.73946277786672 0 0 0 0 -379.58550047055428 -7.3654141756812521 0 -7.3654141756812521 152.18267018528968 0 0 0 0 2.6031050468770811 11.338524775762764 0 11.338524775762764 51.873286074184001 0 0 0 0 -239.41292947618786 33.457630167422849 0 33.457630167422849 31.312952437954209 0 0 0 0 -239.1091529620403 38.529012838607777 0 38.529012838607777 -47.618115959669467 0 0 0 0 -209.59838522879727 83.21881706756858 0 83.21881706756858 -33.31072854154354 0 0 0 0 -222.98123565048445 -0.97042883349126896 0 -0.97042883349126896 -48.584114029649299 0 0 0 0 -95.002864787660656 87.179975437579969 0 87.179975437579969 -18.718514087640415 0 0 0 0 1.9549136901187012 -181.27871096476531 0 -181.27871096476531 236.48521420609586 0 0 0 0 -222.7441421684598 109.0964196127527 0 109.0964196127527 158.85358933288444 0 0 0 0 3.0965510351817755 1.7113051863717601 0 1.7113051863717601 0.41333558034038553 0 0 0 0 -165.49805711583031 106.87674522603629 0 106.87674522603629 -0.48490638088151172 0 0 0 0 -501.11721260148988 57.472358991225747 0 57.472358991225747 140.12535348998699 0 0 0 0 -0.26308872368806702 0.70558587882712231 0 0.70558587882712231 -0.73170977244625313 0 0 0 0 201.35074393192065 93.630847009869882 0 93.630847009869882 58.328147916619855 0 0 0 0 116.14857644417498 90.733962781187756 0 90.733962781187756 3.420504510214414 0 0 0 0 87.20495661332825 5.7577194537698233 0 5.7577194537698233 6.8759982502206185 0 0 0 0 178.86896269993304 124.76207343573265 0 124.76207343573265 16.122189168816476 0 0 0 0 0.0474110538796646 -0.099025028281332084 0 -0.099025028281332084 0.80434718872773736 0 0 0 0 -18.99948057236179 -16.592590508464809 0 -16.592590508464809 1.7191532237347928 0 0 0 0 -42.988896503657543 -27.746666973369663 0 -27.746666973369663 21.974345967367753 0 0 0 0 -70.574655458658526 32.74567221369125 0 32.74567221369125 28.66371854929298 0 0 0 0 -11.239678626629029 -5.2631539605874877 0 -5.2631539605874877 -6.4245704579034282 0 0 0 0 -63.219974915962666 5.0191437780147226 0 5.0191437780147226 6.8807867467126016 0 0 0 0 -96.495525002763316 93.768053695160461 0 93.768053695160461 30.09480900932715 0 0 0 0 -22.334675583144417 51.314113334809463 0 51.314113334809463 97.896827945098948 0 0 0 0 -27.929717273342249 20.084392609104498 0 20.084392609104498 -40.375309703565108 0 0 0 0 -5.5270065160975719 61.860437138021069 0 61.860437138021069 10.534956511859036 0 0 0 0 -3.9109830896495623 71.10805407926145 0 71.10805407926145 19.788977746327419 0 0 0 0 -68.48210286135145 71.650576507811593 0 71.650576507811593 25.918093387737827 0 0 0 0 -79.567163785814046 -20.077930745218168 0 -20.077930745218168 194.21986563723908 0 0 0 0 -1.5167935167448547 0.24458241270254177 0 0.24458241270254177 1.4409774789983301 0 0 0 0 -19.612135583891359 39.466875461086659 0 39.466875461086659 21.001170087882429 0 0 0 0 9.2398269038021681 67.715408055575324 0 67.715408055575324 4.103218346946278 0 0 0 0 46.765887531117187 13.855675163756246 0 13.855675163756246 2.7308136177339577 0 0 0 0 67.44046613230546 23.180497044594581 0 23.180497044594581 -7.6805961069908335 0 0 0 0 -0.31181118088124649 2.4113851049808517 0 2.4113851049808517 -3.4110299090578922 0 0 0 0 -291.91896204326258 63.632807913980969 0 63.632807913980969 -21.765240073892983 0 0 0 0 -2720.108979734141 -702.18825338313638 0 -702.18825338313638 -147.66151840372186 0 0 0 0 -3552.6067672678037 -783.93680007870012 0 -783.93680007870012 -85.568015722592463 0 0 0 0 -3501.7729269849733 -828.68515277157735 0 -828.68515277157735 -216.10139678217118 0 0 0 0 -3499.529614348472 -940.52702457385806 0 -940.52702457385806 18.056644996008107 0 0 0 0 -3293.869685510741 -970.82991286399204 0 -970.82991286399204 -142.90471695874257 0 0 0 0 -2266.2018619186529 -839.05383958841276 0 -839.05383958841276 -166.05914391058351 0 0 0 0 -3307.9083862750658 -893.08055132736411 0 -893.08055132736411 58.596655742372562 0 0 0 0 -35.990042941881455 24.234971072536538 0 24.234971072536538 -11.436063337149321 0 0 0 0 -1827.3947326497182 -108.13645248871524 0 -108.13645248871524 -112.38655511178403 0 0 0 0 -109.23695295372272 49.628372538892791 0 49.628372538892791 -6.8951668354848152 0 0 0 0 -150.4798867622203 -26.609468918373409 0 -26.609468918373409 6.9659483637233279 0 0 0 0 -28.086119389012353 -27.917183187867842 0 -27.917183187867842 1.4369855172147155 0 0 0 0 -117.06328422097795 -40.522986121654867 0 -40.522986121654867 -16.012842123031078 0 0 0 0 -144.25089590192147 84.116118341234539 0 84.116118341234539 -70.941279905072179 0 0 0 0 -153.79864049755088 -49.084970789446459 0 -49.084970789446459 -35.497039105099248 0 0 0 0 -149.47337855510341 -36.371367100566886 0 -36.371367100566886 -14.74729984564965 0 0 0 0 -13.979845867880645 1.0594210662682571 0 1.0594210662682571 -6.2429072067442331 0 0 0 0 -11.209964092502748 -1.7286408470014578 0 -1.7286408470014578 -1.2108393566589415 0 0 0 0 -2605.8048808047606 -518.11976682766783 0 -518.11976682766783 -261.1909031918475 0 0 0 0 -2761.9080928449766 -386.19934118060166 0 -386.19934118060166 71.769849450042727 0 0 0 0 -2892.6695605944915 -247.80665842118748 0 -247.80665842118748 -248.9591709161316 0 0 0 0 -4530.6688328274249 -1055.5052566338316 0 -1055.5052566338316 29.281074705061201 0 0 0 0 48.190217533754549 -136.50037307493699 0 -136.50037307493699 -586.41186012343246 0 0 0 0 53.709089213141851 -87.581298318648237 0 -87.581298318648237 -590.75762089332 0 0 0 0 -0.47270009859438034 1.0352802849778762 0 1.0352802849778762 -3.3702032177849413 0 0 0 0 -27.789995667840913 -395.95464058180596 0 -395.95464058180596 185.11083821242573 0 0 0 0 -123.28094033227535 1103.6722320047045 0 1103.6722320047045 618.79536754845367 0 0 0 0 -2568.358346356923 407.07759613460394 0 407.07759613460394 512.59068634746222 0 0 0 0 -25.665602495870722 3.3551877143744626 0 3.3551877143744626 1.3667987634693306 0 0 0 0 -3212.6672184191139 -867.82777768983306 0 -867.82777768983306 -2098.5605430160867 0 0 0 0 -3415.0976746269698 -1542.8186864411173 0 -1542.8186864411173 -1858.1976647886393 0 0 0 0 -3324.0071111848483 -961.55244312978277 0 -961.55244312978277 -826.66043180847544 0 0 0 0 -3439.0382816815199 -1358.90459627671 0 -1358.90459627671 -1027.2124559557901 0 0 0 0 -3493.4808608848439 -607.92709295945099 0 -607.92709295945099 -1497.7982678368655 0 0 0 0 -3225.839684286635 -833.1493661110278 0 -833.1493661110278 -1333.451992404687 0 0 0 0 -2351.7177691267807 193.95803114052211 0 193.95803114052211 -936.35002173051146 0 0 0 0 -1876.6308249632734 -1476.3332524870464 0 -1476.3332524870464 -1675.1517024026136 0 0 0 0 -4411.9565924759254 -832.51906962575094 0 -832.51906962575094 -1467.4255728203646 0 0 0 0 -3320.6826362378588 -2143.6838307213307 0 -2143.6838307213307 -836.95629034761805 0 0 0 0 -3496.4619390681196 -2239.1825840258107 0 -2239.1825840258107 -982.91757336935711 0 0 0 0 -12.917332710940268 -0.43053237512619624 0 -0.43053237512619624 0.45048058002144975 0 0 0 0 -2046.788140920831 -1418.4274702785237 0 -1418.4274702785237 -541.866961002057 0 0 0 0 -1899.7191432204158 -554.09419323398788 0 -554.09419323398788 305.54764200958812 0 0 0 0 -13.065544614227623 0.15292598012057801 0 0.15292598012057801 2.0294674857367019 0 0 0 0 -2592.8881860050706 -835.05468794495926 0 -835.05468794495926 192.29262019299591 0 0 0 0 -3499.6616011340852 -1227.3428532937687 0 -1227.3428532937687 424.28821395578728 0 0 0 0 -2690.2926938457749 -1441.2986909868318 0 -1441.2986909868318 -315.58375144803233 0 0 0 0 -2321.4248401296591 -1335.9694494467831 0 -1335.9694494467831 -502.18761442774178 0 0 0 0 -3463.1128352996593 -2178.7315701106386 0 -2178.7315701106386 -841.63633846444861 0 0 0 0 -3519.4418341999644 -2063.7773852411869 0 -2063.7773852411869 -783.96909815175695 0 0 0 0 -2831.8519150575585 -1208.1480889215509 0 -1208.1480889215509 -422.58829775985748 0 0 0 0 -2067.7993629556281 -1448.2898834326843 0 -1448.2898834326843 -1187.4269813276505 0 0 0 0 -3368.1383364779413 -2013.9928233112958 0 -2013.9928233112958 -768.29076933130091 0 0 0 0 -4208.3263131349759 -3389.5822370384758 0 -3389.5822370384758 -2620.6579649755813 0 0 0 0 -2146.3777359810597 -1863.5888222266881 0 -1863.5888222266881 -1641.4234182940945 0 0 0 0 -174.80576482357537 175.15818363844085 0 175.15818363844085 690.49504450761992 0 0 0 0 -61.994371538794674 12.722940304045311 0 12.722940304045311 5.2977624836888539 0 0 0 0 -121.52114109675495 -96.462999136701001 0 -96.462999136701001 118.16717792254076 0 0 0 0 -81.15466021570893 20.569777809270771 0 20.569777809270771 4.9625546732229981 0 0 0 0 -125.81331854359269 0.27152526834038326 0 0.27152526834038326 240.83934673081058 0 0 0 0 -1089.5414054093053 -807.24264030793336 0 -807.24264030793336 -541.77959617554461 0 0 0 0 -1549.2515120897779 -1509.8991951817877 0 -1509.8991951817877 -1317.2723654691124 0 0 0 0 -1155.2390558166353 -693.47809434149303 0 -693.47809434149303 -683.95161629002996 0 0 0 0 -370.72287566989326 -496.50838204436104 0 -496.50838204436104 -626.04745607720406 0 0 0 0 -1137.1147735317354 -1115.9427193236049 0 -1115.9427193236049 -791.19233131382578 0 0 0 0 -1364.1810233093111 -733.76860092630557 0 -733.76860092630557 -334.53817860024287 0 0 0 0 -1986.7638137420154 -1089.9743284551005 0 -1089.9743284551005 -464.74085804658694 0 0 0 0 -1991.996052466382 -1075.5764999370799 0 -1075.5764999370799 -490.45396702740646 0 0 0 0 -9.8050588280135145 0.98876702556642826 0 0.98876702556642826 -1.5316880660175727 0 0 0 0 -296.3383280376579 -278.16160151459371 0 -278.16160151459371 -276.5487126267999 0 0 0 0 -216.28878745692236 -325.54906718103013 0 -325.54906718103013 -440.37639410534507 0 0 0 0 -221.85220267719706 258.40583356286515 0 258.40583356286515 -36.80682684677231 0 0 0 0 -28.968476689335745 6.1805617904416259 0 6.1805617904416259 6.7678036944983972 0 0 0 0 -113.64764200301579 62.120001732436776 0 62.120001732436776 -181.70531226248636 0 0 0 0 95.547682803293355 331.80735801983553 0 331.80735801983553 391.99808220610794 0 0 0 0 -34.213680348367483 -3.5298598948669895 0 -3.5298598948669895 7.7698924142810579 0 0 0 0 -548.77619310787122 -653.1208428264149 0 -653.1208428264149 -510.45931697860624 0 0 0 0 -53.628291191635071 -147.04206001562034 0 -147.04206001562034 -162.66313015992591 0 0 0 0 -1205.74369834561 -648.92707454271226 0 -648.92707454271226 -765.86233440531157 0 0 0 0 -1021.7074060744162 -835.23334954171469 0 -835.23334954171469 -708.30352208067859 0 0 0 0 -1506.6429114411058 -435.63668513522487 0 -435.63668513522487 314.07274650058707 0 0 0 0 -656.5167252161973 -19.330860839052093 0 -19.330860839052093 -71.268640750182158 0 0 0 0 -119.48646276143063 -5.0986673220049852 0 -5.0986673220049852 23.747116763028316 0 0 0 0 -94.393543655998855 25.136596864238925 0 25.136596864238925 3.7543603275458421 0 0 0 0 -49.945410678023805 -20.720577870472248 0 -20.720577870472248 0.77085679162122211 0 0 0 0 -126.58482330181414 10.754224768919812 0 10.754224768919812 -2.4265275935267709 0 0 0 0 -77.701240357076131 2.3417566223138238 0 2.3417566223138238 -1.253948235513235 0 0 0 0 -62.418377672520364 -0.66547029717912665 0 -0.66547029717912665 -0.96106369890003407 0 0 0 0 -42.153218924998164 0.36064403441197612 0 0.36064403441197612 0.60599791025234229 0 0 0 0 -62.304024194409664 -3.7975733506345986 0 -3.7975733506345986 -3.1192824262696082 0 0 0 0 -14.864611281258231 -0.27395413427025517 0 -0.27395413427025517 0.39393081694864751 0 0 0 0 -132.30230995669081 -24.851212189852617 0 -24.851212189852617 25.722482578023346 0 0 0 0 -113.0221520652658 -19.44922467490386 0 -19.44922467490386 -1.6844201824633274 0 0 0 0 -102.66466066457815 -5.1356829593235034 0 -5.1356829593235034 67.910837393505062 0 0 0 0 -105.07547994832566 -19.094202610694083 0 -19.094202610694083 16.831738887848246 0 0 0 0 -114.80458441403425 -15.337343441931921 0 -15.337343441931921 30.885745103352747 0 0 0 0 -124.53083567748399 -94.356292257344876 0 -94.356292257344876 123.38212662100329 0 0 0 0 -114.32813466249354 -83.142855147061937 0 -83.142855147061937 27.191512741867655 0 0 0 0 -96.702034028396156 -61.826660368458079 0 -61.826660368458079 52.967678102733771 0 0 0 0 -43.035858706320141 -62.758435748403372 0 -62.758435748403372 8.7859301149119347 0 0 0 0 -103.84357566403378 -33.204346558052748 0 -33.204346558052748 -3.6092967959064026 0 0 0 0 0.079123217645243216 0.0097341418068275232 0 0.0097341418068275232 0.18887836611438402 0 0 0 0 -83.225078209005005 -82.469927810521995 0 -82.469927810521995 8.4432160228705015 0 0 0 0 -40.592363000201999 -33.259417956595925 0 -33.259417956595925 -32.899486585361956 0 0 0 0 -47.463911979877594 -49.006241992991136 0 -49.006241992991136 -25.787296121327017 0 0 0 0 -39.84905890853679 -56.802844110929641 0 -56.802844110929641 -33.121134173868995 0 0 0 0 -54.812572923301559 -59.074559185537282 0 -59.074559185537282 -38.596847537377471 0 0 0 0 -70.260462682397701 -25.200361481741993 0 -25.200361481741993 -78.958702829373124 0 0 0 0 -59.632691007151152 -36.150882333251047 0 -36.150882333251047 -112.84493986113216 0 0 0 0 -61.120762512229703 -118.57048715551582 0 -118.57048715551582 -35.826347183313146 0 0 0 0 -82.57568339896352 -86.222128302651868 0 -86.222128302651868 25.488179135971222 0 0 0 0 -105.45636522932909 -195.28819597557958 0 -195.28819597557958 55.830384782848625 0 0 0 0 -103.75948422008969 -78.672847972451734 0 -78.672847972451734 77.003865846891131 0 0 0 0 -67.743779993704266 -257.99283671477519 0 -257.99283671477519 -379.03032302700876 0 0 0 0 -398.90212493356375 37.834456910040444 0 37.834456910040444 -82.477827138453677 0 0 0 0 -362.68045114261622 -56.642068368646051 0 -56.642068368646051 -22.378908164355835 0 0 0 0 -241.91309876928608 163.50715806315429 0 163.50715806315429 -322.95931960801613 0 0 0 0 -60.388980650330609 -113.74611674767277 0 -113.74611674767277 -185.38377668477551 0 0 0 0 -122.30522894818114 -7.1098400647538256 0 -7.1098400647538256 -85.974594198486102 0 0 0 0 -85.129868620959314 12.354447684945399 0 12.354447684945399 -164.82249357457164 0 0 0 0 -109.19120661762645 11.874866668052391 0 11.874866668052391 -95.284206227906793 0 0 0 0 -109.66247623318031 3.6512922409644943 0 3.6512922409644943 -25.991472147705281 0 0 0 0 -202.33025854586958 -32.644527005041027 0 -32.644527005041027 2.3292016923069241 0 0 0 0 -194.13956377108639 25.310432444795111 0 25.310432444795111 -15.214364269222642 0 0 0 0 -118.24392716873626 2.7687472325642375 0 2.7687472325642375 -8.5855608432186727 0 0 0 0 -163.51617949097636 -14.728760951612912 0 -14.728760951612912 14.299491482245685 0 0 0 0 -149.08728788376538 -24.18467134966204 0 -24.18467134966204 3.2856040055110043 0 0 0 0 -120.04829301813879 -0.83780017200729162 0 -0.83780017200729162 28.995657120151463 0 0 0 0 -52.124744158418252 3.2933003165792343 0 3.2933003165792343 -33.900550214746545 0 0 0 0 -64.189704483288665 20.424328235923102 0 20.424328235923102 16.494094498417745 0 0 0 0 -114.29763983239172 3.1163689005036588 0 3.1163689005036588 -2.902776016558164 0 0 0 0 -51.361068662583421 51.761011027325594 0 51.761011027325594 0.13564209449992859 0 0 0 0 -74.766852630434585 -37.736702462471712 0 -37.736702462471712 -0.16423251202224076 0 0 0 0 -121.7617932906378 -55.796073120028112 0 -55.796073120028112 60.715110941973307 0 0 0 0 -40.724535023256067 -30.717466513635941 0 -30.717466513635941 -80.797536851320729 0 0 0 0 1.134286380833835 -14.139308793810933 0 -14.139308793810933 3.2309891618061846 0 0 0 0 -12.610400541346205 2.9000726044758558 0 2.9000726044758558 6.6123570891786301 0 0 0 0 -63.118136968074396 2.5818832326267511 0 2.5818832326267511 -85.137252364925644 0 0 0 0 -81.779816729014783 -19.132927173529424 0 -19.132927173529424 13.197085425860678 0 0 0 0 -137.58141473242904 -224.68283561675634 0 -224.68283561675634 -171.135622025168 0 0 0 0 -52.724976050375517 -96.168879334508347 0 -96.168879334508347 23.48941596753366 0 0 0 0 -0.6423622478487232 -54.700248352575272 0 -54.700248352575272 -2.4649603032876684 0 0 0 0 0.6059073778687889 -46.762312834106297 0 -46.762312834106297 -94.698156181175932 0 0 0 0 -32.57171403578468 -118.84329291469385 0 -118.84329291469385 -34.213287724779434 0 0 0 0 -53.728735966840759 -96.853649314983841 0 -96.853649314983841 79.696240144028025 0 0 0 0 -4.8009915883176291 -74.798708101375652 0 -74.798708101375652 19.71012960076996 0 0 0 0 0.67979413133980415 -102.46027636980079 0 -102.46027636980079 0.89704432468406026 0 0 0 0 -137.13005583239647 -107.25792039400221 0 -107.25792039400221 121.10906582595226 0 0 0 0 -51.451582454181334 -110.42742931531336 0 -110.42742931531336 19.349350475009942 0 0 0 0 -199.19379549808582 -109.13616281871464 0 -109.13616281871464 89.556282358488943 0 0 0 0 -64.053626126604286 -1.872363163459795 0 -1.872363163459795 156.42287521744265 0 0 0 0 -153.23725720168295 22.92732411999441 0 22.92732411999441 215.35912327211585 0 0 0 0 -135.24496560078478 52.358878661264441 0 52.358878661264441 115.28243607705326 0 0 0 0 -47.826040815438319 91.089358568054081 0 91.089358568054081 147.76217495219908 0 0 0 0 -226.29349083404304 -221.53524585079299 0 -221.53524585079299 -239.30167918551081 0 0 0 0 -174.57323322840787 29.313868356629872 0 29.313868356629872 159.10611810123555 0 0 0 0 -173.64701076426763 -81.188868137107619 0 -81.188868137107619 35.931426193204288 0 0 0 0 -191.56908194358493 -69.425019065593233 0 -69.425019065593233 28.731481941234506 0 0 0 0 -335.09614242384851 -75.910405337788347 0 -75.910405337788347 84.495557957484948 0 0 0 0 -210.0694059716152 22.434651028639792 0 22.434651028639792 -105.00305605734866 0 0 0 0 -306.74420502480643 -158.47166535718827 0 -158.47166535718827 4.3641323035017194 0 0 0 0 -3.0653860861751703 -1.9797708513478902 0 -1.9797708513478902 0.35512030443812304 0 0 0 0 -246.83919968709142 -292.65065001523249 0 -292.65065001523249 -131.64679709342545 0 0 0 0 64.82058402353141 -0.60193757486604227 0 -0.60193757486604227 -45.025498598693048 0 0 0 0 -266.57478376158906 -283.124312303122 0 -283.124312303122 -64.802204408216312 0 0 0 0 -246.07998450615924 -210.82776377296204 0 -210.82776377296204 -51.787985639511135 0 0 0 0 -743.01561282847979 -338.26622446372585 0 -338.26622446372585 -44.269482649882775 0 0 0 0 16.676701675085496 -351.24762183625535 0 -351.24762183625535 -173.25751740378837 0 0 0 0 28.050504573824583 -381.18269251407492 0 -381.18269251407492 -275.98863459670247 0 0 0 0 -121.44443723956101 -234.72108796431303 0 -234.72108796431303 -188.25474116520309 0 0 0 0 359.74928808202094 -67.517425537645977 0 -67.517425537645977 -174.47925082448432 0 0 0 0 -31.337917887366086 18.244843122694004 0 18.244843122694004 -15.058360926897119 0 0 0 0 44.618479642962484 58.701850000958075 0 58.701850000958075 -25.364183815567628 0 0 0 0 -9.7771069212730914 -1.264947217383229 0 -1.264947217383229 -3.2520292053033337 0 0 0 0 67.775577258511476 -7.5640042729523884 0 -7.5640042729523884 -28.894751195086741 0 0 0 0 -19.079431615355134 -3.1700322041458548 0 -3.1700322041458548 -41.366190916308369 0 0 0 0 -19.847730564376889 -1.5201829800324731 0 -1.5201829800324731 -30.594261175307565 0 0 0 0 5.2182869124262652 26.173092133434238 0 26.173092133434238 -242.80079874085902 0 0 0 0 -24.358457747624925 -15.797216398687624 0 -15.797216398687624 -37.287118093298886 0 0 0 0 2.7329992320922365 -3.8359916437581596 0 -3.8359916437581596 -4.4128355426016306 0 0 0 0 -24.084753104013771 -13.035123382164485 0 -13.035123382164485 -26.271276013120314 0 0 0 0 -34.260285469412338 -35.026618787902407 0 -35.026618787902407 -16.409049830994263 0 0 0 0 -38.622078174668786 -46.537175659049808 0 -46.537175659049808 -5.9544088344409829e-05 0 0 0 0 -114.88138874291303 -31.691021916817277 0 -31.691021916817277 2.1955642879556763 0 0 0 0 -42.384412747327588 -30.518343031842733 0 -30.518343031842733 -13.610397218809339 0 0 0 0 -80.681845134316973 -18.658103253663967 0 -18.658103253663967 -2.8007864934491522 0 0 0 0 -51.194435685903954 6.5340385262413747 0 6.5340385262413747 -6.3280421431190916 0 0 0 0 -28.222762283985045 -17.66907534967908 0 -17.66907534967908 -3.8550856001389979 0 0 0 0 -69.070144154537275 15.497228234444947 0 15.497228234444947 -17.281227751790084 0 0 0 0 -58.916997183944659 7.9146522684914089 0 7.9146522684914089 -21.694379877634447 0 0 0 0 -66.128364129675901 2.2334449529655558 0 2.2334449529655558 -16.099609934205546 0 0 0 0 -62.898592465473882 11.163835586510459 0 11.163835586510459 -11.668524228296519 0 0 0 0 -26.378456378813215 -20.230117617685099 0 -20.230117617685099 -4.2468194533182482 0 0 0 0 -74.358896748355619 8.820725412644606 0 8.820725412644606 -14.121081417357345 0 0 0 0 -34.523020519742495 4.8235512406710948 0 4.8235512406710948 -6.8082256492024138 0 0 0 0 -79.909263572533405 1.270278695942352 0 1.270278695942352 -12.008394614616918 0 0 0 0 -847.05599183328013 -59.345254682232621 0 -59.345254682232621 424.91027977917281 0 0 0 0 -62.05735850679423 -13.830726408940944 0 -13.830726408940944 13.870367292220443 0 0 0 0 -82.880710858718885 426.14750876609139 0 426.14750876609139 -675.99545001085585 0 0 0 0 -195.29620719717059 -399.18679267710814 0 -399.18679267710814 382.49299209743799 0 0 0 0 270.79891861543001 -220.98352343448249 0 -220.98352343448249 274.90398237237156 0 0 0 0 -9.3133507356998138 -2.027243850703826 0 -2.027243850703826 1.1843126982598853 0 0 0 0 -4.8752391975999672 -4.4143268548007519 0 -4.4143268548007519 2.9218738346880668 0 0 0 0 -1199.2427485443768 963.90180926025801 0 963.90180926025801 -646.74180288762159 0 0 0 0 834.58451811792793 -977.75850011512864 0 -977.75850011512864 407.06092885407963 0 0 0 0 -35.374564195164567 1.5482657225559251 0 1.5482657225559251 8.9235294492791581 0 0 0 0 -39.786165096769892 -12.8915656639746 0 -12.8915656639746 10.049043331991586 0 0 0 0 -207.20505371116269 6.9614431592131041 0 6.9614431592131041 453.55719545162242 0 0 0 0 95.225071975066385 -35.344796051922572 0 -35.344796051922572 286.50186717594079 0 0 0 0 -265.84906536853305 252.7140875449158 0 252.7140875449158 -84.266203794441068 0 0 0 0 -33.36518928101863 4.7940463016634389 0 4.7940463016634389 -4.3172517418796845 0 0 0 0 -157.05525359647709 253.04882489875928 0 253.04882489875928 -263.40931718140359 0 0 0 0 -185.82799613083625 178.49440930799165 0 178.49440930799165 -228.07061078571815 0 0 0 0 -79.577135209017712 48.212725955063448 0 48.212725955063448 -28.049024474028755 0 0 0 0 -1709.1794178146283 2992.7766387132124 0 2992.7766387132124 -2623.8495004019969 0 0 0 0 -810.87767796718981 -1006.1037346472021 0 -1006.1037346472021 1609.7518259976951 0 0 0 0 -2638.0941474117717 435.83293915745253 0 435.83293915745253 1619.6343205659068 0 0 0 0 -162.38960794826744 87.823892051700113 0 87.823892051700113 -56.40440175617664 0 0 0 0 -63.240332967817402 3.9171364804531716 0 3.9171364804531716 10.114439066025552 0 0 0 0 -45.830395857370604 20.755673661723904 0 20.755673661723904 -12.297992001020532 0 0 0 0 -42.828015238562216 23.875320895650088 0 23.875320895650088 -14.143498551374073 0 0 0 0 271.99162998210068 756.64002901919912 0 756.64002901919912 414.72283560756478 0 0 0 0 393.18592450434062 91.534214666545267 0 91.534214666545267 47.177882598631186 0 0 0 0 -20.128613325774616 17.242967670249996 0 17.242967670249996 4.7874363509770177 0 0 0 0 103.77663661046063 158.7463997732666 0 158.7463997732666 40.565905918196222 0 0 0 0 -248.6428069286776 -807.08920143874275 0 -807.08920143874275 501.53790991000074 0 0 0 0 -781.36635692336131 -260.38221178680033 0 -260.38221178680033 413.18060762958703 0 0 0 0 -55.684283945185598 -1478.2685801013849 0 -1478.2685801013849 914.50915064538822 0 0 0 0 -1016.6051080238976 -1103.9589916173718 0 -1103.9589916173718 1586.9895772355867 0 0 0 0 4381.0184224105615 -1585.4689819825435 0 -1585.4689819825435 1442.1271461168035 0 0 0 0 1487.7704810325158 -213.52684852939637 0 -213.52684852939637 -164.34882617652147 0 0 0 0 -1045.7942286143077 -365.74688075858717 0 -365.74688075858717 342.5209647285119 0 0 0 0 -1884.3633418976478 496.95879266401562 0 496.95879266401562 -436.65470609141448 0 0 0 0 -1090.3002879895205 188.95102272485332 0 188.95102272485332 -501.00082891775128 0 0 0 0 -1957.4856185215285 244.83182402376042 0 244.83182402376042 589.08932909925352 0 0 0 0 -261.53221742268943 516.34102079316881 0 516.34102079316881 -452.39087580727301 0 0 0 0 -196.72789509457652 -87.661711748651669 0 -87.661711748651669 39.099988228721713 0 0 0 0 -20.739883479140197 -2.4660580761028399 0 -2.4660580761028399 1.7138139471756375 0 0 0 0 -12.330361018188555 -13.385206461155605 0 -13.385206461155605 -9.1716360437773901 0 0 0 0 903.46445788491474 -823.63782668923704 0 -823.63782668923704 -1955.9996611053048 0 0 0 0 -2227.7699612041451 1327.6077690718657 0 1327.6077690718657 -673.56023875923802 0 0 0 0 -1900.367929037966 1197.623936913054 0 1197.623936913054 -625.42660991206503 0 0 0 0 1047.4112368046267 -479.67576408546665 0 -479.67576408546665 -1179.4358184595767 0 0 0 0 -42.774364493853732 -17.479640834341396 0 -17.479640834341396 -0.1396206677094618 0 0 0 0 1415.0025586306529 -3261.5105246618709 0 -3261.5105246618709 311.1291079323646 0 0 0 0 -2358.4675067517701 1256.3385461732455 0 1256.3385461732455 121.48618150836774 0 0 0 0 -54.959485364323577 -10.129149446382275 0 -10.129149446382275 -15.220963474185394 0 0 0 0 -39.245989834900072 21.040813516255604 0 21.040813516255604 -17.82461132401027 0 0 0 0 -492.56621236223236 -22.286871758457892 0 -22.286871758457892 -41.234410261713151 0 0 0 0 -517.24083011876792 137.99494805741779 0 137.99494805741779 129.03820683848403 0 0 0 0 -1089.0832801331071 -345.83159158136004 0 -345.83159158136004 26.75798721593037 0 0 0 0 -889.58480655438689 -596.97616470654157 0 -596.97616470654157 -188.29066759394391 0 0 0 0 -47.064090367900462 248.97700785219178 0 248.97700785219178 321.15243895259323 0 0 0 0 -60.950644196494977 142.9037286955222 0 142.9037286955222 -110.30183572986425 0 0 0 0 -83.629253317307132 50.673718458315037 0 50.673718458315037 -9.7135636923346294 0 0 0 0 -871.34854079681645 660.8165566222342 0 660.8165566222342 -153.03330130489121 0 0 0 0 -142.66759666010694 451.09108459547588 0 451.09108459547588 52.147097841422067 0 0 0 0 -300.85900867902092 156.95712221602616 0 156.95712221602616 86.951059711062044 0 0 0 0 -213.1036476737645 164.81385086472346 0 164.81385086472346 -304.88565660051586 0 0 0 0 -473.6432621057138 170.96780589079935 0 170.96780589079935 -33.157608669783258 0 0 0 0 -390.96174435689318 62.260812003949923 0 62.260812003949923 -219.20499715761389 0 0 0 0 -1099.1020773876953 -130.68003260659088 0 -130.68003260659088 13.401766418922307 0 0 0 0 8.4290262847061967 -165.07488205749814 0 -165.07488205749814 -42.072360357979051 0 0 0 0 -359.57529221130062 145.21511991855232 0 145.21511991855232 146.46113507186874 0 0 0 0 -930.72170232350982 -565.14631741701987 0 -565.14631741701987 276.29292925144364 0 0 0 0 561.35280995562789 -954.50178671106005 0 -954.50178671106005 357.8491661546459 0 0 0 0 286.00298655192819 199.09392340184695 0 199.09392340184695 123.9016173376076 0 0 0 0 -72.049118901791644 29.765438908028102 0 29.765438908028102 7.9323679697165996 0 0 0 0 169.58177688577553 -31.906066136957548 0 -31.906066136957548 -149.32379027038223 0 0 0 0 -20.955610091030394 -473.81785891998516 0 -473.81785891998516 -412.4766828440595 0 0 0 0 -167.16243264561854 -6.3083173570547615 0 -6.3083173570547615 44.860245608749182 0 0 0 0 -236.25075048335202 -76.027439997300235 0 -76.027439997300235 317.98218072952272 0 0 0 0 -51.919340568299958 8.1709988753827929 0 8.1709988753827929 44.801506278321881 0 0 0 0 -133.98672116689238 -190.00094913101023 0 -190.00094913101023 -11.873894271627933 0 0 0 0 -3642.5770316908965 -1351.6292179627999 0 -1351.6292179627999 2320.1572727399562 0 0 0 0 -144.22171819702999 -22.923452733844442 0 -22.923452733844442 117.78645059516157 0 0 0 0 -61.704744671898155 -7.2327412203253312 0 -7.2327412203253312 37.941476756195577 0 0 0 0 -140.55658074884013 -39.917287830307714 0 -39.917287830307714 105.1194355527532 0 0 0 0 -3645.3232844388986 1880.2909910656017 0 1880.2909910656017 -2396.3305637488083 0 0 0 0 -76.521703376091523 23.851118615370648 0 23.851118615370648 21.222746745008514 0 0 0 0 -119.14324016013416 -22.867632529780167 0 -22.867632529780167 97.2737232413931 0 0 0 0 -92.4475347397929 -1.7890573193590171 0 -1.7890573193590171 109.83985172030066 0 0 0 0 84.807768906673004 102.50555799261637 0 102.50555799261637 -22.36922657494506 0 0 0 0 -61.814512673849613 36.413496884707001 0 36.413496884707001 -15.68437477490162 0 0 0 0 -79.628185900406606 144.4352570089568 0 144.4352570089568 319.27182184027311 0 0 0 0 -1.1801877157942045 11.41673950834573 0 11.41673950834573 -1.0187975573716592 0 0 0 0 -263.16660560297896 73.672391648255143 0 73.672391648255143 1137.4368518902015 0 0 0 0 69.55831549771392 128.39555756651998 0 128.39555756651998 210.72031652096121 0 0 0 0 -955.0852281304833 344.14741698688863 0 344.14741698688863 236.66203618950007 0 0 0 0 -169.83254688736997 -148.06383287134963 0 -148.06383287134963 -706.77935677702249 0 0 0 0 -482.94756719847101 977.37742245215054 0 977.37742245215054 -377.10302778750929 0 0 0 0 -263.32436500148469 665.39446063162836 0 665.39446063162836 -33.800773556666627 0 0 0 0 -160.46701501056305 658.92011652582096 0 658.92011652582096 159.90838807721229 0 0 0 0 -2.1955206917279071 -0.19689873101155086 0 -0.19689873101155086 4.3243527003212225 0 0 0 0 -347.82111826410983 534.86992411706024 0 534.86992411706024 97.595737943316635 0 0 0 0 -341.57522687422897 300.4524650601561 0 300.4524650601561 -0.33988427138683619 0 0 0 0 -1448.007780848704 529.4679475934131 0 529.4679475934131 -24.936660756241963 0 0 0 0 -879.35754936984813 -479.13053601843285 0 -479.13053601843285 -80.15944769537964 0 0 0 0 -455.11593472003005 252.19108443271364 0 252.19108443271364 -10.551990990547665 0 0 0 0 -544.72080156905577 -203.39591408365402 0 -203.39591408365402 -16.679822273996933 0 0 0 0 -223.6501809035326 128.32827143134904 0 128.32827143134904 -8.8984534224218805 0 0 0 0 -431.58381551738785 404.19263320197365 0 404.19263320197365 -46.987343194045934 0 0 0 0 -151.37590375065338 349.94423651385273 0 349.94423651385273 -185.84108721682378 0 0 0 0 -136.77127457002643 451.41976378033905 0 451.41976378033905 -61.579079183154136 0 0 0 0 -232.72476167162313 616.29178053866985 0 616.29178053866985 -274.16525430835509 0 0 0 0 53.275392767802259 437.186908291093 0 437.186908291093 -411.33234088831887 0 0 0 0 261.51790860963592 132.57772642872885 0 132.57772642872885 -89.887464550427467 0 0 0 0 92.219395628657367 182.98320995970923 0 182.98320995970923 -75.175607461865184 0 0 0 0 -92.284155216198997 206.38866477917358 0 206.38866477917358 67.99826692814429 0 0 0 0 31.643500177342503 137.58510234565142 0 137.58510234565142 105.79589357271402 0 0 0 0 -28.339619317608594 131.63567680846768 0 131.63567680846768 459.65910891065187 0 0 0 0 -173.83881250338527 127.99254768511719 0 127.99254768511719 200.21793881480767 0 0 0 0 -127.97918212063087 -43.006239761865004 0 -43.006239761865004 -10.604989772157865 0 0 0 0 -48.561106776905945 124.12152907463741 0 124.12152907463741 -9.9214934269240729 0 0 0 0 124.83893472089039 112.55089198390988 0 112.55089198390988 132.51824933052899 0 0 0 0 -59.83851940329987 50.120828762304882 0 50.120828762304882 292.4911723954574 0 0 0 0 62.243036494686748 327.25285463153307 0 327.25285463153307 352.0460301779658 0 0 0 0 -176.55183553800453 218.67832641468453 0 218.67832641468453 -109.21878853768521 0 0 0 0 -20.825904270674684 14.937099901987668 0 14.937099901987668 -9.9137372357467157 0 0 0 0 -13.429825939885632 351.79553688918054 0 351.79553688918054 461.75070302567701 0 0 0 0 -353.53490251232142 -44.250194537790776 0 -44.250194537790776 -132.9682131583188 0 0 0 0 -360.70977861269785 -143.5616719202676 0 -143.5616719202676 -275.65885788376431 0 0 0 0 179.96414271251342 -182.06433178640873 0 -182.06433178640873 -274.53514450098601 0 0 0 0 -358.24616122763837 -378.91003027451802 0 -378.91003027451802 -136.43643541542906 0 0 0 0 -856.37978611337167 -227.46533767655023 0 -227.46533767655023 -42.043770885112508 0 0 0 0 -359.4509841389372 -161.63514986042264 0 -161.63514986042264 -51.368352703469895 0 0 0 0 -513.72073786832334 52.301174044610661 0 52.301174044610661 -41.838111920310723 0 0 0 0 -764.52508779750497 56.834396232690779 0 56.834396232690779 -28.265102414317994 0 0 0 0 -585.32951947573019 401.9811386743479 0 401.9811386743479 -328.4599675370423 0 0 0 0 -726.41404735223114 40.415509793189642 0 40.415509793189642 -45.588838841897996 0 0 0 0 -1318.9135642443434 129.29800430350929 0 129.29800430350929 -55.305103986109344 0 0 0 0 -671.18219360775402 632.61465795512163 0 632.61465795512163 -776.65804459686819 0 0 0 0 -1008.9288269781609 -376.01221484280347 0 -376.01221484280347 -133.75262801541621 0 0 0 0 118.90214204081713 494.53071194942959 0 494.53071194942959 -617.49445411316856 0 0 0 0 -7.576132448488778 6.1270889397650308 0 6.1270889397650308 -5.3373589152962886 0 0 0 0 -452.60483276280866 -36.806969588502511 0 -36.806969588502511 107.38158883380324 0 0 0 0 -437.68687507311552 -13.385462880047839 0 -13.385462880047839 131.06241230416322 0 0 0 0 -491.20184605007671 48.323391133284346 0 48.323391133284346 163.40157748502065 0 0 0 0 -414.55382160589943 9.7661593496316357 0 9.7661593496316357 144.82107774397187 0 0 0 0 -454.56220290281999 -63.141204224862229 0 -63.141204224862229 195.58446765613243 0 0 0 0 -520.50996576539183 -22.87432998132914 0 -22.87432998132914 223.66538364119756 0 0 0 0 -255.84611017956922 -73.98506038314838 0 -73.98506038314838 109.69983516914213 0 0 0 0 -402.01406745650456 -19.312054577675895 0 -19.312054577675895 120.20361778387223 0 0 0 0 -395.11803360830527 -47.001400313256397 0 -47.001400313256397 113.50174852367013 0 0 0 0 -485.88127995681862 -41.298540727646127 0 -41.298540727646127 113.25084388104432 0 0 0 0 -321.93643992597936 -44.698173174874341 0 -44.698173174874341 74.510375359780369 0 0 0 0 -399.61500703045022 22.920650552976667 0 22.920650552976667 18.105284916546452 0 0 0 0 -483.23986822508778 8.5071490933015639 0 8.5071490933015639 15.63228259242419 0 0 0 0 -567.57555376922392 -126.53583090606571 0 -126.53583090606571 -25.191409209977792 0 0 0 0 -432.32766063005693 -48.709718150249955 0 -48.709718150249955 19.169032055301727 0 0 0 0 -442.72574722982245 -71.388011355794561 0 -71.388011355794561 33.353852594245154 0 0 0 0 -440.23994532947836 -45.170961472366798 0 -45.170961472366798 105.74764063304147 0 0 0 0 -412.24180695992254 -47.610272199899669 0 -47.610272199899669 60.939036512096891 0 0 0 0 -409.11731877549755 -50.067080066503081 0 -50.067080066503081 23.115389301874529 0 0 0 0 -442.70906528983323 -73.834488166268784 0 -73.834488166268784 21.026165754832334 0 0 0 0 -405.90240571464528 -92.615365703468683 0 -92.615365703468683 -42.992222872984712 0 0 0 0 40.132293130962353 -14.995289351835879 0 -14.995289351835879 -108.97635666920013 0 0 0 0 10.035163349493814 -78.52263305014236 0 -78.52263305014236 52.789929987447508 0 0 0 0 -0.29261149682181298 0.6235981451498418 0 0.6235981451498418 -2.0357369231796696 0 0 0 0 -355.83636192407675 -53.918082521980786 0 -53.918082521980786 -28.736872786043932 0 0 0 0 -368.11124504126201 -39.203615283060458 0 -39.203615283060458 8.1579340599635088 0 0 0 0 -352.99533697365223 -85.847906982987126 0 -85.847906982987126 31.152928733117278 0 0 0 0 -21.463249456168342 79.830061718694694 0 79.830061718694694 -23.761000037879228 0 0 0 0 -30.388717161034627 18.240585652439375 0 18.240585652439375 -10.890625928755147 0 0 0 0 -0.57221040585237404 7.3230651965954365 0 7.3230651965954365 -4.6472641247908903 0 0 0 0 -49.35939067156869 180.43954800374649 0 180.43954800374649 325.44033767104111 0 0 0 0 -23.88452271926144 -70.007689592736313 0 -70.007689592736313 -107.99780169555073 0 0 0 0 -101.47981125916704 -43.827248377326796 0 -43.827248377326796 52.872565686559824 0 0 0 0 8.0815706899011275 35.683792895376087 0 35.683792895376087 17.567419524109368 0 0 0 0 -1.7177109087034665 1.7144453326537743 0 1.7144453326537743 -4.2227606158285518 0 0 0 0 -46.088780802775545 83.111731982092294 0 83.111731982092294 6.7217629427596108 0 0 0 0 -13.10965932011095 -11.65459860923788 0 -11.65459860923788 -50.461546564527453 0 0 0 0 -36.755820891456096 -22.505558450764738 0 -22.505558450764738 -11.71504223325519 0 0 0 0 -49.857939985353369 31.550265436614588 0 31.550265436614588 58.65056329989477 0 0 0 0 -24.057991841968033 1.324084923107705 0 1.324084923107705 20.950626934924344 0 0 0 0 -340.94018519637029 -5.7711142756812137 0 -5.7711142756812137 82.109045634673748 0 0 0 0 -353.43135130306473 -26.461530788116761 0 -26.461530788116761 67.521685205688129 0 0 0 0 -260.1409023143824 -100.72958928967228 0 -100.72958928967228 31.133908071152973 0 0 0 0 -79.422204177477397 -43.537929948731858 0 -43.537929948731858 2.1054661361046101 0 0 0 0 -209.66869194737228 63.664998408841853 0 63.664998408841853 50.420793821659004 0 0 0 0 -377.20432059832092 68.036582834294819 0 68.036582834294819 105.60263403807562 0 0 0 0 -270.86447363405023 -26.578824603597241 0 -26.578824603597241 87.102738843815928 0 0 0 0 -483.24440962860535 171.40518768396421 0 171.40518768396421 89.226201813898911 0 0 0 0 -259.23072936736025 92.744314427283456 0 92.744314427283456 102.59532630407955 0 0 0 0 -255.24153959075829 71.567347346587155 0 71.567347346587155 50.461237988768744 0 0 0 0 -124.62736574774317 101.75073388753341 0 101.75073388753341 -6.3140550549389616 0 0 0 0 -120.9848444979616 13.4302927095884 0 13.4302927095884 112.6666249153204 0 0 0 0 -87.223275931828539 18.222663778334379 0 18.222663778334379 43.257525779834069 0 0 0 0 -178.50356755240864 182.03893175941906 0 182.03893175941906 -59.182674189156209 0 0 0 0 3.6120082414108765 -1.5342886668693296 0 -1.5342886668693296 16.27171639796029 0 0 0 0 -3.0817767805273633 0.74360281289487062 0 0.74360281289487062 -0.26863283707298891 0 0 0 0 -115.48350606029635 61.689715643240483 0 61.689715643240483 92.636140795549835 0 0 0 0 -14.369238281215075 0.30493829377894599 0 0.30493829377894599 -5.421679610011779 0 0 0 0 -15.5979356248572 1.0483787290056625 0 1.0483787290056625 1.3474799135619833 0 0 0 0 -16.504175521473371 -6.4860124776154748 0 -6.4860124776154748 -22.91393169593448 0 0 0 0 -4.8375161427749163 1.6673751708980831 0 1.6673751708980831 -2.371055143890139 0 0 0 0 6.2662290599837434 -11.180005249537317 0 -11.180005249537317 -21.991933161411907 0 0 0 0 -1.522875762436982 -0.35683335350121581 0 -0.35683335350121581 2.0977541393019852 0 0 0 0 -8.941962926083022 -3.4548302049217483 0 -3.4548302049217483 -1.5699131315366279 0 0 0 0 -7.9591281265493308 0.23527577815229961 0 0.23527577815229961 -25.297842145639606 0 0 0 0 157.58586619897687 -191.27721117464125 0 -191.27721117464125 -36.728871339225691 0 0 0 0 620.28242011305701 68.230598158219664 0 68.230598158219664 -583.0307203715538 0 0 0 0 -251.54604808984732 211.99368599739492 0 211.99368599739492 -70.069359450354355 0 0 0 0 -3.4592106523778057 0.81225425420961983 0 0.81225425420961983 -25.223867441336324 0 0 0 0 459.11508500778109 918.46382657188167 0 918.46382657188167 -932.84715361869303 0 0 0 0 -1235.7591352614781 129.6736066586156 0 129.6736066586156 191.10562955220612 0 0 0 0 -665.02828596332256 930.13063548404148 0 930.13063548404148 -291.53168855450588 0 0 0 0 -530.68881498528935 70.031214861478503 0 70.031214861478503 195.65176828022567 0 0 0 0 -624.86406747647197 5.4411019062374635 0 5.4411019062374635 220.26072197307354 0 0 0 0 -496.04803418189113 59.842183032473827 0 59.842183032473827 169.53837275466634 0 0 0 0 -345.98500653999872 -250.76212404235841 0 -250.76212404235841 58.502269271025227 0 0 0 0 27.344966950890012 72.960348932651598 0 72.960348932651598 131.00429102314854 0 0 0 0 -330.62928692487912 411.32853496015935 0 411.32853496015935 -107.81881612558664 0 0 0 0 -757.42517321856576 -256.55454915194872 0 -256.55454915194872 67.676670295844062 0 0 0 0 -10.369463844153898 6.1918645769377569 0 6.1918645769377569 -3.583169406522325 0 0 0 0 -564.63084606507618 2.7834726849291656 0 2.7834726849291656 -79.687504659796105 0 0 0 0 -673.70873979373573 539.49244897797826 0 539.49244897797826 -19.357041661013682 0 0 0 0 -7.96277137771051 -2.3339644180417238 0 -2.3339644180417238 0.87947401304585604 0 0 0 0 -3.748088342443225 -28.454665239304632 0 -28.454665239304632 -146.25319604942229 0 0 0 0 -1251.5820053185635 155.65028525736693 0 155.65028525736693 66.99749435641138 0 0 0 0 -28.470876753613993 48.82313797032748 0 48.82313797032748 -103.4287495338267 0 0 0 0 -38.98079043119651 -161.20269014012592 0 -161.20269014012592 -109.05743466495005 0 0 0 0 -43.244315279596776 -139.54001138087369 0 -139.54001138087369 29.358791628026665 0 0 0 0 -435.83963971267076 398.7532344506717 0 398.7532344506717 -272.09184375731138 0 0 0 0 -647.41380858115372 225.49599373881256 0 225.49599373881256 75.34040173005269 0 0 0 0 -7.3466423102210285 -2.0802487687736573 0 -2.0802487687736573 -0.17537015583394222 0 0 0 0 -501.5765396361503 146.79233218094532 0 146.79233218094532 106.46275978817903 0 0 0 0 53.547420722185052 40.155109703444396 0 40.155109703444396 -163.71551607282709 0 0 0 0 118.41743222704099 -115.41602252752273 0 -115.41602252752273 -31.43070398065538 0 0 0 0 -74.884512577998976 7.6002025542275078 0 7.6002025542275078 168.35810551037503 0 0 0 0 3.5870516662694172 -8.6162767649610714 0 -8.6162767649610714 12.371689693381086 0 0 0 0 13.017402923200279 -283.46789167580573 0 -283.46789167580573 191.29895769959148 0 0 0 0 -33.096638249230139 -4.1600377089798073 0 -4.1600377089798073 3.8899576792870825 0 0 0 0 120.18412995713879 -234.47327561578732 0 -234.47327561578732 -130.45352880138182 0 0 0 0 2.097379100602808 3.1762563685336147 0 3.1762563685336147 1.1623885661464044 0 0 0 0 24.619875063202926 47.903786502215553 0 47.903786502215553 -22.750819540004159 0 0 0 0 -125.85669792679255 -84.067672976854737 0 -84.067672976854737 -45.683984829736801 0 0 0 0 -53.395687944379461 3.478314823976234 0 3.478314823976234 -4.8222672786414478 0 0 0 0 -23.217444288825263 17.284454437602278 0 17.284454437602278 7.202408338823723 0 0 0 0 -154.72119459719397 8.4115484460285188 0 8.4115484460285188 37.290165988713852 0 0 0 0 7.5640317886145567 20.99228665357964 0 20.99228665357964 -7.950501355844608 0 0 0 0 -64.310954124855925 57.464899375329878 0 57.464899375329878 3.5617854743431963 0 0 0 0 67.718244500912988 -139.33399872112386 0 -139.33399872112386 68.499249585902362 0 0 0 0 93.165486640893505 -57.252964846140458 0 -57.252964846140458 -47.725649961801082 0 0 0 0 -116.31372066108452 -94.361146058026861 0 -94.361146058026861 -12.223427141860043 0 0 0 0 -37.760353878918721 -11.76779459124942 0 -11.76779459124942 1.6969668730806262 0 0 0 0 25.921761577439611 -69.429905373308429 0 -69.429905373308429 84.988439776891482 0 0 0 0 -25.045218741237477 -0.18295685262091865 0 -0.18295685262091865 47.457984128974203 0 0 0 0 -29.467233617198374 -18.590996590879946 0 -18.590996590879946 -4.0883698045820687 0 0 0 0 399.06709445952583 -152.38035203667732 0 -152.38035203667732 -188.69539719184922 0 0 0 0 -72.872061282389041 -83.081822570652548 0 -83.081822570652548 120.82031757947789 0 0 0 0 -4.7762365772136377 2.1115129018621559 0 2.1115129018621559 0.055316914708463116 0 0 0 0 -10.291291050343382 -1.606571797501914 0 -1.606571797501914 4.4515011414100769 0 0 0 0 -23.291660512542876 6.3395903253513097 0 6.3395903253513097 65.195056924409073 0 0 0 0 55.010260076812983 -33.421148838358747 0 -33.421148838358747 -3.4030138627131237 0 0 0 0 -16.800677034106513 -8.3772962145669041 0 -8.3772962145669041 -4.8939349655612432 0 0 0 0 -63.113122069931705 76.176883804833778 0 76.176883804833778 35.115586594099113 0 0 0 0 -47.063255294517148 -97.830805133853573 0 -97.830805133853573 121.40520390327765 0 0 0 0 -768.11190127150621 -321.82924165571239 0 -321.82924165571239 869.24242453581246 0 0 0 0 274.33577245177003 -151.98767063287141 0 -151.98767063287141 107.01525729934292 0 0 0 0 55.838098645827245 6.0151617876330192 0 6.0151617876330192 21.194738560629048 0 0 0 0 25.942451215087203 -8.518271866343639 0 -8.518271866343639 14.355520831184549 0 0 0 0 9.2296273334359284 5.0860171877829998 0 5.0860171877829998 9.2390232287546041 0 0 0 0 22.154199668155343 -15.046167942386546 0 -15.046167942386546 -15.890041945807752 0 0 0 0 -14.115657756876317 -8.2631696321022901 0 -8.2631696321022901 1.6383544892996724 0 0 0 0 23.838613332700334 -2.4847135058871572 0 -2.4847135058871572 -32.720254537360233 0 0 0 0 14.167677832563641 -19.106080038615801 0 -19.106080038615801 -17.947006379894447 0 0 0 0 17.675296139947022 -19.295585974399273 0 -19.295585974399273 1.6225736939341004 0 0 0 0 19.046968788316008 2.6653278638905249 0 2.6653278638905249 -8.8501914199414387 0 0 0 0 46.55330617412983 -17.548110041730069 0 -17.548110041730069 -16.153287138444284 0 0 0 0 13.282431297426228 -6.5937880283672712 0 -6.5937880283672712 -20.09059237274414 0 0 0 0 25.75274776063452 -23.11042400312067 0 -23.11042400312067 -3.1556211454771983 0 0 0 0 2.4493189724889817 2.7222991748858476 0 2.7222991748858476 -27.360652921329347 0 0 0 0 19.999403275971417 -5.6850291253454088 0 -5.6850291253454088 -24.726470552353931 0 0 0 0 -7.4052904970303643 12.691156110300653 0 12.691156110300653 -25.534496013192211 0 0 0 0 -26.259857346644367 4.8947865946893359 0 4.8947865946893359 -18.629860290131546 0 0 0 0 19.249272631393978 -60.741739283824927 0 -60.741739283824927 24.314367451027465 0 0 0 0 -12.761735516973204 -38.407433949420295 0 -38.407433949420295 26.026560707266071 0 0 0 0 -3.7787485619883228 -18.683697721207864 0 -18.683697721207864 -13.006672448040263 0 0 0 0 34.076902893921215 -40.843025510103871 0 -40.843025510103871 1.3976437795354286 0 0 0 0 12.584507354506059 -24.959390532814723 0 -24.959390532814723 2.1634690908124981 0 0 0 0 0.7796620625849755 -10.153603568725657 0 -10.153603568725657 -16.364932864436923 0 0 0 0 -11.753864498452458 -12.567692713809379 0 -12.567692713809379 25.567571914999348 0 0 0 0 -3.4052634172566911 -11.72418421638875 0 -11.72418421638875 7.1500364863289612 0 0 0 0 -6.174646744710742 -3.2073987404614996 0 -3.2073987404614996 3.6969047022394688 0 0 0 0 -37.820911660390266 38.690195091893315 0 38.690195091893315 1.5665703227979293 0 0 0 0 -54.197099490862456 24.914123528828441 0 24.914123528828441 73.962685709229277 0 0 0 0 -43.582701859009831 -31.096018541234344 0 -31.096018541234344 83.73256052584793 0 0 0 0 -20.556359819701356 -10.402330357030429 0 -10.402330357030429 -0.67194761414384452 0 0 0 0 -16.993136217060965 -31.408704863120875 0 -31.408704863120875 14.504779003167073 0 0 0 0 -26.001426884955436 -16.579954262454407 0 -16.579954262454407 28.896614384322106 0 0 0 0 -16.078783766333032 0.66835440059750795 0 0.66835440059750795 27.174670184462702 0 0 0 0 -56.146205629956967 69.883954339504271 0 69.883954339504271 -47.241780383730656 0 0 0 0 -88.317805906997819 -126.60263468921858 0 -126.60263468921858 25.00917203562858 0 0 0 0 -35.963653190759942 -132.8653489091721 0 -132.8653489091721 103.88241802881566 0 0 0 0 -76.863299216631276 -8.067890159453782 0 -8.067890159453782 18.412105941937625 0 0 0 0 -234.1802490294649 58.479690840043986 0 58.479690840043986 37.486371349203182 0 0 0 0 -73.868430563587935 -57.129890611821622 0 -57.129890611821622 4.812103867658152 0 0 0 0 -93.359154829813633 -29.54309797865244 0 -29.54309797865244 -4.8106316562398206 0 0 0 0 -5.1817609737179566 1.2813539776317455 0 1.2813539776317455 7.3659091584862466 0 0 0 0 -11.23494991986081 4.4161450475098718 0 4.4161450475098718 -12.08267376126787 0 0 0 0 -2.8169673538286659 -0.38743598710922811 0 -0.38743598710922811 4.508292296132371 0 0 0 0 -33.799438920083048 -2.9455337861318185 0 -2.9455337861318185 10.0933176347271 0 0 0 0 -72.068612102233146 -18.202435020520682 0 -18.202435020520682 -25.66424684395497 0 0 0 0 -81.178419466137711 -25.932992252217218 0 -25.932992252217218 -4.068416032654568 0 0 0 0 -6.5035842027523794 0.5212100881050219 0 0.5212100881050219 -0.19370364603933865 0 0 0 0 -49.308983785209421 1.5065440736605069 0 1.5065440736605069 -2.2152369001942134 0 0 0 0 -57.892041179315129 -9.3415498474525975 0 -9.3415498474525975 -15.428817789113964 0 0 0 0 -108.87115612987691 10.455917925446556 0 10.455917925446556 -9.0120056425594157 0 0 0 0 -84.581788486713776 -11.869717748917083 0 -11.869717748917083 -15.830027468793674 0 0 0 0 -108.3150047755189 -23.415661511817234 0 -23.415661511817234 -33.008318032829806 0 0 0 0 -166.7105424517901 -14.72969290517306 0 -14.72969290517306 -0.33948120400964399 0 0 0 0 -98.889230130082069 9.4228630930690542 0 9.4228630930690542 -10.353310017231706 0 0 0 0 -72.184534958956647 10.767953351381038 0 10.767953351381038 -3.9032790234163031 0 0 0 0 -34.798201207478996 -17.586940463948849 0 -17.586940463948849 -8.9555443742144689 0 0 0 0 -77.649507033009286 7.2658462799126937 0 7.2658462799126937 -8.5140034345749882 0 0 0 0 -34.992600742523791 -8.4286846190912001 0 -8.4286846190912001 -12.182656832450789 0 0 0 0 -84.130948681384325 7.2403629884483962 0 7.2403629884483962 0.13440404067750933 0 0 0 0 -84.265490673344175 14.182319682473462 0 14.182319682473462 -6.3582425836693801 0 0 0 0 -136.89331198549917 0.79062650220566866 0 0.79062650220566866 3.8721430621394575 0 0 0 0 -130.28653756140193 22.48390797355114 0 22.48390797355114 10.636079763493399 0 0 0 0 -118.55368504429134 1.1853850503093781 0 1.1853850503093781 8.6611181276248317 0 0 0 0 -69.08827437760192 26.561076792805125 0 26.561076792805125 -1.6652876860921424 0 0 0 0 -15.023257396336703 -1.9803273833260846 0 -1.9803273833260846 -11.766145430460483 0 0 0 0 -65.05303278046631 -166.44153742112033 0 -166.44153742112033 178.13931585708383 0 0 0 0 -13.884173128607401 -7.045601526756009 0 -7.045601526756009 -3.2410641564507765 0 0 0 0 55.581567296958383 -13.389069981785752 0 -13.389069981785752 -34.818238157102542 0 0 0 0 -82.212679440890497 27.057823663573174 0 27.057823663573174 -32.640467991708647 0 0 0 0 -89.640698859773693 -0.43152082736651209 0 -0.43152082736651209 7.9050796193155861 0 0 0 0 156.49906696531252 -78.054778253682514 0 -78.054778253682514 -78.308185664157918 0 0 0 0 98.91871239804459 30.021468125926447 0 30.021468125926447 -93.643214876891761 0 0 0 0 -69.052130068914266 81.740860784540871 0 81.740860784540871 -72.303712119429747 0 0 0 0 -103.35103955599334 -12.456647035399328 0 -12.456647035399328 -16.352125152298868 0 0 0 0 -51.917109301422897 -63.053746006883898 0 -63.053746006883898 -41.062479075597821 0 0 0 0 -5.0264193411021552 -5.4161615388696873 0 -5.4161615388696873 -20.697657565448026 0 0 0 0 -4.7647261674869696 -3.348487645615819 0 -3.348487645615819 0.45354460451559531 0 0 0 0 -183.3839728195162 8.6838335549804242 0 8.6838335549804242 36.351875487642985 0 0 0 0 -38.772013066081854 18.063506297345384 0 18.063506297345384 36.503229171774038 0 0 0 0 -102.81657998873379 138.30590607426959 0 138.30590607426959 -60.27563078520302 0 0 0 0 -43.278578058212588 -40.77904034068888 0 -40.77904034068888 -5.2750875191431987 0 0 0 0 -209.39843760779331 -25.638181506446358 0 -25.638181506446358 193.09257638803672 0 0 0 0 -1.3526671555607948 -0.90970132852230989 0 -0.90970132852230989 -1.1056693019323309 0 0 0 0 1.4009160891218926 -28.416531827029303 0 -28.416531827029303 -9.6804986536765227 0 0 0 0 -5.8429055062006228 -12.488972416129741 0 -12.488972416129741 -0.39490565048117787 0 0 0 0 -0.054081352603816413 -0.85968583617317762 0 -0.85968583617317762 11.075812509252273 0 0 0 0 -5.4887738785982947 -8.8955948761125683 0 -8.8955948761125683 8.8920953560940461 0 0 0 0 -12.375348103214492 -16.193832464651763 0 -16.193832464651763 10.634213358353463 0 0 0 0 -13.742817585614432 -7.1796749275713765 0 -7.1796749275713765 1.9044862607761024 0 0 0 0 -17.955532549567579 -2.75868911641453 0 -2.75868911641453 8.5734039918552298 0 0 0 0 9.1833361363605945 22.183480683419589 0 22.183480683419589 -32.57944547543616 0 0 0 0 -24.390161279741733 15.431069198854289 0 15.431069198854289 16.397653493729592 0 0 0 0 -20.838065096679202 18.286452373035672 0 18.286452373035672 -6.0717677446748866 0 0 0 0 -9.567415070021525 -26.120866560180048 0 -26.120866560180048 3.1871016359615396 0 0 0 0 -2.3470293772334117 -15.59337777172334 0 -15.59337777172334 2.3422271017213916 0 0 0 0 -44.298188430519076 -64.073159792211982 0 -64.073159792211982 7.6928925767654164 0 0 0 0 -18.214150630752812 -9.1775709405217043 0 -9.1775709405217043 -1.8014639338854193 0 0 0 0 -31.283784065657528 -3.3065133597384033 0 -3.3065133597384033 8.378082772398102 0 0 0 0 -86.174058131582569 4.1491647517175778 0 4.1491647517175778 -14.166264554076903 0 0 0 0 -17.732585458879427 2.6362103865114861 0 2.6362103865114861 -2.8045481306302542 0 0 0 0 -123.69035129122494 -55.467377887878513 0 -55.467377887878513 26.221969016064349 0 0 0 0 5.7174445887867478 -6.1729572505188344 0 -6.1729572505188344 -21.222722722204367 0 0 0 0 -0.18193121128570056 -26.048394857755511 0 -26.048394857755511 -22.137614788900692 0 0 0 0 -80.091837246669456 37.322856183912165 0 37.322856183912165 -22.455424809574112 0 0 0 0 -0.94431665696291134 -0.012828386552058646 0 -0.012828386552058646 0.4211812414894347 0 0 0 0 -18.614279223394988 -26.931979384098966 0 -26.931979384098966 -21.926118755632835 0 0 0 0 -21.370826949147158 -8.7142181720733873 0 -8.7142181720733873 -21.444153088041709 0 0 0 0 -31.553821762365999 11.4648692041369 0 11.4648692041369 -4.3194872276694252 0 0 0 0 -117.98662813326882 15.109795163585204 0 15.109795163585204 245.58128455798123 0 0 0 0 1.9571058314213587 91.100798389891679 0 91.100798389891679 202.40343940417483 0 0 0 0 -34.530227757932153 3.0568720024834874 0 3.0568720024834874 5.261315446980916 0 0 0 0 -49.057426059431769 -4.365434836529289 0 -4.365434836529289 3.2624858406489063 0 0 0 0 -62.526597878902976 -113.0186219792613 0 -113.0186219792613 73.94653735860129 0 0 0 0 -78.955628307507141 -46.556231905352433 0 -46.556231905352433 178.55552441746568 0 0 0 0 -69.209094548319868 -26.548343610228997 0 -26.548343610228997 2.6752001917470638 0 0 0 0 -52.425778439377609 -136.74026262789971 0 -136.74026262789971 -71.790486694498441 0 0 0 0 -2.7959284968118254 -9.2433454711839751 0 -9.2433454711839751 0.52454267070957927 0 0 0 0 -129.21396161758821 31.035515407787102 0 31.035515407787102 2.9804781813809313 0 0 0 0 -240.54910232791008 -5.5515523401205655 0 -5.5515523401205655 29.1317472105153 0 0 0 0 -92.238439672397362 -35.48544941835064 0 -35.48544941835064 31.090682741604724 0 0 0 0 -105.3699578476444 -18.05821775392144 0 -18.05821775392144 -12.042667121283557 0 0 0 0 -9.8540790390943584 -34.722311090766425 0 -34.722311090766425 -12.920922127672156 0 0 0 0 -29.532550392778688 -8.4724277466266358 0 -8.4724277466266358 -0.9635374601066613 0 0 0 0 -27.004456759474124 32.108229909827287 0 32.108229909827287 56.003157696109611 0 0 0 0 -15.768347302131588 29.445373423934825 0 29.445373423934825 22.215059121625814 0 0 0 0 -11.012881520024706 -2.962448736187099 0 -2.962448736187099 1.722113441808502 0 0 0 0 -170.69077171667595 -13.044442187601589 0 -13.044442187601589 49.209932807674306 0 0 0 0 -159.50830021189904 -69.328437027333962 0 -69.328437027333962 52.557400958177595 0 0 0 0 -110.02364381319057 -97.738778302397122 0 -97.738778302397122 -52.237751819365485 0 0 0 0 -222.60680504879565 -97.444564338858413 0 -97.444564338858413 42.960512709652676 0 0 0 0 -253.46773000100075 31.421332090377064 0 31.421332090377064 64.681555527496016 0 0 0 0 -223.8451763277626 50.871675581018508 0 50.871675581018508 -30.201966992172402 0 0 0 0 -0.0064720904006634328 0.27624641770170655 0 0.27624641770170655 0.067322583912682532 0 0 0 0 58.248314393786131 74.861073422491131 0 74.861073422491131 -48.901747946671549 0 0 0 0 -55.025757374402019 32.444274437351851 0 32.444274437351851 65.129571622552817 0 0 0 0 -147.30194870261766 7.429580438631092 0 7.429580438631092 72.420902763521553 0 0 0 0 -103.4488915476104 35.584474832930937 0 35.584474832930937 29.546092865326834 0 0 0 0 -99.075867689081861 -78.342907588076855 0 -78.342907588076855 22.814519308847593 0 0 0 0 -57.428433936138049 25.167560005739649 0 25.167560005739649 15.638862249887097 0 0 0 0 -140.27429138825937 -25.620461741249073 0 -25.620461741249073 4.838308767687522 0 0 0 0 -99.744626104642521 -0.11010909017181802 0 -0.11010909017181802 5.722319292226075 0 0 0 0 -68.423014430195877 22.966059565618938 0 22.966059565618938 15.389030535196959 0 0 0 0 -154.18144288259646 -2.7846481620704253 0 -2.7846481620704253 3.1703527497811592 0 0 0 0 -12.5019959875982 -0.029156991202768268 0 -0.029156991202768268 1.1274396784318572 0 0 0 0 -49.434224920376437 -65.960229315346623 0 -65.960229315346623 -2.5868209963027766 0 0 0 0 -72.539466603047913 53.617787898391612 0 53.617787898391612 -33.467638616723207 0 0 0 0 -124.54960369464243 27.453368089476953 0 27.453368089476953 8.2520074694162986 0 0 0 0 -4.8005605126563751 -9.6417009872287736 0 -9.6417009872287736 15.309181742201645 0 0 0 0 -36.919839038069853 23.012005892781509 0 23.012005892781509 4.8932849228076076 0 0 0 0 -109.87162978314882 8.1950906723705543 0 8.1950906723705543 -7.0310915087204648 0 0 0 0 -68.64064603040606 41.173588051564707 0 41.173588051564707 -10.544301302999344 0 0 0 0 -59.27987464886246 16.966299987579475 0 16.966299987579475 -0.110605225760537 0 0 0 0 -110.95584764429168 -13.535902996884781 0 -13.535902996884781 7.4451789558088137 0 0 0 0 -79.246370398179351 -10.935175013019208 0 -10.935175013019208 2.1703804348026381 0 0 0 0 -62.971200331005093 6.4481584774508747 0 6.4481584774508747 -3.7100390488308221 0 0 0 0 -34.663359375086557 19.198569716956641 0 19.198569716956641 11.530474577394575 0 0 0 0 -98.494279264799843 0.38082908295882589 0 0.38082908295882589 3.8674933653180688 0 0 0 0 -100.23184317193954 -6.4718021793476055 0 -6.4718021793476055 9.3627385955278513 0 0 0 0 -93.038709011474566 -13.904053772686666 0 -13.904053772686666 -8.9485798329765203 0 0 0 0 -49.048417891935969 -125.17048796597169 0 -125.17048796597169 -16.161872878064059 0 0 0 0 -17.030412525311426 -31.551252356342474 0 -31.551252356342474 1.3990120717306711 0 0 0 0 -141.71600727527402 2.5348633438161414 0 2.5348633438161414 8.0798104460695868 0 0 0 0 -757.79174099559896 -250.34643637903253 0 -250.34643637903253 285.71576199034155 0 0 0 0 -20.975559936798398 -30.199180095803143 0 -30.199180095803143 -0.64019615656093709 0 0 0 0 135.04192118577885 -14.466249675889571 0 -14.466249675889571 -85.296037568036354 0 0 0 0 -324.6139288475315 448.69269674800137 0 448.69269674800137 -263.22307656296937 0 0 0 0 -191.91907754352724 -93.725786530951723 0 -93.725786530951723 7.6002881695881115 0 0 0 0 -202.82280976673064 -96.729215818401144 0 -96.729215818401144 95.19181885850935 0 0 0 0 -223.07986331329448 -182.97655207268951 0 -182.97655207268951 16.672497769453003 0 0 0 0 -356.67088327308329 -151.40631497782965 0 -151.40631497782965 84.765499994240599 0 0 0 0 -13.059048996525235 -114.51116082892145 0 -114.51116082892145 6.7135906471402222 0 0 0 0 -5.8111089417485431 -2.4760656848796785 0 -2.4760656848796785 -0.71392776504005573 0 0 0 0 28.550555683243147 -220.73458006713975 0 -220.73458006713975 21.052461483242723 0 0 0 0 -359.85547591975774 259.47460358383159 0 259.47460358383159 -80.235719301439985 0 0 0 0 -153.56288635998499 96.238432420483605 0 96.238432420483605 -98.512391327018122 0 0 0 0 -256.20746366322055 55.614789969118647 0 55.614789969118647 35.086462617449797 0 0 0 0 -180.00729830257478 13.863562845995602 0 13.863562845995602 41.740650698564536 0 0 0 0 -91.303636714546883 10.632558193612113 0 10.632558193612113 -4.6288789730854205 0 0 0 0 -85.691790347256756 -58.587935463003532 0 -58.587935463003532 23.908820375716004 0 0 0 0 -144.82510512104272 -7.9100731314157429 0 -7.9100731314157429 37.193041232949781 0 0 0 0 -15.933452573022826 -30.409019499989327 0 -30.409019499989327 7.0133554901355524 0 0 0 0 -182.35185026335967 4.3160363676543056 0 4.3160363676543056 28.751423952849564 0 0 0 0 -180.7796424226035 28.169330361363336 0 28.169330361363336 11.60814878164183 0 0 0 0 -165.13314146036282 -5.2657956891866888 0 -5.2657956891866888 0.7356739372944503 0 0 0 0 -141.32306909149065 23.564296147947402 0 23.564296147947402 -9.2774800080451314 0 0 0 0 -91.371172992759966 -25.746780413667693 0 -25.746780413667693 12.566984276447783 0 0 0 0 -81.303778534376761 -28.031833261543852 0 -28.031833261543852 4.6331999344224641 0 0 0 0 -74.315132528143295 -24.163815130413241 0 -24.163815130413241 6.4354135604053226 0 0 0 0 -69.581468346637848 -1.315321083698791 0 -1.315321083698791 1.7972138114537302 0 0 0 0 -86.266308320540475 -12.748852500338558 0 -12.748852500338558 3.538048450723748 0 0 0 0 -84.767734786379151 -22.252343155517337 0 -22.252343155517337 14.092518476173609 0 0 0 0 -29.735874400949186 -26.584260203252043 0 -26.584260203252043 11.823836392787051 0 0 0 0 -82.427646828407887 -0.72694640772624552 0 -0.72694640772624552 8.3695191624829022 0 0 0 0 -63.003524364845362 -20.991948514503747 0 -20.991948514503747 13.976093191980908 0 0 0 0 -177.35409747463564 15.962506734485942 0 15.962506734485942 7.4497267189062768 0 0 0 0 -19.61312618170632 6.5724636589138754 0 6.5724636589138754 10.786192163224769 0 0 0 0 -166.9907002885173 17.940658498877866 0 17.940658498877866 -24.171648329534946 0 0 0 0 -92.126719732985677 -0.34627197937223286 0 -0.34627197937223286 23.388591982121344 0 0 0 0 7.0252882238633561 -28.647892005979109 0 -28.647892005979109 -1.8500025993743723 0 0 0 0 -83.680096206488088 -6.4124263476551278 0 -6.4124263476551278 -54.201393793220632 0 0 0 0 0.080679197632747446 -64.646532315033824 0 -64.646532315033824 -10.316776315831223 0 0 0 0 -30.734395333945798 -35.32307163366746 0 -35.32307163366746 7.9310293482513714 0 0 0 0 23.307576675375458 -60.302580010917154 0 -60.302580010917154 32.883242503128713 0 0 0 0 -1.1050317794618252 -0.38663233594992619 0 -0.38663233594992619 2.3040062871644142 0 0 0 0 -25.219902786455116 0.26237321376912348 0 0.26237321376912348 1.1773569664424617 0 0 0 0 -94.146492471932618 -5.4678617239790448 0 -5.4678617239790448 3.6299907121759021 0 0 0 0 -144.09755443094764 8.7548902696125879 0 8.7548902696125879 17.091632040438981 0 0 0 0 -143.10394588867348 3.2589706334640596 0 3.2589706334640596 13.393811588618917 0 0 0 0 -22.299727362540523 0.13932853923334676 0 0.13932853923334676 7.2791809338580631 0 0 0 0 -109.71580616298161 -9.7550851788172395 0 -9.7550851788172395 4.6501156486342552 0 0 0 0 -129.94870901332615 20.128409671144809 0 20.128409671144809 31.796121616480605 0 0 0 0 -84.999956163330353 -10.5702238381391 0 -10.5702238381391 11.697049125092008 0 0 0 0 -7.6120317978796948 -1.357715558197512 0 -1.357715558197512 14.827375112036478 0 0 0 0 -73.153796340884583 53.787426353534585 0 53.787426353534585 -55.716421278444614 0 0 0 0 -173.34601217758609 22.704713263039139 0 22.704713263039139 18.813665226422927 0 0 0 0 1.3989611158362116 -0.33057176224568252 0 -0.33057176224568252 0.35761179718772418 0 0 0 0 4.4418660161172738 -44.41596966491602 0 -44.41596966491602 -10.407591168822819 0 0 0 0 -88.902609821219812 -8.5941499854341785 0 -8.5941499854341785 12.844421435523827 0 0 0 0 -17.507297789914098 -25.255227206713997 0 -25.255227206713997 2.7505495544654135 0 0 0 0 -205.47402114875149 14.543545142111498 0 14.543545142111498 28.518436636592618 0 0 0 0 -302.74211932442267 -116.83786536198329 0 -116.83786536198329 25.633357150014866 0 0 0 0 -135.96163838507346 75.329524659318395 0 75.329524659318395 72.858437980128656 0 0 0 0 -63.562507113332686 -31.408342386153436 0 -31.408342386153436 6.4840946122712921 0 0 0 0 -183.3752721728888 -44.814139431547346 0 -44.814139431547346 126.84347825028317 0 0 0 0 -83.938664326298749 -121.6623923908478 0 -121.6623923908478 -25.889836519651908 0 0 0 0 -88.317455545256962 -142.13361169593441 0 -142.13361169593441 -118.87947829695986 0 0 0 0 -182.88476364966482 -3.676309038486238 0 -3.676309038486238 9.4868649084346544 0 0 0 0 -2.3683043094685674 -1.0786648491142614 0 -1.0786648491142614 11.717182282738419 0 0 0 0 -177.05185390403494 105.5752451573797 0 105.5752451573797 -258.34244253602947 0 0 0 0 -8.7261199032740251 -0.42415108608889796 0 -0.42415108608889796 0.26105222074800771 0 0 0 0 -1.6076250178999345 0.54845361531545223 0 0.54845361531545223 0.63760047610084047 0 0 0 0 -392.27729513330269 14.089372140120076 0 14.089372140120076 358.41020121428369 0 0 0 0 -270.71308481993037 118.67949355206611 0 118.67949355206611 47.474588853095725 0 0 0 0 -19.677334727183428 15.38362596332189 0 15.38362596332189 0.53027614891578789 0 0 0 0 -24.576894980905145 -12.179133832711273 0 -12.179133832711273 8.7521632353575924 0 0 0 0 -158.89076986709551 27.295764092874037 0 27.295764092874037 49.346927596788035 0 0 0 0 -115.22457167285756 -16.036502335548107 0 -16.036502335548107 36.448123558899169 0 0 0 0 -89.712022793632059 2.12544324645296 0 2.12544324645296 2.8945779423902422 0 0 0 0 -200.47523225288751 -37.522447245059595 0 -37.522447245059595 82.839336293807264 0 0 0 0 22.05275973235257 -203.27472552340305 0 -203.27472552340305 83.978704733628206 0 0 0 0 24.164029360086715 -4.723918876695592 0 -4.723918876695592 -116.21848144583879 0 0 0 0 -53.253411062702071 -24.892759431440936 0 -24.892759431440936 -33.017669924435097 0 0 0 0 -56.066793088517443 -46.53894749485363 0 -46.53894749485363 -169.04231367293141 0 0 0 0 -302.49775367336406 -57.704335572657328 0 -57.704335572657328 -82.892178983943722 0 0 0 0 4.3005772542237537 -58.27907170440713 0 -58.27907170440713 69.71243656274612 0 0 0 0 94.03543798152532 102.57373901099345 0 102.57373901099345 43.974091542698943 0 0 0 0 -4.7114242875799732 21.367083412920834 0 21.367083412920834 0.58636192658600805 0 0 0 0 -44.289482373402279 -120.7510911265033 0 -120.7510911265033 -115.93657593546345 0 0 0 0 -809.90619115325535 372.03485460664535 0 372.03485460664535 73.718206924822312 0 0 0 0 -110.41405996179674 7.2605394841573343 0 7.2605394841573343 4.1771160363555282 0 0 0 0 -112.52239936986007 8.0180004586457017 0 8.0180004586457017 8.4441752375811916 0 0 0 0 -94.602552933647956 0.98146298510233443 0 0.98146298510233443 6.504168248825752 0 0 0 0 -132.97521698495984 6.3744200317753439 0 6.3744200317753439 9.2057054120232351 0 0 0 0 -25.464289554757428 0.42067066849324419 0 0.42067066849324419 -1.9048012498228237 0 0 0 0 -223.04743549207342 -3.6753495880780065 0 -3.6753495880780065 4.0551989458660955 0 0 0 0 -76.939821514071724 18.459162445777867 0 18.459162445777867 7.6401687683817077 0 0 0 0 -3493.2324862588212 1532.473459169719 0 1532.473459169719 192.21431532992645 0 0 0 0 -1232.8588868939041 619.56907172075557 0 619.56907172075557 -152.07118990449112 0 0 0 0 -727.14836584551085 483.42163342363699 0 483.42163342363699 -202.82533552219465 0 0 0 0 36.711896165194048 -235.29046538992225 0 -235.29046538992225 -238.96169578551917 0 0 0 0 -280.34354007932416 408.57961701464046 0 408.57961701464046 -811.13478559898704 0 0 0 0 -15.68058355065034 8.6711215278350053 0 8.6711215278350053 -7.8195339602048337 0 0 0 0 39.519341598002939 832.17647688977149 0 832.17647688977149 -1230.5854702789356 0 0 0 0 -1402.7363476816381 1943.6586945522088 0 1943.6586945522088 -1220.6701949561943 0 0 0 0 -3496.8179086006494 -1812.9171276382169 0 -1812.9171276382169 -579.61511882150626 0 0 0 0 -266.19175015529618 -129.43860799729237 0 -129.43860799729237 337.54425295373767 0 0 0 0 -6.0274249333942862 211.3341375443386 0 211.3341375443386 323.43024437172244 0 0 0 0 -1755.1891190406095 -161.21398255345088 0 -161.21398255345088 75.543923140851291 0 0 0 0 -1829.4827262976542 -493.90620671783381 0 -493.90620671783381 153.72348836092809 0 0 0 0 -35.408093397144484 25.626682043014938 0 25.626682043014938 -16.072713006978613 0 0 0 0 -3025.5434773984962 -1019.3493319090788 0 -1019.3493319090788 131.78664735499365 0 0 0 0 -1796.2175205079689 -835.48875390620549 0 -835.48875390620549 -46.6568341607761 0 0 0 0 -3499.9815655729108 -703.24026976737571 0 -703.24026976737571 242.28644990675164 0 0 0 0 -3090.2959437037898 -782.13736891166081 0 -782.13736891166081 -684.39184840932955 0 0 0 0 -3500.4774620503067 -433.63777276817052 0 -433.63777276817052 -675.47632351636878 0 0 0 0 116.90838546373925 398.56327211185226 0 398.56327211185226 -61.816869303155016 0 0 0 0 -9.8359772387357083 5.8343429074727808 0 5.8343429074727808 -2.8348011357941938 0 0 0 0 -1966.8329599448371 570.53833805655313 0 570.53833805655313 -42.018690278377107 0 0 0 0 -190.6011058566728 -163.41904206173228 0 -163.41904206173228 -524.02108422939898 0 0 0 0 -3279.7816863721237 -601.54451074514327 0 -601.54451074514327 248.94839892823694 0 0 0 0 -2149.8297381511729 -115.86723842341756 0 -115.86723842341756 160.34886138870758 0 0 0 0 -43.288501151952289 32.878716309585144 0 32.878716309585144 -21.622623329403158 0 0 0 0 -170.28198675313979 164.53645028638439 0 164.53645028638439 -13.771864850382144 0 0 0 0 -200.55043142661452 11.536377044197252 0 11.536377044197252 13.761209348540433 0 0 0 0 -18.006414631989522 2.0338511364319345 0 2.0338511364319345 17.756337875121794 0 0 0 0 -38.411312083301453 -21.775041454761151 0 -21.775041454761151 9.5546874982884979 0 0 0 0 -172.99746111014247 4.5171875126845862 0 4.5171875126845862 -7.4175095734231036 0 0 0 0 -15.291927164732229 -2.7009051668111468 0 -2.7009051668111468 -9.4553704476884306 0 0 0 0 -129.44260193278387 -10.056032721562588 0 -10.056032721562588 8.085685422449842 0 0 0 0 -73.317659904995281 20.906463595706683 0 20.906463595706683 4.7387536572476661 0 0 0 0 -22.827847781252785 -118.97113826130544 0 -118.97113826130544 -172.63398763773296 0 0 0 0 -269.35038386615633 -106.15536310165169 0 -106.15536310165169 88.389575891912045 0 0 0 0 -71.846564740633767 79.257208790348727 0 79.257208790348727 99.775430572082087 0 0 0 0 -31.480785281668904 -29.167858261485716 0 -29.167858261485716 -2.0054746583250651 0 0 0 0 -114.87282991961547 -5.8961456028982866 0 -5.8961456028982866 -30.647396896409191 0 0 0 0 -159.43437175230065 -0.74461782391949782 0 -0.74461782391949782 9.8994078277228255 0 0 0 0 -8.3873324323205392 -5.187589870563535 0 -5.187589870563535 -3.5852532899952756 0 0 0 0 -3.9458420750018117 -28.817761974067491 0 -28.817761974067491 -0.72981400287744691 0 0 0 0 -155.7527084609701 -10.533648949972303 0 -10.533648949972303 9.1999606171066262 0 0 0 0 -146.25723415936227 -30.36148217898517 0 -30.36148217898517 5.2026557080243947 0 0 0 0 -29.79231872971453 -32.748540990826257 0 -32.748540990826257 0.86891281948580712 0 0 0 0 -192.11869933989126 -25.158290252485944 0 -25.158290252485944 46.527070087870925 0 0 0 0 -176.57420074419497 47.617622454441573 0 47.617622454441573 4.9572806312253306 0 0 0 0 -3175.5633837985406 -963.66410912292804 0 -963.66410912292804 -196.87695187794401 0 0 0 0 -3133.311575393338 -1037.9514373656139 0 -1037.9514373656139 -160.5485779966719 0 0 0 0 -21.174141660424993 17.609875034259204 0 17.609875034259204 -8.0736966759762367 0 0 0 0 -3108.0778234493609 -985.5977641987497 0 -985.5977641987497 -277.67116511752272 0 0 0 0 -3127.6368463332656 -923.92239948840779 0 -923.92239948840779 -298.50303895674244 0 0 0 0 -4471.6631910569104 -1363.0399427321786 0 -1363.0399427321786 -426.81596906625839 0 0 0 0 -14.423317416102556 27.946784765401858 0 27.946784765401858 4.1686400242854438 0 0 0 0 -29.373172165636788 19.954310284268274 0 19.954310284268274 14.969156820472961 0 0 0 0 -2398.8033294566594 -1107.0778682594016 0 -1107.0778682594016 -531.20188826809772 0 0 0 0 -3045.1548107604976 -565.56182831626234 0 -565.56182831626234 -21.615013942580497 0 0 0 0 -15.389352684176856 -2.242078349866361 0 -2.242078349866361 0.48568200096252689 0 0 0 0 -3214.7717328254803 -852.43166559526628 0 -852.43166559526628 -336.66282007804369 0 0 0 0 -3500.5183967228731 -845.13811760697558 0 -845.13811760697558 -88.498677070327645 0 0 0 0 -3316.3876194394834 -626.56648312342463 0 -626.56648312342463 34.779583944273725 0 0 0 0 -4059.6329494737001 -1097.4153048950914 0 -1097.4153048950914 -190.48752660424071 0 0 0 0 -3118.2836923450532 -457.44802215234478 0 -457.44802215234478 226.14303919931965 0 0 0 0 -3101.901176507934 -1032.5086284828014 0 -1032.5086284828014 -63.522316723917086 0 0 0 0 -11.715268359072127 11.380258506512689 0 11.380258506512689 6.6933130220131121 0 0 0 0 -33.968241039081477 28.594382517171653 0 28.594382517171653 7.1240542688343567 0 0 0 0 -16.808548626504489 25.405079980404196 0 25.405079980404196 3.4288944032398945 0 0 0 0 -15.285018159891479 24.980998119036485 0 24.980998119036485 4.5261576545867683 0 0 0 0 -14.229942739169928 16.225539356179638 0 16.225539356179638 11.078775452477714 0 0 0 0 -25.204661597155791 -27.373257361652406 0 -27.373257361652406 54.21119011650012 0 0 0 0 -8.9572268595251785 1.6709093301186044 0 1.6709093301186044 -2.4411082920136411 0 0 0 0 0.27190281125032811 0.80162956238856964 0 0.80162956238856964 -3.4075799268495741 0 0 0 0 32.557164618083334 34.651195327651578 0 34.651195327651578 5.6905668753973373 0 0 0 0 -0.39983975703580654 78.223301327300334 0 78.223301327300334 -122.55871727521821 0 0 0 0 -12.249390625274827 15.564247041896436 0 15.564247041896436 -6.1710168976575233 0 0 0 0 -18.395802282990189 23.862517301169675 0 23.862517301169675 24.014204811876994 0 0 0 0 -0.32265381398607929 0.54058171404895461 0 0.54058171404895461 -1.3959120579198612 0 0 0 0 84.089904917076638 30.995549632104847 0 30.995549632104847 -63.497686498589474 0 0 0 0 -289.15372441073123 123.45658749403293 0 123.45658749403293 43.348456883937345 0 0 0 0 -95.494810248113936 167.58420589565188 0 167.58420589565188 -135.16768213009269 0 0 0 0 -7.6774444227048662 42.513714297640291 0 42.513714297640291 -30.181217972864829 0 0 0 0 -35.170802550266671 38.886562369564459 0 38.886562369564459 -1.3680426359544526 0 0 0 0 -19.355905215510028 36.218940226210066 0 36.218940226210066 0.28793194216612839 0 0 0 0 -3048.1948985305899 -509.59109964423885 0 -509.59109964423885 18.214398111608546 0 0 0 0 -3206.5446266120925 -615.51457680550061 0 -615.51457680550061 27.551624475140578 0 0 0 0 -3210.2708668031555 -583.8941993473361 0 -583.8941993473361 51.467391292105013 0 0 0 0 -3499.538135075687 -480.56276340068933 0 -480.56276340068933 150.02536195475528 0 0 0 0 -3072.2642660890706 -194.70037722600532 0 -194.70037722600532 281.98498071227266 0 0 0 0 -2992.1734879887081 -487.50942860177139 0 -487.50942860177139 -26.984841618818933 0 0 0 0 -2536.6486871844863 -159.5202835481179 0 -159.5202835481179 108.65925740722116 0 0 0 0 -2503.1343290526311 -217.47604292711969 0 -217.47604292711969 157.02585898497557 0 0 0 0 -3499.1913476787304 -101.61026196396379 0 -101.61026196396379 375.42819673396258 0 0 0 0 -2657.8132680283088 358.24546267734678 0 358.24546267734678 502.52105371091181 0 0 0 0 -3500.584124987603 581.67165717332614 0 581.67165717332614 595.58999951842463 0 0 0 0 -2088.5749381232235 821.73016232228133 0 821.73016232228133 25.107194527185086 0 0 0 0 -1087.4107079449423 -47.667734646760721 0 -47.667734646760721 138.91436564041317 0 0 0 0 -2071.3121884683042 903.00376191712905 0 903.00376191712905 393.06751843928055 0 0 0 0 -111.50593194770045 11.475469777192643 0 11.475469777192643 0.81970667321797919 0 0 0 0 -29.166772590785484 49.270936034513269 0 49.270936034513269 -6.0602125867145258 0 0 0 0 -449.10528966691345 388.68466609697964 0 388.68466609697964 -333.98627671281668 0 0 0 0 -207.47332244327845 29.130426219142976 0 29.130426219142976 -23.841911902123229 0 0 0 0 -22.727597729308329 49.97472129581692 0 49.97472129581692 -5.8653162058552653 0 0 0 0 -152.62431571133493 65.270889417810594 0 65.270889417810594 -47.756023479401733 0 0 0 0 -1667.98518666366 278.61624168754736 0 278.61624168754736 13.309034262710199 0 0 0 0 -318.87571385457704 -0.1288086913166353 0 -0.1288086913166353 57.613886537973485 0 0 0 0 -109.8091876800172 28.074582899800987 0 28.074582899800987 -7.4214473792859508 0 0 0 0 0.18508668066055733 -0.20472228578225327 0 -0.20472228578225327 -0.55102672085547599 0 0 0 0 -94.784394462384569 17.223220250732862 0 17.223220250732862 -0.084282493281989446 0 0 0 0 -179.03763022029307 64.54867171343443 0 64.54867171343443 37.640102170242017 0 0 0 0 -191.1334539713348 70.456433179620376 0 70.456433179620376 34.786673752321349 0 0 0 0 -158.10355718743813 49.270573069575136 0 49.270573069575136 34.53788421289034 0 0 0 0 -193.76564248060322 35.123299012343196 0 35.123299012343196 31.900740958634174 0 0 0 0 -67.203661304505658 85.854782782383893 0 85.854782782383893 -25.361311622544122 0 0 0 0 -22.097016737214467 44.138196510733337 0 44.138196510733337 -3.1230076891755365 0 0 0 0 -162.16060677518908 86.336062658084899 0 86.336062658084899 63.422399429382608 0 0 0 0 -198.2558332868357 115.66291995204014 0 115.66291995204014 39.753932447333938 0 0 0 0 -332.70996320832637 95.925874203009869 0 95.925874203009869 81.397629508788015 0 0 0 0 -189.0825968698482 -48.443693861585075 0 -48.443693861585075 196.50231160265707 0 0 0 0 -43.326362595558749 8.5463213706289878 0 8.5463213706289878 56.375934775079827 0 0 0 0 -268.15928886440815 85.367918148688545 0 85.367918148688545 90.989451646032762 0 0 0 0 -0.58869871075647495 0.10447411311298538 0 0.10447411311298538 3.6569416768448351 0 0 0 0 -542.48287669431011 -10.155302592170317 0 -10.155302592170317 -61.704903567769342 0 0 0 0 127.97346200504398 -261.20634619961658 0 -261.20634619961658 104.70082793341044 0 0 0 0 -381.87279488355853 -309.30216391505076 0 -309.30216391505076 397.80504267402785 0 0 0 0 -204.34040781846852 107.97624844199652 0 107.97624844199652 -28.542366038256318 0 0 0 0 -154.34410905152617 18.285912787551467 0 18.285912787551467 107.84769721140958 0 0 0 0 -129.80138069164241 37.231304935037713 0 37.231304935037713 60.114574127869446 0 0 0 0 -106.21666822591214 7.0840539662938227 0 7.0840539662938227 27.906321549045856 0 0 0 0 -116.38692539012845 20.559677008084407 0 20.559677008084407 10.051206211307999 0 0 0 0 -36.244416541303508 -2.5353236941389241 0 -2.5353236941389241 -21.240070594858651 0 0 0 0 -324.90066890772505 -7.6363925568936111 0 -7.6363925568936111 137.61300104323595 0 0 0 0 1.4599996237807886 0.19126741832519656 0 0.19126741832519656 10.595421008017533 0 0 0 0 -205.80209450843176 -10.533114228462637 0 -10.533114228462637 38.945058442114714 0 0 0 0 -137.93457324060728 -55.092173446299967 0 -55.092173446299967 -0.75185159923830724 0 0 0 0 -51.454713855331647 -26.952805625612427 0 -26.952805625612427 -14.832902341950103 0 0 0 0 -117.11444842444325 10.424995401713602 0 10.424995401713602 7.8631133576467391 0 0 0 0 -22.354370169558223 3.70075744040426 0 3.70075744040426 16.120547392285225 0 0 0 0 -111.94256170327026 13.936531040574401 0 13.936531040574401 10.137761353423002 0 0 0 0 -105.99553944866784 -22.288825835406215 0 -22.288825835406215 8.9208045871509967 0 0 0 0 -32.353773573362375 -23.824800370742565 0 -23.824800370742565 3.4267386466718577 0 0 0 0 -74.43209044100513 7.0420755340569485 0 7.0420755340569485 1.6754857383677972 0 0 0 0 -135.20882857030665 -10.744099088265557 0 -10.744099088265557 12.72602468747084 0 0 0 0 -24.268062116672873 1.8123639475345783 0 1.8123639475345783 4.2625625039130899 0 0 0 0 -139.70134277384204 -14.636899360995301 0 -14.636899360995301 9.3605327014274735 0 0 0 0 -137.97621238639113 2.2085796166252294 0 2.2085796166252294 -1.0540266664665978 0 0 0 0 0.55279520015151462 1.2965221614407483 0 1.2965221614407483 1.1020378127263122 0 0 0 0 -158.48992685870326 -40.761925089187798 0 -40.761925089187798 96.677073817442533 0 0 0 0 -214.02826183567231 16.672081906330192 0 16.672081906330192 38.148410794627125 0 0 0 0 -150.88047050411114 -18.992768882261316 0 -18.992768882261316 24.296907217295029 0 0 0 0 -139.42057791842944 -17.619920404649719 0 -17.619920404649719 23.587009222580946 0 0 0 0 -71.112315463426057 -52.266815945806229 0 -52.266815945806229 -21.542577059802255 0 0 0 0 -114.21039843855033 -73.332896757116345 0 -73.332896757116345 -24.537284516993623 0 0 0 0 -13.112410981570861 -4.0284276098536083 0 -4.0284276098536083 4.5226829246228952 0 0 0 0 -126.00318756478373 -34.396742315993578 0 -34.396742315993578 -149.58343488424123 0 0 0 0 -144.24432032561162 -152.46745120624325 0 -152.46745120624325 10.946825557403542 0 0 0 0 -290.04403105430538 -192.50062966180158 0 -192.50062966180158 -296.81528931842422 0 0 0 0 -57.260454720730195 -22.310542265013055 0 -22.310542265013055 393.66672726184493 0 0 0 0 -248.47330701176543 -124.82560626540305 0 -124.82560626540305 385.0017955305554 0 0 0 0 -94.714496190877981 -118.82807223860014 0 -118.82807223860014 261.47787977494511 0 0 0 0 -664.22216813956038 292.23410529151982 0 292.23410529151982 -12.362892647587046 0 0 0 0 -798.85731796231448 -536.46588510612207 0 -536.46588510612207 182.46128966562301 0 0 0 0 -201.11994672816945 64.011180414548519 0 64.011180414548519 -723.4413686449376 0 0 0 0 -823.19095964611915 -643.09661129779738 0 -643.09661129779738 -471.59201336821025 0 0 0 0 -556.84266351535916 -182.67893174637669 0 -182.67893174637669 -218.23723294521793 0 0 0 0 -182.45389961067121 171.73452642349409 0 171.73452642349409 -167.44713090533099 0 0 0 0 -3.3212642901281981 0.79797723115059682 0 0.79797723115059682 2.0039808222211182 0 0 0 0 -201.0624029178216 569.68031004504553 0 569.68031004504553 543.64657407158415 0 0 0 0 93.427903689444065 365.95828245199021 0 365.95828245199021 25.437064232283859 0 0 0 0 -385.4969988893281 51.389629486551897 0 51.389629486551897 94.620749018772131 0 0 0 0 -367.96324023747002 -554.12068608938216 0 -554.12068608938216 28.526289002785774 0 0 0 0 -1036.3855736294645 -63.013208516526731 0 -63.013208516526731 352.68704083378395 0 0 0 0 -356.77832528557337 23.258913613353862 0 23.258913613353862 350.1870823103161 0 0 0 0 -262.87661675034178 131.22490481081749 0 131.22490481081749 -153.15579698000946 0 0 0 0 -500.62328448290646 287.49701936104026 0 287.49701936104026 -151.52411034990033 0 0 0 0 -331.08389010708197 89.833412526329099 0 89.833412526329099 76.622567924782231 0 0 0 0 -273.47201725115883 213.54560400987657 0 213.54560400987657 -152.80965485539679 0 0 0 0 -277.28982717456529 190.84807735000575 0 190.84807735000575 -174.82751044472371 0 0 0 0 -402.8771015322709 181.75787407631066 0 181.75787407631066 -48.420877550716114 0 0 0 0 -196.22237598412903 123.33069818600403 0 123.33069818600403 -58.82429890797475 0 0 0 0 -360.18446924423915 152.45647899028216 0 152.45647899028216 -60.948764767563567 0 0 0 0 -295.09570535973762 62.310779961345624 0 62.310779961345624 -88.773125673227568 0 0 0 0 -778.67751697549829 38.349792545553299 0 38.349792545553299 -52.555248391930689 0 0 0 0 -438.24776193653815 172.31332787474309 0 172.31332787474309 -50.068751359507331 0 0 0 0 -437.44293517983442 163.22091186398634 0 163.22091186398634 -64.656351200242739 0 0 0 0 -271.85455205487233 198.40716593018814 0 198.40716593018814 -111.08840421620152 0 0 0 0 -202.65371535719896 39.036544148830487 0 39.036544148830487 39.045130060112996 0 0 0 0 14.048588748642942 88.630816976032293 0 88.630816976032293 -225.00297459249092 0 0 0 0 -20.441002517865854 -69.557450822800888 0 -69.557450822800888 -11.560547053591847 0 0 0 0 -408.35288101516926 326.61064682426201 0 326.61064682426201 -170.97850838081729 0 0 0 0 -1087.67377847436 200.03857168020949 0 200.03857168020949 5.3661825071964984 0 0 0 0 -1221.6953825262608 -373.45963304166827 0 -373.45963304166827 -21.280931672815427 0 0 0 0 -507.94296917620522 -115.04641129286078 0 -115.04641129286078 -935.67263790862739 0 0 0 0 -2.6390878247722753 9.685421211159337 0 9.685421211159337 -33.202258525693317 0 0 0 0 -19.529678587743547 -20.376817942604248 0 -20.376817942604248 113.14918409916436 0 0 0 0 201.12523296044674 238.42481760752844 0 238.42481760752844 -257.01805087379762 0 0 0 0 -16.190024861352867 -119.95909432884946 0 -119.95909432884946 -24.003698061873365 0 0 0 0 5.2565762547019403 188.98652342072955 0 188.98652342072955 -7.801275776676448 0 0 0 0 -2.3673501297976003 4.1022616742933167 0 4.1022616742933167 -11.904257482331365 0 0 0 0 -574.69292232734733 -239.12647290813345 0 -239.12647290813345 -52.950903532804737 0 0 0 0 -723.35303532633407 -264.850571997158 0 -264.850571997158 -12.491441376596697 0 0 0 0 -84.935209947041585 -215.94184770539687 0 -215.94184770539687 -303.54508936021375 0 0 0 0 -108.9865678162314 -237.51687034631505 0 -237.51687034631505 -320.84724264681699 0 0 0 0 -88.800582287993166 -163.13957490713665 0 -163.13957490713665 -351.75833752167182 0 0 0 0 333.89066980728239 -80.489354929572755 0 -80.489354929572755 -144.78678648449272 0 0 0 0 -0.63346483444911428 -105.1672272389078 0 -105.1672272389078 -107.07244286829064 0 0 0 0 51.171958359758719 -60.136416566393564 0 -60.136416566393564 -118.62785769875518 0 0 0 0 3.7447548802520032 -93.765329285596636 0 -93.765329285596636 -183.61202112000683 0 0 0 0 -105.22475412540371 -157.33541632761626 0 -157.33541632761626 -125.07151311175039 0 0 0 0 -28.48288462325695 30.889840602824137 0 30.889840602824137 5.5536170484417902 0 0 0 0 -246.7479395497503 -130.69977128508981 0 -130.69977128508981 -81.165197024757617 0 0 0 0 -169.87841509756981 -86.539958045626918 0 -86.539958045626918 -71.550001726251139 0 0 0 0 89.550577474459715 20.253520246943935 0 20.253520246943935 -12.99449678064866 0 0 0 0 -347.99044917389983 -96.771506154202143 0 -96.771506154202143 170.19792040779794 0 0 0 0 -73.193062542956056 -17.342617057160993 0 -17.342617057160993 2.7903306429168193 0 0 0 0 -296.18040952531555 67.440565936039263 0 67.440565936039263 228.53687056340641 0 0 0 0 -311.23149262485094 264.76488446313306 0 264.76488446313306 -4.6953689493639104 0 0 0 0 8.2383410230256686 5.9159037912998258 0 5.9159037912998258 -0.53656130323976114 0 0 0 0 -294.7840357066043 63.720627929904879 0 63.720627929904879 -35.602868338180997 0 0 0 0 26.766450068935228 -287.33644570926253 0 -287.33644570926253 226.88974640947436 0 0 0 0 40.328020422457485 -414.52314312542512 0 -414.52314312542512 -395.55250777750916 0 0 0 0 467.29483916385652 -99.279699995609235 0 -99.279699995609235 -172.18013320715545 0 0 0 0 -18.365301509680805 2.8525744498156342 0 2.8525744498156342 4.0242253384801572 0 0 0 0 -740.81292578332068 -73.787999239621513 0 -73.787999239621513 -804.96000492438543 0 0 0 0 119.3683664904238 -314.10524157404143 0 -314.10524157404143 -439.24440136695921 0 0 0 0 -242.93783122068271 -114.51585090849403 0 -114.51585090849403 -98.058731726925544 0 0 0 0 -784.58308225877408 -493.25214127947538 0 -493.25214127947538 -125.18542182443889 0 0 0 0 -391.59327238978585 -234.40207761637794 0 -234.40207761637794 -148.04503183426095 0 0 0 0 -645.77084174985066 -326.4578649385694 0 -326.4578649385694 -97.89016808458031 0 0 0 0 -10.064812086142013 7.7416457061598223 0 7.7416457061598223 4.2905131852215508 0 0 0 0 -693.22218075528508 -586.32308822747837 0 -586.32308822747837 -359.520626734693 0 0 0 0 -190.08381088625174 -495.07873454500623 0 -495.07873454500623 -645.45257700936963 0 0 0 0 -105.1027327705815 -255.79173731387436 0 -255.79173731387436 -450.42713872052809 0 0 0 0 -79.434517201298149 -176.59505138156692 0 -176.59505138156692 -392.25332844577224 0 0 0 0 -6.5677421285945456 -50.551606636619681 0 -50.551606636619681 -234.34829246279742 0 0 0 0 -93.964573361299699 -176.51716541503151 0 -176.51716541503151 -379.48274881538237 0 0 0 0 -1.6937659307769577 2.558729341304641 0 2.558729341304641 -7.0475242482027136 0 0 0 0 243.97923805833852 -83.150440592633572 0 -83.150440592633572 -177.42160268323005 0 0 0 0 154.03009136076435 -264.30719890848673 0 -264.30719890848673 -505.12206185046875 0 0 0 0 174.50742566026747 35.615251640901818 0 35.615251640901818 -109.46316979860251 0 0 0 0 -200.02343522978481 -45.955221287111726 0 -45.955221287111726 37.186691871743164 0 0 0 0 26.315775159280747 -93.953859608429639 0 -93.953859608429639 -214.57942999912336 0 0 0 0 -474.37927897940244 -391.65920177233215 0 -391.65920177233215 -168.44694859420974 0 0 0 0 -41.977762896276545 -300.72579505801286 0 -300.72579505801286 -421.04616969857943 0 0 0 0 -127.78181630891049 -390.36882926205544 0 -390.36882926205544 -375.50527923144182 0 0 0 0 69.635341387009248 -906.77374663653245 0 -906.77374663653245 -420.13740609563365 0 0 0 0 -238.88362748530926 -230.93345346298111 0 -230.93345346298111 -338.47994895158854 0 0 0 0 -7.5546420734171988 -261.81249255487546 0 -261.81249255487546 -388.20855245438361 0 0 0 0 -321.9772174077807 -122.94816252538226 0 -122.94816252538226 -138.51412929275648 0 0 0 0 -83.592445632264571 -96.270646825231665 0 -96.270646825231665 -140.15035722130324 0 0 0 0 -118.62124662686256 -102.63119544250185 0 -102.63119544250185 -235.35865184664749 0 0 0 0 -271.29127331345808 -36.654153339901086 0 -36.654153339901086 -23.915592615488094 0 0 0 0 40.779604423805722 121.88709342582004 0 121.88709342582004 -8.4618033332816402 0 0 0 0 172.59802965077688 -17.727091453298613 0 -17.727091453298613 227.10885802195799 0 0 0 0 -81.744886483211303 68.126871716932556 0 68.126871716932556 143.21811015064554 0 0 0 0 -10.183143284593825 -134.96325401092855 0 -134.96325401092855 136.67234392640933 0 0 0 0 122.91883189907821 -55.935658193303198 0 -55.935658193303198 -10.446879209048348 0 0 0 0 -4.4300279384829651 -1.7561293322022493 0 -1.7561293322022493 0.59730976147831516 0 0 0 0 -0.73349024800700136 -19.939830202658413 0 -19.939830202658413 -10.75583430309824 0 0 0 0 -89.441055459072231 -64.675514654413746 0 -64.675514654413746 74.367984034432084 0 0 0 0 17.420968925289344 -61.421000663070572 0 -61.421000663070572 1.8107481525530602 0 0 0 0 -158.94028741777583 0.72099594515543686 0 0.72099594515543686 37.019807686264357 0 0 0 0 -100.58690432852018 -14.159506234109358 0 -14.159506234109358 19.386972709038673 0 0 0 0 -126.4466890657568 -34.90224063108549 0 -34.90224063108549 18.944003086784392 0 0 0 0 930.11493491535657 -131.7073648232016 0 -131.7073648232016 -498.77580964997196 0 0 0 0 1.9049724505742915 1.9851782936199811 0 1.9851782936199811 -1.6752648571383766 0 0 0 0 -142.29678540592431 56.528817838152804 0 56.528817838152804 -14.076588928845126 0 0 0 0 -396.40134657036106 -71.06061970913774 0 -71.06061970913774 -75.382146700163531 0 0 0 0 123.71219830921473 274.42109150116846 0 274.42109150116846 -326.68534590143099 0 0 0 0 451.01687730538833 97.220937364473244 0 97.220937364473244 138.22738239360729 0 0 0 0 296.16919299526489 -335.27196881408685 0 -335.27196881408685 -1046.5871285076385 0 0 0 0 594.40058102634794 -389.49128596827404 0 -389.49128596827404 250.20947864241407 0 0 0 0 -2.2955958500747187 0.30151844506164593 0 0.30151844506164593 3.2377848376009948 0 0 0 0 336.02751567348605 -704.38281460391408 0 -704.38281460391408 -97.640079466147142 0 0 0 0 58.335553328070091 -132.26105756593188 0 -132.26105756593188 254.39628407245527 0 0 0 0 -21.647795206542028 4.5610111056214606 0 4.5610111056214606 13.49056171601474 0 0 0 0 -122.66992096765898 -354.18174765035343 0 -354.18174765035343 441.29065595785414 0 0 0 0 294.00114587513963 -360.09550839889789 0 -360.09550839889789 107.63094056635555 0 0 0 0 -20.311517312831711 -17.506984858777741 0 -17.506984858777741 129.61222782819164 0 0 0 0 -7.5221703586468891 2.2305980609319249 0 2.2305980609319249 4.2412312759030426 0 0 0 0 -57.951031600692659 -24.759136161621427 0 -24.759136161621427 8.4273748191244522 0 0 0 0 -85.953679772646865 -49.091132894728617 0 -49.091132894728617 36.397472850628674 0 0 0 0 -54.313840241666185 -31.388187829788876 0 -31.388187829788876 8.9648897221813968 0 0 0 0 -95.65846346008766 -2.740566947325533 0 -2.740566947325533 -3.1697263175910848 0 0 0 0 -44.12458070286084 -14.454896871954134 0 -14.454896871954134 4.2902589674715728 0 0 0 0 -63.11355963306778 -31.243967915179155 0 -31.243967915179155 6.6951054041201132 0 0 0 0 -38.175708381100321 -16.726481008806701 0 -16.726481008806701 -2.9322381287458246 0 0 0 0 -24.859208370024419 -9.6093811531767699 0 -9.6093811531767699 3.9069392575002624 0 0 0 0 -38.215322970572743 -10.77261871192195 0 -10.77261871192195 4.76579061599341 0 0 0 0 -54.622052396865911 -12.888977508215703 0 -12.888977508215703 4.0823258688687929 0 0 0 0 -45.7345631279386 -7.9190509178183675 0 -7.9190509178183675 10.925291912481043 0 0 0 0 -13.85628635752812 -14.137933390025012 0 -14.137933390025012 2.7580785862273363 0 0 0 0 -57.875154777372416 -5.5666206052213028 0 -5.5666206052213028 10.364390914520193 0 0 0 0 -38.878966182441218 -7.5740459044982344 0 -7.5740459044982344 10.937316288742295 0 0 0 0 -27.966563914027944 -3.4454035951019009 0 -3.4454035951019009 5.1625998046957093 0 0 0 0 -8.62392493404991 6.8021141905032536 0 6.8021141905032536 5.2290944877406496 0 0 0 0 -118.91783695245977 85.11188685677007 0 85.11188685677007 11.546677746004207 0 0 0 0 -137.6821698634667 -15.167696079944108 0 -15.167696079944108 -38.820884822402149 0 0 0 0 -21.288103301539223 -26.073291077578531 0 -26.073291077578531 3.9263571451757535 0 0 0 0 -152.6953574104482 -27.363679937801408 0 -27.363679937801408 11.537990989330865 0 0 0 0 -30.257979575384525 -19.906830479652854 0 -19.906830479652854 -7.3769052741281484 0 0 0 0 -89.602602524857502 -4.9820881561163333 0 -4.9820881561163333 2.874333156697503 0 0 0 0 -39.416111803875538 -44.787572585451016 0 -44.787572585451016 -40.895420309147994 0 0 0 0 -36.710868425221179 -3.5481742651761721 0 -3.5481742651761721 2.2865111302708101 0 0 0 0 -21.513592682348303 -6.3780108930540891 0 -6.3780108930540891 6.5933200449516383 0 0 0 0 -49.816789405020245 -41.481634986537074 0 -41.481634986537074 10.101015758416906 0 0 0 0 -52.533570339903235 -12.803508452005872 0 -12.803508452005872 0.17210927525411535 0 0 0 0 -69.227038503039267 -5.2287608407880413 0 -5.2287608407880413 14.086292790246395 0 0 0 0 -51.977014271556982 -52.385061468484309 0 -52.385061468484309 17.368076027097004 0 0 0 0 -12.979730695078615 -11.499409885123896 0 -11.499409885123896 29.752599982381071 0 0 0 0 -53.225962004807599 -15.633367886432083 0 -15.633367886432083 11.620452648418675 0 0 0 0 -13.940517451192505 5.8409255668970985 0 5.8409255668970985 -11.319354708114201 0 0 0 0 -65.074320315630757 15.794685968083968 0 15.794685968083968 -12.70468146485473 0 0 0 0 -74.093052876538422 -8.2330304291563152 0 -8.2330304291563152 -33.283035424896227 0 0 0 0 -70.525206290622009 13.997986106855024 0 13.997986106855024 -28.369543358765441 0 0 0 0 -86.906140066323132 -24.982192362744854 0 -24.982192362744854 28.714684300951376 0 0 0 0 -53.974749793138969 -24.424056024648202 0 -24.424056024648202 7.9720190772633881 0 0 0 0 -139.37526041267847 -31.269735463634788 0 -31.269735463634788 14.722337976583503 0 0 0 0 -10.119599025662239 6.5963501815620589 0 6.5963501815620589 1.5571176028209806 0 0 0 0 -20.265829851196031 7.6333909032055089 0 7.6333909032055089 1.0083165008127253 0 0 0 0 -91.624882292104303 -26.174981967923031 0 -26.174981967923031 -1.638490732811988 0 0 0 0 -21.238002538806597 9.8898406833737269 0 9.8898406833737269 6.3164186729879024 0 0 0 0 -64.129629906434275 -19.730230290452937 0 -19.730230290452937 -13.111507414851985 0 0 0 0 -25.438942980847031 1.4586737574358111 0 1.4586737574358111 2.6894440480336659 0 0 0 0 -35.005138270673342 1.3356155797018801 0 1.3356155797018801 -3.0731901724907402 0 0 0 0 -34.733293035606039 -0.95236593270533376 0 -0.95236593270533376 0.5815979151789179 0 0 0 0 -10.67994502841742 0.5804472082632941 0 0.5804472082632941 -1.5596632694231083 0 0 0 0 -8.121744242759334 6.9138893979161935 0 6.9138893979161935 -1.0482486433909415 0 0 0 0 -76.435414819796279 -11.61903613376478 0 -11.61903613376478 -3.7209759716170083 0 0 0 0 -74.990458707878133 -8.7177885682233409 0 -8.7177885682233409 -3.1151463362457434 0 0 0 0 -73.740676713965513 -13.728659549075701 0 -13.728659549075701 -2.2398749991089062 0 0 0 0 -66.431561789285297 1.3891692697264943 0 1.3891692697264943 -39.799855488988214 0 0 0 0 -27.532490133509398 18.010880983389427 0 18.010880983389427 0.52416489045157366 0 0 0 0 -79.369069084263174 -5.0821068942748298 0 -5.0821068942748298 -9.5178583022352541 0 0 0 0 -46.483555219194386 1.5899035560678385 0 1.5899035560678385 -9.719081217411258 0 0 0 0 -9.9369500605125349 1.7110210086544129 0 1.7110210086544129 -5.824891089831576 0 0 0 0 -96.994435108630569 17.609524654461438 0 17.609524654461438 -10.558372716729991 0 0 0 0 -10.851532850858348 -0.7088313963089945 0 -0.7088313963089945 -2.51259694640612 0 0 0 0 4.0011154176012269 -0.26908005967121085 0 -0.26908005967121085 -5.0007915211695941 0 0 0 0 -87.979566986574355 -10.941352949146108 0 -10.941352949146108 -2.7789162916333225 0 0 0 0 -31.997093407728244 0.24378317302944197 0 0.24378317302944197 -5.1067254246772791 0 0 0 0 -27.735951776697448 -5.7537184970335318 0 -5.7537184970335318 -0.39993341453785192 0 0 0 0 -47.236447265648167 -7.3790010177990553 0 -7.3790010177990553 -0.29715819472403382 0 0 0 0 -20.207290021624431 4.2484365695194839 0 4.2484365695194839 -2.7757144031119552 0 0 0 0 -26.845775810666964 -4.6184278339178491 0 -4.6184278339178491 -1.0032994575162775 0 0 0 0 -22.449212321284875 -3.3802091822617371 0 -3.3802091822617371 -2.0887576373752097 0 0 0 0 -25.342231193557382 -3.8005409022784988 0 -3.8005409022784988 -5.0306531228661697 0 0 0 0 -7.5805503224326856 -2.9886317229609887 0 -2.9886317229609887 -8.519472374224339 0 0 0 0 -38.424817469349364 -30.319968577830878 0 -30.319968577830878 6.4932680581957811 0 0 0 0 -23.217826695079566 -4.4966213976995277 0 -4.4966213976995277 -6.364001554900824 0 0 0 0 -16.057718294679944 -19.994686957707017 0 -19.994686957707017 -13.623092561470912 0 0 0 0 -26.713053661779782 -10.2193835357198 0 -10.2193835357198 -11.224380991916863 0 0 0 0 -13.629638947939384 -25.812250215437416 0 -25.812250215437416 -5.2353518423278729 0 0 0 0 -11.212575277852011 -35.13738102543175 0 -35.13738102543175 -2.5105697793042054 0 0 0 0 -39.583298704557819 -44.639444740421823 0 -44.639444740421823 -3.0018714993857429 0 0 0 0 -19.96834968214694 -6.5315948572839204 0 -6.5315948572839204 -7.7827379813981317 0 0 0 0 -79.12078031434794 -43.204141081223497 0 -43.204141081223497 27.4720006683674 0 0 0 0 7.168304742051987 -21.538408412050785 0 -21.538408412050785 -54.152726806039027 0 0 0 0 -29.054449202252925 -5.0102863882189368 0 -5.0102863882189368 -9.4069460280838406 0 0 0 0 -16.270079151989108 4.7589650038890028 0 4.7589650038890028 -4.7118778815227635 0 0 0 0 -11.940575396567475 -3.9796275959570977 0 -3.9796275959570977 -7.5149661389278712 0 0 0 0 -22.598616404089171 1.3281576285918035 0 1.3281576285918035 -2.8861422407890132 0 0 0 0 -318.24460248995456 -88.113605327771666 0 -88.113605327771666 -7.5912420825051754 0 0 0 0 -1.4175062615724983 3.051761546277433 0 3.051761546277433 -3.8600049410982518 0 0 0 0 -236.32078877391177 51.626638633068183 0 51.626638633068183 -0.25151342040845748 0 0 0 0 -74.571120560300187 79.093814806523824 0 79.093814806523824 -35.789408043197909 0 0 0 0 -241.83219831493625 -167.38232287255909 0 -167.38232287255909 -90.86624478919839 0 0 0 0 -293.64809766260441 -136.29268752592873 0 -136.29268752592873 -28.281185282273785 0 0 0 0 -186.25714328093454 -77.07920218039817 0 -77.07920218039817 31.097665061092812 0 0 0 0 -151.9508208293355 -155.08755180457911 0 -155.08755180457911 -87.07344413784449 0 0 0 0 -94.234870636093547 -66.278873965678486 0 -66.278873965678486 -40.146903147729972 0 0 0 0 -63.434305327929906 -13.981100750569567 0 -13.981100750569567 -5.7415175224623454 0 0 0 0 -56.284594339664181 0.83164993828927436 0 0.83164993828927436 -3.6589880602186895 0 0 0 0 -60.689245971254422 5.3752249756953461 0 5.3752249756953461 -0.96063538610542309 0 0 0 0 -25.738741034831932 14.422529637689621 0 14.422529637689621 5.5557061127543719 0 0 0 0 -72.084147266185028 -16.862114030726843 0 -16.862114030726843 -12.362165374554024 0 0 0 0 -78.315962417720584 -6.3541208647220628 0 -6.3541208647220628 9.9995852751999337 0 0 0 0 -63.728558103262912 -3.4892948335591427 0 -3.4892948335591427 -24.965149174621729 0 0 0 0 -83.34410585997648 -75.880551397497925 0 -75.880551397497925 -80.854486137877757 0 0 0 0 -95.12444809738372 -86.060566184393338 0 -86.060566184393338 -55.314425453838339 0 0 0 0 -80.955408339897986 -5.2638461325632306 0 -5.2638461325632306 35.776491310083657 0 0 0 0 3.3925209976607107 4.5278628237992322 0 4.5278628237992322 -1.3200735928004441 0 0 0 0 -32.102649727690732 37.429209694596466 0 37.429209694596466 29.994334498640455 0 0 0 0 -93.718092502167565 -12.232152542503172 0 -12.232152542503172 -4.7166652998471363 0 0 0 0 -41.469517175559304 3.2801945228816294 0 3.2801945228816294 21.904333022097489 0 0 0 0 -30.316257762938676 1.9257642894116316 0 1.9257642894116316 5.9253744147128149 0 0 0 0 -7.7034031350131613 -0.81031715301290319 0 -0.81031715301290319 2.3705998798434784 0 0 0 0 -46.389284913093434 39.15195153096829 0 39.15195153096829 5.8723760862426388 0 0 0 0 -52.19432325823982 -11.314718492908128 0 -11.314718492908128 10.378372687420779 0 0 0 0 -83.943950368309743 -15.580148182663834 0 -15.580148182663834 1.2993906773035633 0 0 0 0 -80.615159427958133 -16.674069056122434 0 -16.674069056122434 0.85769599923150963 0 0 0 0 -56.487558676511981 -212.95148142816237 0 -212.95148142816237 -628.83002162461435 0 0 0 0 -83.748697833980259 -57.360266042694548 0 -57.360266042694548 -91.634404073271071 0 0 0 0 -21.945430024934467 2.1133170733737643 0 2.1133170733737643 15.432734779550856 0 0 0 0 -28.285177696378042 -7.1149966994403435 0 -7.1149966994403435 5.5312529172764791 0 0 0 0 -12.93605590237712 14.047422706047655 0 14.047422706047655 24.21125367663808 0 0 0 0 -35.564264137470673 -79.292917182045585 0 -79.292917182045585 -180.12821176303896 0 0 0 0 -159.82831820259162 -215.24551751788204 0 -215.24551751788204 -201.3987319652839 0 0 0 0 -320.37289297454117 -345.63974423503919 0 -345.63974423503919 -152.23657263952123 0 0 0 0 -250.64534369107969 -263.25446279988302 0 -263.25446279988302 -80.588634929571981 0 0 0 0 -251.08672060680874 -260.91368053877056 0 -260.91368053877056 -92.992360165047103 0 0 0 0 -272.78889471222647 -267.08100841951693 0 -267.08100841951693 -87.84146871323378 0 0 0 0 -229.18935220228013 -261.08616300043849 0 -261.08616300043849 -149.94092619954188 0 0 0 0 -208.48317207792206 -220.33229031197754 0 -220.33229031197754 -86.81299882970643 0 0 0 0 -161.5762796352974 -161.77265381182428 0 -161.77265381182428 -138.85476193749855 0 0 0 0 26.19576589440112 40.465226272582868 0 40.465226272582868 -174.74640152255824 0 0 0 0 -23.385338848287091 -1.1884772106743959 0 -1.1884772106743959 0.039303108986894042 0 0 0 0 -204.51648461019067 218.92146554044348 0 218.92146554044348 -298.24081002680509 0 0 0 0 -108.14266147719172 28.204840673048921 0 28.204840673048921 51.747911954589654 0 0 0 0 -8.3136276615701945 -1.2514140370193445 0 -1.2514140370193445 -0.0099632123705877262 0 0 0 0 -315.8298416958969 -438.53341663271738 0 -438.53341663271738 -514.62377419790391 0 0 0 0 -153.20233107978129 -173.6979878736729 0 -173.6979878736729 -125.30885373610079 0 0 0 0 -697.97601071753161 -120.65238039732139 0 -120.65238039732139 -69.356270594852276 0 0 0 0 -143.60186344261456 -58.534363540144568 0 -58.534363540144568 -297.1402787680745 0 0 0 0 -152.45527409313945 -141.63032069021742 0 -141.63032069021742 -125.44111027349481 0 0 0 0 -173.84935603630584 61.977022120898084 0 61.977022120898084 -711.22149970609917 0 0 0 0 -17.530961526156716 -163.34017846501604 0 -163.34017846501604 -547.64654955176775 0 0 0 0 -81.679551406836254 -334.07795759202099 0 -334.07795759202099 -611.48326614692735 0 0 0 0 -80.721284427505452 -351.30291318590207 0 -351.30291318590207 -383.14599480100242 0 0 0 0 -624.15409953417111 -16.891722200145068 0 -16.891722200145068 164.96915011155852 0 0 0 0 -437.26997038330592 -412.01189720935258 0 -412.01189720935258 -159.26005236985475 0 0 0 0 58.316135634595412 -327.64679119936864 0 -327.64679119936864 -88.731083899806777 0 0 0 0 -68.703888109754189 -76.099287621566873 0 -76.099287621566873 134.64809591927587 0 0 0 0 -0.71917512385698501 -174.98590168680721 0 -174.98590168680721 -118.15937289948852 0 0 0 0 59.552378575899638 -215.29043127475416 0 -215.29043127475416 -83.320660267771927 0 0 0 0 -211.17805655479606 -219.19445613657626 0 -219.19445613657626 402.70235063141172 0 0 0 0 -84.622020049792212 -20.649339702955615 0 -20.649339702955615 0.6268044715002361 0 0 0 0 -126.47174696023285 -9.2795120794239665 0 -9.2795120794239665 162.38280483719541 0 0 0 0 -193.08024317788659 1.6781216162632973 0 1.6781216162632973 306.93773154546489 0 0 0 0 -109.86091597654013 146.44090618704831 0 146.44090618704831 125.14619925313809 0 0 0 0 79.159404199366691 145.74949537993803 0 145.74949537993803 93.648958866144312 0 0 0 0 -38.914990148805373 73.101352230282828 0 73.101352230282828 154.43172701588628 0 0 0 0 -13.867990192428046 -2.4037032005534655 0 -2.4037032005534655 2.0193689368294585 0 0 0 0 -62.688228611827071 55.612201295320347 0 55.612201295320347 228.02243550354433 0 0 0 0 -30.120783057049266 51.917791295482402 0 51.917791295482402 9.829347598516506 0 0 0 0 -51.224334147875197 -20.28476706609672 0 -20.28476706609672 13.057176564736437 0 0 0 0 -51.842080237455775 -6.0726212799289669 0 -6.0726212799289669 0.70905566092642403 0 0 0 0 -62.878251636073401 13.99376798009888 0 13.99376798009888 29.795520668983499 0 0 0 0 -51.085733818851992 -14.556975025977266 0 -14.556975025977266 3.8192092814989067 0 0 0 0 -60.27882284950465 -13.766268409968689 0 -13.766268409968689 8.9983394152882283 0 0 0 0 -16.248008325916977 -1.6952582135500052 0 -1.6952582135500052 4.3265034258114241 0 0 0 0 -35.366945551407731 -4.2260754597516552 0 -4.2260754597516552 16.821709177761662 0 0 0 0 -58.726693561841984 -5.6192643978625316 0 -5.6192643978625316 2.413611906470936 0 0 0 0 -67.324095688556554 -6.1862146044282724 0 -6.1862146044282724 22.043017871762572 0 0 0 0 -63.50147851886868 -13.61753931991052 0 -13.61753931991052 11.8369834722007 0 0 0 0 -70.239413393683208 -13.270571307675255 0 -13.270571307675255 24.527080866906545 0 0 0 0 -74.608265639988531 -18.388083770640151 0 -18.388083770640151 20.7705196388888 0 0 0 0 -56.398142759707355 -18.0940965162422 0 -18.0940965162422 0.83418347256839009 0 0 0 0 -49.437585760286311 -3.7383632327437226 0 -3.7383632327437226 18.768256289979945 0 0 0 0 -39.449902578886395 -33.493978340726926 0 -33.493978340726926 44.808488969784776 0 0 0 0 -57.067063603288261 -3.7074206436586792 0 -3.7074206436586792 -7.1392368928918586 0 0 0 0 -61.282497555090231 -15.9314403976432 0 -15.9314403976432 18.238332592231927 0 0 0 0 -49.3427471764073 -5.8795686116363726 0 -5.8795686116363726 4.9268613241543733 0 0 0 0 -2.1831103079288141 -11.006013036048003 0 -11.006013036048003 0.37951100011779215 0 0 0 0 -157.08554633798485 52.20185974625474 0 52.20185974625474 -27.419664168512099 0 0 0 0 -89.030766234820476 34.52660757427202 0 34.52660757427202 -31.672222495052665 0 0 0 0 -255.02090788003989 -14.114890235381608 0 -14.114890235381608 9.4138726030719226 0 0 0 0 -168.02583768706245 10.208386330091798 0 10.208386330091798 20.071573771154362 0 0 0 0 -154.00555086253735 -1.9642404601354428 0 -1.9642404601354428 6.0750161230407684 0 0 0 0 -116.39976052788552 8.8206236623564109 0 8.8206236623564109 17.040229079071651 0 0 0 0 -137.57817267581413 11.045555451199562 0 11.045555451199562 27.699302141385942 0 0 0 0 -81.0537032574357 4.6132590837300995 0 4.6132590837300995 14.060262353382313 0 0 0 0 -118.00877255601608 26.367298516149845 0 26.367298516149845 1.8638767632801319 0 0 0 0 -80.993872256323812 -3.6896580377347163 0 -3.6896580377347163 12.83662381227532 0 0 0 0 -119.75556015485199 12.221646795077959 0 12.221646795077959 33.895840968181346 0 0 0 0 -113.29470141077763 13.095020247003959 0 13.095020247003959 31.855419163719489 0 0 0 0 -108.17003367748475 -8.2855475999151622 0 -8.2855475999151622 60.140836366549593 0 0 0 0 -119.61365291895345 8.2007581421125906 0 8.2007581421125906 26.401580661753542 0 0 0 0 -122.07765533338534 17.374273096173511 0 17.374273096173511 36.72100906921969 0 0 0 0 -127.14588505219581 20.53751316022101 0 20.53751316022101 57.185345394027536 0 0 0 0 -129.77192003552045 29.881008144011503 0 29.881008144011503 24.605450760631811 0 0 0 0 -113.95696360562579 40.215277717993786 0 40.215277717993786 8.8078066729976854 0 0 0 0 -141.65314969794417 42.555725945361246 0 42.555725945361246 36.071149918587707 0 0 0 0 -138.65834644371353 18.135849606659121 0 18.135849606659121 97.515196986594219 0 0 0 0 -14.07829583149578 -65.889643248120819 0 -65.889643248120819 39.159966033776982 0 0 0 0 -104.48689593890231 -49.914041231157455 0 -49.914041231157455 156.97844280049094 0 0 0 0 -116.26245259046846 -6.8585518145291644 0 -6.8585518145291644 60.387430549021246 0 0 0 0 -60.040077760289932 -14.714446715757958 0 -14.714446715757958 7.5012176363361505 0 0 0 0 -59.615655202534981 -17.434596859346584 0 -17.434596859346584 21.379460071711947 0 0 0 0 0.9323475247112043 -1.6080454961750092 0 -1.6080454961750092 0.89702174460202677 0 0 0 0 -24.024661521067173 76.005605973864391 0 76.005605973864391 73.910789945441593 0 0 0 0 -115.47104072518414 -57.551445079338691 0 -57.551445079338691 26.813139820391825 0 0 0 0 -23.475577365745721 -115.37530191333934 0 -115.37530191333934 59.355139822750061 0 0 0 0 -34.670685152716032 40.753682993508676 0 40.753682993508676 29.719939056273688 0 0 0 0 -137.55856674618553 34.860801334985581 0 34.860801334985581 148.90862877344267 0 0 0 0 -170.38462009036448 -6.4304812864181713 0 -6.4304812864181713 13.793559016407301 0 0 0 0 -119.00475782083231 19.37025111735494 0 19.37025111735494 -44.446429924322956 0 0 0 0 -113.2773409355591 -61.62563314415101 0 -61.62563314415101 21.550644267332927 0 0 0 0 3.2710083196361666 -24.956268327815224 0 -24.956268327815224 -61.571626645028232 0 0 0 0 -167.22080338685191 -94.831878479049351 0 -94.831878479049351 49.089587641812443 0 0 0 0 -294.8340392249811 -18.775186685211793 0 -18.775186685211793 -25.979484716972479 0 0 0 0 -177.13047864439432 42.837142573501097 0 42.837142573501097 -158.3790569270335 0 0 0 0 -347.19703174856841 217.94485696129087 0 217.94485696129087 -51.59280781338083 0 0 0 0 -2.3471795388650207 -0.40267983147630559 0 -0.40267983147630559 -0.036900099457498697 0 0 0 0 -521.61379564927483 140.72134911998447 0 140.72134911998447 21.451211604300738 0 0 0 0 221.63013418365153 -111.93889049980665 0 -111.93889049980665 -0.97308602429519775 0 0 0 0 -360.55521334096557 90.583010419830657 0 90.583010419830657 140.20831928340283 0 0 0 0 -7.6511143698444357 -5.4230795141707073 0 -5.4230795141707073 -0.020588799042474334 0 0 0 0 -0.17757964204065502 -3.1450607425633703 0 -3.1450607425633703 0.012394665010159676 0 0 0 0 -1.2945102564262925 -1.1895756110936986 0 -1.1895756110936986 2.7828789805222152 0 0 0 0 -3.2745791676520071 -1.0580297039172848 0 -1.0580297039172848 -0.44874772474301283 0 0 0 0 -300.34949622556962 212.13601532680289 0 212.13601532680289 -138.59945271199319 0 0 0 0 194.84761091085966 86.307209844186588 0 86.307209844186588 -152.40080895562895 0 0 0 0 -3.2631033549407675 -1.3705979024741026 0 -1.3705979024741026 -0.43178302623053855 0 0 0 0 -9.5200575667549856 -4.7532827910589486 0 -4.7532827910589486 3.9866346186813959 0 0 0 0 -42.948168554969016 -99.959596323307068 0 -99.959596323307068 89.852388864345414 0 0 0 0 51.391043460404035 15.063378268238608 0 15.063378268238608 -28.960886614589725 0 0 0 0 -120.15113349521926 85.779132737945304 0 85.779132737945304 -40.704074209733108 0 0 0 0 -127.2614336603001 65.53213012884305 0 65.53213012884305 -34.665636515363076 0 0 0 0 -8.9058071554357525 -4.5709411364957901 0 -4.5709411364957901 -2.4010667885844157 0 0 0 0 -123.69278098002542 79.299036501253568 0 79.299036501253568 -82.25999622732013 0 0 0 0 -201.09964443633726 105.95171768771729 0 105.95171768771729 -10.41453651614529 0 0 0 0 -143.86006040079519 45.157393163449569 0 45.157393163449569 35.261771695753851 0 0 0 0 -143.84137442555709 85.801968439992379 0 85.801968439992379 -22.923931666920453 0 0 0 0 -135.37252738474763 59.265566141767096 0 59.265566141767096 45.91466249740688 0 0 0 0 -118.28420191779151 41.9583602746834 0 41.9583602746834 30.890514095871595 0 0 0 0 -109.77675415035992 69.987729556298731 0 69.987729556298731 -36.571682508558979 0 0 0 0 -67.787517202901654 9.2353140199752488 0 9.2353140199752488 13.442557473036686 0 0 0 0 -73.832080294800107 30.170451849310666 0 30.170451849310666 7.4406648332487748 0 0 0 0 -9.1323764928674791 -72.817810188321928 0 -72.817810188321928 19.222437862055486 0 0 0 0 -14.855230400389246 -8.6325753489548163 0 -8.6325753489548163 -4.6209466289716179 0 0 0 0 -72.184293050449924 6.2263058757760064 0 6.2263058757760064 22.281366130299801 0 0 0 0 -85.40273548058326 -75.316468121854456 0 -75.316468121854456 19.848413010604702 0 0 0 0 -1.204695281557747 -0.68080882505056195 0 -0.68080882505056195 -0.36302765390016178 0 0 0 0 28.99333638389362 -43.547334669841604 0 -43.547334669841604 -19.606683963115302 0 0 0 0 -86.576679101563059 21.044254788214626 0 21.044254788214626 -2.3239891899434726 0 0 0 0 -56.655665469050291 -5.8255967811610923 0 -5.8255967811610923 0.034862764474931071 0 0 0 0 -11.348114361266198 -6.5586103264816131 0 -6.5586103264816131 3.2780573469507965 0 0 0 0 -19.920604680955876 11.755241807503801 0 11.755241807503801 -2.6003688469664676 0 0 0 0 -19.795886947467807 -7.7244172240996463 0 -7.7244172240996463 -0.026598402421931459 0 0 0 0 -39.170957754286064 -16.983764998324428 0 -16.983764998324428 -1.6092869792972024 0 0 0 0 -41.99971233020915 -19.31070514374975 0 -19.31070514374975 4.9205112069151564 0 0 0 0 -7.7186266759817954 -39.155716814134863 0 -39.155716814134863 -21.618727769020026 0 0 0 0 -97.668245128217677 -35.02606323461972 0 -35.02606323461972 8.0392554847869846 0 0 0 0 -59.607166682500974 -20.851327685006101 0 -20.851327685006101 4.9403354042281986 0 0 0 0 0.019165853489511164 0.20604316751538931 0 0.20604316751538931 0.074936690172513726 0 0 0 0 0.42662622313946486 0.92954219445160335 0 0.92954219445160335 -5.0700737359184433 0 0 0 0 -16.194897893110465 -4.8127005728666772 0 -4.8127005728666772 -0.90364946465514784 0 0 0 0 0.12773448253363995 0.20120677009688848 0 0.20120677009688848 -0.1146755125182131 0 0 0 0 2.4137829027022235 2.7129617950910614 0 2.7129617950910614 9.7981702836118814 0 0 0 0 -15.669958349908484 -3.9045826460322868 0 -3.9045826460322868 -0.90830480317531581 0 0 0 0 -4.7806523588471634 -0.33416642091526683 0 -0.33416642091526683 0.51019473520817171 0 0 0 0 -11.565775866052718 38.139536503224718 0 38.139536503224718 -56.306920412814264 0 0 0 0 -53.388745757867582 -51.872852151143967 0 -51.872852151143967 -19.916186830880271 0 0 0 0 -0.1279704095626073 -0.1174283153062845 0 -0.1174283153062845 0.020549554771113893 0 0 0 0 -88.089950927688278 23.323785938824116 0 23.323785938824116 31.814854253381924 0 0 0 0 -28.656358788794023 19.19718385496148 0 19.19718385496148 8.7509352451510125 0 0 0 0 -41.060451317462139 3.6600338261918068 0 3.6600338261918068 7.5295291172906218 0 0 0 0 -20.761995898045996 1.3460133912388272 0 1.3460133912388272 4.9974612914991194 0 0 0 0 -38.670128203826607 26.045373547596466 0 26.045373547596466 30.307473906981357 0 0 0 0 -20.646938978024991 -1.1138788183408224 0 -1.1138788183408224 58.812435619525218 0 0 0 0 -13.44264421385742 -31.078922506288791 0 -31.078922506288791 1.0935853786231746 0 0 0 0 -8.5577794333146073 -12.273401917929192 0 -12.273401917929192 -6.104113150277561 0 0 0 0 14.451758807525039 -21.323665639290908 0 -21.323665639290908 -14.331477014814709 0 0 0 0 -77.312034085160121 -39.37233805095002 0 -39.37233805095002 17.444312299275225 0 0 0 0 -30.263355472357944 19.770707261523057 0 19.770707261523057 -40.239746800210014 0 0 0 0 -19.235420321740094 -19.614685779343006 0 -19.614685779343006 5.272506618517582 0 0 0 0 -28.56226111316937 -6.9581855935089152 0 -6.9581855935089152 0.98324012403872985 0 0 0 0 -5.4664972130939304 -12.896763769067718 0 -12.896763769067718 -6.7957769058267381 0 0 0 0 1.033738277212251 -19.24036577887523 0 -19.24036577887523 -7.8028972916690691 0 0 0 0 -14.57429719628999 -7.6406435829699149 0 -7.6406435829699149 1.1168818490536978 0 0 0 0 -22.040478609706042 -19.191268475302422 0 -19.191268475302422 4.2166883521767886 0 0 0 0 20.539669721416431 -11.408097418770922 0 -11.408097418770922 -18.290663462169505 0 0 0 0 0.44273034942432332 -0.62758594586563277 0 -0.62758594586563277 -1.4290572636298933 0 0 0 0 -43.145365311462228 -28.167079845652779 0 -28.167079845652779 0.44618439892201422 0 0 0 0 5.9332745630235877 -30.766106675273022 0 -30.766106675273022 -21.537161159673815 0 0 0 0 54.808789632166736 -116.48795742990296 0 -116.48795742990296 -76.184804840984725 0 0 0 0 -80.885127338952771 19.606723823537692 0 19.606723823537692 4.7474802029082639 0 0 0 0 -4.8405568645245012 2.0776372103472482 0 2.0776372103472482 3.0884609798096827 0 0 0 0 -91.50375028772396 -12.884491838540725 0 -12.884491838540725 209.99189073429989 0 0 0 0 -20.49009079233133 -10.796259448005571 0 -10.796259448005571 -3.371650777193925 0 0 0 0 8.8755034165660618 -6.6169071799395169 0 -6.6169071799395169 -31.71184014334267 0 0 0 0 -64.309083644737257 21.912656052289094 0 21.912656052289094 19.989750632230766 0 0 0 0 -69.743096305872314 6.4956013150904255 0 6.4956013150904255 -0.37168225412733591 0 0 0 0 -71.027512802422279 -34.173094625822159 0 -34.173094625822159 -33.375504994288178 0 0 0 0 -86.208791352953995 22.615529574678021 0 22.615529574678021 5.3382344387264311 0 0 0 0 -76.466394826784381 6.8140603576391641 0 6.8140603576391641 1.2801781292864689 0 0 0 0 -90.964116348899552 19.401441716605177 0 19.401441716605177 11.449819405251219 0 0 0 0 -104.50309170647233 1.3068198111118363 0 1.3068198111118363 16.055980930741498 0 0 0 0 -106.88319219991899 -9.3544669912429299 0 -9.3544669912429299 -6.8173637828895153 0 0 0 0 -122.3952320491353 14.444074721697916 0 14.444074721697916 12.425018810515212 0 0 0 0 -107.48433127348108 -34.190595314935763 0 -34.190595314935763 -13.323941935846051 0 0 0 0 -91.887787439307431 -20.739484184734465 0 -20.739484184734465 -4.6162716712137808 0 0 0 0 -80.384856146905804 -33.180910776342898 0 -33.180910776342898 -17.782572057209109 0 0 0 0 -1.6664593618039447 -1.2615441164074639 0 -1.2615441164074639 -3.7606917301097482 0 0 0 0 -105.66547827326576 -26.459277275755085 0 -26.459277275755085 -2.3804043247409936 0 0 0 0 -110.8088886004698 -59.145565845587043 0 -59.145565845587043 -32.58497811246707 0 0 0 0 -134.99191731505016 -10.642037915915751 0 -10.642037915915751 12.123095617680519 0 0 0 0 -132.18210236780578 -15.009645891088439 0 -15.009645891088439 17.028974566876059 0 0 0 0 -121.83707391589996 -38.552511427221361 0 -38.552511427221361 -3.7958698622860538 0 0 0 0 -138.71722834293905 -51.142406458835012 0 -51.142406458835012 -5.1426735791883402 0 0 0 0 -118.6120257457078 -39.579232182787564 0 -39.579232182787564 -3.4690050963004069 0 0 0 0 -181.54827110553742 -24.959219610967011 0 -24.959219610967011 15.078401417393707 0 0 0 0 -146.77198446184047 -30.153265271331747 0 -30.153265271331747 -8.6968734259971825 0 0 0 0 -138.18511208317068 -39.855188545901456 0 -39.855188545901456 8.6956093805765704 0 0 0 0 -194.11583824189438 -87.92310288486442 0 -87.92310288486442 -78.516859336075868 0 0 0 0 -206.7923316325323 81.606094356795438 0 81.606094356795438 -206.16777159722551 0 0 0 0 -95.564062672594446 -73.595875776378307 0 -73.595875776378307 -70.45631353079375 0 0 0 0 -11.723879365097673 7.9757424252209148 0 7.9757424252209148 14.66400324555616 0 0 0 0 3.8765611289418302 13.231149508213093 0 13.231149508213093 -3.5001984446153074 0 0 0 0 -14.671777773176402 4.9818714179979224 0 4.9818714179979224 5.0148258385535769 0 0 0 0 1.6143650722106599 2.7752710051486815 0 2.7752710051486815 -1.2433905222465338 0 0 0 0 -57.919538265021401 -89.051872180334158 0 -89.051872180334158 -43.65343587442112 0 0 0 0 -23.144570979501736 13.261108598043378 0 13.261108598043378 13.746065036767121 0 0 0 0 -110.2995932329577 -98.42172583788215 0 -98.42172583788215 -91.461982098153385 0 0 0 0 -35.056094677711371 -58.631709691253491 0 -58.631709691253491 -74.60637908334138 0 0 0 0 -27.088078747037798 -130.06030020552862 0 -130.06030020552862 -116.71592928467544 0 0 0 0 -4.5227792904988746 -97.205421841176758 0 -97.205421841176758 -128.98156802551239 0 0 0 0 17.554706493814592 -117.1443150799023 0 -117.1443150799023 -140.06251025168376 0 0 0 0 -32.71249484353757 -71.007290270174053 0 -71.007290270174053 -143.53627598952698 0 0 0 0 -22.079653493274236 -23.160421450763351 0 -23.160421450763351 -5.3012211214718263 0 0 0 0 -25.682769676029693 -14.361007009741783 0 -14.361007009741783 13.651945378380169 0 0 0 0 -48.272159839965752 0.33427810182001849 0 0.33427810182001849 -23.890654971497497 0 0 0 0 -11.652961964905955 -10.290726996254207 0 -10.290726996254207 2.2218633101682705 0 0 0 0 -14.469093059757142 11.390223450530357 0 11.390223450530357 18.690327068270562 0 0 0 0 -15.951535582804865 1.1391450531346834 0 1.1391450531346834 7.9102998467774253 0 0 0 0 -14.515191818198218 -9.2867407105781012 0 -9.2867407105781012 -1.7021842739532076 0 0 0 0 -28.677101158894772 -5.899158201607321 0 -5.899158201607321 13.112263976342497 0 0 0 0 -5.0737505276361503 8.1977051075478471 0 8.1977051075478471 -45.964118164581002 0 0 0 0 -678.60572645094362 -286.0522859322798 0 -286.0522859322798 48.997204744582859 0 0 0 0 103.30768284284568 -22.842320712486071 0 -22.842320712486071 -90.237361584848259 0 0 0 0 28.666306443337817 -168.31900894796854 0 -168.31900894796854 -53.72938515471651 0 0 0 0 -69.87939740170259 -32.002608250128105 0 -32.002608250128105 -42.546247921532995 0 0 0 0 -36.111840487751579 -22.106133200823891 0 -22.106133200823891 9.0345366220198713 0 0 0 0 -6.6878221530488844 -2.6786821616481689 0 -2.6786821616481689 -2.213509761225545 0 0 0 0 -276.36599143387866 -63.116511557086596 0 -63.116511557086596 54.159442596637746 0 0 0 0 -39.402140666672494 15.76022668589394 0 15.76022668589394 -128.78715027874932 0 0 0 0 37.132908547682746 -103.70107661303155 0 -103.70107661303155 -314.83408782142214 0 0 0 0 -169.04872992764285 -199.81087667471729 0 -199.81087667471729 46.323240660607553 0 0 0 0 -1212.6583956195391 -407.96846670875527 0 -407.96846670875527 283.56968373814823 0 0 0 0 -1371.8001352597203 -467.09674515090757 0 -467.09674515090757 272.51989261687504 0 0 0 0 -11.517205630091439 0.96644204877996387 0 0.96644204877996387 -0.22043280132498261 0 0 0 0 -808.3964348588197 -624.45786519194974 0 -624.45786519194974 3.5924532806012621 0 0 0 0 -1101.9597001474431 -746.30182641028728 0 -746.30182641028728 -41.999554674174732 0 0 0 0 -439.8492870075097 -430.62619014375673 0 -430.62619014375673 -2.4768885741195845 0 0 0 0 -236.59213406594063 260.28203996403613 0 260.28203996403613 -0.82228374594660636 0 0 0 0 -501.55141696878127 -210.46780575292019 0 -210.46780575292019 -264.54183564884374 0 0 0 0 -931.72618917793443 -676.46436181878857 0 -676.46436181878857 -503.26749697426521 0 0 0 0 -1103.9739963192842 -243.50261860410819 0 -243.50261860410819 33.634249951929633 0 0 0 0 -9.9123651333312637 -0.58040023605648372 0 -0.58040023605648372 -8.5086431421602846 0 0 0 0 -1187.5406952129197 -933.45019213131252 0 -933.45019213131252 -695.57324069783363 0 0 0 0 -264.6429382586357 273.35463481543434 0 273.35463481543434 -366.26711756508575 0 0 0 0 -1617.4481202853494 -634.49153668844951 0 -634.49153668844951 -225.62601694361638 0 0 0 0 -5.5251785830207041 -7.5808359171219308 0 -7.5808359171219308 -3.1332350365456954 0 0 0 0 -1047.283271323744 307.13093527581066 0 307.13093527581066 -546.72132183785834 0 0 0 0 -1134.9867692932457 -751.36738695602503 0 -751.36738695602503 -662.28733036770711 0 0 0 0 -712.13426581725071 -223.89400561963134 0 -223.89400561963134 -24.849390746517201 0 0 0 0 -785.26053692016285 -341.88838754439769 0 -341.88838754439769 -18.604294925768258 0 0 0 0 -533.61981862189714 86.647187407861338 0 86.647187407861338 114.5758482370461 0 0 0 0 -1507.0703222351476 121.82819107807046 0 121.82819107807046 225.13197686082867 0 0 0 0 -678.73799631814472 79.54631305992973 0 79.54631305992973 129.90595284465013 0 0 0 0 -421.6225553184704 -51.992014745598112 0 -51.992014745598112 71.654233355583301 0 0 0 0 -41.654876704327762 41.805518037631828 0 41.805518037631828 39.828360612487756 0 0 0 0 1.2478281957334616 0.0039827351348264983 0 0.0039827351348264983 -0.62533672295847076 0 0 0 0 -152.67701310373377 -89.399126265478969 0 -89.399126265478969 -73.053236183096033 0 0 0 0 -234.39510456949938 71.149448331539134 0 71.149448331539134 -75.879314486995554 0 0 0 0 -36.385293191648088 -41.363075696398028 0 -41.363075696398028 -54.763258569977552 0 0 0 0 -5.8730413166631479 2.9267543717210174 0 2.9267543717210174 -58.008157865458088 0 0 0 0 -22.602500402911005 -21.189212389058746 0 -21.189212389058746 7.07557084593493 0 0 0 0 -80.756450691362261 -35.690229909974278 0 -35.690229909974278 27.305982410433899 0 0 0 0 -47.393866858848924 -41.46497469446706 0 -41.46497469446706 -26.41233562945763 0 0 0 0 -40.296825122524751 -59.403360867545643 0 -59.403360867545643 -36.607945975014673 0 0 0 0 -21.783669537608006 -26.37782912522681 0 -26.37782912522681 -13.221891594873636 0 0 0 0 -3.311957112716243 -4.4252212020717963 0 -4.4252212020717963 -1.9633612533069882 0 0 0 0 -18.926396010319877 -20.45224944694553 0 -20.45224944694553 7.5288934965437875 0 0 0 0 -15.027193089714274 -26.881604608617977 0 -26.881604608617977 7.4813842846115941 0 0 0 0 -15.557225541590014 -24.236676403721276 0 -24.236676403721276 -3.7775280788800956 0 0 0 0 -12.255065535850008 -30.419056391775655 0 -30.419056391775655 -6.0732770959448317 0 0 0 0 -3.0407295262848493 -31.583902148962352 0 -31.583902148962352 -17.838120160493986 0 0 0 0 -18.329105329903541 -16.21505667278393 0 -16.21505667278393 -12.287355229124557 0 0 0 0 -206.82787576544797 12.082136854637099 0 12.082136854637099 34.730330833866745 0 0 0 0 -78.657867692541913 -69.797969432001963 0 -69.797969432001963 -45.09534270301333 0 0 0 0 11.135562903917162 -10.061381472226657 0 -10.061381472226657 -78.699758821634219 0 0 0 0 -137.39164003587211 -114.47105235608807 0 -114.47105235608807 -63.528353922473883 0 0 0 0 -6.0241540267946903 0.0015958405925005081 0 0.0015958405925005081 0.14751374887437585 0 0 0 0 0.96829858985438477 20.825946524800756 0 20.825946524800756 -6.0463981580184178 0 0 0 0 -9.6232800826110179 -2.2457492697107853 0 -2.2457492697107853 -2.5560540259394053 0 0 0 0 -11.756357605507219 4.1540324660077594 0 4.1540324660077594 0.83447849411439101 0 0 0 0 -5.6807154559326136 2.3916418702445554 0 2.3916418702445554 -0.11766932346711129 0 0 0 0 -340.32943067327142 -2.1141086424676558 0 -2.1141086424676558 1.8177072891487853 0 0 0 0 -13.772253834104049 2.7800864683338227 0 2.7800864683338227 -0.012932420224753664 0 0 0 0 -5.3722138631856069 -0.45736520219212773 0 -0.45736520219212773 -1.050414124730481 0 0 0 0 -0.053999887881332143 -0.0015047059180517408 0 -0.0015047059180517408 -0.045929524536383957 0 0 0 0 -28.510246694291709 -6.8013728851238104 0 -6.8013728851238104 -0.41296520966013334 0 0 0 0 -621.10531627127784 -190.73497635869458 0 -190.73497635869458 -121.21529614983245 0 0 0 0 -1701.1819293445296 -133.34655371868115 0 -133.34655371868115 3.1790157605964424 0 0 0 0 -3.7073033246997511 3.4935863654290746 0 3.4935863654290746 0.0061936062880146824 0 0 0 0 -3.9067151570969259 0.7444353546756588 0 0.7444353546756588 -0.0094811525960581573 0 0 0 0 -551.80893923772965 -189.00697217699781 0 -189.00697217699781 -119.48046204616965 0 0 0 0 -343.05710205776268 20.343913839616619 0 20.343913839616619 -95.226431136858309 0 0 0 0 -397.85820675242576 4.2085528912693349 0 4.2085528912693349 10.827886019412972 0 0 0 0 -241.16261744093208 -50.707743667144712 0 -50.707743667144712 -44.611362975235693 0 0 0 0 -593.11102993114037 -52.326071219187384 0 -52.326071219187384 80.815054310620269 0 0 0 0 -715.49929624680954 -103.31404136464525 0 -103.31404136464525 77.554065479439146 0 0 0 0 -984.09093737550575 -227.97986405968351 0 -227.97986405968351 73.10165484411084 0 0 0 0 -733.79702556524717 -178.49268663223364 0 -178.49268663223364 -169.70853557644421 0 0 0 0 -2368.0801298102961 179.94378186501996 0 179.94378186501996 0.12997367005125898 0 0 0 0 -509.70937760830566 390.72697386629363 0 390.72697386629363 -282.84940619786153 0 0 0 0 -751.74180593014171 -261.67826688717787 0 -261.67826688717787 -4.3870287184066683 0 0 0 0 -0.42105986107281979 3.059843841315967 0 3.059843841315967 -2.2197039135313528 0 0 0 0 -2760.6488899018732 1172.1201188309315 0 1172.1201188309315 -363.34618641914841 0 0 0 0 -1615.6734186029262 878.72134896046362 0 878.72134896046362 -536.55024571694651 0 0 0 0 -1726.8839996265961 304.16949151700851 0 304.16949151700851 -138.01767190014218 0 0 0 0 -1200.8692172738956 10.974887264892885 0 10.974887264892885 -30.75938890121347 0 0 0 0 -1089.9877743214311 271.2006829166923 0 271.2006829166923 -350.34218434719708 0 0 0 0 -1341.899127646986 327.08975267187441 0 327.08975267187441 -170.10866599268948 0 0 0 0 -1737.8063033777289 241.30359949336062 0 241.30359949336062 -154.55344001685472 0 0 0 0 -3497.1321613088003 526.33284746342224 0 526.33284746342224 336.55183236765555 0 0 0 0 -2673.7788177612383 567.71789386811349 0 567.71789386811349 14.145990366106432 0 0 0 0 -2642.4772460015593 740.55114587676769 0 740.55114587676769 54.354847740730008 0 0 0 0 -3132.5062563513457 948.06583887541706 0 948.06583887541706 -33.147568524197013 0 0 0 0 -2932.8984447832481 1241.8325056839076 0 1241.8325056839076 -161.36456670637594 0 0 0 0 -3496.9543260773394 1949.0439402889306 0 1949.0439402889306 -537.84028773762236 0 0 0 0 -1728.1539793120719 1554.1299063546585 0 1554.1299063546585 -748.22350963239774 0 0 0 0 -35.701943668245804 69.163702627046177 0 69.163702627046177 87.897711769760235 0 0 0 0 451.72972849466532 -161.07391043061102 0 -161.07391043061102 -220.24790111275047 0 0 0 0 -702.09725282972067 -182.11681445248337 0 -182.11681445248337 65.138079871633636 0 0 0 0 -234.34417614901031 -245.81284737130142 0 -245.81284737130142 -210.96813328851431 0 0 0 0 -673.34998531829478 -321.28186097287715 0 -321.28186097287715 -95.407140329697995 0 0 0 0 -330.24655221559806 -123.56786279327139 0 -123.56786279327139 -49.161447344055432 0 0 0 0 -177.01404976076446 -168.88867857871617 0 -168.88867857871617 -536.71139133616998 0 0 0 0 -75.65224138105259 108.78448047914026 0 108.78448047914026 -26.742101800156888 0 0 0 0 2.8249271870811725 8.9642900767532865 0 8.9642900767532865 -3.7757970999884822 0 0 0 0 357.95341459210613 100.62796349947098 0 100.62796349947098 -203.47845405606949 0 0 0 0 362.57749167990551 69.11026290267165 0 69.11026290267165 -6.9446223629101951 0 0 0 0 91.098021899844753 -60.650367209004798 0 -60.650367209004798 40.999997904639713 0 0 0 0 -7.0405810617432252 0.80094344305254594 0 0.80094344305254594 3.3820062898830638 0 0 0 0 -88.36062590815709 84.774425751805893 0 84.774425751805893 -0.56393765736549994 0 0 0 0 287.84988338612311 373.0385958392215 0 373.0385958392215 -23.968732025814845 0 0 0 0 -123.57336084398412 20.534137026488793 0 20.534137026488793 26.825996611991741 0 0 0 0 137.11736014081544 55.905768172824935 0 55.905768172824935 -92.732640646494019 0 0 0 0 -297.23137432265503 244.4719572703591 0 244.4719572703591 -40.876503102651441 0 0 0 0 -26.727694966768752 4.5547084414845003 0 4.5547084414845003 -0.098342374511632386 0 0 0 0 -238.94386765232775 160.77007758974992 0 160.77007758974992 406.72342059738264 0 0 0 0 -21.07252313625213 20.257334063436474 0 20.257334063436474 2.7111512420171948 0 0 0 0 -31.74381934949173 13.487170679019837 0 13.487170679019837 -0.66253802763935621 0 0 0 0 -86.228807217339636 8.0364934964359236 0 8.0364934964359236 6.8104814800553868 0 0 0 0 -32.943354038528923 14.662639937237941 0 14.662639937237941 -0.76461699190190302 0 0 0 0 -10.558378507358867 14.576931313780179 0 14.576931313780179 0.15399098789966681 0 0 0 0 -268.03966976958327 84.74589482178817 0 84.74589482178817 417.82420063299298 0 0 0 0 -9.5908461855098039 17.866904087065485 0 17.866904087065485 -2.9010879296356809 0 0 0 0 -3495.9162525887514 -1241.4268987371781 0 -1241.4268987371781 -26.76383987124348 0 0 0 0 -1932.3590664342773 -773.56345977632805 0 -773.56345977632805 -603.85284040169404 0 0 0 0 -2500.004823385254 -1884.9517990685265 0 -1884.9517990685265 -1071.0413128043845 0 0 0 0 -10.950522174791615 3.80712437616641 0 3.80712437616641 -2.8240296468389117 0 0 0 0 118.40333589365764 -113.81340596285315 0 -113.81340596285315 -752.03291299355806 0 0 0 0 -6.421630866307602 2.0295233583143215 0 2.0295233583143215 -4.8165536888264722 0 0 0 0 -2637.5173617606051 2066.9431020582197 0 2066.9431020582197 -1623.4645647725133 0 0 0 0 -0.11236617460399145 15.47564466298374 0 15.47564466298374 1.9402454010797854 0 0 0 0 -252.70406508941232 340.89048277961138 0 340.89048277961138 -619.90607900768737 0 0 0 0 -27.598232717376959 20.924072668186909 0 20.924072668186909 -9.4567664003634491 0 0 0 0 194.28735348940245 243.46782875572308 0 243.46782875572308 -1331.4860442877286 0 0 0 0 390.55220781551907 492.58082561387209 0 492.58082561387209 -209.13480262388339 0 0 0 0 -36.186151299381919 -5.5594346246618187 0 -5.5594346246618187 -4.6590490837046064 0 0 0 0 -44.360773344800037 3.5656037526888422 0 3.5656037526888422 -1.3479188969148896 0 0 0 0 -3.3840258580712259 1.7853970645608896 0 1.7853970645608896 -0.51597473348207723 0 0 0 0 -25.103535887552425 -136.0625100399966 0 -136.0625100399966 47.799365057758905 0 0 0 0 -30.826039350911742 16.818365451885256 0 16.818365451885256 -26.276400582306053 0 0 0 0 -56.44171665963222 12.619407852763516 0 12.619407852763516 -1.6116934856518128 0 0 0 0 -569.22019317583181 102.2015122450166 0 102.2015122450166 79.697198361440087 0 0 0 0 -449.01703771247412 -7.8053912142131594 0 -7.8053912142131594 208.82195544871593 0 0 0 0 -318.47993280863739 -83.069282737752701 0 -83.069282737752701 242.6441355031784 0 0 0 0 -14.856312094838358 -183.44422309540414 0 -183.44422309540414 121.2643041116612 0 0 0 0 -217.78380978523637 -8.6029140020066279 0 -8.6029140020066279 -22.481955710033617 0 0 0 0 -82.280513620207785 -142.28665439785482 0 -142.28665439785482 106.43423133026499 0 0 0 0 -322.76855992572382 -25.752452751868077 0 -25.752452751868077 208.73103986595379 0 0 0 0 -299.82488562037179 3.1906427704782345 0 3.1906427704782345 71.13547343722621 0 0 0 0 -239.06255641090684 117.24846463821859 0 117.24846463821859 32.037712638665084 0 0 0 0 -9.1064718437119154 152.6672953955831 0 152.6672953955831 130.70062718996633 0 0 0 0 -507.28441028044472 188.49268575556539 0 188.49268575556539 183.83494267564129 0 0 0 0 527.60950139310717 -347.75173034210479 0 -347.75173034210479 68.263677111624929 0 0 0 0 -19.453632927322488 1.1324794733414976 0 1.1324794733414976 -2.2570839340391617 0 0 0 0 -6.6792106103347351 -156.25164288760229 0 -156.25164288760229 197.50793080366611 0 0 0 0 112.47012986734626 3.7117164611183853 0 3.7117164611183853 40.54999058985527 0 0 0 0 172.0127351093688 -227.56436846403699 0 -227.56436846403699 -87.342935866317475 0 0 0 0 -475.54623209532292 309.44845371646625 0 309.44845371646625 -42.30020212688845 0 0 0 0 -2.0718271416907612 -1.5404045955510881 0 -1.5404045955510881 -1.9918666655881925 0 0 0 0 -54.386773626887589 35.881222900937246 0 35.881222900937246 -104.59515681876633 0 0 0 0 -627.89450625312747 -16.388989257921367 0 -16.388989257921367 349.84043497194921 0 0 0 0 -219.36306071109721 -40.908311514611796 0 -40.908311514611796 -6.4118708886808236 0 0 0 0 -76.799062799227059 -45.151662962688064 0 -45.151662962688064 1.643750768404824 0 0 0 0 -165.97809533854888 -253.6527647370275 0 -253.6527647370275 138.9206482716433 0 0 0 0 -62.590066837059567 8.3665142184336219 0 8.3665142184336219 0.23323930854706987 0 0 0 0 -71.516215843152168 0.69630833268122672 0 0.69630833268122672 -3.8976870465162392 0 0 0 0 -179.31032706829137 17.591460543275332 0 17.591460543275332 0.20530280416454616 0 0 0 0 -42.30678055704891 -4.9346149530501364 0 -4.9346149530501364 -3.9728648957472634 0 0 0 0 -17.965688136000274 12.764981001533272 0 12.764981001533272 -10.367780639647973 0 0 0 0 -203.40517515825923 60.590536128084636 0 60.590536128084636 -36.212818561682582 0 0 0 0 -62.470173882633389 -14.000452531911606 0 -14.000452531911606 -2.4655611447585706 0 0 0 0 -67.744622420125097 -8.8795614626040003 0 -8.8795614626040003 -0.035322160793621722 0 0 0 0 -134.613232741518 48.719180273585152 0 48.719180273585152 47.576989508593556 0 0 0 0 -68.209471813344862 277.180372672212 0 277.180372672212 274.48689061403223 0 0 0 0 -0.96592691182326007 -29.094973832214002 0 -29.094973832214002 -1.3324967723247065 0 0 0 0 85.5307707261818 158.8466341008766 0 158.8466341008766 -146.56273944441563 0 0 0 0 -2.8538282773886294 3.0452734342805741 0 3.0452734342805741 -3.8765530790390206 0 0 0 0 42.900911842589267 115.14914633241193 0 115.14914633241193 -189.58705517231027 0 0 0 0 -175.0468993326067 69.681714897579639 0 69.681714897579639 -33.332278738928437 0 0 0 0 -471.89983640529681 -221.82573852306678 0 -221.82573852306678 77.461073368890197 0 0 0 0 -378.94842260642326 -330.68170394177389 0 -330.68170394177389 -122.86514233022058 0 0 0 0 -43.877423566877241 -20.146336803965141 0 -20.146336803965141 -4.423798828609911 0 0 0 0 -1.0799405783104703 -3.1714876903866287 0 -3.1714876903866287 -1.8963939844534821 0 0 0 0 -4.1821530867066627 -3.0433917431675752 0 -3.0433917431675752 -11.771771504146534 0 0 0 0 -24.706204214086029 -15.582093031103568 0 -15.582093031103568 -2.6724507419903603 0 0 0 0 -312.02926601399668 -200.27906913289496 0 -200.27906913289496 -234.80431268322172 0 0 0 0 -332.77720219187904 -235.1379982470483 0 -235.1379982470483 72.316610387545012 0 0 0 0 -45.265030692316941 -16.516736325724651 0 -16.516736325724651 15.863366080408923 0 0 0 0 -308.47533724519326 32.446740641234413 0 32.446740641234413 14.625793333198089 0 0 0 0 -60.887088301016774 58.78248259449785 0 58.78248259449785 -58.979499966662445 0 0 0 0 -183.07232793826552 -2.4548538928470407 0 -2.4548538928470407 -10.00223501631649 0 0 0 0 4.7432551372839953 -38.524275272179807 0 -38.524275272179807 -13.650584363558437 0 0 0 0 -33.343494426837424 -15.457337612660922 0 -15.457337612660922 -10.860510079464802 0 0 0 0 -20.519027833969972 -6.8123971744622906 0 -6.8123971744622906 -8.308635334768061 0 0 0 0 -62.951691837683939 -9.4707645631892063 0 -9.4707645631892063 -1.3849310393188716 0 0 0 0 -61.466035221921629 17.413684279815698 0 17.413684279815698 -26.086071438343197 0 0 0 0 -34.873559849642334 -9.0922438657316889 0 -9.0922438657316889 -16.369624657730355 0 0 0 0 -34.679124900862064 -9.649225708392823 0 -9.649225708392823 -4.4118239558662289 0 0 0 0 -28.26332330573743 -9.4586544644502482 0 -9.4586544644502482 -5.673376599459214 0 0 0 0 -44.506544550036779 -15.169834218154392 0 -15.169834218154392 -15.097495028934873 0 0 0 0 -46.954935733228922 -19.259768963653073 0 -19.259768963653073 -8.3474981848786456 0 0 0 0 -49.471833848045208 -23.079826710818452 0 -23.079826710818452 -13.062137225190327 0 0 0 0 -50.440142491628649 -28.60067384541162 0 -28.60067384541162 -20.574773553393243 0 0 0 0 -11.122760704296013 -3.2851337977693618 0 -3.2851337977693618 0.40820925063781743 0 0 0 0 -44.094998277840205 -25.817191786080002 0 -25.817191786080002 -17.736005106144148 0 0 0 0 -47.135130956245121 -23.156409406484272 0 -23.156409406484272 -19.163967951065388 0 0 0 0 -46.125912034942303 -27.084741548424063 0 -27.084741548424063 -22.359922330475456 0 0 0 0 -46.412579590803944 -21.331327042002158 0 -21.331327042002158 -16.214377601103479 0 0 0 0 -42.391187947214348 -22.884326212615633 0 -22.884326212615633 -20.36869355113231 0 0 0 0 -49.845979829668067 -25.257314985325138 0 -25.257314985325138 -16.00279056929503 0 0 0 0 -51.668164847418666 -28.001014719463001 0 -28.001014719463001 -19.95894062087973 0 0 0 0 -50.926113380584866 -27.925812984583899 0 -27.925812984583899 -28.316013063886203 0 0 0 0 -14.321661867157673 -25.386825812431653 0 -25.386825812431653 -5.2926491263988282 0 0 0 0 -15.200722927346646 -13.500699059178885 0 -13.500699059178885 -16.068560889465328 0 0 0 0 -7.0177996421998046 -11.221915252412501 0 -11.221915252412501 -15.301813971704208 0 0 0 0 -52.602405999217808 -34.84959352691186 0 -34.84959352691186 -24.487700371435039 0 0 0 0 -10.416612284316216 -8.5533733648035195 0 -8.5533733648035195 63.231809774846624 0 0 0 0 -46.881540163627506 -33.10071252365168 0 -33.10071252365168 -28.77777693295684 0 0 0 0 -28.003014737943886 -24.826976080124496 0 -24.826976080124496 -32.917718423121414 0 0 0 0 -8.485199229704449 -0.74728121137195558 0 -0.74728121137195558 -12.79798560110612 0 0 0 0 -23.714861527626113 -7.9310634615681863 0 -7.9310634615681863 -20.581642478639118 0 0 0 0 -234.9770159755426 -64.986600499294582 0 -64.986600499294582 155.02426323560985 0 0 0 0 372.92956023867009 -9.0353610572856269 0 -9.0353610572856269 148.43586473196774 0 0 0 0 -10.470721459854701 -2.7743366235863789 0 -2.7743366235863789 -21.629591592794796 0 0 0 0 989.36437306899461 32.21768422826608 0 32.21768422826608 -607.05989644374495 0 0 0 0 625.22237664740533 -217.24176937050834 0 -217.24176937050834 -74.866240051400382 0 0 0 0 661.46020863391459 247.0219835455282 0 247.0219835455282 -278.8109747106173 0 0 0 0 12.068925126863178 -179.85955800208103 0 -179.85955800208103 -399.16220033162972 0 0 0 0 -137.028561283827 240.28889551685825 0 240.28889551685825 -8.742659954179544 0 0 0 0 -1552.7695976978575 -72.956172602131119 0 -72.956172602131119 40.925585112522185 0 0 0 0 -1472.5015943364706 -250.30703256976449 0 -250.30703256976449 -54.760679669187084 0 0 0 0 -1323.8516293466528 -1614.036709183868 0 -1614.036709183868 -28.923634053357091 0 0 0 0 -103.1321705452574 -408.56600060383425 0 -408.56600060383425 -560.31065714227952 0 0 0 0 1060.85099661001 55.045409165501042 0 55.045409165501042 -446.78402513601031 0 0 0 0 482.13622410254902 455.26634989622835 0 455.26634989622835 81.672576880599081 0 0 0 0 336.61090754385805 221.04443156512571 0 221.04443156512571 266.66631477709416 0 0 0 0 432.70840155522455 159.69299490033154 0 159.69299490033154 -119.46535154871162 0 0 0 0 363.7831687201251 -55.69303631362618 0 -55.69303631362618 -27.261973134127402 0 0 0 0 10.466883892962841 4.1868333012463896 0 4.1868333012463896 -11.057252097621696 0 0 0 0 -24.764677861682003 22.105402214408201 0 22.105402214408201 -18.306900240742799 0 0 0 0 -422.56966031494812 1253.9231049075706 0 1253.9231049075706 -949.23533750299612 0 0 0 0 470.63091010312928 77.523351546372396 0 77.523351546372396 -191.1856912851872 0 0 0 0 -51.901068789127748 0.23559483410554094 0 0.23559483410554094 -20.228093121529525 0 0 0 0 -28.465268719123515 0.38956033664986345 0 0.38956033664986345 -12.753760871905833 0 0 0 0 -45.27010518075258 4.1445607629989354 0 4.1445607629989354 -44.171374450447729 0 0 0 0 -27.320796090574987 -10.723745069575465 0 -10.723745069575465 -2.4396948773590665 0 0 0 0 57.275270039717725 -2022.1094278196811 0 -2022.1094278196811 1139.6133617725318 0 0 0 0 -2758.477880586579 1785.0029062521207 0 1785.0029062521207 -764.23451002170464 0 0 0 0 -1394.1537118046836 -37.811863763668953 0 -37.811863763668953 -157.71073304069068 0 0 0 0 -1655.4309019226057 -300.45947805538526 0 -300.45947805538526 -57.015562227676128 0 0 0 0 -3730.938128393158 -141.68786855947292 0 -141.68786855947292 638.12861211760537 0 0 0 0 -1123.7227525870621 -808.85221724318467 0 -808.85221724318467 535.18928400141522 0 0 0 0 -1794.6555421711528 82.561501895580022 0 82.561501895580022 372.86212888554655 0 0 0 0 -485.45772111983024 446.03380229669324 0 446.03380229669324 -205.87937093188793 0 0 0 0 -183.59708806489652 -908.40042778219845 0 -908.40042778219845 244.19663680010945 0 0 0 0 -62.792729941247671 -1034.993651336687 0 -1034.993651336687 -1679.4389842779201 0 0 0 0 -14.146620001147369 -4.3793568801383653 0 -4.3793568801383653 -0.93902963118371663 0 0 0 0 -241.06095641180582 -142.41032952805517 0 -142.41032952805517 339.55927552507569 0 0 0 0 -39.825600744779479 -4.6376470653868198 0 -4.6376470653868198 -1.2124573359403006 0 0 0 0 -504.54042916630715 -526.07516767260699 0 -526.07516767260699 -208.85937020511074 0 0 0 0 -38.612967212044168 8.2992845888252305 0 8.2992845888252305 0.68582446268464992 0 0 0 0 47.149487080532708 68.708384234264031 0 68.708384234264031 -450.70479703223896 0 0 0 0 57.418061192656751 -90.103417452822669 0 -90.103417452822669 37.127357044618051 0 0 0 0 -12.552655080008776 4.5991460122779735 0 4.5991460122779735 -2.4655123373495424 0 0 0 0 -7.8852603971997013 -1.8109346936723796 0 -1.8109346936723796 -6.3807724178800704 0 0 0 0 -2.6535046073639279 -0.12201778279397502 0 -0.12201778279397502 -0.063108479016138475 0 0 0 0 -3.6919959678230327 1.4605970164049573 0 1.4605970164049573 -3.0657942983970523 0 0 0 0 -35.419198075804161 200.0349647131161 0 200.0349647131161 -1516.2374954350307 0 0 0 0 -505.68945932901988 -47.267966056328987 0 -47.267966056328987 -49.329620582081134 0 0 0 0 48.859713080462825 -168.72372034646833 0 -168.72372034646833 -249.86759626634557 0 0 0 0 -42.24624041331117 -9.7041683976667628 0 -9.7041683976667628 -18.892766257964297 0 0 0 0 -21.535646909222123 22.695572836963947 0 22.695572836963947 10.502677507180039 0 0 0 0 -47.921248962527898 3.3748381886468906 0 3.3748381886468906 2.6655372915956832 0 0 0 0 -271.47087294782978 504.84024329160184 0 504.84024329160184 85.615174312664521 0 0 0 0 -36.833652270610798 6.9004340135200017 0 6.9004340135200017 -1.7940574931015716 0 0 0 0 -28.819889686163961 9.2614759925141641 0 9.2614759925141641 -3.5090740713380999 0 0 0 0 76.931327346365833 116.45948190934624 0 116.45948190934624 -595.67420129455877 0 0 0 0 57.020200276863761 -26.630952274980245 0 -26.630952274980245 -147.72888791549281 0 0 0 0 78.622096218285151 98.731087383157956 0 98.731087383157956 -105.43449308322397 0 0 0 0 -8.8604577499096706 4.5248242653511959 0 4.5248242653511959 -1.4907069114562299 0 0 0 0 -127.63489786471473 259.82194542044454 0 259.82194542044454 81.117439833720255 0 0 0 0 272.51626517584373 18.773196076560453 0 18.773196076560453 -92.523547625918127 0 0 0 0 -7.2905778924923652 156.537254170371 0 156.537254170371 -159.46853854853543 0 0 0 0 -417.12378091043502 243.3703888415863 0 243.3703888415863 -386.83052090614638 0 0 0 0 -85.557634476848762 43.841423002244937 0 43.841423002244937 -194.52953319106393 0 0 0 0 -102.66907674064328 373.24371824140434 0 373.24371824140434 -562.61169558005713 0 0 0 0 110.40806198139035 62.674953659514813 0 62.674953659514813 -686.56939513531665 0 0 0 0 51.112375457632879 139.31103576845044 0 139.31103576845044 -598.03227336777036 0 0 0 0 -75.55817251886765 140.01724336803204 0 140.01724336803204 -61.330417631840419 0 0 0 0 100.82517367695255 356.59661239254115 0 356.59661239254115 -1163.0622795959921 0 0 0 0 -3.5646081951335304 2.4811827185117146 0 2.4811827185117146 -1.2329885280105306 0 0 0 0 -12.050571902804222 -432.53143012274535 0 -432.53143012274535 -524.41492762268808 0 0 0 0 -170.52626896613947 402.92001400048252 0 402.92001400048252 -1461.0655894947404 0 0 0 0 -258.5489166408006 105.50534882203783 0 105.50534882203783 -788.15903048131622 0 0 0 0 35.937154427039786 145.76010159897942 0 145.76010159897942 -474.85872746240148 0 0 0 0 61.153679117829597 -269.29186247130519 0 -269.29186247130519 -1160.4297938290301 0 0 0 0 -41.346682830328064 421.62749950678972 0 421.62749950678972 -871.23854320553346 0 0 0 0 25.629928040303639 109.64065433880023 0 109.64065433880023 -406.31428422811183 0 0 0 0 -213.03133268746024 430.10814791543407 0 430.10814791543407 -86.754294536024645 0 0 0 0 -10.338049611991295 4.0899175679120052 0 4.0899175679120052 -1.1816020791915962 0 0 0 0 152.05393423212809 506.62907094879301 0 506.62907094879301 -657.16605859045853 0 0 0 0 -30.402458802016554 100.35570795725113 0 100.35570795725113 -676.72348898171549 0 0 0 0 -31.874234984468785 102.36089126790307 0 102.36089126790307 -377.04540605028183 0 0 0 0 35.760516379661567 106.42588464031041 0 106.42588464031041 -424.97379152429289 0 0 0 0 43.505213992350036 78.444295880617631 0 78.444295880617631 -356.10368357975949 0 0 0 0 67.245278108319326 155.20118389714412 0 155.20118389714412 -355.14784271670106 0 0 0 0 24.134399369439052 113.67506729976958 0 113.67506729976958 -195.41997804036509 0 0 0 0 74.697050234070048 211.77507502553991 0 211.77507502553991 -409.29235331208383 0 0 0 0 -556.39314769063594 448.42110913564716 0 448.42110913564716 -337.33887429226206 0 0 0 0 328.71207051052625 -6.1129967319141088 0 -6.1129967319141088 -250.61276763932119 0 0 0 0 -1.5430198867580902 2.0170644891722276 0 2.0170644891722276 -1.6121599721695432 0 0 0 0 -270.34055528112367 338.83086543362845 0 338.83086543362845 -434.48859720010114 0 0 0 0 -272.91078552792169 346.02294169685729 0 346.02294169685729 -440.51754254145135 0 0 0 0 -294.83117116165522 307.11448947129975 0 307.11448947129975 -378.35885687409882 0 0 0 0 -329.08200645439501 299.2901891631725 0 299.2901891631725 -378.40782874273805 0 0 0 0 -319.01755114459593 360.40954859751236 0 360.40954859751236 -301.53807649846794 0 0 0 0 -276.49306842557417 231.34008908029136 0 231.34008908029136 -307.35543715902122 0 0 0 0 -194.875937722456 341.67425685834723 0 341.67425685834723 -396.14055927247273 0 0 0 0 -269.70916133777064 188.89507042250943 0 188.89507042250943 -636.10978524527536 0 0 0 0 -430.94342897167371 230.36223892635098 0 230.36223892635098 -311.02429270393577 0 0 0 0 -2.7123812858898759 1.2831367955522417 0 1.2831367955522417 -0.50953434863780989 0 0 0 0 -275.91602137799418 352.635214557479 0 352.635214557479 -448.0691490239376 0 0 0 0 -316.15773222271764 -190.42552326932829 0 -190.42552326932829 -146.0112652032999 0 0 0 0 -390.5725267477892 273.95147211685764 0 273.95147211685764 -248.83968908341922 0 0 0 0 -134.86795007372893 -185.0574142363057 0 -185.0574142363057 -103.51742047938114 0 0 0 0 -229.89815933763748 -6.9683148723506747 0 -6.9683148723506747 -178.95815262888755 0 0 0 0 -146.25898835538828 116.67139127690825 0 116.67139127690825 -621.78074315859749 0 0 0 0 -36.103637205953419 149.68323476724777 0 149.68323476724777 -397.96912958673192 0 0 0 0 -323.98895942799572 67.655852409906856 0 67.655852409906856 -28.670909847794832 0 0 0 0 -62.659615743711583 -4.0283663263892322 0 -4.0283663263892322 -2.5597852674472961 0 0 0 0 -217.00631549693571 -90.915114600775723 0 -90.915114600775723 148.97977944493505 0 0 0 0 201.07967561878195 34.290157056138611 0 34.290157056138611 -429.87265037142697 0 0 0 0 -31.463380185563672 -19.563534619534167 0 -19.563534619534167 -4.7788964715817936 0 0 0 0 -8.0289752118220861 -3.5593607935470715 0 -3.5593607935470715 -2.2451709579937553 0 0 0 0 -33.266920593000037 -7.0919524722691136 0 -7.0919524722691136 -1.4076055198322062 0 0 0 0 -29.894399037525147 -15.878756432286934 0 -15.878756432286934 -4.6091744555882439 0 0 0 0 51.478743896077503 -78.375848894395403 0 -78.375848894395403 -149.84135189739197 0 0 0 0 -23.025675464858068 -179.99652489159325 0 -179.99652489159325 -97.929056918749893 0 0 0 0 -51.530217532912502 16.639760309840838 0 16.639760309840838 -124.73500876483422 0 0 0 0 -73.662432531113154 203.86762995358799 0 203.86762995358799 -351.83325640775956 0 0 0 0 -118.33682911421056 165.1278960560237 0 165.1278960560237 -224.84851488646768 0 0 0 0 -22.885304888945939 -6.0956973639445842 0 -6.0956973639445842 -6.895263576434786 0 0 0 0 -7.8927260960810059 -8.4484977672408661 0 -8.4484977672408661 -7.5897206038162546 0 0 0 0 -106.91013074021612 44.342633845685896 0 44.342633845685896 -2.0636628606137037 0 0 0 0 -21.130096786713693 8.4483251935231465 0 8.4483251935231465 -83.965757507791295 0 0 0 0 -2.9700381795300927 -0.27235146711167602 0 -0.27235146711167602 -3.5758050412957423 0 0 0 0 -635.18112504501187 365.29460375000696 0 365.29460375000696 -233.86118475535204 0 0 0 0 10.357160121378456 -84.499571297387547 0 -84.499571297387547 -146.07328347160785 0 0 0 0 -0.29725397640535789 -2.1660822615745339 0 -2.1660822615745339 -2.5349977522232137 0 0 0 0 -219.56351304741111 5.5035571865978454 0 5.5035571865978454 88.340151670373416 0 0 0 0 -321.65886543269153 113.29816295502246 0 113.29816295502246 -69.776576197187978 0 0 0 0 -202.86521987857122 326.11280706339721 0 326.11280706339721 -358.77720596639801 0 0 0 0 -395.6813944853493 403.89706805761443 0 403.89706805761443 -276.72040933015387 0 0 0 0 -276.29604542504239 235.65506077735654 0 235.65506077735654 -130.07396739406636 0 0 0 0 -259.08161589401425 318.88874636735272 0 318.88874636735272 -370.3690647563169 0 0 0 0 -263.74651030500536 382.93464051184446 0 382.93464051184446 -360.20833798688 0 0 0 0 -280.87359800223931 323.6329815811373 0 323.6329815811373 -423.52750957110788 0 0 0 0 -285.41999190713977 312.57349270061013 0 312.57349270061013 -354.47115496152287 0 0 0 0 -366.2927040784416 439.16068813630386 0 439.16068813630386 -503.01576674609953 0 0 0 0 -294.54149009373577 241.67870685959781 0 241.67870685959781 -584.61869992809534 0 0 0 0 35.794449349334172 30.69812771499204 0 30.69812771499204 -368.81593891920443 0 0 0 0 -262.98129675327073 340.70434932478543 0 340.70434932478543 -376.14578916053279 0 0 0 0 -24.257548149744395 -1.4633219580200478 0 -1.4633219580200478 -2.2066019654911342 0 0 0 0 -118.50545152062114 25.130226041947523 0 25.130226041947523 66.715713068238415 0 0 0 0 -10.262569449081838 -1.4176639974998295 0 -1.4176639974998295 -8.825657831917372 0 0 0 0 -45.708310105065721 -75.349126031124399 0 -75.349126031124399 -25.852763387059213 0 0 0 0 -70.478430248695076 88.493026300350209 0 88.493026300350209 -115.47291132714895 0 0 0 0 23.710098052644753 66.069599564945747 0 66.069599564945747 -170.60835806632304 0 0 0 0 338.60464471011437 -306.56432167964613 0 -306.56432167964613 -85.268145960107177 0 0 0 0 -2.0457014265523839 -5.7238275201662105 0 -5.7238275201662105 -9.4948111948754761 0 0 0 0 292.3597764120459 -111.05733549591764 0 -111.05733549591764 -898.89574503244876 0 0 0 0 -1029.0924087401727 -507.39050555445374 0 -507.39050555445374 272.49839182408016 0 0 0 0 -219.0958179627778 114.79151920107915 0 114.79151920107915 530.78031820859019 0 0 0 0 -661.6325302569021 687.65486750701916 0 687.65486750701916 -195.67692507108075 0 0 0 0 122.33688420587714 125.7791061029518 0 125.7791061029518 55.021367743927385 0 0 0 0 60.946496462238429 276.30972371629741 0 276.30972371629741 -291.94754495143889 0 0 0 0 -912.24852294963785 81.214541922156855 0 81.214541922156855 137.65666566216279 0 0 0 0 63.843589634783712 -166.56449079686931 0 -166.56449079686931 47.891983018876033 0 0 0 0 -46.057244788562087 7.3023448114803617 0 7.3023448114803617 -1.285998809472972 0 0 0 0 231.30577066683327 57.29489493441946 0 57.29489493441946 -56.216707761895123 0 0 0 0 -1.8279159095884125 -0.14795315159432221 0 -0.14795315159432221 -4.3070570165126814 0 0 0 0 -853.63193478202447 -504.62723189842927 0 -504.62723189842927 -330.01707622537924 0 0 0 0 -902.86452900324366 -372.2690864948047 0 -372.2690864948047 21.847823418270394 0 0 0 0 1.4265604724618584 -1.2406684039691527 0 -1.2406684039691527 -3.7496571633923184 0 0 0 0 -31.980842759478435 7.5054825879121188 0 7.5054825879121188 -0.85551886153427947 0 0 0 0 88.619609771762043 160.75026658513477 0 160.75026658513477 -104.8194045550498 0 0 0 0 -150.59990685902449 132.99385788830409 0 132.99385788830409 -13.177398158253709 0 0 0 0 89.479191337414022 83.476026362478819 0 83.476026362478819 -19.120885412938151 0 0 0 0 92.228490088622493 143.88808289270719 0 143.88808289270719 -51.376540890133185 0 0 0 0 0.91694793233182281 -193.43905858700236 0 -193.43905858700236 -133.90791211162286 0 0 0 0 1.9052900857784039 1.5416595136284172 0 1.5416595136284172 -10.893993029365738 0 0 0 0 -283.51832106652728 -29.377878069409007 0 -29.377878069409007 -157.1372497029688 0 0 0 0 -299.70686148136156 -110.99389134234605 0 -110.99389134234605 83.892463759835152 0 0 0 0 -7.9663562782739632 3.4322431437582708 0 3.4322431437582708 0.9909476077469872 0 0 0 0 -349.57980944379233 -119.46172423985922 0 -119.46172423985922 -20.268756783327035 0 0 0 0 -324.02378646389116 132.9933360580817 0 132.9933360580817 -50.356109609386294 0 0 0 0 -505.85576300520916 -78.008349580127742 0 -78.008349580127742 232.48669041784228 0 0 0 0 -89.26741496611794 108.71467430456119 0 108.71467430456119 -168.0354042432316 0 0 0 0 81.939540097257122 141.05690036739134 0 141.05690036739134 78.448835590507343 0 0 0 0 -0.97708990804161999 1.1509251229159521 0 1.1509251229159521 -0.25931383605186975 0 0 0 0 18.075037599024654 -11.696334883537588 0 -11.696334883537588 -49.367303018904977 0 0 0 0 -8.7330192589288345 3.3413521261990695 0 3.3413521261990695 -4.9861771153422296 0 0 0 0 -7.7157447973295348 33.456599839810224 0 33.456599839810224 -23.017126253921333 0 0 0 0 -1.9027894541845001 0.19924194520051941 0 0.19924194520051941 -3.4508476715507661 0 0 0 0 -9.241945741843665 -0.14746459301090908 0 -0.14746459301090908 4.8714723949872223 0 0 0 0 -38.145637191570131 -12.832802193675889 0 -12.832802193675889 -2.0294149244209621 0 0 0 0 -30.708218911276219 7.640233594001927 0 7.640233594001927 -3.2723722743322532 0 0 0 0 -26.939328726345565 -5.9839269356870091 0 -5.9839269356870091 -2.5199282482320875 0 0 0 0 -28.84394598614017 -2.5662271622616402 0 -2.5662271622616402 -4.2431914357834586 0 0 0 0 -33.923042938251456 -2.5537612823610232 0 -2.5537612823610232 -3.2595240717692491 0 0 0 0 -28.784958402218763 -8.7766380729717639 0 -8.7766380729717639 -5.427641449229526 0 0 0 0 341.121597563666 -64.311503512329296 0 -64.311503512329296 -142.92268383498356 0 0 0 0 1.7429927291086642 427.15666061405 0 427.15666061405 -246.42195524574834 0 0 0 0 -1317.6402281532646 -196.06623484699998 0 -196.06623484699998 -69.960604153752456 0 0 0 0 -599.45625660983933 75.951376177173216 0 75.951376177173216 24.273577150970368 0 0 0 0 -36.789225812521181 -112.77797850636262 0 -112.77797850636262 48.198030833783946 0 0 0 0 -581.70331078268646 -498.79210148036054 0 -498.79210148036054 -211.26531616490365 0 0 0 0 -364.90884688362712 -151.82105393165648 0 -151.82105393165648 -55.042691001784078 0 0 0 0 -767.70137671133853 -152.02052669631644 0 -152.02052669631644 -11.499021907871793 0 0 0 0 -7.9945837325855393 0.037338839691784642 0 0.037338839691784642 -2.427167740411516 0 0 0 0 -490.87311018849869 8.0728572454599998 0 8.0728572454599998 0.46107322832313002 0 0 0 0 -412.78543404843276 -586.20709096967084 0 -586.20709096967084 -466.70650394556287 0 0 0 0 -367.20937563357438 -331.86842389669027 0 -331.86842389669027 -752.69416548610025 0 0 0 0 -167.63963148572657 -442.73726654286929 0 -442.73726654286929 -342.57468278293345 0 0 0 0 -449.32834910180827 -330.66513343772272 0 -330.66513343772272 238.66936380119841 0 0 0 0 -174.85708347502805 200.29398497147304 0 200.29398497147304 10.489819549454751 0 0 0 0 -430.85606442787685 -86.058735372746241 0 -86.058735372746241 43.161537033342938 0 0 0 0 -4.3482450984593015 -22.755366088976643 0 -22.755366088976643 743.9689768635576 0 0 0 0 92.004996515861421 -697.50760173923823 0 -697.50760173923823 0.69181250607186939 0 0 0 0 98.704541607661668 176.73810393686585 0 176.73810393686585 -788.32793764788221 0 0 0 0 -0.71473892748630163 3.2545889546138511 0 3.2545889546138511 -5.9494478357870086 0 0 0 0 113.62056855446644 455.32195676611582 0 455.32195676611582 -531.09430051320305 0 0 0 0 -42.281312722145231 -355.61073993066884 0 -355.61073993066884 -1109.7212679305321 0 0 0 0 765.62668489661883 317.71950959199995 0 317.71950959199995 -737.40430088184439 0 0 0 0 -642.16051444133336 -656.24674000203061 0 -656.24674000203061 240.68615593515301 0 0 0 0 -248.3567175824428 -548.17129247830405 0 -548.17129247830405 129.62359566791793 0 0 0 0 -142.6815005045537 63.937174210779546 0 63.937174210779546 -137.03089239539668 0 0 0 0 -11.861398421412105 2.3727295883336863 0 2.3727295883336863 -0.80224142021073008 0 0 0 0 -147.30593751187553 98.752794528948471 0 98.752794528948471 117.15065938453154 0 0 0 0 -330.42282150144456 32.756820601972777 0 32.756820601972777 175.04261712664629 0 0 0 0 -141.01689375258866 89.314909159952549 0 89.314909159952549 113.40771995253635 0 0 0 0 -345.76888903359941 272.10165496780633 0 272.10165496780633 -15.880553858118219 0 0 0 0 237.72501107435892 -224.83054519793131 0 -224.83054519793131 180.31372945149269 0 0 0 0 -573.99422996833164 129.07416287095907 0 129.07416287095907 301.414418471506 0 0 0 0 -418.21905287597474 -134.28215052085193 0 -134.28215052085193 513.80151617528099 0 0 0 0 -185.46530865573732 -124.91204136416945 0 -124.91204136416945 335.6212459666657 0 0 0 0 -172.69413070898736 -108.81785186883326 0 -108.81785186883326 149.36531639755049 0 0 0 0 92.401762148030684 -68.730569411757642 0 -68.730569411757642 49.839720133139053 0 0 0 0 12.243040641842526 -323.5363321241939 0 -323.5363321241939 318.41156009608221 0 0 0 0 -182.9323144064474 -396.02130323763686 0 -396.02130323763686 801.72142242234349 0 0 0 0 -151.76864117437071 596.78187576989785 0 596.78187576989785 -956.76920630469431 0 0 0 0 0.42747356164039374 2.5950155776836681 0 2.5950155776836681 -6.9269027248965322 0 0 0 0 185.68119902269791 430.14309826258136 0 430.14309826258136 -1513.7952881484043 0 0 0 0 -1109.4240874714233 693.64739235915295 0 693.64739235915295 978.71188111629453 0 0 0 0 94.686606860268512 85.766716195886829 0 85.766716195886829 -94.616170076505114 0 0 0 0 -207.72006351761229 6.5156342470818345 0 6.5156342470818345 27.150179684609611 0 0 0 0 -148.89895645054276 -66.551822674335313 0 -66.551822674335313 78.210727375773786 0 0 0 0 -43.813386323112354 36.302394834998722 0 36.302394834998722 -6.2517443149063183 0 0 0 0 -119.38887042657007 37.836530481284171 0 37.836530481284171 92.167130649706024 0 0 0 0 -9.4959675289557381 -2.8839146736077055 0 -2.8839146736077055 13.266993485120452 0 0 0 0 -85.096238470665412 0.92426931377576693 0 0.92426931377576693 -5.8498349625459696 0 0 0 0 -204.25713294594607 -55.741861799884454 0 -55.741861799884454 19.89951400313501 0 0 0 0 -177.81847388519964 -80.31047566701011 0 -80.31047566701011 28.889399223427517 0 0 0 0 -267.5032046547276 -173.76101161081806 0 -173.76101161081806 -32.492454651301045 0 0 0 0 -313.90450593931018 -162.68634793231377 0 -162.68634793231377 4.673037156819646 0 0 0 0 -457.96630201304288 -143.39112722472737 0 -143.39112722472737 39.957470267751887 0 0 0 0 -20.71824740989905 56.762788822816219 0 56.762788822816219 -40.148477399993681 0 0 0 0 -37.60912125161849 39.127476500374996 0 39.127476500374996 -14.836181782341782 0 0 0 0 -34.558512564876736 8.6423832109163214 0 8.6423832109163214 3.7705357844805483 0 0 0 0 -119.6655243087589 -5.5390090611363121 0 -5.5390090611363121 17.433110371679049 0 0 0 0 -70.136532660246303 -78.008673051406504 0 -78.008673051406504 -73.062255375820655 0 0 0 0 -100.33796917479776 -15.322364179774013 0 -15.322364179774013 19.802196871989963 0 0 0 0 -67.445500746514881 1.263661225150372 0 1.263661225150372 39.214715677248023 0 0 0 0 -71.068041493563214 -12.97064906413857 0 -12.97064906413857 -1.1597164852491915 0 0 0 0 -22.21957895327796 9.8732429856737554 0 9.8732429856737554 31.804970340884665 0 0 0 0 -58.695551766596985 18.520057199530896 0 18.520057199530896 18.614364335885121 0 0 0 0 -83.091595830897859 148.34161068841894 0 148.34161068841894 12.175032686131999 0 0 0 0 -20.743140269826981 26.927229658742448 0 26.927229658742448 25.342172996642773 0 0 0 0 -105.62607819847472 64.330374048899102 0 64.330374048899102 24.884755210727235 0 0 0 0 -192.69083011466137 -45.540529962212076 0 -45.540529962212076 20.486884027254746 0 0 0 0 -118.35542984795757 -82.167957077336268 0 -82.167957077336268 -206.54613071219774 0 0 0 0 -158.08402974321507 -91.409116361613201 0 -91.409116361613201 -144.35292150576061 0 0 0 0 -167.14194063949981 -79.079267801982041 0 -79.079267801982041 -17.393742788952295 0 0 0 0 -163.62284945885767 -35.537332721265102 0 -35.537332721265102 -30.760381124197011 0 0 0 0 -143.20176340287435 -25.786708842084408 0 -25.786708842084408 -163.63089574092328 0 0 0 0 -108.06603099139465 -21.672621055488662 0 -21.672621055488662 10.617029005242784 0 0 0 0 -132.58479175237153 -85.977189158451665 0 -85.977189158451665 33.196443492346589 0 0 0 0 -118.42032741368166 -13.516348175149687 0 -13.516348175149687 90.164221087541137 0 0 0 0 -166.87649687958765 35.826195235438036 0 35.826195235438036 161.54207527248991 0 0 0 0 -44.287341537882753 12.137290564603195 0 12.137290564603195 9.4628085697979198 0 0 0 0 -66.056193909647533 4.9892700050748005 0 4.9892700050748005 12.648308457860315 0 0 0 0 -30.84412317512033 5.6540080822824166 0 5.6540080822824166 5.0737989685194407 0 0 0 0 -97.812060389274848 -109.31283752338913 0 -109.31283752338913 139.550497689851 0 0 0 0 -147.43930657334568 -20.648556512242067 0 -20.648556512242067 61.936490797517763 0 0 0 0 -148.43016445205399 -56.662099659463337 0 -56.662099659463337 143.58211520573968 0 0 0 0 -5.6784492810872393 -18.707152193356588 0 -18.707152193356588 6.5459496377109332 0 0 0 0 -72.381864603914437 121.47187115379711 0 121.47187115379711 112.59577652380176 0 0 0 0 -148.60519534879131 -88.524595787326689 0 -88.524595787326689 47.695596131769889 0 0 0 0 -97.060298675116854 0.79772479321923129 0 0.79772479321923129 2.3971240145281287 0 0 0 0 -118.9264563388715 -13.570865067881641 0 -13.570865067881641 90.176252500581541 0 0 0 0 -156.47844115387124 -15.32884678638311 0 -15.32884678638311 186.12488167284664 0 0 0 0 -132.27256365570065 1.3161057078978047 0 1.3161057078978047 129.44338229054119 0 0 0 0 -59.148770981890294 7.5616558472332933 0 7.5616558472332933 -13.014740556050722 0 0 0 0 -18.523209023479325 -4.939800747132864 0 -4.939800747132864 1.7088327126367009 0 0 0 0 -56.448866478778655 62.39909514960209 0 62.39909514960209 139.73585232075197 0 0 0 0 -335.47150223795325 -19.499198219502432 0 -19.499198219502432 221.1191580341856 0 0 0 0 -18.628603224564898 0.41851829291884712 0 0.41851829291884712 -3.2781055048371797 0 0 0 0 -151.44803352071904 -65.823750140040829 0 -65.823750140040829 29.908089305669819 0 0 0 0 -147.39015225727053 -113.26124582885313 0 -113.26124582885313 -54.574971668629928 0 0 0 0 -97.879293547684938 -10.414389635697518 0 -10.414389635697518 98.838592300752225 0 0 0 0 -106.70361138999579 13.944073154057378 0 13.944073154057378 193.44712153204409 0 0 0 0 -53.823640210437588 -12.774755038985404 0 -12.774755038985404 183.66612009871687 0 0 0 0 52.285013408603845 -35.25722598221455 0 -35.25722598221455 146.60170783486342 0 0 0 0 -168.1216586700175 29.508620712311767 0 29.508620712311767 129.38365017257865 0 0 0 0 178.77068929394591 102.19842588695224 0 102.19842588695224 27.34825826089309 0 0 0 0 -10.639315031061415 40.840455526158394 0 40.840455526158394 112.77396081448387 0 0 0 0 -382.39202794646553 299.82859265307889 0 299.82859265307889 -29.756050553919067 0 0 0 0 -138.6342788447364 -7.244991623492183 0 -7.244991623492183 91.284663774741603 0 0 0 0 -574.94701617262035 -3.5441582221174031 0 -3.5441582221174031 96.147125937761132 0 0 0 0 -110.85984054417349 172.33227996340429 0 172.33227996340429 4.9101095214527959 0 0 0 0 -71.475974144239444 228.27275269757138 0 228.27275269757138 49.009967375867745 0 0 0 0 -98.980656554302186 311.34108455320882 0 311.34108455320882 74.108825354165674 0 0 0 0 -39.983260621578665 197.19989011747248 0 197.19989011747248 -66.773887482117971 0 0 0 0 182.07735122817394 26.10135980510222 0 26.10135980510222 -332.24191107579145 0 0 0 0 104.05565244201716 336.11339417372102 0 336.11339417372102 43.293884351868201 0 0 0 0 1.0392503020851507 1.5292873436514185 0 1.5292873436514185 -2.5699921542703343 0 0 0 0 0.82948085060027665 0.74714275662672947 0 0.74714275662672947 -1.6490086870349483 0 0 0 0 -561.64063854073174 -327.16414498835775 0 -327.16414498835775 -18.759186339007556 0 0 0 0 -562.44686564127915 -146.44894827802796 0 -146.44894827802796 259.10655173267151 0 0 0 0 -705.43119714884961 29.66527773525695 0 29.66527773525695 338.65165887135436 0 0 0 0 -16.520589139296987 23.549587398899973 0 23.549587398899973 30.242514188522584 0 0 0 0 -183.28483917968697 -29.633457589608724 0 -29.633457589608724 218.68497461450488 0 0 0 0 -147.89724660640786 182.31065883317058 0 182.31065883317058 -198.05666213182394 0 0 0 0 145.05511163907067 -51.709684588942764 0 -51.709684588942764 -215.18853389979017 0 0 0 0 -158.41584370216151 -16.620816015714809 0 -16.620816015714809 67.19207669104253 0 0 0 0 -79.159267315109901 -29.910936128152116 0 -29.910936128152116 17.958416722344737 0 0 0 0 -23.122597064873844 129.13899621302471 0 129.13899621302471 74.616749693421298 0 0 0 0 -127.83541732124286 -60.31120714214785 0 -60.31120714214785 127.15375468325874 0 0 0 0 116.79688370242366 34.640528887025539 0 34.640528887025539 -24.751542466312458 0 0 0 0 -115.86018550066365 11.746557999169596 0 11.746557999169596 79.547626327561147 0 0 0 0 -36.876834441374186 13.248101445797687 0 13.248101445797687 -2.7717804657392753 0 0 0 0 -56.996345163279329 -0.47319593331440046 0 -0.47319593331440046 -12.084145630463581 0 0 0 0 -47.443119583764997 -5.0291667739917401 0 -5.0291667739917401 -0.080444118261705944 0 0 0 0 -46.578977994715387 0.19446259547754607 0 0.19446259547754607 -15.353357877915187 0 0 0 0 -52.564556072233245 -7.8824772718548388 0 -7.8824772718548388 -0.83093607834530303 0 0 0 0 -57.312290351648699 -6.1746087813592396 0 -6.1746087813592396 -18.396644338619694 0 0 0 0 -22.446174452181211 18.277763872053526 0 18.277763872053526 -5.4288454420540901 0 0 0 0 -58.396938799371128 1.0154294214498805 0 1.0154294214498805 -20.485051723370191 0 0 0 0 -10.51138255911701 17.552166452514101 0 17.552166452514101 -2.4095181264042367 0 0 0 0 -84.630190376585233 81.74504525876705 0 81.74504525876705 -57.857394317646182 0 0 0 0 -81.777732414637285 62.88610339976043 0 62.88610339976043 1.4258779276592577 0 0 0 0 -93.811367621587124 33.351474993631101 0 33.351474993631101 -8.275786083705043 0 0 0 0 -95.510709019756177 -71.580508986384416 0 -71.580508986384416 -12.881505713910656 0 0 0 0 -177.83367759481916 62.05065982833446 0 62.05065982833446 39.055022224525146 0 0 0 0 -9.0511559057156177 -10.424765770909076 0 -10.424765770909076 1.0178471837904759 0 0 0 0 -220.26028186659823 50.56076917968737 0 50.56076917968737 -7.0918617792842067 0 0 0 0 -78.476179315242916 -50.479032866823133 0 -50.479032866823133 -37.947690520563356 0 0 0 0 -106.62712172828469 -74.879337250280059 0 -74.879337250280059 38.035994317936911 0 0 0 0 -36.628712346855849 12.130477514057915 0 12.130477514057915 -7.235857946861584 0 0 0 0 -73.965759815102501 13.519305710131107 0 13.519305710131107 45.521927595396335 0 0 0 0 -83.257888311259507 -7.6514070851136609 0 -7.6514070851136609 0.49279356833787896 0 0 0 0 -47.488750440075819 43.796780028986035 0 43.796780028986035 72.537444135643682 0 0 0 0 -115.29964731345535 -18.857546876723973 0 -18.857546876723973 68.824827141075389 0 0 0 0 -108.94274227373535 21.248062796276372 0 21.248062796276372 133.55294127901743 0 0 0 0 -87.095539737328437 -4.5619158545052372 0 -4.5619158545052372 3.1518203150358159 0 0 0 0 -108.59647747161944 -52.502590502685734 0 -52.502590502685734 32.430276711384295 0 0 0 0 -99.699076769982639 -44.039190099414498 0 -44.039190099414498 -11.713287605666665 0 0 0 0 -111.24696808047884 -32.727983575462019 0 -32.727983575462019 93.653770736544175 0 0 0 0 -198.25014542072313 -27.51293952336232 0 -27.51293952336232 146.82590396579735 0 0 0 0 -163.49799919652287 -110.46369324676311 0 -110.46369324676311 -12.479446109721266 0 0 0 0 -291.14341731995228 -310.10471371665051 0 -310.10471371665051 -112.3477571038552 0 0 0 0 -61.283314860906103 -128.1293875465999 0 -128.1293875465999 -33.832781162929223 0 0 0 0 -0.73925137939940555 1.2616555186393583 0 1.2616555186393583 2.6296078817069333 0 0 0 0 -38.411288313487603 1.4818264624506128 0 1.4818264624506128 27.170694815686602 0 0 0 0 -59.429567732724536 -87.38513770496229 0 -87.38513770496229 -26.127209609717397 0 0 0 0 -49.430632532690652 -13.412292746994353 0 -13.412292746994353 8.3040009704623117 0 0 0 0 -15.081296442797509 -5.5736590848843548 0 -5.5736590848843548 7.7461950867541711 0 0 0 0 -57.458767223273753 -18.192979561711581 0 -18.192979561711581 6.3001826928061746 0 0 0 0 -70.681906169804279 -14.870647495035882 0 -14.870647495035882 5.7455026644256577 0 0 0 0 -40.499412769844639 -2.6083081458523338 0 -2.6083081458523338 -12.441883023608852 0 0 0 0 -43.79223040821671 -11.748518937347399 0 -11.748518937347399 -2.7127641664328621 0 0 0 0 -52.930307598493528 -6.8559908601309871 0 -6.8559908601309871 5.0574701024302158 0 0 0 0 -46.983227516859188 -11.218030345722127 0 -11.218030345722127 8.075376715233233 0 0 0 0 -54.254643887041311 -13.710215266520436 0 -13.710215266520436 17.386209116881673 0 0 0 0 -55.854928505352291 -21.411947587259533 0 -21.411947587259533 18.895937264665008 0 0 0 0 -43.509538432961563 -32.67843803360347 0 -32.67843803360347 -33.022347670061208 0 0 0 0 -22.25519418255135 -42.867527626664469 0 -42.867527626664469 -30.217935138584153 0 0 0 0 -35.160363761891858 -72.030822295437645 0 -72.030822295437645 -20.21551870634903 0 0 0 0 -35.559033407262177 -76.969436465511592 0 -76.969436465511592 -80.428472513447559 0 0 0 0 -89.73857261268131 -69.841484907192807 0 -69.841484907192807 27.464823732985224 0 0 0 0 -96.956013357106713 -89.696829600196907 0 -89.696829600196907 5.374917154864761 0 0 0 0 -73.282463034352986 -116.79042928915169 0 -116.79042928915169 -64.786209837217029 0 0 0 0 -54.367063844751101 -20.203180364835134 0 -20.203180364835134 19.688858459830385 0 0 0 0 -60.223530061630299 -16.48627440513269 0 -16.48627440513269 31.322815060520952 0 0 0 0 -2.8008486378093949 25.507168580960297 0 25.507168580960297 61.867412962428261 0 0 0 0 -3.8619541129783954 2.9696893256857493 0 2.9696893256857493 0.24997994605776164 0 0 0 0 -248.83579414473934 220.07890126265761 0 220.07890126265761 -205.33447719114201 0 0 0 0 21.916304706945084 108.8172800867103 0 108.8172800867103 136.62389170102324 0 0 0 0 -85.21619933375041 28.164713089685847 0 28.164713089685847 206.93982277749319 0 0 0 0 -89.97911343992746 -77.446888232680976 0 -77.446888232680976 22.177478186349617 0 0 0 0 -134.4865726424614 -71.510782997345814 0 -71.510782997345814 101.54016332380297 0 0 0 0 -152.97829780802567 -136.71405839932254 0 -136.71405839932254 2.9686221772917634 0 0 0 0 -90.693006286186574 -86.842341943001657 0 -86.842341943001657 -69.553360142571364 0 0 0 0 -169.81418965494959 -130.39133757289096 0 -130.39133757289096 97.531323429753002 0 0 0 0 -8.4081951145537346 -4.8153691385503947 0 -4.8153691385503947 -3.3519720838314759 0 0 0 0 -812.27275309228571 -349.13633621186364 0 -349.13633621186364 -151.12679624959196 0 0 0 0 -495.52016446024936 461.72498985462198 0 461.72498985462198 -158.56199713378737 0 0 0 0 33.51108730188389 -136.92433607142215 0 -136.92433607142215 -703.86831945282893 0 0 0 0 91.22738513139484 -32.941083906342101 0 -32.941083906342101 -166.54738338473089 0 0 0 0 6.0510152984497836 -48.440985351935979 0 -48.440985351935979 -92.671545392958251 0 0 0 0 -53.588721856140182 -189.1281123144463 0 -189.1281123144463 -177.58456068077288 0 0 0 0 -32.143459290484316 -35.966642959484943 0 -35.966642959484943 -64.592767536451447 0 0 0 0 75.041959454627431 63.463179067351064 0 63.463179067351064 -21.122556157587042 0 0 0 0 -1.8693608729518019 -46.322354376284693 0 -46.322354376284693 -61.300471623171688 0 0 0 0 21.395608000384527 -94.753963324989854 0 -94.753963324989854 -66.658892716382979 0 0 0 0 -38.905047755863052 -56.904421665115478 0 -56.904421665115478 -35.538756390719755 0 0 0 0 -60.984138644955237 -103.03687517358367 0 -103.03687517358367 -57.372615444542134 0 0 0 0 -27.913113884901577 -74.875294220306159 0 -74.875294220306159 -33.391908992332901 0 0 0 0 -32.06874151017746 -113.22688351947545 0 -113.22688351947545 -72.981683444108967 0 0 0 0 -65.411450191226322 -6.7358118353714076 0 -6.7358118353714076 22.082508348032718 0 0 0 0 -17.789981176661861 -1.3493194976422558 0 -1.3493194976422558 14.541401124137296 0 0 0 0 -51.689016061672021 -9.1459226302540202 0 -9.1459226302540202 17.505491133658275 0 0 0 0 -64.401699802656367 -5.8289322806429595 0 -5.8289322806429595 21.111396367078328 0 0 0 0 -66.52515291781009 -5.6426251232182718 0 -5.6426251232182718 9.8296212001084591 0 0 0 0 -65.678298059588997 -5.2932696052504298 0 -5.2932696052504298 21.18654194059377 0 0 0 0 -88.298268501166604 -9.147826426127267 0 -9.147826426127267 -14.704717387385244 0 0 0 0 -14.659744557035538 4.9477951423780446 0 4.9477951423780446 5.7182072449678731 0 0 0 0 -50.942676886603294 23.524935240909144 0 23.524935240909144 70.352705695947861 0 0 0 0 -7.8374471132192411 8.2344388226397314 0 8.2344388226397314 -33.079746430945761 0 0 0 0 -379.88932151235349 -62.623995517719322 0 -62.623995517719322 -10.846864629278571 0 0 0 0 24.730527294028434 -37.645971185364601 0 -37.645971185364601 -72.700374645928605 0 0 0 0 -5.478556401018011 -0.49981827257460054 0 -0.49981827257460054 -0.45585276778948247 0 0 0 0 -275.81866584165255 -221.42544977912348 0 -221.42544977912348 -114.21838347311945 0 0 0 0 -129.59050539074087 300.73799668550714 0 300.73799668550714 -186.40701800520765 0 0 0 0 -355.14014952808793 -135.91647500495674 0 -135.91647500495674 62.942895856243013 0 0 0 0 -529.9377529784033 -196.18860404093084 0 -196.18860404093084 51.279826739874807 0 0 0 0 103.41777919134256 484.00917337718522 0 484.00917337718522 -0.11623368546679558 0 0 0 0 -726.7560832855379 -178.10076666481382 0 -178.10076666481382 104.40780604439658 0 0 0 0 -1.6720891945537062 1.487698775865482 0 1.487698775865482 -0.63988959262249168 0 0 0 0 -127.22905641651596 211.08238613172853 0 211.08238613172853 -21.183156266229275 0 0 0 0 13.660270040309115 -193.0386020761423 0 -193.0386020761423 -522.48405014817763 0 0 0 0 -37.750689235544996 9.9542596897408657 0 9.9542596897408657 175.67531985854225 0 0 0 0 127.79526954801986 -6.1903832964771937 0 -6.1903832964771937 -253.8191183043873 0 0 0 0 -68.465236919597373 -110.43327321488505 0 -110.43327321488505 210.86005679543746 0 0 0 0 -240.15046842777156 -140.10189223441779 0 -140.10189223441779 -93.801982921922445 0 0 0 0 -23.23333046305595 -12.902381565377354 0 -12.902381565377354 -7.7917796219539452 0 0 0 0 -27.607153461198322 -110.19991605362475 0 -110.19991605362475 130.63979122965793 0 0 0 0 -9.2717360668902984 -26.224008632867481 0 -26.224008632867481 -20.098454552834482 0 0 0 0 -15.748990411957493 7.1392352047319037 0 7.1392352047319037 -69.225761071765646 0 0 0 0 -445.2202322152807 165.49368746271921 0 165.49368746271921 49.093275577665736 0 0 0 0 -34.411041713136285 -20.415313485302732 0 -20.415313485302732 -3.2586161572697758 0 0 0 0 -24.773234492786287 -50.083822238192454 0 -50.083822238192454 35.977483577096336 0 0 0 0 -70.468950805894565 -17.723480854698664 0 -17.723480854698664 104.1809279297795 0 0 0 0 -118.72790706132946 10.460188298903859 0 10.460188298903859 61.654637780580742 0 0 0 0 -9.5448726903759962 -27.529216462930208 0 -27.529216462930208 55.850978855922222 0 0 0 0 -65.153364600831992 -17.958421554534652 0 -17.958421554534652 75.10394995768047 0 0 0 0 -125.86480188736459 6.2132647908229046 0 6.2132647908229046 43.935082963384957 0 0 0 0 -10.254227430347449 -6.2867607078604237 0 -6.2867607078604237 41.130197186891287 0 0 0 0 -351.87458857965248 29.439068871920767 0 29.439068871920767 227.95591728930003 0 0 0 0 1.4758838847194582 -2.3478474677881991 0 -2.3478474677881991 23.098461613905904 0 0 0 0 10.742400977040234 81.61524744049467 0 81.61524744049467 45.558230332845596 0 0 0 0 -115.239124801461 -69.720687655658821 0 -69.720687655658821 43.724476238243369 0 0 0 0 -345.64038779605471 -300.04449743663093 0 -300.04449743663093 -89.715363723494193 0 0 0 0 -278.98193211600301 -222.99378636449546 0 -222.99378636449546 -0.66298695105115257 0 0 0 0 -121.30711031530518 -261.62166000972366 0 -261.62166000972366 -160.00332015422373 0 0 0 0 -142.40490847341425 -298.98217354897349 0 -298.98217354897349 -98.554037684340074 0 0 0 0 -71.212260109939962 -80.245209460127398 0 -80.245209460127398 12.868811269264825 0 0 0 0 -114.90408509018016 -146.7098648222609 0 -146.7098648222609 -66.487964783665802 0 0 0 0 -8.4993064279478858 -235.83878684564638 0 -235.83878684564638 -220.52124990836819 0 0 0 0 -50.597030037006334 -393.2397630397756 0 -393.2397630397756 -555.8300806955458 0 0 0 0 -143.88060354598565 -340.2429784615058 0 -340.2429784615058 -146.32951840931946 0 0 0 0 -76.903109955048421 -278.22956899464043 0 -278.22956899464043 -243.00194211422013 0 0 0 0 -55.237437735566346 -228.15546177051965 0 -228.15546177051965 -84.653764876813966 0 0 0 0 -106.92929668640136 -288.40747059889878 0 -288.40747059889878 -132.30938754137173 0 0 0 0 -162.34192618829547 -299.96958629650953 0 -299.96958629650953 -33.067342274271141 0 0 0 0 -10.06482014368521 -0.62194304396716493 0 -0.62194304396716493 22.377892095015028 0 0 0 0 -23.693991993604698 2.9579380817716441 0 2.9579380817716441 0.60939284805384364 0 0 0 0 -173.49177298431459 -272.90423528778206 0 -272.90423528778206 -109.95822269334786 0 0 0 0 -15.632688930920267 -10.678662412871512 0 -10.678662412871512 100.58046872890303 0 0 0 0 13.296343470181455 -29.739129210737101 0 -29.739129210737101 -0.14982203913703673 0 0 0 0 52.745359980464855 46.578741082550358 0 46.578741082550358 8.2586264888344232 0 0 0 0 25.511087254199083 -59.620022474430883 0 -59.620022474430883 42.987936305626576 0 0 0 0 -224.51843843811366 -210.4632289874136 0 -210.4632289874136 -129.63570030468213 0 0 0 0 -207.28592625058081 -208.86152929474395 0 -208.86152929474395 -285.17276661170445 0 0 0 0 -8.5386289369530459 0.33695306994483332 0 0.33695306994483332 0.30367539974209373 0 0 0 0 -350.38921133542317 -558.10935479162742 0 -558.10935479162742 -655.086717733829 0 0 0 0 -255.52888439725211 120.80071440939778 0 120.80071440939778 259.36558012461961 0 0 0 0 -248.21824983700935 -61.691201881144693 0 -61.691201881144693 0.58142078052376522 0 0 0 0 -945.61783389153425 -54.281968418620963 0 -54.281968418620963 214.94975184109015 0 0 0 0 -773.52384605590487 -633.35860429044158 0 -633.35860429044158 -184.68897698009914 0 0 0 0 -0.11091109202917693 -0.55506868935393072 0 -0.55506868935393072 6.7995456838945518 0 0 0 0 -605.35055114389979 -307.58879251819451 0 -307.58879251819451 -48.726672381640498 0 0 0 0 27.15015466531986 415.43349459578553 0 415.43349459578553 -148.74861735812985 0 0 0 0 -37.946685834658012 14.653372007134521 0 14.653372007134521 -4.4878748033660134 0 0 0 0 -12.505228000292846 35.401679902760023 0 35.401679902760023 2.028085070369869 0 0 0 0 56.612650532217231 443.66293235965077 0 443.66293235965077 125.54647060104514 0 0 0 0 13.519803715025773 12.197679263965384 0 12.197679263965384 -23.780104578654765 0 0 0 0 -38.750071037560701 16.714427419853088 0 16.714427419853088 4.9798149206740092 0 0 0 0 -19.40881929275929 15.074294446929345 0 15.074294446929345 -6.1649628128534033 0 0 0 0 -43.124092377780471 -4.4463017615756577 0 -4.4463017615756577 -15.132028032413562 0 0 0 0 -41.874236696581647 -6.0592862929882765 0 -6.0592862929882765 -16.71145006454309 0 0 0 0 -94.458025859843474 -0.53237240336564007 0 -0.53237240336564007 -7.6266521187436602 0 0 0 0 -91.685645717880107 48.030130984280305 0 48.030130984280305 17.901926359363245 0 0 0 0 -25.699773140513571 -28.761913952685056 0 -28.761913952685056 -24.011385448570834 0 0 0 0 -33.95136723561177 18.49733395698712 0 18.49733395698712 -7.5507354923299443 0 0 0 0 66.129020058171591 -93.635886159699567 0 -93.635886159699567 -59.334442422198663 0 0 0 0 -39.913445438141935 309.68464275796396 0 309.68464275796396 184.20618013251396 0 0 0 0 131.05053407144442 -66.226988378103897 0 -66.226988378103897 -138.86866315663519 0 0 0 0 -232.8700683493953 412.40192941062469 0 412.40192941062469 -469.7623138882318 0 0 0 0 -33.423684625391616 115.78384162780367 0 115.78384162780367 -118.0699865889228 0 0 0 0 -513.21139004333236 -604.31471198654026 0 -604.31471198654026 -292.58722489977163 0 0 0 0 -979.87824068461487 -60.502042063176759 0 -60.502042063176759 102.54044340545397 0 0 0 0 -310.75653287546447 80.07403450646359 0 80.07403450646359 403.26104199649762 0 0 0 0 -69.652357912389562 30.41212357730123 0 30.41212357730123 17.326022269752499 0 0 0 0 -33.535094417580638 9.3534047033550394 0 9.3534047033550394 -1.2756700021298399 0 0 0 0 -365.60652181348996 37.098537891609112 0 37.098537891609112 532.50007781199292 0 0 0 0 -210.53661904035835 -46.476844395902845 0 -46.476844395902845 75.079461427340675 0 0 0 0 -32.029211503220722 29.952313167058719 0 29.952313167058719 18.804265473171483 0 0 0 0 -208.57676929084118 -187.18333589784447 0 -187.18333589784447 405.61970128147686 0 0 0 0 276.39398316098959 324.75978512707525 0 324.75978512707525 -137.81673244846934 0 0 0 0 -6.4154305365722735 -3.7600820031704956 0 -3.7600820031704956 3.4611738931584126 0 0 0 0 -16.847797443042509 2.4968038991343882 0 2.4968038991343882 2.2086626460218213 0 0 0 0 -24.453742315527052 21.367030661588664 0 21.367030661588664 -6.8086036353885078 0 0 0 0 -41.874905393109657 0.37944973059437359 0 0.37944973059437359 25.060568065244794 0 0 0 0 5.1422946646377454 6.4191861807666655 0 6.4191861807666655 -4.5772086126072269 0 0 0 0 -42.624588320264593 15.349835044714517 0 15.349835044714517 4.7425438417442329 0 0 0 0 -33.55849605918047 9.5462020290038154 0 9.5462020290038154 6.1451708869064241 0 0 0 0 -31.346524464970571 12.246049133498939 0 12.246049133498939 -4.326701470281094 0 0 0 0 -40.921280422031487 27.315891178989443 0 27.315891178989443 -5.5350351329649143 0 0 0 0 -38.549393206310924 13.89116526306683 0 13.89116526306683 -2.2271835776503508 0 0 0 0 -36.293601963858237 10.281063872842289 0 10.281063872842289 2.8682324989547654 0 0 0 0 -34.949790945916902 -21.905182444790086 0 -21.905182444790086 26.043521660314916 0 0 0 0 -68.13302867821767 16.244394149301648 0 16.244394149301648 19.400368454628214 0 0 0 0 -27.432490022067213 -12.677050788118036 0 -12.677050788118036 17.310849768261498 0 0 0 0 -28.125381565696443 -23.817775046487842 0 -23.817775046487842 43.252332200142234 0 0 0 0 -42.905544386216206 -0.27988133288547967 0 -0.27988133288547967 2.3322836264918045 0 0 0 0 -38.78575693887251 1.312674979136947 0 1.312674979136947 0.073452371613618936 0 0 0 0 -53.770735044105095 -0.91195715764605045 0 -0.91195715764605045 -0.031541983036359716 0 0 0 0 -43.078190569140133 -3.9797194991675156 0 -3.9797194991675156 -6.9638151666838546 0 0 0 0 -40.469183462802903 4.0295156942048251 0 4.0295156942048251 -5.5455674183488064 0 0 0 0 -41.215698889485793 4.2253639489844312 0 4.2253639489844312 -4.2138173460948778 0 0 0 0 -47.386288014131424 -0.37664021352964361 0 -0.37664021352964361 -5.318003904885046 0 0 0 0 -36.75099509942811 2.8729899339693432 0 2.8729899339693432 -11.652756274642496 0 0 0 0 -30.580920484397211 11.46316717950514 0 11.46316717950514 -4.09054075266965 0 0 0 0 -69.624502050326555 -8.9657241898152389 0 -8.9657241898152389 -7.9385891941991407 0 0 0 0 -46.486891835180359 -3.7201262122462158 0 -3.7201262122462158 -12.202671497787554 0 0 0 0 -72.768493142473744 -11.435539835198796 0 -11.435539835198796 -2.8760477627960901 0 0 0 0 -72.670585959166601 -12.916904295369289 0 -12.916904295369289 -10.249794202366399 0 0 0 0 -95.525034523583599 -7.824694947392719 0 -7.824694947392719 0.0027449004999315369 0 0 0 0 -117.2705764977436 -17.919094101576093 0 -17.919094101576093 -0.089342123269284812 0 0 0 0 -116.93962348597415 -12.192939190702385 0 -12.192939190702385 2.271548711958479 0 0 0 0 -92.800751867194776 -13.678598776585826 0 -13.678598776585826 -7.10113122943386 0 0 0 0 -118.35818751371698 -29.635395588318111 0 -29.635395588318111 -14.945262293620891 0 0 0 0 -69.637192049369332 -8.0705578900857571 0 -8.0705578900857571 -19.968526930152272 0 0 0 0 -92.426380576071097 -15.044497877671963 0 -15.044497877671963 -6.4638939819750272 0 0 0 0 -116.17047142468073 1.6789528964815195 0 1.6789528964815195 5.3687162208475385 0 0 0 0 -125.67130492719298 -6.6903789899927837 0 -6.6903789899927837 0.010572624658272004 0 0 0 0 -130.89549092022935 -5.6067294312334779 0 -5.6067294312334779 0.56493341259086804 0 0 0 0 -139.14522446737101 -13.327445604035406 0 -13.327445604035406 2.3550484916502805 0 0 0 0 -136.74549487643526 -4.2645304503226846 0 -4.2645304503226846 4.5192342522482791 0 0 0 0 -107.18589104250714 5.154946177515856 0 5.154946177515856 -3.8776920331360589 0 0 0 0 -117.42269681152538 12.337644032952763 0 12.337644032952763 -0.24682604401024832 0 0 0 0 -151.36936062805762 31.519644926779382 0 31.519644926779382 -15.812887850481744 0 0 0 0 -93.684976777858537 21.944784357140865 0 21.944784357140865 -51.14543794158061 0 0 0 0 -165.93474980947576 -13.686129971570564 0 -13.686129971570564 -1.2724033573687947 0 0 0 0 -157.49166562932078 -9.3739623694105294 0 -9.3739623694105294 -10.122426903417793 0 0 0 0 -292.57496318162885 -38.182576978066216 0 -38.182576978066216 -15.238184587776235 0 0 0 0 -150.61446680728113 -95.581253602878434 0 -95.581253602878434 -114.21316330153482 0 0 0 0 2.8205559278612213 -5.7600892086390942 0 -5.7600892086390942 -4.8336621189848206 0 0 0 0 -191.81140620759106 83.959058943108531 0 83.959058943108531 -76.145186451874864 0 0 0 0 -56.957008448807755 16.687803233734257 0 16.687803233734257 -50.621000806641504 0 0 0 0 -11.418855577471751 -4.7561086931268335 0 -4.7561086931268335 0.1704516754765939 0 0 0 0 -88.708974689827301 -20.343606273313512 0 -20.343606273313512 -27.711507512671528 0 0 0 0 -33.559665802109521 -6.6310888179751046 0 -6.6310888179751046 -48.641771929226444 0 0 0 0 -69.625325547138345 20.999565516399279 0 20.999565516399279 -35.993493460691084 0 0 0 0 -150.85759670369771 -60.519458235774621 0 -60.519458235774621 -39.790125586934508 0 0 0 0 -87.908980165884714 -22.74708648863696 0 -22.74708648863696 -20.726473591007338 0 0 0 0 -74.189793603029102 -16.577854154470359 0 -16.577854154470359 -39.529833106586473 0 0 0 0 -66.580578220891766 -24.641038640098287 0 -24.641038640098287 -66.001146430343098 0 0 0 0 -3.736111986960168 -26.086253849536945 0 -26.086253849536945 -55.949949562732726 0 0 0 0 9.392837870400399 35.521403080066996 0 35.521403080066996 -45.789933640549506 0 0 0 0 -6.2760837816547621 -0.11519430352748827 0 -0.11519430352748827 1.8063672881119686 0 0 0 0 -54.872204313011025 -36.419422565666991 0 -36.419422565666991 -46.983723355237998 0 0 0 0 -26.843165975880197 20.771510918212627 0 20.771510918212627 -10.111380831792737 0 0 0 0 5.3965591253326011 3.0173461264699313 0 3.0173461264699313 -3.9431319294490201 0 0 0 0 -63.520412019017385 -43.667761360592522 0 -43.667761360592522 -20.823950938479356 0 0 0 0 -87.491351155975281 53.108546119316372 0 53.108546119316372 101.81153794703732 0 0 0 0 -256.52675491679111 -74.648371582055006 0 -74.648371582055006 80.433888643935461 0 0 0 0 -61.204640032519819 -83.448681186197064 0 -83.448681186197064 16.006845203371995 0 0 0 0 -4.5353444324346128 28.099281876741834 0 28.099281876741834 -38.616474382094168 0 0 0 0 -54.732896108209388 57.927450329431707 0 57.927450329431707 18.849681137212855 0 0 0 0 -9.7144532174570486 66.272649878310318 0 66.272649878310318 -28.976242368275166 0 0 0 0 -77.890488511682634 -1.7468126487226527 0 -1.7468126487226527 -30.456169363375636 0 0 0 0 -111.17668079386931 55.752640306522594 0 55.752640306522594 -125.6765813813889 0 0 0 0 -230.44007163790957 -26.745810351180552 0 -26.745810351180552 17.564928432707291 0 0 0 0 -37.311503690194513 -85.943593437954775 0 -85.943593437954775 -96.258182403597488 0 0 0 0 -8.5074522969150799 -36.86348797640693 0 -36.86348797640693 -14.585869746690761 0 0 0 0 -153.48711099407228 4.3291887604036674 0 4.3291887604036674 20.684493823830906 0 0 0 0 -122.11744881491177 -39.125598480242218 0 -39.125598480242218 17.173572527495281 0 0 0 0 -67.855103944515577 10.635707443752722 0 10.635707443752722 14.074062251167504 0 0 0 0 -101.90825780552404 -46.279573344374541 0 -46.279573344374541 -24.430818627662347 0 0 0 0 -116.2251287169056 -38.435945392290535 0 -38.435945392290535 16.763635312041629 0 0 0 0 -6.4038283512029111 -37.409463290042282 0 -37.409463290042282 -18.449997534028153 0 0 0 0 -92.225937659350166 -30.059329951173652 0 -30.059329951173652 -28.287592937167574 0 0 0 0 -84.362999582946031 -42.908378638922144 0 -42.908378638922144 -16.26998256690058 0 0 0 0 -9.9529754523519784 -27.967707739884446 0 -27.967707739884446 -14.422230429070439 0 0 0 0 -16.605818167413673 -6.8078049439068309 0 -6.8078049439068309 -0.76769148795504094 0 0 0 0 -70.108741820906289 -37.050021430235574 0 -37.050021430235574 -26.085631472439445 0 0 0 0 -34.134238743734102 -27.738927490789109 0 -27.738927490789109 -16.015385548819204 0 0 0 0 -1.5578054873421934 -12.790585707114232 0 -12.790585707114232 -8.1347581527288639 0 0 0 0 -50.728504443715792 -33.065773824191638 0 -33.065773824191638 -29.153836038759437 0 0 0 0 -4.5251292915409058 -15.270574963929221 0 -15.270574963929221 -13.716395343416062 0 0 0 0 -32.609903589993451 -13.397763260569874 0 -13.397763260569874 -2.7413928996324604 0 0 0 0 -49.560357239359291 -34.034710418631221 0 -34.034710418631221 -31.437122053107942 0 0 0 0 -87.34213898134476 0.29563825592276771 0 0.29563825592276771 -22.973226835010109 0 0 0 0 22.051294354590937 41.915443564979796 0 41.915443564979796 -41.345209956141161 0 0 0 0 -24.30467083009313 12.904837426960725 0 12.904837426960725 -5.2925708487145711 0 0 0 0 -254.02549392993387 59.971775654787734 0 59.971775654787734 -1.4953562056992951 0 0 0 0 -64.078857341635739 -116.77279099855025 0 -116.77279099855025 10.244014012524531 0 0 0 0 31.752417675837933 -26.192893660882874 0 -26.192893660882874 -68.979333039740141 0 0 0 0 -514.95281433275522 -69.914657643290184 0 -69.914657643290184 100.35921680277079 0 0 0 0 -19.931576066519483 -0.44072679353712374 0 -0.44072679353712374 10.175830251649813 0 0 0 0 -0.005434295717904547 -1.4917818134973118 0 -1.4917818134973118 -3.7761414466516854 0 0 0 0 -11.299019128588043 -86.978800834350295 0 -86.978800834350295 -150.29337603664135 0 0 0 0 -169.54551350421389 -202.01475334471888 0 -202.01475334471888 -113.66541104074076 0 0 0 0 68.747045535303187 44.926143114872502 0 44.926143114872502 -326.12723192418525 0 0 0 0 -20.728808750453169 20.041001777409875 0 20.041001777409875 -8.5891284457261463 0 0 0 0 31.981902575542335 180.17329085644087 0 180.17329085644087 -131.69195089903405 0 0 0 0 -211.95460326923057 4.7753616565487391 0 4.7753616565487391 126.24825481337803 0 0 0 0 -218.03779979178216 -173.79546448495057 0 -173.79546448495057 -194.48919879187724 0 0 0 0 -1293.4162283414626 1308.1279029477137 0 1308.1279029477137 598.63734167018356 0 0 0 0 -2369.6824775823043 1092.1316603167179 0 1092.1316603167179 875.13520702684582 0 0 0 0 -542.46907446060504 -621.72713502144052 0 -621.72713502144052 -676.65109892281453 0 0 0 0 -2446.8718418521457 -719.3143217325287 0 -719.3143217325287 212.2073943370815 0 0 0 0 -1078.1818294730037 -345.90664010040928 0 -345.90664010040928 151.06316871596459 0 0 0 0 -364.84478345120442 -13.788444635833912 0 -13.788444635833912 146.2839125222763 0 0 0 0 -644.52339595774538 -135.24996084138547 0 -135.24996084138547 247.15017584818816 0 0 0 0 424.0266841610719 585.03021566132247 0 585.03021566132247 -9.8810959581223869 0 0 0 0 -2.6480173904595858 -1.5382270049224616 0 -1.5382270049224616 -2.6419752680523274 0 0 0 0 304.26953963195047 44.508147279214541 0 44.508147279214541 -77.120886528340634 0 0 0 0 -938.22713840511278 1044.005720911015 0 1044.005720911015 -419.17761172882791 0 0 0 0 -1039.7224339999739 928.58342243563129 0 928.58342243563129 -221.37272183646382 0 0 0 0 -873.99204058847681 657.33462727989263 0 657.33462727989263 -95.866784296998958 0 0 0 0 -854.08202850766247 744.05324307630508 0 744.05324307630508 -420.09949686442997 0 0 0 0 -700.28799293324118 803.46370219411438 0 803.46370219411438 -449.94902748467371 0 0 0 0 -687.22079568618938 521.21426474079908 0 521.21426474079908 -562.04278919058197 0 0 0 0 -715.12036033023469 505.96733861369057 0 505.96733861369057 -350.69942434953373 0 0 0 0 -650.77107085013995 698.54686306514668 0 698.54686306514668 -472.23763384728409 0 0 0 0 -1588.260426705805 -412.5200278310258 0 -412.5200278310258 -411.16489800862655 0 0 0 0 -1091.494850999472 -184.78363327997113 0 -184.78363327997113 -131.72165023366688 0 0 0 0 -1434.2699463367608 1002.7836726321457 0 1002.7836726321457 -867.70349390548245 0 0 0 0 -7.4942659823958593 -2.7926408447083872 0 -2.7926408447083872 0.87131836141929142 0 0 0 0 -549.43932556403161 724.45553937418754 0 724.45553937418754 -519.04667615343533 0 0 0 0 -1743.4284646572851 -238.57134465513491 0 -238.57134465513491 4.9585491164325504 0 0 0 0 -1640.9939140167698 -198.89021231126389 0 -198.89021231126389 -55.967214552743826 0 0 0 0 -1408.2859261869453 -178.09868429371818 0 -178.09868429371818 -66.329625929454778 0 0 0 0 -1563.964275061735 -195.89908305959943 0 -195.89908305959943 179.67383547579811 0 0 0 0 -10.458887519043685 -6.4465938177533104 0 -6.4465938177533104 -2.9484969171856843 0 0 0 0 -131.62644357752288 -151.28612362206604 0 -151.28612362206604 -420.88917298346314 0 0 0 0 -210.18842492182739 1039.5359470993153 0 1039.5359470993153 200.55194645260781 0 0 0 0 -29.185374792141374 61.784047036628181 0 61.784047036628181 100.13474765078354 0 0 0 0 -7.296105223329505 152.00982405214063 0 152.00982405214063 18.197565474079965 0 0 0 0 -23.221892932953779 32.291559106512068 0 32.291559106512068 -114.76502926242119 0 0 0 0 38.635991544404533 58.755479326336172 0 58.755479326336172 -153.28102181790564 0 0 0 0 -80.733989159023622 -140.98036955411317 0 -140.98036955411317 -415.87252434521179 0 0 0 0 22.532875248267374 91.198241581510501 0 91.198241581510501 -164.52831385658465 0 0 0 0 21.19221846543951 17.354118907741395 0 17.354118907741395 -0.31837452893171303 0 0 0 0 20.579317372425066 -2.7969069633674337 0 -2.7969069633674337 -42.478622895980152 0 0 0 0 3.5762413243501214 42.54326595406701 0 42.54326595406701 -5.2845150164921506 0 0 0 0 38.543488208191775 59.578089010416619 0 59.578089010416619 -21.343327864900857 0 0 0 0 107.34623698789801 -16.898494711041621 0 -16.898494711041621 -131.77208892692443 0 0 0 0 95.918373414722737 -61.676603458294267 0 -61.676603458294267 -10.416407668407146 0 0 0 0 130.12442396452116 6.2384132340626053 0 6.2384132340626053 -29.853588103588663 0 0 0 0 9.2282722933976515 -5.2312843619115341 0 -5.2312843619115341 -8.013341499747245 0 0 0 0 -223.02648443965882 -100.32043273901763 0 -100.32043273901763 58.388921970921729 0 0 0 0 -228.18374666155432 -200.14633158960351 0 -200.14633158960351 -189.65206076355207 0 0 0 0 81.374982261862897 21.39110942004254 0 21.39110942004254 -176.77276697693378 0 0 0 0 -308.95366773413843 -351.59419301460912 0 -351.59419301460912 -303.98516668723732 0 0 0 0 -675.18248495885382 -383.46854915672611 0 -383.46854915672611 73.178557660432489 0 0 0 0 -435.32462092512287 -227.74051683416019 0 -227.74051683416019 55.853225530564714 0 0 0 0 -358.58195128701482 -249.27129265780582 0 -249.27129265780582 -34.575953429946821 0 0 0 0 -364.96873094976763 -251.48712309206303 0 -251.48712309206303 15.981018489160988 0 0 0 0 -369.87858106871136 -363.06156469631514 0 -363.06156469631514 27.952557177532071 0 0 0 0 -363.96234868458123 28.442980404855916 0 28.442980404855916 17.000233912563999 0 0 0 0 -141.23611204155895 -113.15170258681928 0 -113.15170258681928 -161.98086772370607 0 0 0 0 -58.253828791130218 -152.63177870035406 0 -152.63177870035406 -209.17847474298105 0 0 0 0 -46.76087828046002 67.751383090330819 0 67.751383090330819 177.79933541224273 0 0 0 0 -2.7741100107987506 -1.7618730964875482 0 -1.7618730964875482 0.043274213159913089 0 0 0 0 93.944376728764382 -90.979421439186012 0 -90.979421439186012 -340.31274765407579 0 0 0 0 -296.48554580412747 -243.91617425424556 0 -243.91617425424556 -0.86196260001997871 0 0 0 0 -293.96827787121219 -338.6216235308475 0 -338.6216235308475 35.800974635932107 0 0 0 0 -122.59096317169315 162.27779373264639 0 162.27779373264639 -217.19343992729796 0 0 0 0 -1.7587405886812917 6.7808960894107475 0 6.7808960894107475 -1.8214392951590064 0 0 0 0 -89.44057308344054 -136.18740335056964 0 -136.18740335056964 96.049827261211249 0 0 0 0 -116.19296843087068 63.423426103511588 0 63.423426103511588 360.9568226445017 0 0 0 0 -208.32794670030125 -318.49038592494071 0 -318.49038592494071 -39.64071256063653 0 0 0 0 -50.102255390147491 5.126171853809959 0 5.126171853809959 4.3259359073969978 0 0 0 0 -106.03762690488657 76.688479643375331 0 76.688479643375331 225.22369073932259 0 0 0 0 -52.236696774650909 0.040053203830142436 0 0.040053203830142436 0.98161572161944899 0 0 0 0 -34.79007888736669 108.46184072528149 0 108.46184072528149 165.98743214858837 0 0 0 0 -32.873480661301073 127.16390089468297 0 127.16390089468297 66.381399739166227 0 0 0 0 -253.0765954219678 14.538256367242866 0 14.538256367242866 61.802210936483476 0 0 0 0 -29.062459463937557 123.13148346424737 0 123.13148346424737 25.98222659836847 0 0 0 0 -489.34029801331053 132.60722385982899 0 132.60722385982899 36.99748433214063 0 0 0 0 3.6122264724581328 73.93485204871638 0 73.93485204871638 -43.477032904850603 0 0 0 0 -23.415693930117413 1.8510870408381379 0 1.8510870408381379 33.079394257238619 0 0 0 0 -70.847589470529783 67.872379764731136 0 67.872379764731136 39.116685599882203 0 0 0 0 -48.214080827397993 60.934911723992172 0 60.934911723992172 -19.171042499623297 0 0 0 0 69.402607087424258 98.984866787625265 0 98.984866787625265 -33.45544575797453 0 0 0 0 -92.334752604001551 132.7922862472102 0 132.7922862472102 -134.22179425333115 0 0 0 0 -22.820913166884566 38.51336944320451 0 38.51336944320451 7.1474187078481464 0 0 0 0 42.877369883564825 58.717682205773087 0 58.717682205773087 -98.718924797347427 0 0 0 0 -24.350401918721218 -4.1307666777721295 0 -4.1307666777721295 -1.4986576979736368 0 0 0 0 -10.809366385923752 2.2635948573647795 0 2.2635948573647795 2.4992490614937268 0 0 0 0 44.103143261223238 -85.992573021815517 0 -85.992573021815517 -46.133091086624972 0 0 0 0 -49.543648029124597 39.542437409359849 0 39.542437409359849 92.09411526417307 0 0 0 0 48.103146276265875 209.36696938969729 0 209.36696938969729 -263.58191756711381 0 0 0 0 -66.506235919806386 -31.129787479274952 0 -31.129787479274952 -14.01990512402142 0 0 0 0 -67.495953664635579 -24.634383971645903 0 -24.634383971645903 -3.2445271470035033 0 0 0 0 -346.44246092371759 50.745455426030503 0 50.745455426030503 201.77077665837533 0 0 0 0 -130.65892877639271 -133.37081256596093 0 -133.37081256596093 278.8980607808744 0 0 0 0 0.026284829583190117 21.30484291049811 0 21.30484291049811 6.3979197255379097 0 0 0 0 -23.438487792613159 43.995916922181436 0 43.995916922181436 17.440477158454183 0 0 0 0 -107.27356710293316 78.591984183259228 0 78.591984183259228 42.64808725839589 0 0 0 0 -147.61467352075624 80.231824948850601 0 80.231824948850601 89.678078758913216 0 0 0 0 -63.842942610106547 -5.578442441659007 0 -5.578442441659007 4.6015968943184475 0 0 0 0 -50.1374818989716 -6.5202173926510421 0 -6.5202173926510421 -9.6740202018167611 0 0 0 0 -72.53531382444163 -12.473059782931053 0 -12.473059782931053 0.77092527154307267 0 0 0 0 -62.88482725447102 -7.9592729688625816 0 -7.9592729688625816 -20.178424445480339 0 0 0 0 -84.979770697304048 12.431654983293898 0 12.431654983293898 -23.289482524200857 0 0 0 0 -86.600022351089137 -3.6738911222908452 0 -3.6738911222908452 -19.662040206356977 0 0 0 0 -75.919859052519314 2.4467757569578126 0 2.4467757569578126 -19.219318250315041 0 0 0 0 -84.057000020364285 1.9054186160737097 0 1.9054186160737097 -4.5588401442710236 0 0 0 0 -65.150530169819831 0.88425381513516643 0 0.88425381513516643 4.6863139692975757 0 0 0 0 -64.527679370643455 1.6227779220995764 0 1.6227779220995764 -11.816143254171912 0 0 0 0 -59.57018188863367 -4.6491691973176996 0 -4.6491691973176996 -0.0023333169986915546 0 0 0 0 -110.12982420457411 -3.3952785293807874 0 -3.3952785293807874 0.0073468274611120949 0 0 0 0 -82.778046029765392 1.7669714859488281 0 1.7669714859488281 -5.7832827452792568 0 0 0 0 -74.459980535350041 14.726141872922948 0 14.726141872922948 4.9231692867470649 0 0 0 0 -31.958122996191378 134.65102747504844 0 134.65102747504844 -43.367936945509918 0 0 0 0 1.1158575543950491 0.49379659415114929 0 0.49379659415114929 0.34445972347342474 0 0 0 0 13.128573434456484 -78.441846500331835 0 -78.441846500331835 -173.26330688098582 0 0 0 0 -23.24884831655072 5.5793114305018499 0 5.5793114305018499 -4.3764414595471059 0 0 0 0 -352.15485720348806 32.489743763074713 0 32.489743763074713 -0.0047860420357172112 0 0 0 0 -1242.1585075159383 -354.92668850684299 0 -354.92668850684299 50.701326420418951 0 0 0 0 -203.69959740065133 -306.22193530191879 0 -306.22193530191879 -165.1937029651462 0 0 0 0 -9.2755697562930663 -2.6034185658809292 0 -2.6034185658809292 -0.83190783170926663 0 0 0 0 -1515.7152621004498 -323.89196824887995 0 -323.89196824887995 -142.49453672907777 0 0 0 0 -1015.0425546237093 23.438235174045595 0 23.438235174045595 0.32870705417263896 0 0 0 0 -1521.8973868112298 318.58540338419448 0 318.58540338419448 -102.32612291362038 0 0 0 0 -810.94582831743173 416.24555665832827 0 416.24555665832827 15.477148678478237 0 0 0 0 -312.70277971591713 30.360655798281442 0 30.360655798281442 -0.23680470945748486 0 0 0 0 -506.13783501087164 -50.971209060296587 0 -50.971209060296587 -4.3700231415415765 0 0 0 0 -1043.8593375355667 58.888110051611079 0 58.888110051611079 45.125138679732459 0 0 0 0 -1078.0793002864521 174.11790730999738 0 174.11790730999738 98.879635948201326 0 0 0 0 -417.23612134213909 250.95791564672777 0 250.95791564672777 -169.17144262395186 0 0 0 0 -142.74967017357994 273.77635440940094 0 273.77635440940094 -124.82671932378651 0 0 0 0 1.4223003862234549 -0.76798580868600652 0 -0.76798580868600652 1.8042210734731885 0 0 0 0 -374.93973902199286 110.6214153094939 0 110.6214153094939 104.80080002330851 0 0 0 0 37.616714372430579 -130.78117405267847 0 -130.78117405267847 -33.950511818595714 0 0 0 0 208.59396569350793 -74.526142485459673 0 -74.526142485459673 -212.73525237619037 0 0 0 0 -292.85075572539063 177.06531729277822 0 177.06531729277822 -255.40653780628281 0 0 0 0 18.037157179118367 -63.404543784396424 0 -63.404543784396424 -244.78804845513787 0 0 0 0 51.081772816221928 -203.46245599182066 0 -203.46245599182066 -184.89154899633377 0 0 0 0 3.8775413494877284 -37.792471260818957 0 -37.792471260818957 -114.18961730802948 0 0 0 0 -1040.7994584511034 506.33664562822628 0 506.33664562822628 -264.06294564698692 0 0 0 0 -509.38828188626212 83.905125518961995 0 83.905125518961995 -92.364387259880118 0 0 0 0 -463.9196655496271 246.06037520565826 0 246.06037520565826 -286.26028955525499 0 0 0 0 -450.86830293404637 241.14557089153095 0 241.14557089153095 -380.06728652983475 0 0 0 0 -1380.1325826543034 594.66894284958516 0 594.66894284958516 -345.17335240576358 0 0 0 0 -1716.8133865140117 1084.8779906993191 0 1084.8779906993191 -389.14133216940718 0 0 0 0 -2542.3595749179949 -25.832673116008664 0 -25.832673116008664 -266.86486337695396 0 0 0 0 -2993.6494976032118 253.6151281081643 0 253.6151281081643 250.98587437931428 0 0 0 0 -1617.7621370977286 -1053.8990686021816 0 -1053.8990686021816 -147.38115853717636 0 0 0 0 -129.34973684579018 202.77083579298301 0 202.77083579298301 29.957086512729006 0 0 0 0 -676.14135636689025 -163.20463385116273 0 -163.20463385116273 45.96669861801648 0 0 0 0 -638.03599931653298 -167.58834405372716 0 -167.58834405372716 -13.120473332652182 0 0 0 0 -1904.3478924657757 -61.597304014597171 0 -61.597304014597171 236.04429062537224 0 0 0 0 -1180.9065232606663 409.54130264019716 0 409.54130264019716 -214.86462837878452 0 0 0 0 -1688.5117211267207 -97.526670410091356 0 -97.526670410091356 229.16537376032909 0 0 0 0 -953.12990447945776 -332.00325421232401 0 -332.00325421232401 -53.495613591895136 0 0 0 0 -749.23181390989339 181.67976706072238 0 181.67976706072238 -100.87305311015814 0 0 0 0 -1715.6232430672389 -84.086455287748663 0 -84.086455287748663 329.78438342081546 0 0 0 0 -1825.4921737734403 75.185632652587685 0 75.185632652587685 167.04738015021883 0 0 0 0 -41.115710949648928 2.3439113459135541 0 2.3439113459135541 101.97004347594191 0 0 0 0 -8.3812590991801699 0.31312703996399571 0 0.31312703996399571 -0.04665782658645367 0 0 0 0 -34.001679991277342 17.324219808964667 0 17.324219808964667 -4.7233695078585569 0 0 0 0 -35.938475002520136 8.5068015786967806 0 8.5068015786967806 102.87577662563393 0 0 0 0 -1.5159118102371849 0.24344631081326895 0 0.24344631081326895 0.51245338186814138 0 0 0 0 -122.38131362233253 75.490652178503737 0 75.490652178503737 -49.294518512993093 0 0 0 0 -21.963090139593987 37.464780362337677 0 37.464780362337677 -42.182735556591922 0 0 0 0 -124.4225649562577 24.950536823383722 0 24.950536823383722 0.021904449854994183 0 0 0 0 -198.22138433916552 109.1287637199822 0 109.1287637199822 -9.0343104539681534 0 0 0 0 -108.7166413540981 100.83523942281823 0 100.83523942281823 -17.090374474741733 0 0 0 0 70.97155660649878 40.730622267979555 0 40.730622267979555 -41.911790196693715 0 0 0 0 -115.64331894791394 29.8002650947451 0 29.8002650947451 53.860498018131921 0 0 0 0 -7.20266342744236 -7.463978508300869 0 -7.463978508300869 6.5867537888649039 0 0 0 0 -49.359830814923043 -7.0333387142130164 0 -7.0333387142130164 70.918164010836264 0 0 0 0 232.77691845010122 15.96663536893584 0 15.96663536893584 -102.13328291618382 0 0 0 0 -44.45058055339905 -12.18407743599289 0 -12.18407743599289 27.017009809970986 0 0 0 0 -17.138311749047716 -56.80514651264204 0 -56.80514651264204 58.368342769240712 0 0 0 0 -63.348972930748062 -17.332570182521927 0 -17.332570182521927 3.0305783864299869 0 0 0 0 -40.569033840554766 -84.430711780892949 0 -84.430711780892949 162.14953079526634 0 0 0 0 -83.091741955642647 -20.055952513030121 0 -20.055952513030121 125.87358184198541 0 0 0 0 -0.75080454397021867 0.053528774113331679 0 0.053528774113331679 0.23939673612800322 0 0 0 0 -37.617654233945359 8.8463957281515917 0 8.8463957281515917 99.665713461701955 0 0 0 0 -70.243824072284042 -18.186930551857301 0 -18.186930551857301 99.759573465009922 0 0 0 0 18.348665809011436 -6.5291258587687011 0 -6.5291258587687011 99.413300952682874 0 0 0 0 -52.726708277796035 -6.8569154831459045 0 -6.8569154831459045 0.23054129798148415 0 0 0 0 -228.48999277476105 100.24814306517783 0 100.24814306517783 -31.794521146236548 0 0 0 0 -33.055144164973171 5.0084825312628993 0 5.0084825312628993 102.85054662284855 0 0 0 0 -97.835153351378835 15.29052799518799 0 15.29052799518799 -2.2010924220893555 0 0 0 0 -331.44848170824844 143.44967483017376 0 143.44967483017376 30.398072670284364 0 0 0 0 -99.329585614403186 69.805597045394052 0 69.805597045394052 -66.373838257714397 0 0 0 0 -351.15953834075481 109.77588719983851 0 109.77588719983851 -26.914777575605058 0 0 0 0 -97.80174548831431 15.709687155556121 0 15.709687155556121 1.1006930711316856 0 0 0 0 -176.63164598175354 -1.1289682678216195 0 -1.1289682678216195 -24.932999004323847 0 0 0 0 -128.76945036702091 11.203374353611707 0 11.203374353611707 -25.651840537950648 0 0 0 0 -114.15611375434673 -29.001330712411573 0 -29.001330712411573 33.885502699538392 0 0 0 0 -127.95708510079567 -57.978038145878003 0 -57.978038145878003 -9.6199973010320718 0 0 0 0 -59.405721780465683 -65.369361057059905 0 -65.369361057059905 -18.505912336235724 0 0 0 0 11.391880465613212 -59.748655112152846 0 -59.748655112152846 -22.731063277782596 0 0 0 0 3.2128142149064445 -1.805713990467595 0 -1.805713990467595 -2.1198912317613781 0 0 0 0 -4.5740495224947466 -44.754256492937472 0 -44.754256492937472 5.8158855040195263 0 0 0 0 5.7337556990268581 -9.5610272874281534 0 -9.5610272874281534 -2.0376352167015135 0 0 0 0 55.327683892566711 -155.13812670579318 0 -155.13812670579318 165.36014328426427 0 0 0 0 0.24688177165808156 -99.300357654159825 0 -99.300357654159825 -157.80019838821954 0 0 0 0 -85.045645001569937 -175.43883209280716 0 -175.43883209280716 -16.303926442860757 0 0 0 0 -80.211527173727518 -152.72567239114233 0 -152.72567239114233 83.447778556814228 0 0 0 0 -80.51118955730152 -26.88685449010972 0 -26.88685449010972 7.805462520223319 0 0 0 0 -81.19343929537547 -20.051386986566492 0 -20.051386986566492 9.4301933456906504 0 0 0 0 -51.169178122014273 -24.113317717770315 0 -24.113317717770315 22.19168015330979 0 0 0 0 -121.19254400744103 -10.710017142246215 0 -10.710017142246215 -1.6457601283327676 0 0 0 0 -65.51648799069747 -8.7809407500465397 0 -8.7809407500465397 6.2225460027071868 0 0 0 0 -380.68802644946845 -304.31186849992264 0 -304.31186849992264 -217.06307203971528 0 0 0 0 -449.78396597666324 -170.05012861304431 0 -170.05012861304431 211.60116477297561 0 0 0 0 -309.84407766105141 -99.49815089288586 0 -99.49815089288586 92.241719757089413 0 0 0 0 -433.3320201626957 3.0691395590183674 0 3.0691395590183674 238.45221491329539 0 0 0 0 2.6537750201810297 -3.1840332118540857 0 -3.1840332118540857 7.353881956317398 0 0 0 0 -173.14708274579607 282.93171415569577 0 282.93171415569577 538.7814881647214 0 0 0 0 -17.812164902731148 -13.184017292713136 0 -13.184017292713136 21.056913560526326 0 0 0 0 -246.40341431715206 6.8195797501698507 0 6.8195797501698507 86.749049492841777 0 0 0 0 -354.34912956198241 -53.453072147087823 0 -53.453072147087823 56.784920473282909 0 0 0 0 -183.62677129108124 -275.39260372772264 0 -275.39260372772264 181.75030274139135 0 0 0 0 -573.44233945967426 -304.67358729410626 0 -304.67358729410626 623.93422190417641 0 0 0 0 -1002.6666272110888 67.445341965925763 0 67.445341965925763 357.63851841869769 0 0 0 0 -769.71918090552936 371.32883013834544 0 371.32883013834544 161.57568496265958 0 0 0 0 -647.17259875930904 183.53844780800659 0 183.53844780800659 305.61419703896672 0 0 0 0 -354.14698305071147 -2.3826092839378825 0 -2.3826092839378825 333.11497936592968 0 0 0 0 -530.68292345977534 -642.64720826501866 0 -642.64720826501866 -1333.7521563916425 0 0 0 0 -2367.8470768209172 -1241.6044002759245 0 -1241.6044002759245 -1523.295719204345 0 0 0 0 -3783.6151108511258 1691.7871139022391 0 1691.7871139022391 -874.31854657742133 0 0 0 0 -2308.7971734180392 252.33916466234405 0 252.33916466234405 86.142133102015578 0 0 0 0 -1011.6928557562351 818.4637971285656 0 818.4637971285656 -640.45970436842936 0 0 0 0 -1118.029702727159 1116.9431416811967 0 1116.9431416811967 -682.48276650401453 0 0 0 0 -0.67970544209276795 7.476418389287403 0 7.476418389287403 1.2655961617272187 0 0 0 0 -1234.5087873188313 1154.9620704023982 0 1154.9620704023982 -670.86171145035769 0 0 0 0 -255.94281034223968 687.29309501505031 0 687.29309501505031 -1415.3030604750165 0 0 0 0 -1349.3738627081329 841.45560487992498 0 841.45560487992498 -620.85742366881914 0 0 0 0 -286.71357259891374 12.127919425451523 0 12.127919425451523 461.4431670613817 0 0 0 0 -51.849158605135415 0.024176815346141467 0 0.024176815346141467 -0.17956682379769329 0 0 0 0 -337.97463396126386 2225.7414437323382 0 2225.7414437323382 -2572.7509439224523 0 0 0 0 135.69060778644052 -725.07413589856719 0 -725.07413589856719 -219.41823702791129 0 0 0 0 -15.6988440131706 -0.51487948371664061 0 -0.51487948371664061 0.96338521295819923 0 0 0 0 -2318.1406639838824 1093.7977010685745 0 1093.7977010685745 512.86200445518671 0 0 0 0 -17.834100324724659 5.7503594403323106 0 5.7503594403323106 -1.7295205231510273 0 0 0 0 -4312.6842196397047 -755.57060245602452 0 -755.57060245602452 -136.45473163648148 0 0 0 0 -2988.6206877391087 373.46197609128558 0 373.46197609128558 -280.08607074151587 0 0 0 0 -8.4749226910526545 4.6764460622373072 0 4.6764460622373072 -1.3634054216912062 0 0 0 0 -6251.7560892275651 -300.14176740302537 0 -300.14176740302537 147.6382924895006 0 0 0 0 -4754.2843884760296 408.95645554539556 0 408.95645554539556 568.91885045114577 0 0 0 0 -3120.8975082659163 1648.8031692915715 0 1648.8031692915715 -146.76011255346384 0 0 0 0 -1412.537693220831 572.84356120628308 0 572.84356120628308 -550.68333187444091 0 0 0 0 -1256.745954133512 877.57293972327625 0 877.57293972327625 -362.40456777091549 0 0 0 0 31.598971946514212 399.6214258859236 0 399.6214258859236 -562.66363450486597 0 0 0 0 -109.03500935768534 202.91104182910044 0 202.91104182910044 -521.75778392338179 0 0 0 0 1087.9037258860481 -127.091159450433 0 -127.091159450433 -703.59719295264949 0 0 0 0 567.86666029386834 924.34531306194617 0 924.34531306194617 -651.24814112059539 0 0 0 0 -107.4960337059747 -231.72905677869085 0 -231.72905677869085 598.4233565901161 0 0 0 0 494.2219160743407 -624.10222486259045 0 -624.10222486259045 -52.419628225481574 0 0 0 0 -0.070465274213347584 -215.80988825802433 0 -215.80988825802433 -121.40749187632809 0 0 0 0 376.41791468573501 -66.574290106203989 0 -66.574290106203989 -457.14517445530851 0 0 0 0 -450.30633935616424 -208.48166384119736 0 -208.48166384119736 225.59152706898021 0 0 0 0 -53.94850511674224 -10.653478082905039 0 -10.653478082905039 -1.2088227749901437 0 0 0 0 36.817700420753681 -791.95458931237499 0 -791.95458931237499 -463.36751618535482 0 0 0 0 -97.358095727013534 -32.024774328999058 0 -32.024774328999058 -7.3598740656446946 0 0 0 0 38.078697833960177 200.25826584937613 0 200.25826584937613 -191.89951735311934 0 0 0 0 -338.56787781123785 -460.46091145039236 0 -460.46091145039236 1017.0788967218605 0 0 0 0 -394.40686125973298 -83.577187397621856 0 -83.577187397621856 246.98386921041674 0 0 0 0 -437.99980145864538 -192.40740814415676 0 -192.40740814415676 349.58788957998331 0 0 0 0 -586.43526019480487 41.244216399652942 0 41.244216399652942 574.52367243752815 0 0 0 0 -503.38923714208431 -17.886868833462358 0 -17.886868833462358 591.72270993618076 0 0 0 0 -464.65198546594911 38.220151421239279 0 38.220151421239279 857.21076208435511 0 0 0 0 -89.240563745025071 -38.072327625116053 0 -38.072327625116053 -8.0473298953565156 0 0 0 0 -979.51134969340637 -1026.6783709905885 0 -1026.6783709905885 685.20935783074219 0 0 0 0 -64.926499199820682 -159.65041101556585 0 -159.65041101556585 -35.686918615458126 0 0 0 0 -905.62574900533946 672.37183381514933 0 672.37183381514933 -321.4146061352094 0 0 0 0 -776.60367147435318 872.7588520322472 0 872.7588520322472 -46.028593993938557 0 0 0 0 -72.679063237041703 -27.791062825436477 0 -27.791062825436477 -3.1927573585362303 0 0 0 0 -180.24233588929928 -1177.3364622241979 0 -1177.3364622241979 1792.3537604667727 0 0 0 0 -830.00423070284887 367.08673471293696 0 367.08673471293696 301.707955789484 0 0 0 0 308.88941761535534 -5.5955123678130576 0 -5.5955123678130576 1266.3101566982787 0 0 0 0 234.84157549721021 -459.07303391348637 0 -459.07303391348637 904.91853053634804 0 0 0 0 -525.25201641780404 338.21277996836966 0 338.21277996836966 768.10097590767509 0 0 0 0 -476.18854849042691 -34.594472424959349 0 -34.594472424959349 32.28173886356808 0 0 0 0 -246.83960353692237 -794.45410966154259 0 -794.45410966154259 308.72823310070453 0 0 0 0 -1637.3137946966381 -446.6365515715047 0 -446.6365515715047 284.13289308353217 0 0 0 0 -798.93174252290919 178.34810229265986 0 178.34810229265986 -57.681347960464336 0 0 0 0 -683.29939151816507 277.51715955314148 0 277.51715955314148 -1206.9068488323028 0 0 0 0 -781.35394813093808 -312.12570385163713 0 -312.12570385163713 -827.75834738937101 0 0 0 0 -1149.6568919493293 -696.15776153770094 0 -696.15776153770094 -1163.3313337806303 0 0 0 0 -1255.3712503548886 396.26044664335245 0 396.26044664335245 63.493625430652173 0 0 0 0 -1697.6593059084662 -278.74273469717014 0 -278.74273469717014 -626.52458614332136 0 0 0 0 -730.12752708318658 37.944527457420463 0 37.944527457420463 -472.79790009998214 0 0 0 0 -844.42918201642897 -225.95018716012692 0 -225.95018716012692 -691.89311894423031 0 0 0 0 -629.57050638500004 -3.2525984382375555 0 -3.2525984382375555 -554.35458708226088 0 0 0 0 -509.31472821659554 205.59365234283632 0 205.59365234283632 -728.72396731279468 0 0 0 0 -609.39951063511398 108.94114313304726 0 108.94114313304726 -75.309104788610057 0 0 0 0 -400.93551779368863 187.46537249714584 0 187.46537249714584 -450.65973128608414 0 0 0 0 -477.02497733238124 345.41769897504037 0 345.41769897504037 22.312856145930709 0 0 0 0 -434.67376096515363 -79.539937454136179 0 -79.539937454136179 543.50756882808673 0 0 0 0 -615.69846992482053 63.905265445690929 0 63.905265445690929 560.1425498601202 0 0 0 0 -584.65039383879775 215.74527891832213 0 215.74527891832213 287.25230145388559 0 0 0 0 -529.43401071482367 -29.873556920832016 0 -29.873556920832016 439.51571764339496 0 0 0 0 -532.56627751565975 37.425033171914038 0 37.425033171914038 641.02678038592967 0 0 0 0 97.913253677987086 71.434047968635696 0 71.434047968635696 -625.74741949263444 0 0 0 0 -340.28374049521517 -178.19117267139336 0 -178.19117267139336 367.17563464028444 0 0 0 0 -523.28220479763513 296.77845340891554 0 296.77845340891554 -216.00962016464382 0 0 0 0 -324.67291809597373 8.409242100607571 0 8.409242100607571 -182.2322426816736 0 0 0 0 -1291.6151652115514 -263.83142952948583 0 -263.83142952948583 -412.09674778952467 0 0 0 0 -1536.208103598452 970.2466616862713 0 970.2466616862713 -133.88559208908373 0 0 0 0 -808.84535540734942 471.76745783016395 0 471.76745783016395 660.4819587941023 0 0 0 0 -439.07382015616167 190.20726556874888 0 190.20726556874888 -381.55882770241442 0 0 0 0 -510.46640148178903 684.85662641322983 0 684.85662641322983 -1299.5888309312959 0 0 0 0 -2174.5579270514718 848.71101799222743 0 848.71101799222743 -440.96057309929711 0 0 0 0 -1641.7617030692691 -464.90415957377104 0 -464.90415957377104 -274.0314067586587 0 0 0 0 -873.17233669100096 449.04806073235795 0 449.04806073235795 -324.53109800550237 0 0 0 0 -1540.4627328932838 77.909739800168609 0 77.909739800168609 -66.424980161787971 0 0 0 0 -827.59974009341386 402.09194859576246 0 402.09194859576246 -280.89248026731184 0 0 0 0 -659.37601758770325 385.64911693364138 0 385.64911693364138 -287.45616424545437 0 0 0 0 -605.53486997445725 337.72366677178297 0 337.72366677178297 -244.84346193079728 0 0 0 0 -822.77586112131394 77.907743955805927 0 77.907743955805927 -111.70065465851985 0 0 0 0 -456.21061167443986 29.59627329120849 0 29.59627329120849 -175.87150097873064 0 0 0 0 -626.80735669756541 -42.903065799774595 0 -42.903065799774595 -73.124318083924663 0 0 0 0 -473.35740281226026 220.23744782929271 0 220.23744782929271 -388.52629688240995 0 0 0 0 -416.49992460306748 447.19203910598208 0 447.19203910598208 -451.06949341837571 0 0 0 0 -575.79192255040107 598.76115651345026 0 598.76115651345026 -558.7534164292797 0 0 0 0 -565.50723257356003 456.68162130834207 0 456.68162130834207 -415.9844560212714 0 0 0 0 -848.29662058243412 132.72318862290376 0 132.72318862290376 -463.39572791428418 0 0 0 0 -538.06745275879439 263.83366002547928 0 263.83366002547928 -417.83650608257449 0 0 0 0 -697.42457905809351 481.95074155959583 0 481.95074155959583 65.871150038895394 0 0 0 0 -648.0044160239886 402.18662936725991 0 402.18662936725991 -319.20760074124064 0 0 0 0 -470.27516203249979 374.99752720801098 0 374.99752720801098 -364.97875050654602 0 0 0 0 -1180.8941048763154 220.87034643538254 0 220.87034643538254 -39.921332503458416 0 0 0 0 -338.01021830309764 -12.683447234386676 0 -12.683447234386676 -131.64437824586639 0 0 0 0 -388.50036628936505 -30.203430840799683 0 -30.203430840799683 -126.59879507974165 0 0 0 0 -380.31891138342326 268.34700204161027 0 268.34700204161027 -295.55731249641804 0 0 0 0 -522.73963581694079 300.65581686940686 0 300.65581686940686 -227.632797141845 0 0 0 0 61.116127535227861 186.1895094198735 0 186.1895094198735 -255.95793404833364 0 0 0 0 -119.30775972057017 -89.133799611023733 0 -89.133799611023733 -104.96076387535686 0 0 0 0 -254.8275523136399 12.805190921369785 0 12.805190921369785 78.054436596435153 0 0 0 0 -78.746259162748174 7.9855658105598195 0 7.9855658105598195 74.807523943437445 0 0 0 0 -144.31197027074813 32.284076592806741 0 32.284076592806741 331.12081029230831 0 0 0 0 -275.19670978257273 43.288432591471064 0 43.288432591471064 654.07967581880621 0 0 0 0 -445.18647036322545 -1409.6965661624245 0 -1409.6965661624245 -1870.5683955921204 0 0 0 0 -83.038906968213269 -1147.4812501691467 0 -1147.4812501691467 -2559.5584192361166 0 0 0 0 -43.224386062255292 4.9563811824331552 0 4.9563811824331552 5.0732454924599999 0 0 0 0 -85.216155905392952 391.9354177620653 0 391.9354177620653 621.04378516390807 0 0 0 0 122.38481844712805 216.47311109417296 0 216.47311109417296 370.94829556485729 0 0 0 0 260.49544425247586 241.30491608202101 0 241.30491608202101 311.52596106177043 0 0 0 0 248.02566959173419 82.533664412358121 0 82.533664412358121 311.34492158458852 0 0 0 0 -44.450518420460867 76.324189817270053 0 76.324189817270053 359.8762811935394 0 0 0 0 198.0477062265054 490.90728643720604 0 490.90728643720604 61.36329945856869 0 0 0 0 -1694.1428702066478 -712.52558068858605 0 -712.52558068858605 -806.39513808110041 0 0 0 0 -14.798939801838173 1.0418955710968518 0 1.0418955710968518 1.0012745952936708 0 0 0 0 -1007.4825055178371 -1197.8292165154137 0 -1197.8292165154137 -2080.7917557346323 0 0 0 0 -622.50788561155787 -400.3165232053193 0 -400.3165232053193 -1101.1233282046346 0 0 0 0 -1336.0677248514585 129.71866427424948 0 129.71866427424948 -643.02405156081568 0 0 0 0 -822.98006975133467 -287.42639882062031 0 -287.42639882062031 -1040.4152565556981 0 0 0 0 -879.53401946913073 -259.1887945989256 0 -259.1887945989256 -311.98021493942679 0 0 0 0 -479.13915497090784 61.085623208721017 0 61.085623208721017 -549.57070464292519 0 0 0 0 -880.82380452812367 138.83508300593166 0 138.83508300593166 -84.040813408053054 0 0 0 0 -657.27504245544696 277.32850429879636 0 277.32850429879636 -361.62601057691086 0 0 0 0 -481.5801530595927 431.98921434911858 0 431.98921434911858 -842.60075673039728 0 0 0 0 -1198.7648984059124 -108.39333203734623 0 -108.39333203734623 -519.02703244247846 0 0 0 0 -1017.0471255035081 -444.68794059797938 0 -444.68794059797938 1.0055091985843774 0 0 0 0 -6.8438448521084467 1.1557311515255453 0 1.1557311515255453 -0.77872532380436255 0 0 0 0 -977.05150111568219 -173.81856471548508 0 -173.81856471548508 -630.55213958560262 0 0 0 0 -1001.9022116571541 -194.79496999096978 0 -194.79496999096978 -555.68900801251493 0 0 0 0 -1145.5421702749391 -483.41565285490628 0 -483.41565285490628 -606.28525171817728 0 0 0 0 -1138.0210307906564 -226.69544961757992 0 -226.69544961757992 -370.77105527048252 0 0 0 0 -959.26987318772444 -234.97753500697991 0 -234.97753500697991 -635.29646781238603 0 0 0 0 -788.09304713558595 62.493204082953525 0 62.493204082953525 -391.57445387660255 0 0 0 0 -1277.4491143827017 -380.88212030493139 0 -380.88212030493139 -680.06414029538882 0 0 0 0 -990.47752877220228 -126.94660612096675 0 -126.94660612096675 -838.1389853960145 0 0 0 0 -787.88231739743787 -210.9448548923076 0 -210.9448548923076 -898.47085392468944 0 0 0 0 -131.07813189805893 145.81553923288857 0 145.81553923288857 230.75529370747972 0 0 0 0 -105.83371454105509 80.332176822735846 0 80.332176822735846 148.87536766408721 0 0 0 0 -35.214459455657419 -7.5666755254885274 0 -7.5666755254885274 2.5278454645695518 0 0 0 0 -282.97373423157114 -27.528025726878695 0 -27.528025726878695 23.20892488037498 0 0 0 0 -156.2126940746366 2.4540458887422574 0 2.4540458887422574 -31.062984825864987 0 0 0 0 -128.4991450409866 24.820027533268785 0 24.820027533268785 34.211472741381129 0 0 0 0 15.103240525553701 97.922208272523676 0 97.922208272523676 201.76825637826823 0 0 0 0 -317.09157425744343 44.371807069338502 0 44.371807069338502 306.71274973077925 0 0 0 0 -293.56774642423989 -51.077102828862735 0 -51.077102828862735 151.00974231020155 0 0 0 0 -298.52122553839581 -91.114263240039463 0 -91.114263240039463 125.44101415445425 0 0 0 0 -285.07349002490355 -137.12032862042309 0 -137.12032862042309 73.573292088711241 0 0 0 0 -288.36370566881669 -114.97600601558133 0 -114.97600601558133 141.3817098122754 0 0 0 0 -268.68569517335709 -71.97033447614939 0 -71.97033447614939 135.61617292045139 0 0 0 0 -270.85596707999684 -84.0445433864042 0 -84.0445433864042 95.025953643623325 0 0 0 0 -299.93954782489163 -28.766679390767194 0 -28.766679390767194 202.85523598815234 0 0 0 0 -190.02743516961345 4.5127265895314395 0 4.5127265895314395 119.33608242494302 0 0 0 0 -214.54621098475764 3.6674160575649779 0 3.6674160575649779 120.48868402633872 0 0 0 0 -176.44634035544186 57.385888147054175 0 57.385888147054175 124.25371820703731 0 0 0 0 -130.74472064986261 25.609833868950354 0 25.609833868950354 32.071147872449004 0 0 0 0 -211.06653511955301 -51.376733071582805 0 -51.376733071582805 -13.945536672239996 0 0 0 0 -207.90375526295247 -20.602424957358579 0 -20.602424957358579 68.034898183042102 0 0 0 0 -117.83418573933886 146.39286431693108 0 146.39286431693108 153.14479456499521 0 0 0 0 -130.75079090462035 26.385502758031137 0 26.385502758031137 31.107736582102358 0 0 0 0 -224.2233074421747 -37.35095535732944 0 -37.35095535732944 107.78028890437122 0 0 0 0 -244.86576843596231 -28.5532176936008 0 -28.5532176936008 120.45478752147301 0 0 0 0 -358.12947246046679 -123.8739045642792 0 -123.8739045642792 82.992073788045673 0 0 0 0 -138.70048838445473 -63.885937228752482 0 -63.885937228752482 -58.851538496033754 0 0 0 0 -263.61585890106653 11.752087288192342 0 11.752087288192342 34.65535802953309 0 0 0 0 -299.94555719902928 -118.8860692017015 0 -118.8860692017015 2.5408456176082836 0 0 0 0 1.4595535023071911 3.6980591967693002 0 3.6980591967693002 3.4663517356794529 0 0 0 0 -165.3663274176115 30.983723276027831 0 30.983723276027831 39.265542764645943 0 0 0 0 -2.3203535544598459 2.8321959223122946 0 2.8321959223122946 0.86545025546212173 0 0 0 0 -301.29485817521345 -113.48964688556089 0 -113.48964688556089 -35.653181259659561 0 0 0 0 -290.21767055405144 -95.728681409577121 0 -95.728681409577121 -12.489930648498557 0 0 0 0 -437.86099269840452 -274.78831703532148 0 -274.78831703532148 -5.5903259568458452 0 0 0 0 -691.86649302612204 -194.63345597621515 0 -194.63345597621515 102.28634122763197 0 0 0 0 16.05287171974387 -32.054595097811287 0 -32.054595097811287 -21.678401230502075 0 0 0 0 -263.01756026996736 -61.487124940204012 0 -61.487124940204012 -33.505018761606721 0 0 0 0 10.544703615702019 -16.649337510266605 0 -16.649337510266605 203.17204392321037 0 0 0 0 3.6721979337016819 39.322535952672752 0 39.322535952672752 477.88987314506448 0 0 0 0 -48.649907596060075 149.01773207079987 0 149.01773207079987 315.77169246053745 0 0 0 0 -92.39003526311717 42.013373881988628 0 42.013373881988628 356.73721045753155 0 0 0 0 -64.834205241259042 5.1139327373716696 0 5.1139327373716696 120.89066748680307 0 0 0 0 -109.23617896252836 102.93902493938003 0 102.93902493938003 240.0197679031362 0 0 0 0 -191.59345828412916 -113.45443580170286 0 -113.45443580170286 170.42986206778733 0 0 0 0 -138.42671880651324 -89.283644151092176 0 -89.283644151092176 100.8433447164598 0 0 0 0 -310.13170394452754 -9.350741305945121 0 -9.350741305945121 95.333882004601037 0 0 0 0 -292.46131593434257 -189.14052101644938 0 -189.14052101644938 38.199622812751159 0 0 0 0 -353.58209197223186 -257.08641587745569 0 -257.08641587745569 -140.08702131069344 0 0 0 0 -405.29452160486835 -61.640962190387654 0 -61.640962190387654 -95.543329513311619 0 0 0 0 -286.40016898659087 -162.22031594432383 0 -162.22031594432383 -69.948877642133084 0 0 0 0 -245.45023263155599 -222.2215435938806 0 -222.2215435938806 11.621883792273024 0 0 0 0 -182.32939588281079 -76.106074762371918 0 -76.106074762371918 -9.285374853088797 0 0 0 0 -21.862303439964307 -99.257044707146861 0 -99.257044707146861 33.837078651251431 0 0 0 0 -235.42474693166878 -104.06896067243088 0 -104.06896067243088 53.01065194115381 0 0 0 0 -115.61614041736175 4.7230818806010575 0 4.7230818806010575 203.47293492671088 0 0 0 0 -157.02088457870559 -153.9392605008652 0 -153.9392605008652 -97.84214083601546 0 0 0 0 -292.94619621609309 -168.89899190644883 0 -168.89899190644883 -66.365788223293293 0 0 0 0 -291.40915065923218 -169.55162185613233 0 -169.55162185613233 -94.441989959472266 0 0 0 0 -422.95379628151568 -217.09655724681397 0 -217.09655724681397 -50.995251804115242 0 0 0 0 -241.77544446816319 -144.30478551092347 0 -144.30478551092347 -92.732563686901415 0 0 0 0 -257.16038413671049 -169.39886604990329 0 -169.39886604990329 -111.72610825482843 0 0 0 0 -288.89022464581649 -199.73725656715897 0 -199.73725656715897 -151.61462358461176 0 0 0 0 -323.09737925388617 -127.78019893234341 0 -127.78019893234341 -135.79149525604498 0 0 0 0 -331.17864591851139 -72.757021183813777 0 -72.757021183813777 24.835468891797063 0 0 0 0 -0.72485207012455177 4.4705794154536136 0 4.4705794154536136 -0.57635996569257486 0 0 0 0 -232.41259638863994 -75.074556476204634 0 -75.074556476204634 -35.438181285389874 0 0 0 0 -206.68148715528514 -82.48079329497341 0 -82.48079329497341 -35.925683605786617 0 0 0 0 16.01417174457891 -30.407074001867485 0 -30.407074001867485 -33.181895811058212 0 0 0 0 -274.62774610303313 -93.991128370573279 0 -93.991128370573279 -16.62984205536668 0 0 0 0 -449.28821711547789 -268.66747522294963 0 -268.66747522294963 -56.530339081647071 0 0 0 0 -293.58114536879111 -84.944915076480356 0 -84.944915076480356 -10.430002983594022 0 0 0 0 -199.60301628212983 -52.96043165222909 0 -52.96043165222909 -57.13672093203968 0 0 0 0 -119.37081532761817 23.452380027420467 0 23.452380027420467 34.859009699486627 0 0 0 0 -36.458232259106225 -4.2684580396630025 0 -4.2684580396630025 -5.4574224989383708 0 0 0 0 -231.74046203102262 -26.501412517269273 0 -26.501412517269273 8.7726322412545414 0 0 0 0 48.283253396002692 297.82284553703221 0 297.82284553703221 406.33075153410209 0 0 0 0 -286.23882163699454 -51.074912730826554 0 -51.074912730826554 42.786976857638365 0 0 0 0 -263.52968836155196 -32.710117086295213 0 -32.710117086295213 152.60454904130529 0 0 0 0 -211.92481323413631 -46.218923762517079 0 -46.218923762517079 -33.4692096595154 0 0 0 0 -240.34362383186817 -49.872578214999521 0 -49.872578214999521 156.98993333425824 0 0 0 0 -101.83712751764912 25.929006000103797 0 25.929006000103797 14.809604705285274 0 0 0 0 -29.624198848517807 -8.6563368216105374 0 -8.6563368216105374 18.967444265434978 0 0 0 0 -212.67865343047015 -37.53559282318929 0 -37.53559282318929 12.791155522510962 0 0 0 0 -187.96217913835426 -155.92568305703026 0 -155.92568305703026 -22.855428553783895 0 0 0 0 82.018120621069102 425.1099779266533 0 425.1099779266533 224.07441547954659 0 0 0 0 -688.33812108090206 -144.56811978427322 0 -144.56811978427322 -126.29930315032379 0 0 0 0 -474.37388052947335 -144.79453163249548 0 -144.79453163249548 -119.16593553918028 0 0 0 0 -384.96085403367761 -147.7116775574068 0 -147.7116775574068 -155.56685531506992 0 0 0 0 -366.27266324984339 -233.88321853944103 0 -233.88321853944103 -164.17844036090537 0 0 0 0 -401.57743036458123 -282.5029414263563 0 -282.5029414263563 -234.05156449263086 0 0 0 0 -222.34360120800557 -152.60045769403405 0 -152.60045769403405 -212.568257234253 0 0 0 0 -164.9399144251729 -147.37787252521775 0 -147.37787252521775 -169.24727505988085 0 0 0 0 5.9100991988723308 -28.028745374390461 0 -28.028745374390461 -46.725589041325179 0 0 0 0 -194.77087393273541 -193.6633295437523 0 -193.6633295437523 -166.43357169992487 0 0 0 0 -238.33646418146964 -145.3579600472367 0 -145.3579600472367 -64.710838683424299 0 0 0 0 -257.08821440473548 -148.73513307139092 0 -148.73513307139092 -145.79076242797964 0 0 0 0 -196.78397419053363 9.2935335343026964 0 9.2935335343026964 -78.244888143719891 0 0 0 0 -39.395593659419347 8.4721760203303802 0 8.4721760203303802 -18.736946756980956 0 0 0 0 -53.650376843230333 400.01981597296708 0 400.01981597296708 248.95699239142778 0 0 0 0 6.2639521340024658 -75.419760157506971 0 -75.419760157506971 138.80024951045561 0 0 0 0 208.39804595817986 84.092152824621735 0 84.092152824621735 24.861336935289728 0 0 0 0 -218.15859745821217 -74.04534235698884 0 -74.04534235698884 162.58362429603949 0 0 0 0 11.719881428187364 141.01601519468932 0 141.01601519468932 72.025635950245487 0 0 0 0 -416.61741820082534 148.44442021774739 0 148.44442021774739 28.295320835135499 0 0 0 0 -118.25347157224314 46.180511387432489 0 46.180511387432489 51.084230087166361 0 0 0 0 -274.3971582241611 329.66805889617626 0 329.66805889617626 318.29329715367567 0 0 0 0 -71.732144156609138 -124.31411944974616 0 -124.31411944974616 -280.54251042882061 0 0 0 0 -567.37161225099408 -485.16968252072184 0 -485.16968252072184 -280.87292896579106 0 0 0 0 112.3810395073524 146.76973071532075 0 146.76973071532075 -271.07342116425571 0 0 0 0 -9.4570002891855438 7.9928937722350071 0 7.9928937722350071 -6.0154996559405163 0 0 0 0 34.044024373666616 658.81765990774329 0 658.81765990774329 -997.40469805178418 0 0 0 0 -365.07337227843527 2.0224124662890972 0 2.0224124662890972 269.99759966342299 0 0 0 0 -192.63121624937048 -97.607872915587905 0 -97.607872915587905 -159.01847811426705 0 0 0 0 -245.95539747833391 107.12683979061694 0 107.12683979061694 -447.15838007648199 0 0 0 0 -432.52958479576046 250.69291837267974 0 250.69291837267974 -491.79062450843912 0 0 0 0 -0.48168517403991018 -1.6514402577522844 0 -1.6514402577522844 -0.62407644811066376 0 0 0 0 173.92892445789766 813.14763394822512 0 813.14763394822512 6.8612458910647547 0 0 0 0 -93.205818749082027 142.27736604792062 0 142.27736604792062 -186.87872938423425 0 0 0 0 -678.49218937505793 431.51673771564856 0 431.51673771564856 177.78675562152785 0 0 0 0 -597.79877644669614 553.92988037381019 0 553.92988037381019 -174.69368527047118 0 0 0 0 2.1290377261793765 393.25545529149076 0 393.25545529149076 -648.73497242266239 0 0 0 0 -15.669811523031967 337.80410190456541 0 337.80410190456541 -261.01360823855975 0 0 0 0 472.18898261069262 102.78534686433431 0 102.78534686433431 121.84727128789746 0 0 0 0 324.35978999039799 67.681104446955942 0 67.681104446955942 -204.03843246874021 0 0 0 0 -41.089925901960669 347.04832550672245 0 347.04832550672245 112.19233195285051 0 0 0 0 1074.4386956913695 736.58192925019694 0 736.58192925019694 -122.07969570006026 0 0 0 0 -544.68935642346332 12.155407841770284 0 12.155407841770284 -193.68030440377152 0 0 0 0 3.8000443046649437 0.7410209937901584 0 0.7410209937901584 6.5946406127580701 0 0 0 0 -439.44280670591979 -137.13419842325311 0 -137.13419842325311 11.595244960255513 0 0 0 0 113.13459323764982 801.17741934534342 0 801.17741934534342 471.77913198200258 0 0 0 0 -45.176584707820439 -118.19493740355847 0 -118.19493740355847 -445.11067133421602 0 0 0 0 -786.82433829490037 258.50862144258645 0 258.50862144258645 578.03463200497822 0 0 0 0 -94.569897097564535 86.952368585766635 0 86.952368585766635 -52.529850273693228 0 0 0 0 -187.00706913647264 -226.39776227011157 0 -226.39776227011157 -427.06489829405109 0 0 0 0 -472.59457205161743 -88.747839233506966 0 -88.747839233506966 -307.24982207591893 0 0 0 0 -463.90094092991785 -82.17132776141716 0 -82.17132776141716 -1112.877463662644 0 0 0 0 -1751.2166033531648 31.097628192403818 0 31.097628192403818 -164.14904668998861 0 0 0 0 -8.1646048313608901 7.4739365394229367 0 7.4739365394229367 3.9258899865586869 0 0 0 0 -1429.2629884874113 -858.68078942697707 0 -858.68078942697707 -447.5563042084159 0 0 0 0 -1129.9628036309587 -217.04099354674963 0 -217.04099354674963 -74.215349001005961 0 0 0 0 -1175.823008069332 -640.91787724532514 0 -640.91787724532514 -398.13378436176026 0 0 0 0 -851.31214643525163 -599.72509553460941 0 -599.72509553460941 -563.98229387946412 0 0 0 0 -600.44305210318998 -21.956227454153122 0 -21.956227454153122 24.104488660283096 0 0 0 0 -561.2940065223811 12.184111425802257 0 12.184111425802257 -301.07154410454859 0 0 0 0 -315.58906796987867 329.7256900500779 0 329.7256900500779 121.34553825440139 0 0 0 0 141.80526423307583 22.870466465523862 0 22.870466465523862 320.28838010710206 0 0 0 0 -511.10997798342214 -131.59179692518251 0 -131.59179692518251 115.70133529361192 0 0 0 0 -620.70577665331075 24.226498741845717 0 24.226498741845717 -94.262681283643019 0 0 0 0 -641.09675256246919 -265.78932368898222 0 -265.78932368898222 101.69633427725967 0 0 0 0 -835.78092887885578 -212.64727918247991 0 -212.64727918247991 107.01459232901107 0 0 0 0 -676.41138630307978 -229.71291853630373 0 -229.71291853630373 -352.84002272539874 0 0 0 0 -504.88384900098026 -58.639066107073631 0 -58.639066107073631 101.13661017126992 0 0 0 0 -613.64094882340578 92.566977783036236 0 92.566977783036236 385.58614885235875 0 0 0 0 -362.50096585465599 -32.724108695118105 0 -32.724108695118105 194.26396379226753 0 0 0 0 -335.75179300049058 211.14379848579256 0 211.14379848579256 399.74189420623588 0 0 0 0 -33.32139704416317 -8.9626463283897237 0 -8.9626463283897237 3.4574061574180597 0 0 0 0 322.34277584410302 489.95121555348578 0 489.95121555348578 252.8638943748083 0 0 0 0 -294.21722908518859 448.78746987301747 0 448.78746987301747 570.42356663058581 0 0 0 0 -202.9158254119975 120.91135621467492 0 120.91135621467492 265.56095864772033 0 0 0 0 -386.8754476735412 -212.32787456643246 0 -212.32787456643246 55.240160202475636 0 0 0 0 -235.85268854176684 -176.581812120422 0 -176.581812120422 -54.280856293544275 0 0 0 0 -241.7150753796559 -141.36264567116677 0 -141.36264567116677 9.4685389490587113 0 0 0 0 -389.31472958698578 -32.296956887428223 0 -32.296956887428223 234.55657049170077 0 0 0 0 -452.65957730718947 -95.87334881427887 0 -95.87334881427887 224.04216152457548 0 0 0 0 -462.21599693209282 -410.96264007184163 0 -410.96264007184163 -219.36889821197838 0 0 0 0 -711.76543277104793 -199.83640426679904 0 -199.83640426679904 50.297128568481639 0 0 0 0 -44.57196228750945 -1.6693688826819084 0 -1.6693688826819084 43.032841560301449 0 0 0 0 -60.091071792514413 39.731585483536549 0 39.731585483536549 80.893260072431133 0 0 0 0 -109.10718451316643 -191.45064180312693 0 -191.45064180312693 -434.2491502383964 0 0 0 0 -41.686552199747183 -1.5254407854246352 0 -1.5254407854246352 36.34929911060415 0 0 0 0 -10.278580214019343 -6.5162984880133621 0 -6.5162984880133621 2.338225307711518 0 0 0 0 -172.10212171456806 254.8609426321259 0 254.8609426321259 -276.13432529964484 0 0 0 0 -11.364196339965417 15.061349347839894 0 15.061349347839894 45.812572920570283 0 0 0 0 -22.917781770680449 -3.0792270889192253 0 -3.0792270889192253 26.564991699883336 0 0 0 0 -199.25247050562757 -29.905427903558802 0 -29.905427903558802 46.704450830179667 0 0 0 0 -395.28090650943341 2.7548990221017675 0 2.7548990221017675 10.518977320887466 0 0 0 0 -71.228280095259834 41.053950826241689 0 41.053950826241689 24.703343330974405 0 0 0 0 -3.346967019242669 -6.9145500819659809 0 -6.9145500819659809 5.3829943158160241 0 0 0 0 -174.96619390759042 -158.96684564082634 0 -158.96684564082634 -11.805910194229796 0 0 0 0 19.465410601333133 -72.620314716746407 0 -72.620314716746407 -3.0613939433219457 0 0 0 0 -553.50955688489921 1.0770311881456109 0 1.0770311881456109 75.807997082532893 0 0 0 0 -32.93915451620876 -39.552112517432818 0 -39.552112517432818 13.540922012730759 0 0 0 0 -103.90788867643207 1.8546212521955709 0 1.8546212521955709 11.688943661940071 0 0 0 0 -887.46495391039934 467.32556399400073 0 467.32556399400073 315.72669293548552 0 0 0 0 -782.7626532551003 10.093350057325551 0 10.093350057325551 499.53194357064785 0 0 0 0 -102.67217827937327 3.8483810002919512 0 3.8483810002919512 1.6192400447592616 0 0 0 0 -1028.5187391507498 -386.96739858129922 0 -386.96739858129922 -17.891340631551429 0 0 0 0 -25.567597955933167 9.1142855967164422 0 9.1142855967164422 7.1433295178685547 0 0 0 0 -21.648459583782824 -381.57488329129274 0 -381.57488329129274 530.45460800396268 0 0 0 0 -1019.1704179806438 476.56720127342203 0 476.56720127342203 44.362162769576571 0 0 0 0 -710.80330355712795 -36.469237061137619 0 -36.469237061137619 156.90274349840911 0 0 0 0 -605.57915683039755 40.757803675883451 0 40.757803675883451 122.32068854674458 0 0 0 0 -573.80885647341347 -127.00605510952869 0 -127.00605510952869 31.954497843103127 0 0 0 0 -636.7526757147134 -85.123043606739884 0 -85.123043606739884 166.80802497258253 0 0 0 0 -634.43387659986183 -97.675111762346774 0 -97.675111762346774 101.25571872762657 0 0 0 0 -739.01163413818722 -76.40645467101524 0 -76.40645467101524 437.15656239612281 0 0 0 0 -727.4602479707537 -148.18351632260715 0 -148.18351632260715 111.07819898847833 0 0 0 0 -607.10618489657645 -169.81100629565526 0 -169.81100629565526 38.941801672056926 0 0 0 0 -641.58668645091529 -222.6342154163022 0 -222.6342154163022 -41.443287346733314 0 0 0 0 31.828655073433765 -71.937930758324455 0 -71.937930758324455 9.1751677551428656 0 0 0 0 -1.4267142571968918 -1.8102353195047556 0 -1.8102353195047556 -0.10190385927322421 0 0 0 0 44.983086541091325 -69.648646823292893 0 -69.648646823292893 2.0720489830609949 0 0 0 0 -108.40638285098248 -63.892439505136736 0 -63.892439505136736 33.294255590372359 0 0 0 0 -251.27036846258852 -186.44641426398925 0 -186.44641426398925 -39.711808178717206 0 0 0 0 -28.968439196422892 -42.660752333740035 0 -42.660752333740035 3.0754479058319362 0 0 0 0 -69.295195196336863 -57.550800357656101 0 -57.550800357656101 26.478590536648881 0 0 0 0 -482.18629774596775 -5.8159969633878745 0 -5.8159969633878745 75.618331195681094 0 0 0 0 -561.67224968720257 220.95568484644582 0 220.95568484644582 270.24438123429081 0 0 0 0 -580.03046080023523 278.88881339296438 0 278.88881339296438 127.52077120064314 0 0 0 0 -282.10089518583845 283.05990725161882 0 283.05990725161882 -145.1160299426017 0 0 0 0 -315.52355586117483 283.3864227012964 0 283.3864227012964 82.586156762237806 0 0 0 0 -97.481773221243088 16.220947860445744 0 16.220947860445744 -1.5556315273780497 0 0 0 0 -449.56265498596622 169.6289803163636 0 169.6289803163636 216.96352178753204 0 0 0 0 -96.892684282471009 12.417801020040976 0 12.417801020040976 -2.7335738962107108 0 0 0 0 -236.09404887626806 89.137669313916376 0 89.137669313916376 32.496325182361943 0 0 0 0 -356.2496829432057 198.58020593546007 0 198.58020593546007 -3.5303144484496443 0 0 0 0 -180.02944736660265 55.342304019435517 0 55.342304019435517 7.5975062890820482 0 0 0 0 -158.95735498493013 158.73225432344498 0 158.73225432344498 -19.649991287275952 0 0 0 0 -222.92481386519648 -22.621929633008222 0 -22.621929633008222 -437.04542063148534 0 0 0 0 -247.71063966149086 -97.016355383389964 0 -97.016355383389964 -333.0561652989968 0 0 0 0 -20.03443006587375 0.35161035933916196 0 0.35161035933916196 -4.320694811791661 0 0 0 0 -425.57250835797458 185.79779324251695 0 185.79779324251695 540.01847594396702 0 0 0 0 -437.71110031210992 -50.26536127591794 0 -50.26536127591794 117.22283567186469 0 0 0 0 -987.89928670262452 21.940408895549126 0 21.940408895549126 109.38594755737181 0 0 0 0 -718.24356888931652 169.12944729353842 0 169.12944729353842 95.067955302789528 0 0 0 0 -617.12867237931641 304.05666378557629 0 304.05666378557629 224.83193459399399 0 0 0 0 -404.55552124742826 66.046301616709798 0 66.046301616709798 345.21733968946455 0 0 0 0 -490.93968720739213 306.67279633739474 0 306.67279633739474 170.25502183972412 0 0 0 0 -445.96130197720777 399.70441395035618 0 399.70441395035618 266.78321214523885 0 0 0 0 -586.00431843596016 511.07402609089041 0 511.07402609089041 -124.45128628946577 0 0 0 0 -482.53691482359864 289.18893212272627 0 289.18893212272627 -48.010297009859642 0 0 0 0 -36.229579754937333 -3.9431880539525821 0 -3.9431880539525821 1.0349481096634627 0 0 0 0 -86.296700497608981 -7.7390076497233622 0 -7.7390076497233622 312.96301728258129 0 0 0 0 -183.65853747903748 175.24631897109396 0 175.24631897109396 -109.84368496716911 0 0 0 0 -318.91449507103243 352.51745038982614 0 352.51745038982614 -332.81535672748839 0 0 0 0 -325.47738886580191 338.97702425122054 0 338.97702425122054 -345.9639766758014 0 0 0 0 -844.06926802112139 967.14307737589172 0 967.14307737589172 -1098.8389277147071 0 0 0 0 -14.26309261406135 -0.46367450540782329 0 -0.46367450540782329 0.17934502554752862 0 0 0 0 -679.08581401240372 245.92606406431145 0 245.92606406431145 -144.07801035227931 0 0 0 0 -1165.9161309590963 -284.22740208713179 0 -284.22740208713179 -349.101996781845 0 0 0 0 -1690.4872903185023 338.88971220291131 0 338.88971220291131 -89.897621074260883 0 0 0 0 -1240.2948141460365 447.33315577781025 0 447.33315577781025 -281.44343256213546 0 0 0 0 -1446.9735517431582 230.62275755430701 0 230.62275755430701 0.66991639575794615 0 0 0 0 -967.0418332164918 -329.22197995585441 0 -329.22197995585441 187.18641979568923 0 0 0 0 -258.47925245558145 -411.47774305445228 0 -411.47774305445228 129.01133728315517 0 0 0 0 -9.7816712949679641 179.04939722475532 0 179.04939722475532 86.385160575549492 0 0 0 0 -0.99289188535550466 0.27716100836296675 0 0.27716100836296675 0.026722804260347705 0 0 0 0 -470.83023078650149 232.91550323817918 0 232.91550323817918 -129.89784325920405 0 0 0 0 -1.0669574636558536 -0.2762464884428727 0 -0.2762464884428727 0.014249397928610553 0 0 0 0 -4.8878845459257718 2.263654051808548 0 2.263654051808548 -0.69009570945425502 0 0 0 0 -1.5782949002634155 0.24032294857769898 0 0.24032294857769898 0.3648096165788578 0 0 0 0 19.008889442455256 64.930543891358042 0 64.930543891358042 -23.493897296728079 0 0 0 0 -27.157648011052515 -0.13730427343085694 0 -0.13730427343085694 -48.61975580133668 0 0 0 0 -186.77824998350843 65.756370299367006 0 65.756370299367006 -72.93694444162918 0 0 0 0 -48.730315572349355 -104.90891781599284 0 -104.90891781599284 -120.53357660163709 0 0 0 0 -503.35290721290221 -71.375743991264201 0 -71.375743991264201 -44.546669990597024 0 0 0 0 -138.40654133074713 -81.368436113151461 0 -81.368436113151461 112.55632194419809 0 0 0 0 0.48609782750499164 0.088207262173682466 0 0.088207262173682466 0.68310038110410254 0 0 0 0 130.79681220317434 -30.457791514108862 0 -30.457791514108862 -11.025994513881002 0 0 0 0 -1.5796272968864855 -2.3919709817193109 0 -2.3919709817193109 -0.94396963686787494 0 0 0 0 61.438971517825848 -81.659373039505454 0 -81.659373039505454 -1.3946150377871618 0 0 0 0 -18.850511310284205 -0.76886337983620479 0 -0.76886337983620479 4.3198102580104543 0 0 0 0 43.651244141554344 -89.755102726037421 0 -89.755102726037421 6.5829533796011219 0 0 0 0 -623.23171713280317 -145.58161353652707 0 -145.58161353652707 4.6166355779319019 0 0 0 0 -572.27173661820416 -80.324404024894079 0 -80.324404024894079 64.85008539118769 0 0 0 0 -553.83657154651883 -140.10103404668973 0 -140.10103404668973 -87.786841451906866 0 0 0 0 -737.02189609182096 -230.06744050367035 0 -230.06744050367035 -107.43140659955543 0 0 0 0 -817.78050394491584 -23.416928879692023 0 -23.416928879692023 -172.38211843774934 0 0 0 0 -725.66572263454873 -221.65605502688987 0 -221.65605502688987 -101.33165117426017 0 0 0 0 -510.06162957048218 -25.911976150893423 0 -25.911976150893423 -258.7478621219625 0 0 0 0 -542.27108138499898 82.67651323819716 0 82.67651323819716 -291.37743525749397 0 0 0 0 -508.67850406731668 -19.879705889527187 0 -19.879705889527187 -58.197331729635458 0 0 0 0 -798.3912229543057 4.4277928858850828 0 4.4277928858850828 -157.23422501929264 0 0 0 0 -823.21568972402019 119.20288132634005 0 119.20288132634005 -671.43800321577339 0 0 0 0 -1005.1761661980672 115.81934620114978 0 115.81934620114978 -0.25226702032931081 0 0 0 0 -647.43476761235797 261.96090615467824 0 261.96090615467824 -196.36021872935109 0 0 0 0 -644.95044891621728 190.22466773909068 0 190.22466773909068 -20.236804131700922 0 0 0 0 -354.53746629518719 26.563514924986489 0 26.563514924986489 -0.13685161883658525 0 0 0 0 -157.68424274015706 135.16423030269215 0 135.16423030269215 -75.450328016920594 0 0 0 0 -287.41959416966711 95.634984850102825 0 95.634984850102825 -143.70374429608131 0 0 0 0 -275.79410726721289 21.477577933697287 0 21.477577933697287 90.044211749113856 0 0 0 0 -21.414503698470071 103.09678510934842 0 103.09678510934842 -120.85489315182896 0 0 0 0 -145.98099980350526 38.682505731177798 0 38.682505731177798 -63.368078139370027 0 0 0 0 -0.88387182909362139 -0.97234871524563005 0 -0.97234871524563005 -0.53298799961498855 0 0 0 0 20.262977034402866 3.7274390136755189 0 3.7274390136755189 -103.43681417082861 0 0 0 0 -478.9482000054486 50.35514088637477 0 50.35514088637477 39.129784880340026 0 0 0 0 -116.83315926089563 -6.5426937692975518 0 -6.5426937692975518 0.20737529075315758 0 0 0 0 -291.27237632541801 -157.5531960973685 0 -157.5531960973685 -0.37745149601955313 0 0 0 0 -368.5201523443684 -134.84428100204602 0 -134.84428100204602 32.668365935020006 0 0 0 0 -225.05768426837312 -84.292653633138031 0 -84.292653633138031 -20.896069452169513 0 0 0 0 -310.15539997586166 -60.882284987894906 0 -60.882284987894906 9.4940569809598401 0 0 0 0 -59.076582811656408 -131.30466125730393 0 -131.30466125730393 0.052323440003499186 0 0 0 0 -211.71423728110676 -119.59903450690166 0 -119.59903450690166 60.075098729782582 0 0 0 0 -84.815072418568889 -105.36516921892758 0 -105.36516921892758 -24.947137064593619 0 0 0 0 -159.90779796860443 -104.57759158118235 0 -104.57759158118235 -12.502846580473488 0 0 0 0 -165.25109550965135 -104.87850122090614 0 -104.87850122090614 29.788374440782718 0 0 0 0 -173.06254665643792 -122.27771226758148 0 -122.27771226758148 -6.0220173390157754 0 0 0 0 -199.36835053848336 -123.23155090551967 0 -123.23155090551967 39.778951693671502 0 0 0 0 -318.5999433920224 -24.710997016441837 0 -24.710997016441837 38.822643947260076 0 0 0 0 -193.67422383351368 -89.072593754678508 0 -89.072593754678508 69.389989833435777 0 0 0 0 -191.76400386617752 -85.274532605883223 0 -85.274532605883223 20.749112650325628 0 0 0 0 -176.02905545860995 -69.859211762237351 0 -69.859211762237351 10.468530486092277 0 0 0 0 -142.39755931559193 -74.391235640719628 0 -74.391235640719628 3.1891172185050891 0 0 0 0 -120.41992828718503 -81.406807116732068 0 -81.406807116732068 0.89333687092113223 0 0 0 0 -96.234636227231135 -22.316983216443262 0 -22.316983216443262 -1.5323226865626696 0 0 0 0 -166.75064053930691 -74.505826641700082 0 -74.505826641700082 10.994955721775227 0 0 0 0 -242.74074191107502 -100.71192430661222 0 -100.71192430661222 176.2721994115268 0 0 0 0 -157.2573767768481 -24.392565413380112 0 -24.392565413380112 6.470583079379594 0 0 0 0 -144.43142716870352 -37.067279126632855 0 -37.067279126632855 17.079630484886593 0 0 0 0 -54.659020990943247 -15.319584202413104 0 -15.319584202413104 -2.351689491637627 0 0 0 0 -39.189078506899023 -510.17242154764097 0 -510.17242154764097 -28.084310807313614 0 0 0 0 -186.31356270500692 -352.25202178922291 0 -352.25202178922291 560.75131160999331 0 0 0 0 394.1805033837154 -345.44776862821743 0 -345.44776862821743 190.855551771107 0 0 0 0 -26.856355606177601 -2.7186324711287142 0 -2.7186324711287142 8.4104174606391915 0 0 0 0 -154.95117016784934 -58.529644333430014 0 -58.529644333430014 12.106422572209794 0 0 0 0 -37.568738872798008 -19.248733568593707 0 -19.248733568593707 -1.7706879249318792 0 0 0 0 -95.994931061723037 -32.288299927579715 0 -32.288299927579715 19.013590245108972 0 0 0 0 -62.470130990426696 -12.631045714716322 0 -12.631045714716322 5.3566557102449224 0 0 0 0 -56.231825852388283 -3.0744981969023684 0 -3.0744981969023684 -10.544153122672697 0 0 0 0 -22.529189424312563 -22.518821590908942 0 -22.518821590908942 -4.0531989170024341 0 0 0 0 -68.619539843697567 -6.351255210302952 0 -6.351255210302952 -2.6276746263943096 0 0 0 0 -72.458069588130456 3.7879722333823338 0 3.7879722333823338 -5.4124623976779276 0 0 0 0 -14.825967676486471 -45.097948100077872 0 -45.097948100077872 -29.154492966907469 0 0 0 0 -24.900505557568977 -29.170829529386424 0 -29.170829529386424 -14.096798644922899 0 0 0 0 -65.759858357851044 -95.532234894276144 0 -95.532234894276144 -102.77326953273734 0 0 0 0 -4.1363283029950253 -32.416542102335114 0 -32.416542102335114 0.073760159966091823 0 0 0 0 0.71048701595367447 0.72757555961490539 0 0.72757555961490539 -0.56489254381070142 0 0 0 0 -12.040432846377371 -28.682845292333386 0 -28.682845292333386 129.02077047569318 0 0 0 0 -15.136964473043918 -20.208321962953907 0 -20.208321962953907 17.529598134770389 0 0 0 0 -8.20659813662121 0.91984949222663204 0 0.91984949222663204 0.98526075468840202 0 0 0 0 -1.8793107292460149 -6.6799580484072791 0 -6.6799580484072791 -1.2547645586965934 0 0 0 0 -37.429446357615234 17.64205742195983 0 17.64205742195983 24.854245475855461 0 0 0 0 -40.989746174673201 30.821796156423932 0 30.821796156423932 0.059779985664874156 0 0 0 0 -29.761349189231623 -11.114764118893754 0 -11.114764118893754 -6.7059869786475517 0 0 0 0 -142.01469301356701 26.571960187335897 0 26.571960187335897 -0.15201572111621325 0 0 0 0 -47.871180143178208 -1.8679649273838095 0 -1.8679649273838095 -0.46534731877170543 0 0 0 0 -47.017330131195308 1.4253049958561519 0 1.4253049958561519 1.7060486916212356 0 0 0 0 -54.159265897382284 -10.84252989749416 0 -10.84252989749416 -8.3810373719875315 0 0 0 0 -30.960730963168317 11.97272073865749 0 11.97272073865749 2.177573258256384 0 0 0 0 -10.764043947592654 3.7855494542204635 0 3.7855494542204635 2.2600488462518076 0 0 0 0 -6.4384728265061 -1.0972333248257939 0 -1.0972333248257939 -0.15173601985378538 0 0 0 0 -2.6588878609309177 -1.6591162468898659 0 -1.6591162468898659 -0.68250819164005927 0 0 0 0 -163.25281935874955 -93.692602053962901 0 -93.692602053962901 -23.439947200593526 0 0 0 0 -13.624115165610419 -1.4447509538912473 0 -1.4447509538912473 -0.0041021834141150033 0 0 0 0 -47.329049311083509 -5.3037931608998861 0 -5.3037931608998861 18.944551480054088 0 0 0 0 -48.359017257762957 -2.1900067088681752 0 -2.1900067088681752 1.641210668459685 0 0 0 0 -127.49770874621026 -12.471606825907287 0 -12.471606825907287 49.804114508945403 0 0 0 0 -74.4514017781039 -22.216370297244339 0 -22.216370297244339 0.44425509110266859 0 0 0 0 -26.530523654318188 7.1258467161340207 0 7.1258467161340207 0.63750640202966036 0 0 0 0 -22.396558016287088 5.4579596018594003 0 5.4579596018594003 0.87658713436851077 0 0 0 0 -40.313264066249758 8.7892974976077305 0 8.7892974976077305 4.6507917565467594 0 0 0 0 -21.028117103358994 -12.659136111834812 0 -12.659136111834812 -0.55515342046618565 0 0 0 0 -73.789343245176497 -45.036417814751019 0 -45.036417814751019 -0.98300998512900151 0 0 0 0 -76.86787950699204 -29.719106811090924 0 -29.719106811090924 12.576135275938123 0 0 0 0 -49.608289897551003 111.58794376873561 0 111.58794376873561 132.82339361774712 0 0 0 0 -1.3643693946942221 39.618849700943201 0 39.618849700943201 11.325907734039674 0 0 0 0 -22.422622697762023 -2.1017830711256522 0 -2.1017830711256522 0.59538580980637246 0 0 0 0 -80.439420438719026 -22.801912439185607 0 -22.801912439185607 57.179624527727555 0 0 0 0 -42.158012193841813 3.0734121911857741 0 3.0734121911857741 -0.20432274501629566 0 0 0 0 -133.24607942520743 54.772800809429555 0 54.772800809429555 271.25141047794557 0 0 0 0 -50.699371414437849 0.068911406533786135 0 0.068911406533786135 2.5066851385485109 0 0 0 0 -117.78098943459918 29.41486854944651 0 29.41486854944651 -44.029363581672442 0 0 0 0 -43.813483634818112 76.140996374949282 0 76.140996374949282 -53.679954558311238 0 0 0 0 -81.35805586114293 159.8631968787779 0 159.8631968787779 -110.35055160255979 0 0 0 0 -86.220542004346498 158.61655397318759 0 158.61655397318759 -74.49646952443527 0 0 0 0 -23.848291177593637 52.175737651528607 0 52.175737651528607 -95.264503074912426 0 0 0 0 -38.082283361509326 43.461304555131392 0 43.461304555131392 73.974503898989269 0 0 0 0 -16.294928480054296 123.07635393707673 0 123.07635393707673 15.305522180734897 0 0 0 0 -55.116093141367287 -9.4905894825081916 0 -9.4905894825081916 0.90028168603798164 0 0 0 0 -55.037072765066114 -16.063376923597957 0 -16.063376923597957 12.542618216592473 0 0 0 0 -50.153211098964675 -14.602621607501703 0 -14.602621607501703 -5.4110021946812594 0 0 0 0 -76.660996321159473 165.7817223933655 0 165.7817223933655 51.213100649198395 0 0 0 0 -462.54447386207175 363.15376571717502 0 363.15376571717502 117.22481965642328 0 0 0 0 -189.04319942506845 -170.45077155157014 0 -170.45077155157014 564.88593984767749 0 0 0 0 -313.16616039059591 -159.35899630726362 0 -159.35899630726362 -53.135442820009644 0 0 0 0 -6.0679319680284891 1.2158979207625151 0 1.2158979207625151 -0.58742871329371171 0 0 0 0 15.360649545822525 150.50957784548115 0 150.50957784548115 -205.56466687849388 0 0 0 0 31.592778387232102 102.89724603098193 0 102.89724603098193 -609.1325117938286 0 0 0 0 5.8785745520435739 46.173923710283361 0 46.173923710283361 30.79733272140038 0 0 0 0 80.357024606033519 22.601641218661825 0 22.601641218661825 -87.049585538235988 0 0 0 0 -60.260991001967341 -87.535385547381111 0 -87.535385547381111 -61.554944175551555 0 0 0 0 -2.3667022059526062 -19.002280836244381 0 -19.002280836244381 -1.3045033423632049 0 0 0 0 -4.0424736097611458 -5.4953615247111003 0 -5.4953615247111003 -2.5681207230339869 0 0 0 0 -218.59017533504812 63.057937969374507 0 63.057937969374507 -13.232491145088488 0 0 0 0 -720.45617980676161 99.299713370111959 0 99.299713370111959 -29.234641247241598 0 0 0 0 -704.83289997550855 -54.012180222655076 0 -54.012180222655076 91.816545652604873 0 0 0 0 -7.0612619216883843 12.013529771349951 0 12.013529771349951 12.112586149115872 0 0 0 0 -50.811063559498621 3.8646648625809852 0 3.8646648625809852 4.3194707422100551 0 0 0 0 -21.855010724462772 91.633637547581003 0 91.633637547581003 -91.300403439747697 0 0 0 0 -99.598438342218287 -13.719158092390444 0 -13.719158092390444 372.32149380543706 0 0 0 0 -41.868857611385465 22.60542232551461 0 22.60542232551461 -158.34031252280874 0 0 0 0 143.10095032774552 33.393661022838387 0 33.393661022838387 131.51625991524452 0 0 0 0 149.18794075559708 22.532449721330522 0 22.532449721330522 66.63506484820573 0 0 0 0 -83.390861345134908 115.38264029380935 0 115.38264029380935 -216.92905638579236 0 0 0 0 -17.118311004305724 25.712758536128604 0 25.712758536128604 55.273464179087341 0 0 0 0 -17.407961813851841 3.2328711968225612 0 3.2328711968225612 1.483651006968608 0 0 0 0 -11.411878749437165 -1.5753023753031812 0 -1.5753023753031812 22.592941092309957 0 0 0 0 -47.038669189234497 -8.9668757176805229 0 -8.9668757176805229 -31.914248225569054 0 0 0 0 -18.508296735992189 5.4066588333271284 0 5.4066588333271284 20.345171456827813 0 0 0 0 -37.515460693766954 4.9111559630403718 0 4.9111559630403718 12.583642216252269 0 0 0 0 -28.602047914655486 0.5620144297066787 0 0.5620144297066787 14.025051005019595 0 0 0 0 -20.99892818810369 8.9485559705142332 0 8.9485559705142332 12.739275359243019 0 0 0 0 -38.533665514143649 -39.820958289898954 0 -39.820958289898954 -231.75104083244514 0 0 0 0 -50.926920478275861 116.50907609152046 0 116.50907609152046 -275.77260027365082 0 0 0 0 -7.7248495281573781 1.6432067973048703 0 1.6432067973048703 2.4024893855117693 0 0 0 0 -23.372254846435681 -7.1249486373931745 0 -7.1249486373931745 10.116711511240794 0 0 0 0 -4.6333562985819299 12.084406273559807 0 12.084406273559807 19.363428177573951 0 0 0 0 2.0099135535419919 11.093581021890259 0 11.093581021890259 -13.803664077439862 0 0 0 0 -12.103929207693085 -4.2823758341082225 0 -4.2823758341082225 9.4732753690987632 0 0 0 0 -2.9212046204041116 -8.2739272050086186 0 -8.2739272050086186 14.364967387069747 0 0 0 0 217.10164523491403 -6.0969878488090217 0 -6.0969878488090217 -6.4910553600609546 0 0 0 0 137.39785539303557 -32.570707062477595 0 -32.570707062477595 71.958344327096768 0 0 0 0 123.95914774626726 -29.867080864190484 0 -29.867080864190484 158.25841729573949 0 0 0 0 226.74462457369373 -90.481279112831089 0 -90.481279112831089 -148.43697511693836 0 0 0 0 -257.65043716835498 -157.04851104159161 0 -157.04851104159161 346.6413598701447 0 0 0 0 69.975500066881068 -97.213779121991138 0 -97.213779121991138 74.398431504448126 0 0 0 0 -63.420645233243704 -159.64056128101583 0 -159.64056128101583 58.365074407768589 0 0 0 0 -71.124127782441064 -133.29199181629588 0 -133.29199181629588 29.732405605003805 0 0 0 0 251.03239052575373 211.17571586027606 0 211.17571586027606 -166.05710263293804 0 0 0 0 2.8486547197732648 -3.4048012158890657 0 -3.4048012158890657 5.541084321627201 0 0 0 0 -18.195194558691583 -13.093575202194302 0 -13.093575202194302 8.2107549183602373 0 0 0 0 -173.72878965098789 -163.6172978251459 0 -163.6172978251459 54.613669188773656 0 0 0 0 -10.632945911747811 -2.3212339493954914 0 -2.3212339493954914 20.629019022787816 0 0 0 0 -8.9975696185792913 -11.094820571593637 0 -11.094820571593637 4.1198155153620633 0 0 0 0 -1.5575902953298879 -0.70002494582222141 0 -0.70002494582222141 6.8209367101608915 0 0 0 0 0.085827911540295787 -0.01462397109263236 0 -0.01462397109263236 4.4659487882348134 0 0 0 0 20.674423784228566 -16.890812559425967 0 -16.890812559425967 6.770458002823716 0 0 0 0 -606.76278393422945 -131.57968600963545 0 -131.57968600963545 -28.444276936209008 0 0 0 0 -635.66590776885278 80.041244020409181 0 80.041244020409181 40.513378392753793 0 0 0 0 -1.5524380649226828 -1.8831883782909742 0 -1.8831883782909742 -2.1200757598334046 0 0 0 0 -56.928699771684478 -183.72122499793625 0 -183.72122499793625 -194.60372873601295 0 0 0 0 -28.516924696763454 28.743036724679882 0 28.743036724679882 -24.04172413684546 0 0 0 0 -262.36116277634574 -127.81075611138107 0 -127.81075611138107 -23.003227767802766 0 0 0 0 -263.1352190939142 -117.75706893460705 0 -117.75706893460705 48.057832199924121 0 0 0 0 -578.75823960667913 -260.08008207411206 0 -260.08008207411206 -8.3338425975806985 0 0 0 0 -416.28379281660091 41.579861386088353 0 41.579861386088353 -37.549764098491892 0 0 0 0 -279.23791295354022 -134.2113953503158 0 -134.2113953503158 -206.82451796907989 0 0 0 0 -112.55604862864129 -11.828874512630705 0 -11.828874512630705 -214.305848333433 0 0 0 0 15.690471700239868 -6.7570922268753293 0 -6.7570922268753293 -130.6758349185352 0 0 0 0 -128.67284604644374 55.606746794751984 0 55.606746794751984 -53.036915340291216 0 0 0 0 -113.96652764517057 17.956461236007954 0 17.956461236007954 -149.82273345962767 0 0 0 0 -17.492009455585503 -38.836265202636014 0 -38.836265202636014 -125.54512465363064 0 0 0 0 -4.2667953248310369 -36.150276777099158 0 -36.150276777099158 12.525288320442804 0 0 0 0 81.675786121020792 51.302639188621981 0 51.302639188621981 -62.697118905289159 0 0 0 0 -2.9772077762256117 -0.33317142452158066 0 -0.33317142452158066 0.83611574765931573 0 0 0 0 -4.794452431233367 112.49770574866758 0 112.49770574866758 57.059943158962042 0 0 0 0 -103.052701963039 -129.57547350125387 0 -129.57547350125387 -39.994068538965948 0 0 0 0 -130.98955709396978 49.714445247925042 0 49.714445247925042 25.992582766945361 0 0 0 0 -37.792790340507054 25.062415260192665 0 25.062415260192665 32.065144130123826 0 0 0 0 0.48071827137027867 -6.3477030927151645 0 -6.3477030927151645 -52.549301858699181 0 0 0 0 -9.892162025658763 -8.250600349137585 0 -8.250600349137585 -38.518628755761711 0 0 0 0 -41.716085437961738 -57.895866040253168 0 -57.895866040253168 -50.100575824305565 0 0 0 0 -6.0834521782417141 -90.405277320258506 0 -90.405277320258506 -22.642851333594535 0 0 0 0 13.105017821588262 -79.083526219747341 0 -79.083526219747341 -135.30013498621292 0 0 0 0 -101.48264977706185 -14.683453410570735 0 -14.683453410570735 7.3670662840995647 0 0 0 0 -40.673559868184384 -46.509490291622569 0 -46.509490291622569 20.518610753184021 0 0 0 0 -94.541884519829182 -60.252082690406951 0 -60.252082690406951 34.918122974340349 0 0 0 0 -76.052939575136406 -50.164243209452707 0 -50.164243209452707 24.524949865228791 0 0 0 0 -88.918469093862313 -21.792289654304604 0 -21.792289654304604 0.32453734439836124 0 0 0 0 -58.426390267297393 -194.67053584443192 0 -194.67053584443192 153.52348918564849 0 0 0 0 -101.37837781777125 -110.70014999547519 0 -110.70014999547519 60.787554681951406 0 0 0 0 -11.671160893449269 -129.97286374565897 0 -129.97286374565897 -9.7780573092195482 0 0 0 0 -2.9561091231007595 -140.48420127955023 0 -140.48420127955023 -24.302836068897108 0 0 0 0 46.48201874922961 -204.94380867863561 0 -204.94380867863561 -0.37707682010204735 0 0 0 0 23.845317063096445 -149.37578712798268 0 -149.37578712798268 -60.436196780231512 0 0 0 0 2.5681990320445038 -224.57050451081636 0 -224.57050451081636 -22.60359089060421 0 0 0 0 18.976404171378817 -76.813183274805851 0 -76.813183274805851 -218.37569204468309 0 0 0 0 -11.225753727208939 -140.57017722518003 0 -140.57017722518003 121.2117595130394 0 0 0 0 10.330583867573296 31.263429656402423 0 31.263429656402423 -398.57642175453248 0 0 0 0 -468.76557180061354 200.76867305000314 0 200.76867305000314 -215.02933939301556 0 0 0 0 -225.303908646325 114.1633369613885 0 114.1633369613885 -184.25361269526684 0 0 0 0 -469.72160125015944 -21.025033299220468 0 -21.025033299220468 25.466681237455077 0 0 0 0 -24.14868245391699 -42.277248230720943 0 -42.277248230720943 -189.40672571925688 0 0 0 0 -27.352580077349558 -52.758366539238523 0 -52.758366539238523 -97.038259584766138 0 0 0 0 -94.369763165523182 -70.86688412004321 0 -70.86688412004321 -141.17842205519401 0 0 0 0 -3502.2193827622832 -297.30040848760052 0 -297.30040848760052 335.10971600632536 0 0 0 0 5.5044645215239143 -15.100046174665408 0 -15.100046174665408 -81.568671235951797 0 0 0 0 -29.349172662939964 -26.606315795684878 0 -26.606315795684878 -13.019101952095866 0 0 0 0 -1.9309997546737918 -10.408581519722333 0 -10.408581519722333 0.20265835195571796 0 0 0 0 -6.77033780818482 -5.9938239072524482 0 -5.9938239072524482 -1.5793209689359535 0 0 0 0 -1817.8328781679302 329.87852857894666 0 329.87852857894666 -10.275748874125668 0 0 0 0 -12.886486759032948 -5.0931274469377428 0 -5.0931274469377428 -1.3058344059623783 0 0 0 0 -884.07978087934316 -853.80427783561925 0 -853.80427783561925 -761.34667797738825 0 0 0 0 -3492.3446689325465 1009.821521583592 0 1009.821521583592 -224.1832006653764 0 0 0 0 -3487.4539541933495 -839.47513749358052 0 -839.47513749358052 436.71800640494655 0 0 0 0 -1585.7877241157839 -247.28690687064918 0 -247.28690687064918 -0.81384921304297775 0 0 0 0 -210.69361071841195 45.976098823059807 0 45.976098823059807 2.0969118884775142 0 0 0 0 -0.58061610643741091 0.45006772232767389 0 0.45006772232767389 0.48475170675764184 0 0 0 0 221.18111282013706 -446.59508221818896 0 -446.59508221818896 -699.79974080663692 0 0 0 0 -71.949660555877927 36.483187811072128 0 36.483187811072128 -34.415168344170581 0 0 0 0 137.30525976487843 349.15328915442228 0 349.15328915442228 -113.4462473243816 0 0 0 0 -7.1275132572987232 -1.071284353719534 0 -1.071284353719534 3.6313298474126809 0 0 0 0 -113.65054691486876 20.745555428433079 0 20.745555428433079 -12.26849385184331 0 0 0 0 -154.56638788738928 19.810772043489763 0 19.810772043489763 10.70543032144149 0 0 0 0 -231.12620321013674 100.4090987156184 0 100.4090987156184 -12.304389144229461 0 0 0 0 -97.555149013816845 64.254421865242563 0 64.254421865242563 -48.641048266503162 0 0 0 0 -213.71823198362836 43.499363106048804 0 43.499363106048804 0.068843596664640905 0 0 0 0 -222.67248016901431 37.303962958623998 0 37.303962958623998 16.062264057846086 0 0 0 0 -234.87705980196915 -28.738749292835045 0 -28.738749292835045 31.472488181512027 0 0 0 0 -289.31211616292421 29.588859825227416 0 29.588859825227416 17.577085791408855 0 0 0 0 -279.02667006288539 23.537708384917082 0 23.537708384917082 14.627178948362342 0 0 0 0 -535.52956577390432 -30.49711497692941 0 -30.49711497692941 10.020960671867783 0 0 0 0 -231.47106380600599 -163.29601417014467 0 -163.29601417014467 -303.89133356292928 0 0 0 0 -414.17257579723082 233.38709669653238 0 233.38709669653238 -118.10627069264537 0 0 0 0 -2.9519783310806815 -1.5850476896075918 0 -1.5850476896075918 -1.0749358998402245 0 0 0 0 -50.70197425672086 -133.74647856357302 0 -133.74647856357302 -218.02296462713559 0 0 0 0 -127.62943860510131 -18.584474399289093 0 -18.584474399289093 22.517877303107866 0 0 0 0 -163.67261355472147 -110.43841920373393 0 -110.43841920373393 11.355569588461321 0 0 0 0 -637.97742841762374 -172.98453642531626 0 -172.98453642531626 -23.875995659425371 0 0 0 0 -177.6078736028503 -81.288587403349879 0 -81.288587403349879 113.04824797492324 0 0 0 0 -153.12502904712164 276.69424221301023 0 276.69424221301023 -207.3606691848596 0 0 0 0 -167.48251718110987 107.61335606050005 0 107.61335606050005 108.79220885512041 0 0 0 0 -24.551532049590605 336.61051680269452 0 336.61051680269452 119.39635387945032 0 0 0 0 150.64237303729169 84.149074061127521 0 84.149074061127521 -143.56451227349982 0 0 0 0 -78.927294797765285 29.048685936143855 0 29.048685936143855 -0.52500669305978498 0 0 0 0 -144.84034332699957 81.346122818971708 0 81.346122818971708 -49.891776806531766 0 0 0 0 -74.01767976738671 31.286595399744968 0 31.286595399744968 1.0712700131001212 0 0 0 0 -45.698363555275137 -46.392191991883692 0 -46.392191991883692 -133.07935070567606 0 0 0 0 -4.3212345929519529 3.2483585736436993 0 3.2483585736436993 -0.6092563045887609 0 0 0 0 -51.286531251680572 80.366661514966609 0 80.366661514966609 64.718513121965543 0 0 0 0 -29.512689920171397 1.6467091766836504 0 1.6467091766836504 19.980088909344502 0 0 0 0 -37.095555733826586 55.885065125112902 0 55.885065125112902 16.763144968339958 0 0 0 0 -29.41311156842994 16.8968850784014 0 16.8968850784014 -4.2174777134340502 0 0 0 0 0.94913859416556079 32.099151770896732 0 32.099151770896732 10.619901692734448 0 0 0 0 -34.565063048117736 94.420653632187737 0 94.420653632187737 -93.650416617593123 0 0 0 0 1.5533411364676226 3.2232450349384294 0 3.2232450349384294 -1.0703106089299754 0 0 0 0 -288.61350491209851 -13.073329656244864 0 -13.073329656244864 -3.4872737240789178 0 0 0 0 -29.866851393351681 -52.830023056958233 0 -52.830023056958233 31.711516713850511 0 0 0 0 0.35962184146853815 -0.46401075780937617 0 -0.46401075780937617 -0.38469477697659704 0 0 0 0 -6.4876791474798665 24.335868212207696 0 24.335868212207696 3.8293721476707603 0 0 0 0 -73.954456865656539 14.236071224611923 0 14.236071224611923 -0.0097241623546425755 0 0 0 0 -46.086021408729721 2.4348995135562781 0 2.4348995135562781 -7.2277608065756631 0 0 0 0 -36.613790593710291 21.046306107344101 0 21.046306107344101 1.9080659639442352 0 0 0 0 -38.606103921192698 16.745431164398756 0 16.745431164398756 24.383851874463652 0 0 0 0 -50.071548807347426 15.470648376413614 0 15.470648376413614 7.1835928526818513 0 0 0 0 -37.104219750086486 18.588095320722104 0 18.588095320722104 6.4321035706086889 0 0 0 0 -44.308414212067873 17.943660312439693 0 17.943660312439693 0.99970380651796376 0 0 0 0 -44.235926601730171 17.194213729567675 0 17.194213729567675 6.9713321726522928 0 0 0 0 -43.252389821005636 17.425234285792264 0 17.425234285792264 -0.0044936652299702069 0 0 0 0 -34.078610993135953 11.989439217381126 0 11.989439217381126 0.016591453178826116 0 0 0 0 -39.534084024198819 12.33961181976724 0 12.33961181976724 6.7997814185553658 0 0 0 0 -58.233825237402925 15.474299746961595 0 15.474299746961595 6.2754096273383553 0 0 0 0 -28.81190994716053 -5.0427706490475064 0 -5.0427706490475064 2.608827660720209 0 0 0 0 -36.68893619309236 8.3083747544149702 0 8.3083747544149702 -0.54923496920947623 0 0 0 0 -35.11913028836716 14.264543632310364 0 14.264543632310364 16.165407439451627 0 0 0 0 -64.797062820871361 18.291304928130188 0 18.291304928130188 6.6457431572064145 0 0 0 0 -6.1484444762093062 8.3995216367792978 0 8.3995216367792978 3.0754077629768068 0 0 0 0 -32.83460366667714 9.5217640712450731 0 9.5217640712450731 14.011672296249571 0 0 0 0 -80.125008924835129 13.538974625572109 0 13.538974625572109 100.90344558589186 0 0 0 0 -47.022372964267561 42.382060391094114 0 42.382060391094114 25.258238882922797 0 0 0 0 -68.858309890165401 58.881305777125533 0 58.881305777125533 29.900281419063049 0 0 0 0 -17.26366523100296 21.935314308712805 0 21.935314308712805 -37.520815811707223 0 0 0 0 -32.668020888830938 12.567353813954053 0 12.567353813954053 -1.582412689172815 0 0 0 0 -49.758339066582266 14.405864323489645 0 14.405864323489645 10.803205851648428 0 0 0 0 -26.15829314608709 24.013504293041933 0 24.013504293041933 49.48631487743819 0 0 0 0 -30.603792526097891 18.188962519341842 0 18.188962519341842 6.8374373299130653 0 0 0 0 -43.198588843427274 -2.4795486279520134 0 -2.4795486279520134 0.1722850084985339 0 0 0 0 -64.787053769308841 84.301922073337209 0 84.301922073337209 -9.5322553207020064 0 0 0 0 -20.269238325722768 6.1595721624281197 0 6.1595721624281197 7.9949426052821035 0 0 0 0 -31.903201023713336 92.878830182069123 0 92.878830182069123 -77.193552876650074 0 0 0 0 -90.605661801077076 8.9789572858142606 0 8.9789572858142606 -44.930664565100415 0 0 0 0 -96.47553355195123 60.179985945675071 0 60.179985945675071 34.446663189096853 0 0 0 0 -29.943420125122429 -11.26106172572139 0 -11.26106172572139 -8.8031773844095369 0 0 0 0 -53.455421174025105 84.767106417939658 0 84.767106417939658 43.63789923608897 0 0 0 0 -347.10579761618283 -145.88582036945627 0 -145.88582036945627 447.29066581057441 0 0 0 0 -298.00204311590642 -189.53253268099797 0 -189.53253268099797 417.43444337439723 0 0 0 0 177.38361715857172 15.263976340542285 0 15.263976340542285 491.31725083214769 0 0 0 0 -69.551075345436402 75.059566755854689 0 75.059566755854689 199.72843350310359 0 0 0 0 -38.844909726290609 5.9197243270156648 0 5.9197243270156648 -0.53386047005460213 0 0 0 0 1.7714478596510759 -0.80081948146475668 0 -0.80081948146475668 -0.24589014053422886 0 0 0 0 194.81240762055677 284.62665118408722 0 284.62665118408722 465.811766856541 0 0 0 0 261.00267637238721 341.18212388356085 0 341.18212388356085 444.27253396314154 0 0 0 0 437.04928794974694 360.07325210283898 0 360.07325210283898 277.74802669463588 0 0 0 0 43.659903600040707 224.29737572397562 0 224.29737572397562 443.08752772928801 0 0 0 0 324.5929630759274 234.95262455637908 0 234.95262455637908 236.91703189322743 0 0 0 0 160.45213991694618 241.48345168215019 0 241.48345168215019 236.65904821023105 0 0 0 0 -550.44686809083214 30.704507726434571 0 30.704507726434571 108.69489632695513 0 0 0 0 -440.81463283490666 -26.566198091182372 0 -26.566198091182372 118.90296440351631 0 0 0 0 122.84928716858849 221.77896711371068 0 221.77896711371068 556.4429137855841 0 0 0 0 -552.27316019462887 -189.35788400985984 0 -189.35788400985984 503.18196876449292 0 0 0 0 -511.23287638401234 -313.27370530861299 0 -313.27370530861299 444.1874698841566 0 0 0 0 -464.36858865911199 -128.111049917115 0 -128.111049917115 545.66574888960167 0 0 0 0 -340.16849000533693 -296.14456193367005 0 -296.14456193367005 403.76498956630894 0 0 0 0 -400.79831488050695 -276.82313102495209 0 -276.82313102495209 179.93989398834674 0 0 0 0 -425.87508542626165 -330.07900752693968 0 -330.07900752693968 202.35119128212591 0 0 0 0 -263.66136207728414 -376.04647400892827 0 -376.04647400892827 -266.77287761002037 0 0 0 0 -405.10328836328699 107.16800371763065 0 107.16800371763065 -199.40503098306411 0 0 0 0 -769.72797235628968 -430.56949620035653 0 -430.56949620035653 170.55786770460236 0 0 0 0 -771.21042610718723 -604.88115157493223 0 -604.88115157493223 -323.33427399810876 0 0 0 0 -2.0032275869739635 1.3917005637193398 0 1.3917005637193398 -2.2403541939408904 0 0 0 0 -225.28621200084308 -134.90491390043576 0 -134.90491390043576 -323.14479923909835 0 0 0 0 -144.62814195069222 -270.83377859623471 0 -270.83377859623471 -116.98394053786478 0 0 0 0 -233.20739829954982 -16.342657540624032 0 -16.342657540624032 147.28230736898502 0 0 0 0 -381.53009785237373 -262.55350436242634 0 -262.55350436242634 16.891818090226025 0 0 0 0 -129.20863190313321 -186.82007253639114 0 -186.82007253639114 -249.78134180345478 0 0 0 0 -506.95366003698473 -547.2167551252162 0 -547.2167551252162 -376.44280622169163 0 0 0 0 -332.58407327936584 -209.59704288052217 0 -209.59704288052217 -385.10356776286176 0 0 0 0 174.15197316884587 163.28199906706925 0 163.28199906706925 128.43782019373384 0 0 0 0 -9.1033346742846959 5.5286126525604686 0 5.5286126525604686 -2.9558805393765115 0 0 0 0 -5.0018146682578788 -1.3745859482501857 0 -1.3745859482501857 3.5331467982554003 0 0 0 0 -75.489497812297486 -59.506004018630492 0 -59.506004018630492 86.650410961923967 0 0 0 0 -573.17689772087033 -257.26735241427662 0 -257.26735241427662 -135.56256817256337 0 0 0 0 20.269544854556443 105.18321528152865 0 105.18321528152865 -130.57797492095779 0 0 0 0 316.55731705844664 164.69102948642637 0 164.69102948642637 120.47184944034325 0 0 0 0 172.07546103686036 167.70764207659937 0 167.70764207659937 137.60397723614361 0 0 0 0 118.22262415711884 141.92977536564786 0 141.92977536564786 149.54673684769068 0 0 0 0 88.532215337632806 144.79184859562497 0 144.79184859562497 205.185829588042 0 0 0 0 34.959874678024789 95.060694551813867 0 95.060694551813867 159.07388651469648 0 0 0 0 84.226208931620931 141.79879864564487 0 141.79879864564487 160.074223458288 0 0 0 0 148.06158738212253 128.64628950858076 0 128.64628950858076 109.6512613574331 0 0 0 0 -494.65772683822433 -523.821295160315 0 -523.821295160315 -114.97253227059446 0 0 0 0 190.47179641619732 179.02262631939672 0 179.02262631939672 102.75992311178311 0 0 0 0 -22.129092950751726 14.675226601908321 0 14.675226601908321 -5.2661009401015786 0 0 0 0 -3.8899703775274759 -3.3704485721564765 0 -3.3704485721564765 4.0391087303599802 0 0 0 0 125.33615451196965 140.91027818281032 0 140.91027818281032 131.94186975570437 0 0 0 0 -673.88366474795475 -304.40271739910645 0 -304.40271739910645 44.679447220933071 0 0 0 0 59.786378381220857 76.411941766226846 0 76.411941766226846 74.039309135828717 0 0 0 0 142.59473489987431 60.540541319667682 0 60.540541319667682 47.98610547785745 0 0 0 0 147.19283983588684 103.22660874391843 0 103.22660874391843 70.011542686819254 0 0 0 0 231.02884167707816 111.79844361344374 0 111.79844361344374 66.494060052080215 0 0 0 0 141.82189596831449 131.90918933516696 0 131.90918933516696 94.268628147757227 0 0 0 0 103.55015790704056 93.745222316865011 0 93.745222316865011 76.058665834592375 0 0 0 0 113.0587168261336 68.313219808980591 0 68.313219808980591 65.54098431838429 0 0 0 0 135.12050461717445 120.08479805784896 0 120.08479805784896 80.598203944558918 0 0 0 0 65.317720654304139 63.628241842606144 0 63.628241842606144 63.183480438146944 0 0 0 0 42.524654657230712 76.118709332260323 0 76.118709332260323 93.95066554410414 0 0 0 0 31.507083480588335 22.728899397278497 0 22.728899397278497 49.135819551732311 0 0 0 0 50.510862299095606 46.401933012135487 0 46.401933012135487 74.91089827912424 0 0 0 0 8.8515462618961465 63.467694537302123 0 63.467694537302123 97.892821080276917 0 0 0 0 57.682207908146665 87.119351510646538 0 87.119351510646538 118.62026724070529 0 0 0 0 75.031179108527795 94.610798576385037 0 94.610798576385037 118.10088821341014 0 0 0 0 26.837205406714929 48.862802603356158 0 48.862802603356158 119.59105649615867 0 0 0 0 18.903200585293234 51.821302665570556 0 51.821302665570556 123.37111296655939 0 0 0 0 -23.523493943022913 20.37633921623501 0 20.37633921623501 106.14743381685821 0 0 0 0 -24.641653373530062 10.999355166980308 0 10.999355166980308 127.56541505983841 0 0 0 0 -25.298627319896866 3.6497261335332487 0 3.6497261335332487 0.032828073484181486 0 0 0 0 17.279749287488812 11.331305134629929 0 11.331305134629929 105.62236965792636 0 0 0 0 -77.442188628818258 16.426231250736691 0 16.426231250736691 233.01145891844715 0 0 0 0 -9.3691693499986286 -51.890128233973556 0 -51.890128233973556 68.394813813479232 0 0 0 0 5.564285693479178 93.549394050304045 0 93.549394050304045 3.2028851895634034 0 0 0 0 -62.306183413753388 -160.14583337474082 0 -160.14583337474082 -131.08078277772347 0 0 0 0 -133.07653698831564 105.93399117717672 0 105.93399117717672 324.00031338675171 0 0 0 0 95.415328893104743 102.55848339190288 0 102.55848339190288 -113.05726491077576 0 0 0 0 -130.44222457992146 69.634285030576166 0 69.634285030576166 213.61593594385238 0 0 0 0 -130.38496137480251 2.2131018976324413 0 2.2131018976324413 -38.870934211190615 0 0 0 0 -81.61706766547303 29.136761956434938 0 29.136761956434938 0.11736083766145455 0 0 0 0 -209.57877426134655 -139.48716537452219 0 -139.48716537452219 240.83031466924876 0 0 0 0 -225.8355005700505 -130.22515449294042 0 -130.22515449294042 250.19061018937009 0 0 0 0 -108.55581541768333 -31.045582772973148 0 -31.045582772973148 33.308317623401422 0 0 0 0 34.915020515269134 -209.59292025274726 0 -209.59292025274726 260.59872505760723 0 0 0 0 8.8040162252155767 18.064541612697692 0 18.064541612697692 -6.9622088664514621 0 0 0 0 516.72142624825938 -1586.680674514746 0 -1586.680674514746 2802.7881949074635 0 0 0 0 -204.11088525332161 -19.573751667373017 0 -19.573751667373017 478.26658955185758 0 0 0 0 -42.119536924067006 8.2715310981218408 0 8.2715310981218408 -1.6542074958150854 0 0 0 0 -97.324086613092732 714.23646926991228 0 714.23646926991228 -276.60027309538964 0 0 0 0 -255.72931551736474 137.29547501934326 0 137.29547501934326 449.16532956798437 0 0 0 0 -273.26709447952453 200.40489871172792 0 200.40489871172792 224.5957715446566 0 0 0 0 -263.80524944406352 57.188838988392035 0 57.188838988392035 247.87268137766807 0 0 0 0 -116.00822450214764 134.15077601523444 0 134.15077601523444 -23.674579041541392 0 0 0 0 -9.2616607188322746 1.1983786425767571 0 1.1983786425767571 0.040447398287876801 0 0 0 0 -173.70527401787695 -142.00218126394702 0 -142.00218126394702 242.80825989575828 0 0 0 0 -77.704658477305202 55.357005098440368 0 55.357005098440368 50.923940973875688 0 0 0 0 -25.349336368324657 5.0832882530528138 0 5.0832882530528138 93.02897387666053 0 0 0 0 -129.28184038997279 34.420403056662963 0 34.420403056662963 111.5201454180733 0 0 0 0 -43.648994696937734 49.221457843742428 0 49.221457843742428 76.393509471418156 0 0 0 0 -133.71619644257589 12.912615435705902 0 12.912615435705902 126.39095407456898 0 0 0 0 -226.62163479835726 94.9928014189436 0 94.9928014189436 139.53094492919445 0 0 0 0 -206.04225966401282 45.649697110625766 0 45.649697110625766 162.98589470338948 0 0 0 0 -182.88373671410955 -34.803327569395606 0 -34.803327569395606 97.071004193941917 0 0 0 0 -134.67760486606858 7.8374861430720557 0 7.8374861430720557 124.96380465233415 0 0 0 0 -38.258555346648791 15.176377249694042 0 15.176377249694042 83.972125172362212 0 0 0 0 -50.263051911228104 29.194194463873828 0 29.194194463873828 104.25848384410529 0 0 0 0 -120.23761211567034 -10.759924837082963 0 -10.759924837082963 88.975085305385619 0 0 0 0 -105.59586459130514 -26.168339183904891 0 -26.168339183904891 58.120349862700095 0 0 0 0 -31.440700499399099 29.669822292211279 0 29.669822292211279 47.23532674132224 0 0 0 0 -31.562086929916404 37.827715910627603 0 37.827715910627603 90.930449951706066 0 0 0 0 -34.089981402095873 9.612347780331902 0 9.612347780331902 68.361141266047298 0 0 0 0 -221.30432909668889 -49.073940801978324 0 -49.073940801978324 65.565794634589565 0 0 0 0 -131.65549131159787 -2.2860199474041565 0 -2.2860199474041565 79.233197398798893 0 0 0 0 -114.17314721108414 -45.106238805333419 0 -45.106238805333419 -12.054567941312371 0 0 0 0 -61.35723857904668 48.072400876099145 0 48.072400876099145 3.871067170660965 0 0 0 0 3.4303686576313339 68.166601796181681 0 68.166601796181681 69.207192986227 0 0 0 0 0.059410977410152555 6.6729503605845935 0 6.6729503605845935 48.086994094180454 0 0 0 0 -351.44495957609615 165.50432995667103 0 165.50432995667103 -88.131493817855628 0 0 0 0 -235.83732281538323 30.107912678306235 0 30.107912678306235 30.083780423143708 0 0 0 0 -453.97929965400544 174.55256504013335 0 174.55256504013335 -52.406595310326793 0 0 0 0 -262.14896017988212 -26.849074991154794 0 -26.849074991154794 -52.436442988408771 0 0 0 0 -153.52526472481259 -2.5724282229181199 0 -2.5724282229181199 3.6438025245920471 0 0 0 0 -275.4732735466896 -52.909758641952749 0 -52.909758641952749 198.18832091725471 0 0 0 0 -208.29778175248066 -63.350586659310466 0 -63.350586659310466 46.110304217039129 0 0 0 0 -204.44765516868938 -10.368041675440736 0 -10.368041675440736 153.32859806667784 0 0 0 0 -217.4894013787889 15.801654367496212 0 15.801654367496212 226.75987230270221 0 0 0 0 -238.4474545486155 -39.921092353423319 0 -39.921092353423319 174.04534910433222 0 0 0 0 -230.00816121829394 60.193773655487661 0 60.193773655487661 210.31162637350462 0 0 0 0 -146.80455294396961 -40.938785776449095 0 -40.938785776449095 269.72588673090036 0 0 0 0 -236.89364887802117 15.884882656639199 0 15.884882656639199 239.75192256617174 0 0 0 0 -263.83893112660735 78.584052266818617 0 78.584052266818617 340.7342939871869 0 0 0 0 -117.96735908672417 -104.12178358248366 0 -104.12178358248366 407.98234129074535 0 0 0 0 216.05563378665829 38.943802393965143 0 38.943802393965143 152.31068590649784 0 0 0 0 0.81749245338141918 533.47333387349863 0 533.47333387349863 358.10623347986382 0 0 0 0 -22.94562871025434 10.861840293125468 0 10.861840293125468 -3.4397286126728162 0 0 0 0 -308.25845496560214 199.35305952630915 0 199.35305952630915 274.41244625282388 0 0 0 0 -304.93420898349723 201.14413718789513 0 201.14413718789513 126.04605570227113 0 0 0 0 -700.70076844733558 519.40624013781951 0 519.40624013781951 -258.8100470149061 0 0 0 0 -39.431040453651804 259.97602971703714 0 259.97602971703714 -271.40549459034173 0 0 0 0 -1022.4901003077393 995.97728756941694 0 995.97728756941694 -461.86816936022194 0 0 0 0 -446.18500810302794 640.54980639990265 0 640.54980639990265 -374.73568459266653 0 0 0 0 -999.28009690309409 494.80457663144648 0 494.80457663144648 -164.04523113495432 0 0 0 0 -284.49336035235319 239.38653725891322 0 239.38653725891322 -212.86090718634523 0 0 0 0 -1376.052939572648 3107.0288375752857 0 3107.0288375752857 -1748.2464817685782 0 0 0 0 -1788.3391296868358 1367.8241272337723 0 1367.8241272337723 -260.43052082733385 0 0 0 0 -878.87119841421372 1569.6389522176978 0 1569.6389522176978 -1031.4427720042804 0 0 0 0 1103.173861429299 486.51061425085163 0 486.51061425085163 -1022.1845926273494 0 0 0 0 -181.44601981173037 661.32633364030653 0 661.32633364030653 -2880.7845081819069 0 0 0 0 -1019.6676848797069 682.55018341189748 0 682.55018341189748 -504.63285541382777 0 0 0 0 -20.384016247802549 -2.2192936157645988 0 -2.2192936157645988 -9.4446964276864964 0 0 0 0 -32.908931008820218 5.4020994698862523 0 5.4020994698862523 -5.1084778101717347 0 0 0 0 -8.4293313350456742 4.735603216027144 0 4.735603216027144 -9.0816133497997402 0 0 0 0 -3487.5324366444693 -704.52245306401835 0 -704.52245306401835 465.68169400145786 0 0 0 0 -7.2911525881171642 -0.71950801735297887 0 -0.71950801735297887 2.294707219241058 0 0 0 0 -10.437769739332907 -7.3829514244358307 0 -7.3829514244358307 -5.5911956903057707 0 0 0 0 -3494.1471164063478 -1545.5129249231936 0 -1545.5129249231936 -353.47266480250482 0 0 0 0 -50.172228689815142 6.6936648123613267 0 6.6936648123613267 -0.49023535546507491 0 0 0 0 -30.88006515961024 8.7817088122233145 0 8.7817088122233145 -2.9629068760618793 0 0 0 0 -84.926423778335447 -24.521435785980884 0 -24.521435785980884 24.730645088084202 0 0 0 0 -0.56956615737657756 -13.891127245852033 0 -13.891127245852033 -8.4993560207087082 0 0 0 0 -2376.4453156010659 -406.53960951647741 0 -406.53960951647741 188.88205612304463 0 0 0 0 -3420.6173044039397 984.45506030185379 0 984.45506030185379 87.716943896685663 0 0 0 0 -3499.1464662695435 548.30364926933385 0 548.30364926933385 -532.66921274637389 0 0 0 0 -3672.915279798829 -575.16469921430655 0 -575.16469921430655 182.99047223708496 0 0 0 0 -12.705742014578988 8.1076088105598387 0 8.1076088105598387 -5.1687125905228051 0 0 0 0 -912.18926770516555 -215.50753063202424 0 -215.50753063202424 13.284278015973996 0 0 0 0 -3500.4563304784169 601.44576936751992 0 601.44576936751992 530.5566410215763 0 0 0 0 -2632.2929988825199 1003.1143324861562 0 1003.1143324861562 433.00290547955535 0 0 0 0 -3495.3459659283531 1873.5007160758191 0 1873.5007160758191 313.68683252674134 0 0 0 0 -2311.4101121626227 1017.5379175694076 0 1017.5379175694076 432.89172054439143 0 0 0 0 -1211.6181656455228 941.94070566874143 0 941.94070566874143 -218.71692830243057 0 0 0 0 -625.09263101978286 311.37492184602928 0 311.37492184602928 -155.99498680063923 0 0 0 0 -1832.6934688287874 1165.7480969574478 0 1165.7480969574478 -63.371268377157321 0 0 0 0 -934.59356775511696 525.84221643566411 0 525.84221643566411 -156.07994419162156 0 0 0 0 -1712.3525701022827 380.27450822615174 0 380.27450822615174 126.77546115441226 0 0 0 0 -2445.7623731181393 83.129020515392796 0 83.129020515392796 361.66593305092124 0 0 0 0 -1019.1905174292042 235.57065025525242 0 235.57065025525242 142.13249567060268 0 0 0 0 -601.13225669886015 394.57996651912765 0 394.57996651912765 -24.320165786501526 0 0 0 0 -448.97337670763955 -77.906738235479509 0 -77.906738235479509 33.957870583403739 0 0 0 0 -1001.1767030720875 263.5308274260907 0 263.5308274260907 31.73344295874881 0 0 0 0 -804.10153374131187 100.13298455613588 0 100.13298455613588 55.966163407738065 0 0 0 0 -376.38416373998734 154.75733457938162 0 154.75733457938162 -72.171703321188161 0 0 0 0 -391.271923453216 96.388291098558327 0 96.388291098558327 22.898483861516375 0 0 0 0 -651.81691139208851 87.90104510764067 0 87.90104510764067 -22.657140044764162 0 0 0 0 263.24229372342501 350.93904208347044 0 350.93904208347044 49.332909305686371 0 0 0 0 26.399186005932279 31.22635159289878 0 31.22635159289878 20.369226467422408 0 0 0 0 -56.259450279336306 29.579286326820132 0 29.579286326820132 66.324185941542297 0 0 0 0 -210.9044918345171 -54.08248624311895 0 -54.08248624311895 -12.540030134785024 0 0 0 0 -32.879504866417847 -25.959090068850514 0 -25.959090068850514 -17.975725932475598 0 0 0 0 117.38045475893159 201.56548817138943 0 201.56548817138943 51.178296462533936 0 0 0 0 -534.93104966773535 260.83419270229496 0 260.83419270229496 208.53389643821473 0 0 0 0 261.69976976017642 -164.05230074297742 0 -164.05230074297742 79.416164343160062 0 0 0 0 -330.30098780052867 185.39403522961317 0 185.39403522961317 -17.059190324081555 0 0 0 0 -11.323871301181498 453.55167694902877 0 453.55167694902877 493.33595065992859 0 0 0 0 -26.641808639226639 19.214546964946138 0 19.214546964946138 -10.388358746815085 0 0 0 0 24.625484065661112 -67.738399490291172 0 -67.738399490291172 -191.83773366095647 0 0 0 0 200.92146443689853 881.20025076101058 0 881.20025076101058 -275.67659497558441 0 0 0 0 6.2052087625052081 -258.61739451350167 0 -258.61739451350167 36.142144497992803 0 0 0 0 -405.28328406068613 -117.77447840705713 0 -117.77447840705713 -50.185964221186396 0 0 0 0 -511.92732328867714 -228.31689242170387 0 -228.31689242170387 -50.078275986837525 0 0 0 0 -570.92469334576163 -64.172930815025552 0 -64.172930815025552 63.854845214535089 0 0 0 0 -403.86457531317137 -141.16951374042355 0 -141.16951374042355 18.305925534116795 0 0 0 0 -411.74458212693571 -54.036448661727718 0 -54.036448661727718 58.044513228224105 0 0 0 0 -457.55867562653293 -113.06015486401577 0 -113.06015486401577 30.659426377531872 0 0 0 0 -17.939378096591099 55.379226693131841 0 55.379226693131841 133.82282146494617 0 0 0 0 -480.28658784214349 27.240781999291812 0 27.240781999291812 46.048779886202283 0 0 0 0 -195.03678942686383 28.237791081098749 0 28.237791081098749 -83.561878561141384 0 0 0 0 -3.3778627662204777 1.6854181170291724 0 1.6854181170291724 -3.7450464030144168 0 0 0 0 -440.9545609834895 -86.612157568190923 0 -86.612157568190923 38.370305753021285 0 0 0 0 109.91096117138113 -118.16271617213971 0 -118.16271617213971 -96.219803191010215 0 0 0 0 -333.28584585650242 3.5306094515105997 0 3.5306094515105997 64.76529373903702 0 0 0 0 -356.06796226726146 -45.706590969852186 0 -45.706590969852186 49.484339923187463 0 0 0 0 -359.96958446313511 -26.233450544182233 0 -26.233450544182233 92.683805268232277 0 0 0 0 -230.94214258226566 112.35878738295719 0 112.35878738295719 -104.91023567340471 0 0 0 0 -602.30489343704539 -99.327392796127242 0 -99.327392796127242 39.085845558387973 0 0 0 0 -3.0667266388375936 -0.33747177877257606 0 -0.33747177877257606 -0.90243088387393144 0 0 0 0 -428.90177833747657 285.17064109489547 0 285.17064109489547 -106.13482381723225 0 0 0 0 -1083.6474576422333 -34.097461887652116 0 -34.097461887652116 81.941460838768762 0 0 0 0 -689.72933867091342 300.66146342279853 0 300.66146342279853 -33.369941812370598 0 0 0 0 -773.23260681988904 -416.32652640489641 0 -416.32652640489641 -245.63034389206624 0 0 0 0 -817.4171076460625 -218.55246460556691 0 -218.55246460556691 152.57598364123078 0 0 0 0 -251.80704189481912 18.75596606408044 0 18.75596606408044 -331.03908174773068 0 0 0 0 -609.90051010317256 -424.14029864141366 0 -424.14029864141366 -313.13845480521013 0 0 0 0 -294.4550930626574 -194.16306632097735 0 -194.16306632097735 -158.01047296597835 0 0 0 0 -273.62503592204303 -41.392123981990608 0 -41.392123981990608 -24.212072158454021 0 0 0 0 -206.9403706926314 219.59835206999992 0 219.59835206999992 352.47957696566209 0 0 0 0 -742.47143967016018 94.857126033540453 0 94.857126033540453 309.32781195781081 0 0 0 0 -26.962360287008693 19.471833254926594 0 19.471833254926594 -10.103409564181653 0 0 0 0 -246.69165160982084 -59.811349537643764 0 -59.811349537643764 336.40299966213206 0 0 0 0 0.38282426077766729 -0.81781882227960523 0 -0.81781882227960523 1.0526396374886602 0 0 0 0 31.92758259268885 -211.90154575033193 0 -211.90154575033193 10.863300299106413 0 0 0 0 51.593091007351177 156.44683564633544 0 156.44683564633544 200.33721858008323 0 0 0 0 192.32253737412975 52.424570376269699 0 52.424570376269699 121.65411666079035 0 0 0 0 90.289508135407232 73.00042623110923 0 73.00042623110923 26.463199164141798 0 0 0 0 86.610174843561254 84.446166995905557 0 84.446166995905557 145.31145422602586 0 0 0 0 133.49240060945158 52.482741700086919 0 52.482741700086919 166.95230558237714 0 0 0 0 -0.57447788392173749 -0.51325874389971204 0 -0.51325874389971204 -0.57869743689004594 0 0 0 0 -134.66192198783392 88.390135644731799 0 88.390135644731799 28.315326095910677 0 0 0 0 -1297.6776322294463 -406.53594549491754 0 -406.53594549491754 149.5237399231321 0 0 0 0 281.87640539595486 -280.74617894257801 0 -280.74617894257801 82.903961266531951 0 0 0 0 -738.20682317169121 34.591365271928908 0 34.591365271928908 -140.00622101073895 0 0 0 0 -4.3213867319948136 -2.839512246658245 0 -2.839512246658245 -2.420654142958151 0 0 0 0 -4.4755068489093901 -52.668739435113764 0 -52.668739435113764 71.129520025968304 0 0 0 0 -605.25194268388896 -166.14888041534297 0 -166.14888041534297 112.84746890499991 0 0 0 0 -79.766450750117656 -119.08525496215498 0 -119.08525496215498 113.77564298515347 0 0 0 0 -25.041361545576365 -36.402946021580192 0 -36.402946021580192 100.82834646518995 0 0 0 0 -18.526308211050491 -52.391249697315288 0 -52.391249697315288 113.97453465593662 0 0 0 0 -107.16051731672633 -166.60067748137953 0 -166.60067748137953 226.80219303114882 0 0 0 0 -56.312667947466252 -55.821758090326057 0 -55.821758090326057 268.29119080023111 0 0 0 0 -135.91914791389718 -64.621907823230686 0 -64.621907823230686 -5.5086296255785783 0 0 0 0 -319.5887606224278 -417.5716290041612 0 -417.5716290041612 76.200560274518011 0 0 0 0 -0.074693935293055347 -0.15548970056558176 0 -0.15548970056558176 2.1107547523281971 0 0 0 0 260.5946028240578 121.25927443146861 0 121.25927443146861 19.061463115689662 0 0 0 0 39.367691922205267 -1.9177196495547832 0 -1.9177196495547832 157.79575123319182 0 0 0 0 84.071635729646005 -95.285251339900356 0 -95.285251339900356 130.02241061685163 0 0 0 0 -17.560047759478039 -62.261561914244311 0 -62.261561914244311 135.00990952052052 0 0 0 0 -155.24720907345181 3.7944060738295775 0 3.7944060738295775 371.17525854784395 0 0 0 0 -17.800739397260401 -5.5733584299303613 0 -5.5733584299303613 0.12708689224549397 0 0 0 0 -249.05858220061054 58.758851045216943 0 58.758851045216943 201.17925799420743 0 0 0 0 8.8424568478512811 -15.904699981977501 0 -15.904699981977501 6.5115941756116626 0 0 0 0 -23.160227724976721 12.146135818917173 0 12.146135818917173 91.92042950297423 0 0 0 0 -19.962604699422457 -4.6310101956755734 0 -4.6310101956755734 -0.06235952551753321 0 0 0 0 22.849514162808191 -122.86745147394504 0 -122.86745147394504 -49.268249359018228 0 0 0 0 95.834347689742572 164.78784945655616 0 164.78784945655616 29.631254807601636 0 0 0 0 -15.51016650829115 -50.562790351851163 0 -50.562790351851163 35.788413685731939 0 0 0 0 119.83639202282939 215.89288151578194 0 215.89288151578194 -21.753196173138349 0 0 0 0 -0.22811421875462656 1.3310587592848577 0 1.3310587592848577 -0.014318991675612125 0 0 0 0 59.808778312781214 -48.650797006434004 0 -48.650797006434004 -11.035372271704546 0 0 0 0 90.423496465635253 156.84531251661883 0 156.84531251661883 20.511569640417292 0 0 0 0 -0.33366444489350755 1.4295726304143557 0 1.4295726304143557 -1.3663276430972822 0 0 0 0 47.206728310018661 -107.00546336960906 0 -107.00546336960906 -44.769923931619587 0 0 0 0 -15.705971123825293 32.958927626203604 0 32.958927626203604 90.695925576328591 0 0 0 0 36.614542708917725 211.44074337696509 0 211.44074337696509 -23.874233208920487 0 0 0 0 -39.76167610561788 211.8612284003359 0 211.8612284003359 -7.5378268439635576 0 0 0 0 56.937165675801225 174.28495213868882 0 174.28495213868882 -38.493821491128074 0 0 0 0 -57.417518328584265 95.092453420081256 0 95.092453420081256 -66.560763206016418 0 0 0 0 -86.217250870671705 161.9424206133649 0 161.9424206133649 -4.4474167011749159 0 0 0 0 -220.22189434546453 62.564746977034702 0 62.564746977034702 -58.336666022280042 0 0 0 0 -71.791802711770288 -5.9753125824217932 0 -5.9753125824217932 -29.462301751152154 0 0 0 0 35.508998344394058 -77.50483884564585 0 -77.50483884564585 156.33433561708716 0 0 0 0 -171.46667253179476 41.578622572485983 0 41.578622572485983 108.98144478039649 0 0 0 0 148.52885832005268 103.06829803546339 0 103.06829803546339 18.996314125975914 0 0 0 0 14.78912285180013 103.07902328017792 0 103.07902328017792 21.611524103531337 0 0 0 0 -201.50036217963498 -40.749936663927656 0 -40.749936663927656 -143.61178235683474 0 0 0 0 -267.53443634706491 126.5584585561046 0 126.5584585561046 -543.32478663947791 0 0 0 0 -623.1753997648666 -17.528786067608962 0 -17.528786067608962 -114.26918638800998 0 0 0 0 -224.48157079720113 -53.327953776381037 0 -53.327953776381037 -186.67900175122213 0 0 0 0 -254.55326941761632 139.62401376504192 0 139.62401376504192 -35.432268370783277 0 0 0 0 -81.597862523136428 94.461881090979659 0 94.461881090979659 -214.84329738739689 0 0 0 0 19.58296033948136 9.500801168525868 0 9.500801168525868 -69.31881543829877 0 0 0 0 9.4928379384509753 144.60069160485182 0 144.60069160485182 -72.939938100043946 0 0 0 0 66.96345872978236 241.96284959146556 0 241.96284959146556 30.895107709820877 0 0 0 0 58.525743883306859 -75.506703164879582 0 -75.506703164879582 170.65033175119521 0 0 0 0 12.298642801742972 174.40373054044176 0 174.40373054044176 158.7482219648773 0 0 0 0 -88.008835400483804 97.087901422279174 0 97.087901422279174 31.567823164778019 0 0 0 0 297.27112711557129 -152.01277125652541 0 -152.01277125652541 -144.42695956495118 0 0 0 0 71.909635432733921 -133.7612522569525 0 -133.7612522569525 -323.19447968071381 0 0 0 0 -84.171544070850359 53.388177218349483 0 53.388177218349483 -169.75383863360548 0 0 0 0 43.835795001185033 2.8050693728309852 0 2.8050693728309852 -166.37950211607313 0 0 0 0 17.189338503463659 1.0746797031461028 0 1.0746797031461028 1.1732209242400131 0 0 0 0 0.44644994022254281 0.29650319292314009 0 0.29650319292314009 -3.2337586210569178 0 0 0 0 -139.3186515686757 -204.74009122991447 0 -204.74009122991447 -180.99146008320167 0 0 0 0 393.11587870174844 37.128737802893966 0 37.128737802893966 -207.79949264575407 0 0 0 0 111.33495619240057 3.2886845762629946 0 3.2886845762629946 -155.00436396567966 0 0 0 0 90.124787237407872 -108.42505790980795 0 -108.42505790980795 -194.93984789717388 0 0 0 0 -25.035856461559888 -51.346780638607925 0 -51.346780638607925 -37.644874552661349 0 0 0 0 166.44991861312155 119.55182921100345 0 119.55182921100345 18.508993749970614 0 0 0 0 -34.829901539473212 -83.260382059396761 0 -83.260382059396761 181.27789417068198 0 0 0 0 -61.148221402661875 -25.134815521339988 0 -25.134815521339988 54.397829760149762 0 0 0 0 -285.55098512908444 -207.85320192806284 0 -207.85320192806284 -14.704937939687397 0 0 0 0 -392.90086037672882 -177.36008333033078 0 -177.36008333033078 -87.836123259746273 0 0 0 0 -270.65449467253347 -219.70842309502586 0 -219.70842309502586 -106.77584354174996 0 0 0 0 -234.83615846812609 -180.92605939403802 0 -180.92605939403802 -159.771765591855 0 0 0 0 -237.60611690757287 -191.3996002230142 0 -191.3996002230142 -158.53990176361913 0 0 0 0 -506.22259486306575 -563.09752188095081 0 -563.09752188095081 -587.1384449414802 0 0 0 0 -608.25911776679277 -261.5030437168225 0 -261.5030437168225 -104.28044609678363 0 0 0 0 -634.24575421745249 -399.31646869114002 0 -399.31646869114002 -58.402497962026246 0 0 0 0 -470.30812046656501 -6.214867510867407 0 -6.214867510867407 367.43360699487675 0 0 0 0 -9.3314600198055118 -3.7903873476849981 0 -3.7903873476849981 -0.12870734796414496 0 0 0 0 -473.04115622320387 -352.27643823242533 0 -352.27643823242533 -26.085323138777312 0 0 0 0 -3.5645606675043382 9.9422245121354251 0 9.9422245121354251 -0.94823445526214556 0 0 0 0 -12.541380478608378 22.190553467068327 0 22.190553467068327 28.251766105964698 0 0 0 0 -4.72501181903408 33.697806857235264 0 33.697806857235264 65.241079963911034 0 0 0 0 35.62607134290738 -0.33937002828452023 0 -0.33937002828452023 8.7476283413857345 0 0 0 0 50.220804911168671 50.180004052189815 0 50.180004052189815 25.719101115681042 0 0 0 0 -421.95506370870862 -482.3826267129698 0 -482.3826267129698 -262.58626553281016 0 0 0 0 -2.1602214421664456 0.97385205120460938 0 0.97385205120460938 -2.3562204932325947 0 0 0 0 -47.000908183821593 161.48829627458781 0 161.48829627458781 86.463173365200419 0 0 0 0 -70.565422897576354 18.446669241371183 0 18.446669241371183 -173.43213589863171 0 0 0 0 -437.03086030644772 -57.733554325112323 0 -57.733554325112323 42.22942716532998 0 0 0 0 143.95044382988999 -82.828045087334431 0 -82.828045087334431 -130.88802901336931 0 0 0 0 -112.90847753590788 -186.82852177236418 0 -186.82852177236418 29.478250758205832 0 0 0 0 386.03802178998012 -112.49337364050552 0 -112.49337364050552 42.06410603400218 0 0 0 0 -54.253902267337253 12.079192819273203 0 12.079192819273203 32.363465153921425 0 0 0 0 0.68717732968665501 -2.0075970047934106 0 -2.0075970047934106 -9.2134253923633835 0 0 0 0 63.099189961561933 15.787856743289012 0 15.787856743289012 -14.651881081772444 0 0 0 0 0.3679737649617465 1.709322791755028 0 1.709322791755028 -15.042608416202253 0 0 0 0 -186.5797830967058 -114.88311870767819 0 -114.88311870767819 -44.587124386088021 0 0 0 0 -334.77712337710545 -106.88822433735976 0 -106.88822433735976 56.424285450630393 0 0 0 0 -373.16903671996079 59.153406763219436 0 59.153406763219436 -390.6937109510036 0 0 0 0 34.049250148520514 -213.0305368442497 0 -213.0305368442497 -116.51693937512709 0 0 0 0 0.18192138621986942 1.0018730671541647 0 1.0018730671541647 -23.400204823129464 0 0 0 0 -39.07721394031978 -18.670071965982061 0 -18.670071965982061 -177.45528673442095 0 0 0 0 147.51791110379418 -15.307849591930108 0 -15.307849591930108 -175.99529780354976 0 0 0 0 -0.063885587761856044 1.3731987908063701 0 1.3731987908063701 1.9062650530372629 0 0 0 0 -103.09789334435482 48.513595572952511 0 48.513595572952511 12.97977679602684 0 0 0 0 -455.98287471282674 4.464164335871061 0 4.464164335871061 -85.583569565469929 0 0 0 0 -87.738332744105719 -56.974927320731808 0 -56.974927320731808 -136.78058026718332 0 0 0 0 -407.05429975908191 -69.939131484340578 0 -69.939131484340578 6.4067355893264448 0 0 0 0 -329.0176363751234 -156.94166890820173 0 -156.94166890820173 -84.177396711997346 0 0 0 0 -334.65282031137826 -128.89378860489296 0 -128.89378860489296 -109.90076265605154 0 0 0 0 -503.93770015117479 -165.95278443736927 0 -165.95278443736927 1.3208750298963423 0 0 0 0 -323.99636879950413 -88.647169455912717 0 -88.647169455912717 -39.394258158489606 0 0 0 0 -377.76974198620883 -21.878495630374942 0 -21.878495630374942 9.2293305687479688 0 0 0 0 36.66334982587432 4.5181025911460893 0 4.5181025911460893 -6.8297892405462335 0 0 0 0 -93.257930456067697 -1.9312397298536723 0 -1.9312397298536723 -48.474926078669796 0 0 0 0 0.48301033959633166 6.3003096949745299 0 6.3003096949745299 -5.9908372004577366 0 0 0 0 0.667072050375765 1.8249279606354065 0 1.8249279606354065 -0.048587238117761444 0 0 0 0 -271.86189898638986 -67.129562245231796 0 -67.129562245231796 0.45517065794405198 0 0 0 0 -196.07652390873227 -30.617049816572433 0 -30.617049816572433 -23.049775532340846 0 0 0 0 64.514109666582954 -50.977123352736726 0 -50.977123352736726 -85.813200198809227 0 0 0 0 0.28858043668815725 1.7420760577677186 0 1.7420760577677186 -12.365494775865283 0 0 0 0 0.63080656581304595 -1.2615917532645113 0 -1.2615917532645113 -1.3694360702525188 0 0 0 0 -286.57527270280843 -59.773234181107625 0 -59.773234181107625 -1.9438324392849609 0 0 0 0 -290.45359554312017 -37.047702001222774 0 -37.047702001222774 -0.157760354858965 0 0 0 0 -259.19548876551562 29.281804121537334 0 29.281804121537334 25.739620425993962 0 0 0 0 -343.90876728782314 19.142303149679492 0 19.142303149679492 101.60627738643996 0 0 0 0 -378.26372033597727 -40.437433923296453 0 -40.437433923296453 47.08229117503106 0 0 0 0 -374.88010795824812 -58.632289478199823 0 -58.632289478199823 34.963817756393837 0 0 0 0 -408.06067358356268 -86.775162390032818 0 -86.775162390032818 33.202665250257269 0 0 0 0 -381.47650509189407 -77.692795132746141 0 -77.692795132746141 28.089587409661817 0 0 0 0 -409.80293317112137 -97.97936045659408 0 -97.97936045659408 -16.741063195028119 0 0 0 0 -250.9495429192267 94.3528441901707 0 94.3528441901707 -403.61514496444806 0 0 0 0 -416.5099056318868 -104.7294394852151 0 -104.7294394852151 5.392718302984008 0 0 0 0 -0.5856215879291784 -1.0626958068489643 0 -1.0626958068489643 -2.0787586182383406 0 0 0 0 -1034.8051803407761 -1.6197949611286333 0 -1.6197949611286333 102.8933153645533 0 0 0 0 -848.292491827665 257.98944989958289 0 257.98944989958289 -111.78787277902586 0 0 0 0 -1.5386540921436769 -0.47159944463258796 0 -0.47159944463258796 -3.562724834063749 0 0 0 0 -671.019074524178 -29.696366341436402 0 -29.696366341436402 39.192390744190462 0 0 0 0 -2302.5306012863985 26.966619882518984 0 26.966619882518984 297.25490268724678 0 0 0 0 -1.6403911673847826 0.10478390949528205 0 0.10478390949528205 -1.4981739865473407 0 0 0 0 -1027.0838499584243 -138.95990822903246 0 -138.95990822903246 88.447513000428842 0 0 0 0 -1030.5122689007585 -108.43601910775715 0 -108.43601910775715 48.658313090287663 0 0 0 0 -2296.5836322152209 -46.607592398442307 0 -46.607592398442307 598.80275549841531 0 0 0 0 -3498.5846762531437 -363.68548947067558 0 -363.68548947067558 651.01746851819462 0 0 0 0 -3500.0518758804646 376.95909187625227 0 376.95909187625227 545.13721074835075 0 0 0 0 -2315.4273108843481 1343.5284865386388 0 1343.5284865386388 -165.76110715321994 0 0 0 0 -3179.4410094123068 -62.161410868497427 0 -62.161410868497427 131.56186965513606 0 0 0 0 -31.933512017611065 49.869191859767113 0 49.869191859767113 -116.72619665255706 0 0 0 0 -5.3886542823011041 -86.66066346330868 0 -86.66066346330868 -134.5919724681662 0 0 0 0 -86.677505915668007 31.564625744480963 0 31.564625744480963 218.35107171199934 0 0 0 0 -188.79068457245012 234.86120846438416 0 234.86120846438416 -145.67220975343406 0 0 0 0 -57.235701183832134 -2.4733693380668456 0 -2.4733693380668456 47.783881589038856 0 0 0 0 -67.730639564622749 -15.133467641903906 0 -15.133467641903906 12.400868235894372 0 0 0 0 -61.689609382417984 13.614950111455983 0 13.614950111455983 201.4944967116171 0 0 0 0 -37.197675630115555 20.079541872403638 0 20.079541872403638 56.51599249481643 0 0 0 0 -127.07435059687123 2.3061051492622937 0 2.3061051492622937 205.99770503399532 0 0 0 0 -40.566148797988717 -19.432172736666871 0 -19.432172736666871 79.402026553681935 0 0 0 0 -82.848923595855013 -125.30800500163423 0 -125.30800500163423 198.89363765862072 0 0 0 0 -105.52366994809563 -47.290744863547843 0 -47.290744863547843 87.536628553818446 0 0 0 0 -190.29828813292261 -105.30295497592124 0 -105.30295497592124 107.3885067086967 0 0 0 0 -6.5798947421516516 -3.8846793383555394 0 -3.8846793383555394 0.95673468194123146 0 0 0 0 3.8048608905693868 10.407452177366142 0 10.407452177366142 1.479474012109856 0 0 0 0 -171.13795075169764 -128.64142893075768 0 -128.64142893075768 -120.32446461152722 0 0 0 0 -212.59703072184493 -149.7275810883275 0 -149.7275810883275 -52.651910609230981 0 0 0 0 -52.640922681088284 -2.4204863299798092 0 -2.4204863299798092 28.249309185158666 0 0 0 0 -233.10453237820184 -112.80732732010438 0 -112.80732732010438 5.4941717815524953 0 0 0 0 -167.76308502041502 -53.820264525382299 0 -53.820264525382299 15.158078705460866 0 0 0 0 -87.378217665871489 -37.121039594341823 0 -37.121039594341823 37.207068100253622 0 0 0 0 -41.076917974714888 -36.808148304524806 0 -36.808148304524806 18.921983907398861 0 0 0 0 -149.22766871901695 3.9934656979960437 0 3.9934656979960437 60.171660170000621 0 0 0 0 -157.85190486190186 -123.24223948709312 0 -123.24223948709312 -39.508946974614759 0 0 0 0 -91.562907295516197 -82.757995259901278 0 -82.757995259901278 -21.887460191194052 0 0 0 0 -63.293648856393702 126.95309276252215 0 126.95309276252215 152.99845742971161 0 0 0 0 -6.0067733355150494 0.11722746843388876 0 0.11722746843388876 1.2618076111899759 0 0 0 0 -43.470907895300115 -40.826986244428113 0 -40.826986244428113 114.82268778028708 0 0 0 0 -4.9795204596011899 -78.327429347708346 0 -78.327429347708346 10.611647009721878 0 0 0 0 -10.846849398651102 -25.461462813558228 0 -25.461462813558228 -28.573583125202276 0 0 0 0 -344.27560859691584 -183.36926238236271 0 -183.36926238236271 64.571202910993634 0 0 0 0 -384.86116782841054 -124.24684834472586 0 -124.24684834472586 73.591006881601061 0 0 0 0 -461.7148050509204 -122.7388241060612 0 -122.7388241060612 85.298230320037192 0 0 0 0 -195.43266426952323 -49.877828949078662 0 -49.877828949078662 -22.133565215694034 0 0 0 0 -323.62616253862143 97.770496501289017 0 97.770496501289017 44.841817888885544 0 0 0 0 -88.775237338079023 33.042042984877753 0 33.042042984877753 45.867276956706448 0 0 0 0 -3.909096285896112 -0.41685372339443916 0 -0.41685372339443916 1.2386546085270747 0 0 0 0 -402.26830757098651 109.48447497918096 0 109.48447497918096 330.11386795624981 0 0 0 0 -403.49035432934761 -170.99724353082343 0 -170.99724353082343 71.570215080382525 0 0 0 0 -27.100992946961924 -3.7105220208313767 0 -3.7105220208313767 78.914406234140415 0 0 0 0 -129.72563285173965 -57.633179359421831 0 -57.633179359421831 -28.515292874940883 0 0 0 0 -0.16349501356611107 0.68344734508681881 0 0.68344734508681881 1.9089676472700603 0 0 0 0 -219.52031405912567 -2.0721163689493096 0 -2.0721163689493096 112.01587962026542 0 0 0 0 219.52694909047568 -210.79289119974419 0 -210.79289119974419 149.90434167174317 0 0 0 0 90.079135022351693 -109.66730827768561 0 -109.66730827768561 72.516282942444334 0 0 0 0 -179.81176120937744 -126.28329742813685 0 -126.28329742813685 441.29184175390401 0 0 0 0 26.362407177875866 -60.606013855834135 0 -60.606013855834135 110.2422449942369 0 0 0 0 -116.47890866405214 -192.06865570983177 0 -192.06865570983177 422.29834852635486 0 0 0 0 -13.13386383486025 -5.8888136828128221 0 -5.8888136828128221 0.080801284133444728 0 0 0 0 -124.9617468790675 -180.26006288683334 0 -180.26006288683334 83.926105291623116 0 0 0 0 199.78088466823101 -114.32829120563656 0 -114.32829120563656 435.98394785974642 0 0 0 0 -43.036569078743923 -184.59946472551064 0 -184.59946472551064 -132.72685181243924 0 0 0 0 -36.996426396668539 -124.07270611528475 0 -124.07270611528475 -23.953662084304597 0 0 0 0 -171.82353765190055 -243.98675168178852 0 -243.98675168178852 -150.45524952580899 0 0 0 0 -151.97568596352357 -100.69189252431806 0 -100.69189252431806 -236.68186720024823 0 0 0 0 -108.03400514855457 -224.64347847539648 0 -224.64347847539648 32.10859336930298 0 0 0 0 47.420092209416907 -135.80157958644304 0 -135.80157958644304 -50.542407972017827 0 0 0 0 -194.16300754919939 -190.4789968633122 0 -190.4789968633122 -203.41253805878387 0 0 0 0 -159.0077300365374 -200.14836432164611 0 -200.14836432164611 -64.743753156734101 0 0 0 0 -50.781034394909511 -66.664591372753421 0 -66.664591372753421 -145.77093029669231 0 0 0 0 -263.50782880863335 -138.43373447633917 0 -138.43373447633917 -71.603430726348961 0 0 0 0 -174.13622984297399 -76.350446350387756 0 -76.350446350387756 35.902164893797817 0 0 0 0 15.51893506504075 88.848379024107629 0 88.848379024107629 113.88930117929795 0 0 0 0 -67.6451727222302 -31.882512605792726 0 -31.882512605792726 -65.516983512657873 0 0 0 0 15.830916148610413 -299.38255653791157 0 -299.38255653791157 -666.08033953463359 0 0 0 0 -5.0955329368946423 -3.3723747616350224 0 -3.3723747616350224 -0.24268594204968064 0 0 0 0 -459.46077043370678 98.133209992232082 0 98.133209992232082 489.91755944303168 0 0 0 0 -27.792274043746147 -159.63140066489183 0 -159.63140066489183 -215.79186774117079 0 0 0 0 1.5777491328190081 -217.73912434721296 0 -217.73912434721296 -206.7769093670496 0 0 0 0 -355.11384848299349 -430.47049200476249 0 -430.47049200476249 -75.927761743009341 0 0 0 0 -90.828902761000791 35.754617193199465 0 35.754617193199465 200.8439896032404 0 0 0 0 -75.26218114961506 -16.750344386876062 0 -16.750344386876062 8.7522375914778436 0 0 0 0 -251.18609481106978 -108.31285913787497 0 -108.31285913787497 295.44402936722963 0 0 0 0 -74.158530518936459 48.627541151781656 0 48.627541151781656 85.144903714304291 0 0 0 0 -46.856494158131682 17.370122402606057 0 17.370122402606057 97.364365880483547 0 0 0 0 -62.560659107715765 7.6317850432083105 0 7.6317850432083105 54.012861615150769 0 0 0 0 -66.33421365605318 54.545535460835026 0 54.545535460835026 113.64973692551234 0 0 0 0 -3.3809750547093245 5.8338069987696377 0 5.8338069987696377 3.6836183038386885 0 0 0 0 -148.43903629113629 -320.53873391182424 0 -320.53873391182424 -683.67166585499581 0 0 0 0 -144.84053007270268 -95.152620519431366 0 -95.152620519431366 -285.6635293590698 0 0 0 0 -447.50503915023728 -374.00909726717532 0 -374.00909726717532 -350.09175311891886 0 0 0 0 -201.8233900467676 -307.07096690744947 0 -307.07096690744947 -481.98418629013941 0 0 0 0 -71.727628623695637 -191.59337378520513 0 -191.59337378520513 -483.0515281065309 0 0 0 0 -70.522347977297102 -13.225815152269458 0 -13.225815152269458 13.564332880792652 0 0 0 0 -89.602122314856388 10.631405246098439 0 10.631405246098439 -114.50545493720256 0 0 0 0 -70.435480493761133 42.722441347186304 0 42.722441347186304 117.10892379294262 0 0 0 0 -15.5626476006546 -253.66645833956954 0 -253.66645833956954 -237.47642526901564 0 0 0 0 -14.244971234668526 -5.9218405033307775 0 -5.9218405033307775 -0.79647641460569574 0 0 0 0 -63.520635635541112 24.235044656426226 0 24.235044656426226 89.330200947608319 0 0 0 0 -68.731391375753446 46.347942615270767 0 46.347942615270767 70.001626167920563 0 0 0 0 -29.826280510095785 22.723464638960195 0 22.723464638960195 37.969648723137652 0 0 0 0 -206.56596997758243 146.87059959943213 0 146.87059959943213 -48.47040884947819 0 0 0 0 -56.218244386571314 38.079546422437375 0 38.079546422437375 58.682096480501286 0 0 0 0 -46.276373485181466 9.5972006153337404 0 9.5972006153337404 25.717496944735416 0 0 0 0 -67.788482853087771 44.002301950643641 0 44.002301950643641 59.9746003035442 0 0 0 0 -23.147340169768995 53.378042106906534 0 53.378042106906534 27.728377214897421 0 0 0 0 -67.177314294021926 29.560959574437135 0 29.560959574437135 39.470307002497236 0 0 0 0 -57.518462465130142 32.550761491637388 0 32.550761491637388 23.096374108981422 0 0 0 0 -93.203694180163438 4.0273564440795155 0 4.0273564440795155 23.116154602250447 0 0 0 0 -112.86885484768936 -31.049277680773912 0 -31.049277680773912 -27.574521062540498 0 0 0 0 -121.71633631916848 35.070542055800615 0 35.070542055800615 47.617403618431581 0 0 0 0 -69.099385225898004 8.2773862228293638 0 8.2773862228293638 -14.993446123679746 0 0 0 0 -100.13720495559028 42.39261749923611 0 42.39261749923611 30.796015165938343 0 0 0 0 -55.579699266363605 29.604815338101872 0 29.604815338101872 37.225272520699264 0 0 0 0 -87.891717710837838 23.293055793447422 0 23.293055793447422 38.24364290425568 0 0 0 0 -60.153569280642841 29.04630247683798 0 29.04630247683798 -9.8165593058508875 0 0 0 0 -48.590107209638518 -8.8260213225396456 0 -8.8260213225396456 -54.024691197740822 0 0 0 0 -67.911617012039642 -16.920760455813195 0 -16.920760455813195 -42.128305327294811 0 0 0 0 -49.806075675362081 -1.6298396475021946 0 -1.6298396475021946 -92.14538942496506 0 0 0 0 -92.98142422465753 35.787074792164503 0 35.787074792164503 -40.211437066359849 0 0 0 0 -181.49759198104584 74.071864830985987 0 74.071864830985987 -89.567189590783755 0 0 0 0 -266.17819462087937 11.919485196602864 0 11.919485196602864 -16.655555253030343 0 0 0 0 -94.378559983474133 22.912764389750023 0 22.912764389750023 -59.529345755533086 0 0 0 0 -217.07162923440046 -45.808157888080359 0 -45.808157888080359 -46.967679566882907 0 0 0 0 -255.78447218100337 -50.034452287083653 0 -50.034452287083653 1.4200895168627312 0 0 0 0 -170.83725396476439 -61.063561396961354 0 -61.063561396961354 -1.1086429931414159 0 0 0 0 -202.46058606329825 -10.424430779073333 0 -10.424430779073333 37.784480446113093 0 0 0 0 -92.543186026339754 1.4273932510168663 0 1.4273932510168663 15.900188055318949 0 0 0 0 -171.15141819157725 35.991528512053833 0 35.991528512053833 0.70337782051717568 0 0 0 0 -153.29488292233145 -11.458481586902849 0 -11.458481586902849 -14.92733892280387 0 0 0 0 -142.06041545567859 25.126976737281666 0 25.126976737281666 82.526463184583008 0 0 0 0 -74.68527678155715 -14.10101673748045 0 -14.10101673748045 104.93048150673349 0 0 0 0 -110.18900513924746 -22.261257546835395 0 -22.261257546835395 33.955484114416095 0 0 0 0 -163.46376764416345 -47.522707186638172 0 -47.522707186638172 93.058912140299981 0 0 0 0 -143.07956360586832 -51.495995205463942 0 -51.495995205463942 41.860581814984471 0 0 0 0 -123.52169520617463 -12.113683000894525 0 -12.113683000894525 96.859122710547126 0 0 0 0 -130.4915974450123 -51.657048978488092 0 -51.657048978488092 175.24801825202849 0 0 0 0 -65.996888305728135 -42.95805829596577 0 -42.95805829596577 111.77767610068622 0 0 0 0 -100.25162495450786 36.63700758211121 0 36.63700758211121 211.08818155955214 0 0 0 0 -73.768831195317404 -16.157364332405642 0 -16.157364332405642 8.7142366247772074 0 0 0 0 -258.94281338217843 -104.36484892942644 0 -104.36484892942644 113.17253073472114 0 0 0 0 -246.74484514383948 -107.06631752805652 0 -107.06631752805652 112.95520313889241 0 0 0 0 -195.33781020854804 -87.674940139819228 0 -87.674940139819228 110.46784622770792 0 0 0 0 -206.42376385704847 -116.30495865123157 0 -116.30495865123157 71.001870157113444 0 0 0 0 -233.54583171177728 -104.84624658810344 0 -104.84624658810344 79.948657143200762 0 0 0 0 -144.86069047577621 -77.799384423648917 0 -77.799384423648917 105.39917925004283 0 0 0 0 -114.41598033503396 -107.1361763402474 0 -107.1361763402474 69.170065947105286 0 0 0 0 -103.34871373078931 -37.428366595368516 0 -37.428366595368516 123.90838343931318 0 0 0 0 -140.00472371227806 -73.609705188719545 0 -73.609705188719545 108.02174291701294 0 0 0 0 -122.73477270184958 -29.0611105148364 0 -29.0611105148364 123.40817313242223 0 0 0 0 -142.86066741376999 -76.100646993104419 0 -76.100646993104419 96.876034736519614 0 0 0 0 -199.84908790761256 -100.3418408579746 0 -100.3418408579746 101.45410950110681 0 0 0 0 -187.55977608957619 -77.114822059505514 0 -77.114822059505514 79.974884875977637 0 0 0 0 -148.20711020426097 -56.994948904640978 0 -56.994948904640978 78.849570999748721 0 0 0 0 -194.9272037563569 -60.086228489921496 0 -60.086228489921496 48.412040429157969 0 0 0 0 -223.48115082654476 -94.929358374380058 0 -94.929358374380058 84.391888980337171 0 0 0 0 -219.09250013147539 -82.222938044523744 0 -82.222938044523744 89.198799297480946 0 0 0 0 -248.27649560569262 -87.950839394672244 0 -87.950839394672244 77.182189306972361 0 0 0 0 -250.91476188260276 -71.672519761406505 0 -71.672519761406505 64.816639831735927 0 0 0 0 -206.42930234760206 -62.34444602904388 0 -62.34444602904388 -9.014087675030936 0 0 0 0 -201.84121417610004 -43.926373395520159 0 -43.926373395520159 44.014444490141628 0 0 0 0 -200.82241727635846 -87.06903778659175 0 -87.06903778659175 43.928448531002431 0 0 0 0 -207.53657217204454 -84.696330759452394 0 -84.696330759452394 -5.7892848746304537 0 0 0 0 -201.35287554827664 -74.399939101726659 0 -74.399939101726659 -86.474284369673114 0 0 0 0 -290.78582471569825 -152.05938145803566 0 -152.05938145803566 -85.339231852380067 0 0 0 0 -243.4026532131611 -101.01178181175351 0 -101.01178181175351 -29.560880157938243 0 0 0 0 -238.03989022067253 -17.677806827249924 0 -17.677806827249924 -114.65089071106695 0 0 0 0 -54.917121801779558 158.95777852489846 0 158.95777852489846 72.600556982335547 0 0 0 0 -129.48991921601964 27.026539236100632 0 27.026539236100632 29.566902491339782 0 0 0 0 -51.149792802745651 -175.80687933929858 0 -175.80687933929858 -196.91672872851541 0 0 0 0 -116.9142927556677 -78.283127052860436 0 -78.283127052860436 -144.85220731475636 0 0 0 0 -99.131614152148359 215.90686640779404 0 215.90686640779404 203.14592955335229 0 0 0 0 -101.8245293222526 93.090486279081233 0 93.090486279081233 172.42062685881683 0 0 0 0 -41.322000113987997 107.2634987750655 0 107.2634987750655 106.48987396433222 0 0 0 0 -116.85000697563282 16.148749615592351 0 16.148749615592351 31.518647287101203 0 0 0 0 -159.05145752687622 60.617142663800905 0 60.617142663800905 72.393213900342744 0 0 0 0 -104.11192045535063 138.40000902997826 0 138.40000902997826 76.325825543198334 0 0 0 0 -134.18414685006087 30.888564526804601 0 30.888564526804601 18.993438996467376 0 0 0 0 -140.50402322660102 -10.695183722765023 0 -10.695183722765023 -111.56165254472762 0 0 0 0 -116.7462251145862 -115.91533740869477 0 -115.91533740869477 -142.15779015617591 0 0 0 0 -124.9497060021522 -39.388459904644606 0 -39.388459904644606 74.080477492193495 0 0 0 0 -111.37921826245142 81.036359777857996 0 81.036359777857996 168.94989113761039 0 0 0 0 -110.07579626383034 -64.246624794282155 0 -64.246624794282155 100.18492261543452 0 0 0 0 -102.45052046884393 -254.21390468502085 0 -254.21390468502085 -167.12562642307694 0 0 0 0 -199.31040969711285 -204.47586921038999 0 -204.47586921038999 -14.775400778195717 0 0 0 0 -40.147582420783351 -106.49212641178279 0 -106.49212641178279 -339.59835133372462 0 0 0 0 -30.198151730173777 -180.72530671566068 0 -180.72530671566068 -96.012510942244376 0 0 0 0 -109.42078514385076 117.10718322723505 0 117.10718322723505 145.78109961280893 0 0 0 0 -292.87654347460119 124.45478374758554 0 124.45478374758554 296.50057049223233 0 0 0 0 -175.43602208586799 -136.57785673694661 0 -136.57785673694661 125.59297697284217 0 0 0 0 -246.53351779834611 -112.03138284025457 0 -112.03138284025457 133.01427938897268 0 0 0 0 -130.27914768862775 27.138237609939551 0 27.138237609939551 265.93097302183651 0 0 0 0 -120.3260156025799 42.376385500917877 0 42.376385500917877 235.91986971344704 0 0 0 0 -117.95257269519442 22.448752714900465 0 22.448752714900465 30.22436957401942 0 0 0 0 73.391235818723771 142.94066072149781 0 142.94066072149781 211.96572346742596 0 0 0 0 50.80596357829927 -321.98036625970508 0 -321.98036625970508 -235.21452061200614 0 0 0 0 -45.908582908339213 362.50452535139885 0 362.50452535139885 414.58476564843249 0 0 0 0 -295.46059838567453 -237.87947718072655 0 -237.87947718072655 -245.97869362673009 0 0 0 0 -7.2102579101608626 1.3917089733854269 0 1.3917089733854269 1.0403965645047428 0 0 0 0 -77.551931752503151 59.641561919322157 0 59.641561919322157 -168.0649128120865 0 0 0 0 19.890208928118227 -21.682394788879719 0 -21.682394788879719 -146.03506629101321 0 0 0 0 -126.08938668542878 25.778469379113083 0 25.778469379113083 29.575243131583711 0 0 0 0 -78.357051925239773 196.07440565904494 0 196.07440565904494 310.73760489244523 0 0 0 0 -760.54440192331094 84.054281126309434 0 84.054281126309434 -179.6492945802238 0 0 0 0 -288.10933483361441 -403.86756403152367 0 -403.86756403152367 -196.44898166482477 0 0 0 0 -710.73351517593983 -76.780422671266706 0 -76.780422671266706 -8.137822622611111 0 0 0 0 -294.55568516685821 -62.168399272248585 0 -62.168399272248585 -14.365441160344744 0 0 0 0 -75.142567842158314 29.140488966781049 0 29.140488966781049 -130.93014772049833 0 0 0 0 -166.15669140521277 45.885382819245478 0 45.885382819245478 -122.72452566702941 0 0 0 0 -29.95130016496114 49.801498835213351 0 49.801498835213351 -189.84365202622485 0 0 0 0 -270.91724753543531 190.07141564266203 0 190.07141564266203 -200.1022576467883 0 0 0 0 9.4800526639373857 -21.151974127002632 0 -21.151974127002632 -127.11566547872985 0 0 0 0 -77.881693539377011 21.362159589376688 0 21.362159589376688 -110.55660723563415 0 0 0 0 -75.167388613219373 -42.799866866711454 0 -42.799866866711454 -82.300788583721442 0 0 0 0 -26.22779572815125 -45.288535599857141 0 -45.288535599857141 -88.472732190979514 0 0 0 0 -29.861718741329241 -42.757808109113512 0 -42.757808109113512 -81.156698640918876 0 0 0 0 -45.765777111340867 -80.852222779642489 0 -80.852222779642489 -34.825607678158121 0 0 0 0 -41.25632528996357 -86.595022013500056 0 -86.595022013500056 -39.063824581316112 0 0 0 0 28.504229527752614 -43.668318384042323 0 -43.668318384042323 -82.468233879796799 0 0 0 0 -13.442395219331956 -54.126838296780079 0 -54.126838296780079 28.035672219207299 0 0 0 0 26.288407355004892 -74.169151369853068 0 -74.169151369853068 -98.515896019142019 0 0 0 0 -24.5512644337241 -9.1820181003492678 0 -9.1820181003492678 -111.12172180761627 0 0 0 0 36.469308238960366 92.69470349477433 0 92.69470349477433 -66.266061159840319 0 0 0 0 -74.640469787387701 -27.682830094411202 0 -27.682830094411202 -75.873484324341916 0 0 0 0 -246.89163780428862 1.6647134753884529 0 1.6647134753884529 36.794385623056769 0 0 0 0 -116.16761554708501 -67.42130446821875 0 -67.42130446821875 -42.017711126481117 0 0 0 0 -162.08700562046579 11.296138013079144 0 11.296138013079144 -79.925087707409148 0 0 0 0 -246.59343900927706 -3.3637453652013392 0 -3.3637453652013392 38.447344496094956 0 0 0 0 -17.865785340720322 -60.12426990580343 0 -60.12426990580343 -33.014637879157817 0 0 0 0 -3.5901675619615219 1.225347937239917 0 1.225347937239917 2.1943640295882307 0 0 0 0 -177.10701918616178 146.95422619480678 0 146.95422619480678 -155.23101558188864 0 0 0 0 -18.283488537854282 -18.710840457137238 0 -18.710840457137238 -67.84504373591335 0 0 0 0 -13.200541300253462 -3.3616019041940035 0 -3.3616019041940035 -21.730512261479817 0 0 0 0 6.1258597396281402 25.110580005901909 0 25.110580005901909 -87.824518503788568 0 0 0 0 -379.25114386093446 -208.78691246464746 0 -208.78691246464746 46.85945755636385 0 0 0 0 -454.40782267849136 66.688840395224361 0 66.688840395224361 53.567250683603561 0 0 0 0 -2.7018719064508332 -324.8635243764702 0 -324.8635243764702 -62.646148821013412 0 0 0 0 -14.395201498540757 5.3310961443065992 0 5.3310961443065992 -0.23413942870028848 0 0 0 0 -464.58964122884936 211.81949710195386 0 211.81949710195386 -20.003848074626148 0 0 0 0 -323.59852807785865 222.59629702653274 0 222.59629702653274 -63.545525680719948 0 0 0 0 -42.074692713205877 -151.39057323349152 0 -151.39057323349152 -276.50556858065693 0 0 0 0 -3.6541642176121627 -2.5388177051402412 0 -2.5388177051402412 -0.074698508570917976 0 0 0 0 -33.653694431937765 -105.14873441014834 0 -105.14873441014834 -103.59373966323255 0 0 0 0 -474.31869007201021 110.56098955263496 0 110.56098955263496 -175.10351339692534 0 0 0 0 65.69309870449797 61.117346930292115 0 61.117346930292115 21.990242345919711 0 0 0 0 -14.110981493243486 5.431342222810855 0 5.431342222810855 -0.74706829440518874 0 0 0 0 191.25342466191069 -44.301081850654555 0 -44.301081850654555 -123.89291374767618 0 0 0 0 -107.70220724588349 18.626742416685328 0 18.626742416685328 30.597863944052293 0 0 0 0 242.17067044817668 -375.12378806174456 0 -375.12378806174456 -51.334873381541911 0 0 0 0 66.491825237735839 373.57146314102977 0 373.57146314102977 315.33587448270009 0 0 0 0 -178.73069279428921 148.11522439678765 0 148.11522439678765 413.33579308953085 0 0 0 0 148.14679086373633 199.27783951030551 0 199.27783951030551 94.288512377814413 0 0 0 0 60.716705056041064 195.09783334595232 0 195.09783334595232 -25.723241954203559 0 0 0 0 -137.262604338698 136.51708432918028 0 136.51708432918028 133.28571379079872 0 0 0 0 -3.1311726834974252 121.68199970206587 0 121.68199970206587 273.35959427070156 0 0 0 0 123.62681436938669 125.79917244773371 0 125.79917244773371 51.296245495159042 0 0 0 0 30.977703121646698 100.84224916637913 0 100.84224916637913 -60.299498841950822 0 0 0 0 9.0061709656595212 96.693167950633693 0 96.693167950633693 84.252245373902952 0 0 0 0 -117.73006523765298 -31.489606463288538 0 -31.489606463288538 -69.397307873793679 0 0 0 0 -138.1998381663069 -11.034311664346092 0 -11.034311664346092 -62.06999477489515 0 0 0 0 -96.332029702451109 -102.96412973010956 0 -102.96412973010956 -87.565041827395362 0 0 0 0 -7.3377501664543274 1.3580292595252974 0 1.3580292595252974 1.4314904963879087 0 0 0 0 0.053723060444099247 79.291419398697144 0 79.291419398697144 113.46853746797206 0 0 0 0 141.02826097776415 -112.18410588549887 0 -112.18410588549887 48.058000730568892 0 0 0 0 65.850193048604524 235.05179496974651 0 235.05179496974651 183.24121701259787 0 0 0 0 -99.58663850315935 14.348202462367812 0 14.348202462367812 32.013666252729251 0 0 0 0 -10.37976070096056 90.470423535995565 0 90.470423535995565 158.47889808566995 0 0 0 0 60.393672906192478 81.164111354435619 0 81.164111354435619 -55.812056734983997 0 0 0 0 39.230775571006006 76.362001309627459 0 76.362001309627459 17.929204137233327 0 0 0 0 -41.847708005675486 64.61015172126622 0 64.61015172126622 18.898748060598962 0 0 0 0 2.1242993966416179 98.129432044187183 0 98.129432044187183 -16.120884664526102 0 0 0 0 1.9426105994521095 69.020689850507125 0 69.020689850507125 -47.090994452911673 0 0 0 0 40.408463898852006 41.645995374237856 0 41.645995374237856 -164.09071973283579 0 0 0 0 1.6489736916569697 1.8450982057460552 0 1.8450982057460552 0.80883372472070936 0 0 0 0 -22.050870153239885 1.4322791939548551 0 1.4322791939548551 317.59068362741903 0 0 0 0 -5.256955367948251 41.494666425805065 0 41.494666425805065 73.315893599072751 0 0 0 0 -9.1547832885912612 73.443461528732996 0 73.443461528732996 154.40723615869956 0 0 0 0 -140.83392911669898 94.4094535016159 0 94.4094535016159 -182.72760561915743 0 0 0 0 -292.50013388447229 -60.215771499856842 0 -60.215771499856842 -65.62617081204121 0 0 0 0 -10.88948332083578 -8.2530037792548114 0 -8.2530037792548114 -118.47875511813956 0 0 0 0 0.08926739772361092 0.78080329957312755 0 0.78080329957312755 0.46570982797252358 0 0 0 0 -251.59713779476078 -40.123094963226436 0 -40.123094963226436 489.24455802968794 0 0 0 0 -348.89427017111785 126.24578372535549 0 126.24578372535549 76.596207157189028 0 0 0 0 -394.04983772322055 50.499290817741439 0 50.499290817741439 213.75801007479882 0 0 0 0 -553.7191045188473 70.033784895018812 0 70.033784895018812 211.39830911762994 0 0 0 0 -399.97244363818277 98.202460122043703 0 98.202460122043703 182.42842750755045 0 0 0 0 -234.15927068875135 -58.569463000429252 0 -58.569463000429252 263.02997708085547 0 0 0 0 -18.079733100673465 -9.6066573224894984 0 -9.6066573224894984 -4.5738390073085657 0 0 0 0 -194.6496314204997 -6.0953364149992026 0 -6.0953364149992026 165.60601831439476 0 0 0 0 -6.6403838256072198 -4.066980470219681 0 -4.066980470219681 -2.3933698526621221 0 0 0 0 -68.622923714186072 -263.95048306030981 0 -263.95048306030981 270.38423615126601 0 0 0 0 -25.793503311145741 -54.95072917539558 0 -54.95072917539558 89.81798729963856 0 0 0 0 129.17665840071436 -215.50068687547528 0 -215.50068687547528 -178.09811217892991 0 0 0 0 -35.666560712353316 -433.43075245908017 0 -433.43075245908017 -177.72430894976912 0 0 0 0 -880.84170713499509 157.56137935534352 0 157.56137935534352 79.487869761534569 0 0 0 0 -668.40679284176952 -373.38004968904266 0 -373.38004968904266 26.215591703300355 0 0 0 0 -125.12929672102919 186.7137718304636 0 186.7137718304636 -322.50754838763055 0 0 0 0 -582.62695649117688 214.36310140710657 0 214.36310140710657 129.86453959291259 0 0 0 0 -377.36058931743071 -269.23950048047158 0 -269.23950048047158 -328.30411412017639 0 0 0 0 -3493.1850036424403 -2148.5800266365113 0 -2148.5800266365113 -1088.9363086272999 0 0 0 0 410.55041191057535 345.53088109405212 0 345.53088109405212 -447.33724579178971 0 0 0 0 -2177.234660757917 -1140.8607648403829 0 -1140.8607648403829 -317.72752733147979 0 0 0 0 -1552.6574285624229 -930.76845685942931 0 -930.76845685942931 -256.04026340837305 0 0 0 0 -2380.5778275218108 -1245.0849504257817 0 -1245.0849504257817 -196.91627875762632 0 0 0 0 -2185.6022521018122 -1074.0275845514177 0 -1074.0275845514177 -214.54692087954439 0 0 0 0 -3501.2501682897523 -984.45517213614426 0 -984.45517213614426 440.23696938776192 0 0 0 0 -2428.7358528792902 -541.66372073957905 0 -541.66372073957905 560.05489312577868 0 0 0 0 -2227.3586020299772 -739.9292285823476 0 -739.9292285823476 148.11054455790008 0 0 0 0 -1615.6319095102008 -706.78449265195559 0 -706.78449265195559 21.297725565242764 0 0 0 0 -2317.3740240997322 -940.33230189065728 0 -940.33230189065728 20.789628633769894 0 0 0 0 -1644.8063832203188 -611.54850189604315 0 -611.54850189604315 -140.36029582405331 0 0 0 0 -1837.3103729611539 -350.88147910300881 0 -350.88147910300881 -0.94154362265624059 0 0 0 0 -694.90552948649565 -287.51059916505358 0 -287.51059916505358 -121.69964195291131 0 0 0 0 -727.24922941761633 -137.71434540846016 0 -137.71434540846016 -217.20914267487646 0 0 0 0 -192.39162891211163 -58.403675418734991 0 -58.403675418734991 -331.67854880694938 0 0 0 0 -269.57725931405002 -85.034934016073521 0 -85.034934016073521 197.30257899313756 0 0 0 0 151.35985301056644 171.1680471848947 0 171.1680471848947 -87.949253220831906 0 0 0 0 45.719161166955018 -116.83825971439416 0 -116.83825971439416 -393.50474646148882 0 0 0 0 -602.44476017710258 -421.4212445145846 0 -421.4212445145846 -291.96022263986572 0 0 0 0 -513.17870469254558 -519.6645811718704 0 -519.6645811718704 -277.0717090028665 0 0 0 0 -1552.7257833058552 -878.63686817156974 0 -878.63686817156974 -312.73891858537479 0 0 0 0 -11.65052641343209 -542.75750945310392 0 -542.75750945310392 -726.22689925306588 0 0 0 0 -1161.8902308262914 -1161.6949287719021 0 -1161.6949287719021 -1046.4627871829637 0 0 0 0 -232.93670929635846 -115.51918793209717 0 -115.51918793209717 249.38309978176949 0 0 0 0 -8.5762999750470499 -3.9710144717729459 0 -3.9710144717729459 -0.52062214649079097 0 0 0 0 -29.707122887455625 205.94090683718741 0 205.94090683718741 14.584264339190781 0 0 0 0 -19.463396149239514 1.6364778735420615 0 1.6364778735420615 0.14943324634320165 0 0 0 0 -163.26155197481421 224.48151728096855 0 224.48151728096855 353.41506488544292 0 0 0 0 -221.41695673312643 71.179714929736292 0 71.179714929736292 476.05477680186334 0 0 0 0 -4.8077911385917105 19.054936802284828 0 19.054936802284828 -75.271080538945341 0 0 0 0 147.03143762979016 83.737274973385411 0 83.737274973385411 430.48558410353644 0 0 0 0 -12.203845317739734 2.0199362540451204 0 2.0199362540451204 2.6342968086556211 0 0 0 0 448.43814203552392 390.9870903308676 0 390.9870903308676 721.87630823715153 0 0 0 0 -46.819106369158646 16.577828068632037 0 16.577828068632037 2.1003565136625659 0 0 0 0 -65.335279857910791 44.857297740000718 0 44.857297740000718 -16.738916837476609 0 0 0 0 0.70917231159646121 3.4320705014945614 0 3.4320705014945614 -1.6506891600869986 0 0 0 0 -25.435982587583567 -124.08654975537017 0 -124.08654975537017 473.41907124157217 0 0 0 0 -96.00530168169098 -6.1385514642665555 0 -6.1385514642665555 7.6115132938367651 0 0 0 0 -61.954835844420444 3.6569280604858054 0 3.6569280604858054 3.4394384677699334 0 0 0 0 -49.242867399734678 1.2395520225808809 0 1.2395520225808809 -23.378616562359888 0 0 0 0 -310.53680210681341 86.625622281762162 0 86.625622281762162 615.59838611749365 0 0 0 0 -318.07722840635688 541.48455005509811 0 541.48455005509811 108.2306480545451 0 0 0 0 -2.3431764133565594 152.96220094682099 0 152.96220094682099 -16.882957570269127 0 0 0 0 -44.513603146275273 163.36864274514215 0 163.36864274514215 -17.413109246406066 0 0 0 0 31.750608073693002 177.29472664900709 0 177.29472664900709 -733.94856308066619 0 0 0 0 110.85688283655327 -77.210590687941021 0 -77.210590687941021 -516.88711014784008 0 0 0 0 63.287939964866382 -439.96193784485172 0 -439.96193784485172 -20.629762090537042 0 0 0 0 -62.063029537646798 -35.953138183430838 0 -35.953138183430838 766.73858493113187 0 0 0 0 -148.79023346669419 -52.003019061603254 0 -52.003019061603254 -32.757642760769841 0 0 0 0 -172.20979023360997 -259.51863386455398 0 -259.51863386455398 520.540242336049 0 0 0 0 -18.427988503855886 -246.39379329554225 0 -246.39379329554225 -141.59028054957705 0 0 0 0 -76.783160049919388 -73.312319761871152 0 -73.312319761871152 -356.02253777986039 0 0 0 0 -112.58621625954402 27.895583349274602 0 27.895583349274602 -419.62399947417441 0 0 0 0 -280.29983724456542 -26.584963724642421 0 -26.584963724642421 -254.07799987707961 0 0 0 0 -471.14556312546483 -300.85512547887731 0 -300.85512547887731 -137.14120263789573 0 0 0 0 -299.3421120388557 27.258206481569829 0 27.258206481569829 154.66437679797934 0 0 0 0 -155.9905977233575 -245.92947009939007 0 -245.92947009939007 68.457388611125111 0 0 0 0 -103.41988097982539 -42.634302546196068 0 -42.634302546196068 119.73271580207256 0 0 0 0 -420.52808980381815 0.17642459908711317 0 0.17642459908711317 159.48953769456966 0 0 0 0 -262.88552010284911 -148.65437896997173 0 -148.65437896997173 246.66654847252357 0 0 0 0 -701.86447874089936 -88.499489328554773 0 -88.499489328554773 275.46491633984988 0 0 0 0 -349.50830828289327 -67.019636941324734 0 -67.019636941324734 89.991440222548135 0 0 0 0 -264.24457670799165 -15.699755194012141 0 -15.699755194012141 115.30571859175961 0 0 0 0 -279.50414441481553 -50.073661841928924 0 -50.073661841928924 162.52124421985536 0 0 0 0 -0.10598818232330842 0.48920139400684093 0 0.48920139400684093 -9.0971171972624774 0 0 0 0 29.786716382710438 185.97200296169208 0 185.97200296169208 -287.062297214929 0 0 0 0 -418.71746678133786 -228.42049634093758 0 -228.42049634093758 -97.371531123879322 0 0 0 0 -241.07172911804082 -162.35804331231316 0 -162.35804331231316 -145.1456803541214 0 0 0 0 -189.20684348487703 -268.9892794116688 0 -268.9892794116688 -479.82236147900971 0 0 0 0 -125.16179244644445 -68.014409668571375 0 -68.014409668571375 -139.80796817279042 0 0 0 0 -29.618306946946177 40.509226605125718 0 40.509226605125718 27.120358243540068 0 0 0 0 -29.177182205719873 17.790023460599514 0 17.790023460599514 -70.428078229230096 0 0 0 0 -63.584914928724174 -80.40282810154531 0 -80.40282810154531 -234.08940226566392 0 0 0 0 -67.157229081407422 -49.32719238684831 0 -49.32719238684831 -126.00074189242605 0 0 0 0 -128.12164166887669 -20.983670633448355 0 -20.983670633448355 16.559733149585554 0 0 0 0 -243.43978617817629 -51.953668338844182 0 -51.953668338844182 34.075311408651942 0 0 0 0 -99.386343714992108 42.664208395035985 0 42.664208395035985 26.962444600580056 0 0 0 0 -399.23836950462282 156.48585566022803 0 156.48585566022803 91.650127985411018 0 0 0 0 -119.29588685853378 10.043358384695011 0 10.043358384695011 60.003659710595457 0 0 0 0 -256.3819523677812 95.079176493143677 0 95.079176493143677 117.87115839484704 0 0 0 0 -2.3242659451410841 25.370641027787173 0 25.370641027787173 7.0574253063516128 0 0 0 0 32.581522767482966 6.6095236012890837 0 6.6095236012890837 -0.83780972947033661 0 0 0 0 -1.252617112993903 -27.265169733341963 0 -27.265169733341963 -14.047104067190958 0 0 0 0 72.891190935071791 57.778056651141981 0 57.778056651141981 -91.991124384681029 0 0 0 0 79.595718976266653 -2.4656551599518934 0 -2.4656551599518934 -46.123789115457839 0 0 0 0 -11.210421202865508 26.792351711832481 0 26.792351711832481 -12.602774682056591 0 0 0 0 -2.1342012877721572 -9.7955135366173636 0 -9.7955135366173636 -29.707193898932019 0 0 0 0 7.3187149710120138 34.945674680062268 0 34.945674680062268 -42.86737894631915 0 0 0 0 2.50561194256926 1.6188289839458605 0 1.6188289839458605 -4.653071214249703 0 0 0 0 3.5687936605681898 105.59095554311821 0 105.59095554311821 36.290844607130452 0 0 0 0 -31.601274680299156 21.447404133797811 0 21.447404133797811 -14.991587337048017 0 0 0 0 -24.624583224638258 6.1556369743570869 0 6.1556369743570869 -13.454915610648897 0 0 0 0 33.423972706063068 56.85771659465297 0 56.85771659465297 -3.7500168974138433 0 0 0 0 33.705462099090255 55.013619781214132 0 55.013619781214132 -151.29880925008456 0 0 0 0 18.984338968322845 122.34491300867091 0 122.34491300867091 -241.41194212020199 0 0 0 0 -3.3577704017225187 135.25277274190012 0 135.25277274190012 8.8526054034823574 0 0 0 0 -4.4270061850402271 91.640205960470325 0 91.640205960470325 37.274878567054913 0 0 0 0 -54.011990255647106 184.57387474308774 0 184.57387474308774 192.91532344884172 0 0 0 0 -49.039894016967637 9.1278410464845585 0 9.1278410464845585 -4.5574332174764258 0 0 0 0 -49.382424803339745 -0.012516886762622192 0 -0.012516886762622192 -6.7863553910824805 0 0 0 0 -31.674552085002318 15.361183064675835 0 15.361183064675835 -4.2178765323034826 0 0 0 0 100.56393681676673 -72.832354483431345 0 -72.832354483431345 -59.070037524854797 0 0 0 0 -40.044505152014608 7.47945945863421 0 7.47945945863421 -18.608033075938692 0 0 0 0 -141.84349692542673 -82.485998302297958 0 -82.485998302297958 -72.469171111399191 0 0 0 0 -5.1090773603704225 -1.7749954632367988 0 -1.7749954632367988 -23.504225873087901 0 0 0 0 -145.37259782636829 189.78817568810473 0 189.78817568810473 -69.139816040428741 0 0 0 0 -9.6935149571665562 -2.7679741644882228 0 -2.7679741644882228 -6.9438824898430074 0 0 0 0 -85.295868381228502 -66.999167243927786 0 -66.999167243927786 -97.420760660081214 0 0 0 0 -7.5065222189168708 12.763673966163992 0 12.763673966163992 -6.7835637554599089 0 0 0 0 -31.638976550186868 13.327015258190423 0 13.327015258190423 -18.396839386696467 0 0 0 0 -1529.513785325049 101.47215633481392 0 101.47215633481392 368.42488327892534 0 0 0 0 -291.43044334335718 -524.15216857664018 0 -524.15216857664018 151.47667680968971 0 0 0 0 -179.04293074097041 -46.889119053911543 0 -46.889119053911543 -6.3822150945943577 0 0 0 0 23.178871747864832 29.080126070794222 0 29.080126070794222 -0.77154351364424656 0 0 0 0 -1.8285506987156595 3.4888018859985763 0 3.4888018859985763 -2.856352455538925 0 0 0 0 -88.365616726770696 -17.22616830904748 0 -17.22616830904748 -21.509320190882136 0 0 0 0 -88.377935660943336 -8.0125882433150402 0 -8.0125882433150402 -21.584960291374955 0 0 0 0 -10.044938219708026 5.41994950250605 0 5.41994950250605 -12.391634612381154 0 0 0 0 -111.71344877104639 -27.453720063180299 0 -27.453720063180299 -23.138861146230738 0 0 0 0 -30.775466346709436 12.475315246402261 0 12.475315246402261 -5.371496561976528 0 0 0 0 -213.48886932636833 458.20383560288656 0 458.20383560288656 -1053.9523788406514 0 0 0 0 0.78342739838774378 124.47104209238115 0 124.47104209238115 76.372027270754472 0 0 0 0 -257.53515371829417 476.26259562852647 0 476.26259562852647 -56.386289013483292 0 0 0 0 -89.106050926185233 12.006751365685135 0 12.006751365685135 35.158675182459184 0 0 0 0 -17.099411353916629 -7.4774140615472007 0 -7.4774140615472007 -27.634689657082472 0 0 0 0 -28.080430312902536 61.171385342979534 0 61.171385342979534 78.558244222941852 0 0 0 0 -55.227107041064528 16.027366331242774 0 16.027366331242774 217.69693392570241 0 0 0 0 26.178520036807186 69.77338277338265 0 69.77338277338265 -57.418427473036218 0 0 0 0 2.5967327950134624 7.1966124677498016 0 7.1966124677498016 2.117285822354531 0 0 0 0 -22.424372587694506 -3.0435715596580337 0 -3.0435715596580337 0.74997272027880513 0 0 0 0 -54.177741619756404 6.07396193589706 0 6.07396193589706 19.688026694893129 0 0 0 0 27.628983592751538 17.464073088590467 0 17.464073088590467 160.86262375351362 0 0 0 0 -4.0299924505045173 1.6389273565860594 0 1.6389273565860594 0.36651729090004181 0 0 0 0 -21.529204496831653 -3.1470443896525921 0 -3.1470443896525921 152.62342827517364 0 0 0 0 -41.000012728178035 65.232265680387854 0 65.232265680387854 112.00462313826006 0 0 0 0 -59.147242067565578 57.263926779398901 0 57.263926779398901 92.50242596084945 0 0 0 0 -35.959998684985408 37.247830879335311 0 37.247830879335311 40.2277768459453 0 0 0 0 -100.813250309605 84.929099376166505 0 84.929099376166505 78.611760671583284 0 0 0 0 -54.733834230617873 62.095425872876035 0 62.095425872876035 106.78693813368045 0 0 0 0 -51.537862787876975 51.209387960889671 0 51.209387960889671 88.986233832059497 0 0 0 0 -53.357489342893246 32.268260076016759 0 32.268260076016759 134.56505808803513 0 0 0 0 -43.784893824883255 3.8061739802031092 0 3.8061739802031092 10.919012951018216 0 0 0 0 -35.434910106596782 -23.498873578715376 0 -23.498873578715376 63.515692400566877 0 0 0 0 -46.91263670437651 0.71620109818554312 0 0.71620109818554312 0.36457639380254747 0 0 0 0 -44.215363119146105 -6.24907777947368 0 -6.24907777947368 7.4066483282022091 0 0 0 0 -76.306763768370729 -5.5681429609558108 0 -5.5681429609558108 -21.221462521987632 0 0 0 0 -39.292833458523504 -2.3055373319323795 0 -2.3055373319323795 -2.7177247942488183 0 0 0 0 -77.225545812380915 -18.775129128743401 0 -18.775129128743401 -23.690725909262255 0 0 0 0 -37.846601222347601 5.5982654265249137 0 5.5982654265249137 2.9852790102000561 0 0 0 0 -28.575092696518261 1.8418768800304353 0 1.8418768800304353 -5.8976990672073448 0 0 0 0 -48.641978181760351 5.533639068723005 0 5.533639068723005 -11.13737972151921 0 0 0 0 -37.214560664802775 -1.3232169503517071 0 -1.3232169503517071 -3.0585082381588791 0 0 0 0 -29.89649639357928 1.6262549590203079 0 1.6262549590203079 -3.7735971833064319 0 0 0 0 -75.920104063765422 74.152494226680346 0 74.152494226680346 86.750463168405986 0 0 0 0 68.222419651467334 124.60841588963308 0 124.60841588963308 63.65902363719124 0 0 0 0 -11.79364993714092 -2.8087370805988319 0 -2.8087370805988319 0.14760256507502767 0 0 0 0 -16.914054832134298 55.082409992712201 0 55.082409992712201 67.157260438743151 0 0 0 0 -81.203031306718117 78.725126817533237 0 78.725126817533237 58.493122949078952 0 0 0 0 -50.162921960250969 4.8833479084935334 0 4.8833479084935334 -9.6952161206049823 0 0 0 0 -30.102250990032189 9.7110543399531934 0 9.7110543399531934 -9.7623651259768849 0 0 0 0 -14.846910111542984 6.7431479529083411 0 6.7431479529083411 -7.9766486471510385 0 0 0 0 -62.314743621842354 36.170143019159241 0 36.170143019159241 46.79600027575998 0 0 0 0 -38.082142940425705 17.544497294070048 0 17.544497294070048 3.5154240664026197 0 0 0 0 -45.959611520462204 3.8455347184753919 0 3.8455347184753919 -11.188093153507452 0 0 0 0 -22.530271820342826 0.99744184684949744 0 0.99744184684949744 -11.000291829501975 0 0 0 0 -25.768906933976346 6.3297184604131189 0 6.3297184604131189 -7.4217952835462366 0 0 0 0 -7.1650044506168342 0.80554577589532528 0 0.80554577589532528 -0.34618171090551186 0 0 0 0 -30.787677656279541 -0.45098447019050525 0 -0.45098447019050525 -10.219038715178222 0 0 0 0 13.043068959746961 -24.953541725458482 0 -24.953541725458482 27.104558535754592 0 0 0 0 0.40565084923828465 1.4785065536742179 0 1.4785065536742179 -6.5526052906569134 0 0 0 0 11.416116791777313 -4.2061396844306955 0 -4.2061396844306955 -66.054467588409864 0 0 0 0 -3.6747123259022203 -11.969451427608583 0 -11.969451427608583 -16.027755344321918 0 0 0 0 -80.977813944329682 -27.986809608646354 0 -27.986809608646354 -16.256144475484348 0 0 0 0 -27.304890459821763 -20.51229544158582 0 -20.51229544158582 -21.498565628697634 0 0 0 0 -1.5318649637629278 -39.746501994807886 0 -39.746501994807886 -8.414235647997657 0 0 0 0 -82.105881763124671 -12.650498804190086 0 -12.650498804190086 -11.594936168570712 0 0 0 0 -29.68475079156633 3.8042188032404738 0 3.8042188032404738 -8.1140846331119292 0 0 0 0 -25.527361931069578 10.426100879198017 0 10.426100879198017 0.16865137097923544 0 0 0 0 -97.065495708957314 -16.123786341598588 0 -16.123786341598588 -8.1674366144804935 0 0 0 0 -39.35020552494052 -6.7939535297142939 0 -6.7939535297142939 -23.277790224137789 0 0 0 0 -90.100437871791655 10.150500629224098 0 10.150500629224098 -23.478478799692667 0 0 0 0 -137.32812932088564 -37.357817563887238 0 -37.357817563887238 -18.342916225557019 0 0 0 0 -102.42487710068417 -14.064657800338125 0 -14.064657800338125 -4.3479887165867694 0 0 0 0 -43.980994634344825 -30.836933119437333 0 -30.836933119437333 -8.208337002698272 0 0 0 0 -69.661770082138105 4.8791525291966238 0 4.8791525291966238 2.3540746216954784 0 0 0 0 -8.9719258120946463 -12.303644102723119 0 -12.303644102723119 -3.2922137139627337 0 0 0 0 -49.478162002422323 -83.781666863709916 0 -83.781666863709916 100.14350178012617 0 0 0 0 -7.0877371749556914 -77.995655326241319 0 -77.995655326241319 -33.693176426903165 0 0 0 0 -262.22548006400575 44.953212366187188 0 44.953212366187188 319.85765100538288 0 0 0 0 -58.717773134309198 3.3703992361188986 0 3.3703992361188986 -0.19012781435854342 0 0 0 0 -100.38981372261696 -4.9751451038636496 0 -4.9751451038636496 -325.94765427705033 0 0 0 0 -643.86811955664598 274.81406416117721 0 274.81406416117721 -234.19241441546859 0 0 0 0 -337.10991259090588 -169.37512573188621 0 -169.37512573188621 43.362771232129717 0 0 0 0 -170.80150598663022 -61.609536270954351 0 -61.609536270954351 -34.850379146434875 0 0 0 0 49.151337392366258 -123.73824550568943 0 -123.73824550568943 -146.43626805766488 0 0 0 0 44.324040671435796 -29.258597868267657 0 -29.258597868267657 -48.210017099421947 0 0 0 0 90.629614459205186 59.959411366942277 0 59.959411366942277 -37.837947511308641 0 0 0 0 97.928900483420875 -14.90219609545187 0 -14.90219609545187 -123.00386276731354 0 0 0 0 90.625888896516699 -21.902710613162981 0 -21.902710613162981 16.147018985692 0 0 0 0 -96.602692377811763 61.899624366812986 0 61.899624366812986 -59.54803604753593 0 0 0 0 58.414504926171503 96.912701422241412 0 96.912701422241412 -99.101412406075553 0 0 0 0 -86.766371601566789 -91.967900086146074 0 -91.967900086146074 -111.63436337605617 0 0 0 0 91.515680907017668 62.74596701611506 0 62.74596701611506 -64.350229585398665 0 0 0 0 -10.696860362363182 10.175337499037088 0 10.175337499037088 -10.014071940530393 0 0 0 0 110.66633450104564 205.34923270785737 0 205.34923270785737 226.56673479499295 0 0 0 0 239.69220573857092 -83.119734811558374 0 -83.119734811558374 -121.1750582359773 0 0 0 0 -283.1134384616671 -189.80105048530231 0 -189.80105048530231 234.26737261433448 0 0 0 0 -1.3199725949209977 1.5071550887430334 0 1.5071550887430334 -0.59945524606079736 0 0 0 0 587.36987353539007 -14.363012483197281 0 -14.363012483197281 55.290775580490845 0 0 0 0 -779.80623691855726 -18.770210655210235 0 -18.770210655210235 -44.297181016130594 0 0 0 0 -751.83674318501289 104.59443054753797 0 104.59443054753797 185.62014276782998 0 0 0 0 -348.18999451743002 -108.67314617025716 0 -108.67314617025716 49.917410572173281 0 0 0 0 -328.87461829972563 -12.796332340740889 0 -12.796332340740889 -20.507870868182408 0 0 0 0 -1437.1031642812959 63.110332072830829 0 63.110332072830829 183.13151602496669 0 0 0 0 -704.56868031965087 77.154734088261392 0 77.154734088261392 11.65852722628847 0 0 0 0 -246.46717388837169 111.8133059057466 0 111.8133059057466 -123.77454856384918 0 0 0 0 -703.73642085218307 -55.427504909222478 0 -55.427504909222478 87.922418506069221 0 0 0 0 -169.5121888242611 -46.514849517848148 0 -46.514849517848148 -151.24201840325804 0 0 0 0 -1353.6592867466825 344.25494374966263 0 344.25494374966263 40.641843394277601 0 0 0 0 -781.24675511722307 274.32484951788933 0 274.32484951788933 6.4053786105914483 0 0 0 0 -1849.8128487253016 41.373228788411723 0 41.373228788411723 269.95214885123312 0 0 0 0 -2239.1985532532162 -56.888375973478219 0 -56.888375973478219 332.58279259371949 0 0 0 0 -1433.5346707327246 101.47014468512302 0 101.47014468512302 213.46694874491936 0 0 0 0 -3500.4131060076979 193.87728235266795 0 193.87728235266795 798.74700895098795 0 0 0 0 -2273.7085250071577 -117.59482529744753 0 -117.59482529744753 675.35764378172553 0 0 0 0 -2346.0795572333864 665.9540976024017 0 665.9540976024017 412.59415766794984 0 0 0 0 -2123.669524526762 694.14421708655175 0 694.14421708655175 415.95363904861284 0 0 0 0 -3493.2333840725696 1501.7728658141857 0 1501.7728658141857 125.88888150048847 0 0 0 0 -85.16192934258288 520.55883048887154 0 520.55883048887154 -848.36290451116633 0 0 0 0 -1846.9371237260366 940.66833234895216 0 940.66833234895216 -148.61802602575304 0 0 0 0 -25.987003726957141 0.67521542164893766 0 0.67521542164893766 -2.8976344004759809 0 0 0 0 -2074.7185810297306 -2050.2590218888936 0 -2050.2590218888936 -1926.6114043607492 0 0 0 0 -1316.5626581200595 1595.4490793493394 0 1595.4490793493394 -1408.7981958087821 0 0 0 0 -3494.4204708970155 1645.4032260913309 0 1645.4032260913309 -124.95610134597297 0 0 0 0 -299.22840025972619 1073.5695669844363 0 1073.5695669844363 -1079.6422020960372 0 0 0 0 -652.41679888878207 627.74849479973818 0 627.74849479973818 -761.49689813286864 0 0 0 0 -115.07588076715354 -214.48287354530422 0 -214.48287354530422 -112.25907902839458 0 0 0 0 -141.38708067134758 141.78492554956813 0 141.78492554956813 277.3754709020069 0 0 0 0 -40.357570829997002 16.59488937305581 0 16.59488937305581 -4.9231202166992114 0 0 0 0 -718.25062859681566 -929.29674235169 0 -929.29674235169 -711.82645130437675 0 0 0 0 -2570.9531078590844 -2264.8549176555175 0 -2264.8549176555175 -1626.3643484335325 0 0 0 0 -17.057608310256086 5.4070139875361054 0 5.4070139875361054 -4.0566352801362804 0 0 0 0 -3496.6888142214825 -1645.9987689898389 0 -1645.9987689898389 -394.35558484048357 0 0 0 0 -2374.0737514282337 -899.06936630511404 0 -899.06936630511404 99.357370888807026 0 0 0 0 -2292.9542502286586 -1084.07223602828 0 -1084.07223602828 -394.88243652605513 0 0 0 0 -3499.1280841375005 -923.25571251960184 0 -923.25571251960184 493.69584132545674 0 0 0 0 -2717.2514103110734 -253.73632204093374 0 -253.73632204093374 636.67858446113519 0 0 0 0 -1228.0684501600249 -317.18677086322089 0 -317.18677086322089 109.34846199914841 0 0 0 0 -1977.234144917491 -880.63342053301119 0 -880.63342053301119 -61.417653645645601 0 0 0 0 -1065.8675524650098 -653.49120030264748 0 -653.49120030264748 -201.18812831660222 0 0 0 0 -1353.614323201291 -270.91807840973172 0 -270.91807840973172 140.94214744549924 0 0 0 0 -1134.9089214760288 -163.39519450134301 0 -163.39519450134301 -63.07298894284483 0 0 0 0 -1683.8410894560584 -527.25773747641381 0 -527.25773747641381 15.209421184407745 0 0 0 0 -1106.8863851387214 -822.72310459199639 0 -822.72310459199639 -351.92326622774073 0 0 0 0 0.74350245257416248 7.8381419157488441 0 7.8381419157488441 -2.8943593592406915 0 0 0 0 -29.297813146189881 8.4095254409266147 0 8.4095254409266147 -0.63245235238722963 0 0 0 0 -183.8618306461849 445.45666189594596 0 445.45666189594596 -105.70084047274815 0 0 0 0 54.638120628078468 -380.16137551296322 0 -380.16137551296322 -324.9882236052303 0 0 0 0 -393.62765319370737 -143.1614852476668 0 -143.1614852476668 -153.46724390014856 0 0 0 0 -488.05335429540719 62.794124807106641 0 62.794124807106641 -78.212310668523969 0 0 0 0 0.34552001933455045 0.71595246883129704 0 0.71595246883129704 -1.0402014959086139 0 0 0 0 54.619581471000856 -56.542420435976709 0 -56.542420435976709 8.801200979434384 0 0 0 0 -1173.2860910890222 -32.207021496583828 0 -32.207021496583828 23.967198200191206 0 0 0 0 -26.032462733448483 25.37122563452931 0 25.37122563452931 4.4382934654768178 0 0 0 0 -3.4437744753795414 45.379012832346774 0 45.379012832346774 -2.7804157940207972 0 0 0 0 -6.4357128287746548 12.631077195241403 0 12.631077195241403 -9.4430785452904118 0 0 0 0 -23.835441792845813 10.755245500429965 0 10.755245500429965 -10.657629087771966 0 0 0 0 -27.017510880501234 18.945722852588531 0 18.945722852588531 -8.3484268633291485 0 0 0 0 -18.69460795870873 21.721533882998642 0 21.721533882998642 5.7358617871252591 0 0 0 0 -32.239402746450651 20.367354942293787 0 20.367354942293787 6.2705981298379356 0 0 0 0 -40.81213466355166 -30.870740580644451 0 -30.870740580644451 114.47671938372469 0 0 0 0 -26.431222555815033 14.124147315707665 0 14.124147315707665 -4.2032536928232354 0 0 0 0 -3.0822154468629299 4.3632915233104717 0 4.3632915233104717 -9.5555297710690024 0 0 0 0 7.9360288640591534 -112.30432634187088 0 -112.30432634187088 -44.071573521336745 0 0 0 0 81.559491905905816 -38.302539253576242 0 -38.302539253576242 4.7630186755741306 0 0 0 0 -167.34430655634696 -98.156437666410397 0 -98.156437666410397 79.738850725521388 0 0 0 0 -216.81239032970689 -19.36596675887828 0 -19.36596675887828 -155.10835834198957 0 0 0 0 -133.96898007538948 96.325644142490631 0 96.325644142490631 -0.0029562565636709337 0 0 0 0 24.090159477283578 8.9948911618556622 0 8.9948911618556622 -0.90511022304008293 0 0 0 0 1.5177733696875721 2.190995584193689 0 2.190995584193689 5.1856906592948544 0 0 0 0 -62.530988673462616 78.712725680715948 0 78.712725680715948 294.30197692486718 0 0 0 0 23.010032804350885 37.895353901741601 0 37.895353901741601 -22.599715498228761 0 0 0 0 6.1556356371688707 50.7378026691581 0 50.7378026691581 -18.063805403096239 0 0 0 0 2.6059279206883335 8.9066245386198641 0 8.9066245386198641 11.075574727916068 0 0 0 0 -16.205050726033278 49.80081021577098 0 49.80081021577098 -8.0339868505006962 0 0 0 0 -2.1440061423260013 4.8029541414161674 0 4.8029541414161674 1.7791686213043019 0 0 0 0 -16.449214735992882 -2.9143076995242154 0 -2.9143076995242154 4.2811317449268245 0 0 0 0 8.414843042607977 24.730489737109849 0 24.730489737109849 -55.024078236199557 0 0 0 0 -13.341455939838115 14.055298431456642 0 14.055298431456642 -2.7191191131275287 0 0 0 0 -19.216308753413614 13.756572162248631 0 13.756572162248631 1.7969957378327308 0 0 0 0 -8.2994600397473484 19.041065943781458 0 19.041065943781458 2.6233425130604324 0 0 0 0 -10.733276596989013 18.168841560787069 0 18.168841560787069 1.9394843122729606 0 0 0 0 -7.5852226201454869 42.2345938746912 0 42.2345938746912 -3.5764091510996145 0 0 0 0 -30.147161552694918 13.120925523100208 0 13.120925523100208 2.3312471742343579 0 0 0 0 4.6143771644549361 19.808806676109043 0 19.808806676109043 -3.9756717165755617 0 0 0 0 -4.6149665065415206 63.224476367717955 0 63.224476367717955 17.03297705275827 0 0 0 0 -6.5747149548635662 42.46412818055137 0 42.46412818055137 -6.3559226129900708 0 0 0 0 -17.558764471898876 16.354878461657648 0 16.354878461657648 -0.40378775431919234 0 0 0 0 -18.186748431884553 8.4764653929771612 0 8.4764653929771612 -4.1660991606713651 0 0 0 0 -9.478393241638507 15.187108262039315 0 15.187108262039315 -7.1657992385892797 0 0 0 0 -3.0675067375598246 77.796488100603483 0 77.796488100603483 -42.383154158640536 0 0 0 0 -8.9721601704536624 69.443010844110177 0 69.443010844110177 44.896865083604553 0 0 0 0 0.34529958957594431 53.205000944514495 0 53.205000944514495 -19.582366780748089 0 0 0 0 4.7764533852371045 50.094501392237589 0 50.094501392237589 -38.162439329934614 0 0 0 0 -5.8927533866472004 54.363668314227994 0 54.363668314227994 -19.558435605721684 0 0 0 0 -11.963007868899723 36.200141791899568 0 36.200141791899568 -44.253301951457537 0 0 0 0 25.144485875163099 24.003983129224935 0 24.003983129224935 11.588702265205711 0 0 0 0 22.91580373560673 42.346717850964382 0 42.346717850964382 14.306052458740396 0 0 0 0 -1.1277692746025365 0.15046222509954932 0 0.15046222509954932 -0.077097153925985817 0 0 0 0 -20.889849597544014 40.697997629563815 0 40.697997629563815 75.63238775817058 0 0 0 0 -37.397142302672421 69.298100517425269 0 69.298100517425269 34.24718646308952 0 0 0 0 -1.904733008763003 68.64228080730436 0 68.64228080730436 -235.37844381166155 0 0 0 0 -122.07190897399445 61.790929819416263 0 61.790929819416263 42.002613042229314 0 0 0 0 -116.59576037117233 143.42780440216598 0 143.42780440216598 -24.332425221535232 0 0 0 0 -64.568449602006353 64.4816183735918 0 64.4816183735918 12.240422539222891 0 0 0 0 -8.7790559706180602 107.13278294037241 0 107.13278294037241 91.12486063137726 0 0 0 0 -16.361278768158058 71.389991974310306 0 71.389991974310306 -71.91134862613967 0 0 0 0 29.302603532709782 175.99312142310794 0 175.99312142310794 -23.244546617615697 0 0 0 0 5.7076756324869393 185.14121623475302 0 185.14121623475302 57.504215211247811 0 0 0 0 6.7214104085230701 59.574238351728695 0 59.574238351728695 -3.8056688066105835 0 0 0 0 328.99952338835402 70.366864836224295 0 70.366864836224295 -16.358232137039238 0 0 0 0 15.543702512390553 186.91382430914871 0 186.91382430914871 57.876609235429669 0 0 0 0 95.933335080607449 341.08244437849697 0 341.08244437849697 235.92200433115386 0 0 0 0 -58.90371588820426 -27.955412337494607 0 -27.955412337494607 349.98233030261196 0 0 0 0 330.05460447470881 205.3174139592723 0 205.3174139592723 -105.5234719899052 0 0 0 0 -51.014996974215251 2.6997984183218904 0 2.6997984183218904 -7.3308255044400994 0 0 0 0 -22.007429054965684 -61.864474379530542 0 -61.864474379530542 -281.57161677156114 0 0 0 0 30.798273156084335 121.8526962618284 0 121.8526962618284 -461.26428137813059 0 0 0 0 -34.162573394216935 -2.3827643705527213 0 -2.3827643705527213 0.20717794273039403 0 0 0 0 -31.011159434293745 -7.092414601274271 0 -7.092414601274271 -151.48040347068576 0 0 0 0 -24.501265258839908 283.49427964415895 0 283.49427964415895 -13.522947786953353 0 0 0 0 -496.69039638068352 -333.0313826332706 0 -333.0313826332706 1383.5673156789687 0 0 0 0 -51.025080255183987 1.0615003337572422 0 1.0615003337572422 2.4591862990720248 0 0 0 0 300.48975644436268 275.30803933089805 0 275.30803933089805 -305.24918066309601 0 0 0 0 244.73552633573763 85.840825390619614 0 85.840825390619614 72.661486973994897 0 0 0 0 110.30461977168216 248.8695857401317 0 248.8695857401317 -4.6464696363678968 0 0 0 0 56.596496999019337 294.7110450782227 0 294.7110450782227 260.22404144865891 0 0 0 0 89.218129024857717 89.151334910068556 0 89.151334910068556 96.120750746544445 0 0 0 0 74.827270307174331 152.03457753052191 0 152.03457753052191 -292.17018123637797 0 0 0 0 -0.1682518698405211 2.9661083174370528 0 2.9661083174370528 -8.303275252420466 0 0 0 0 -201.22152078153385 57.644523051778052 0 57.644523051778052 79.807681769388722 0 0 0 0 -306.82771860348771 367.43341219292381 0 367.43341219292381 -415.62254036505027 0 0 0 0 -735.76573892009674 281.38673610858979 0 281.38673610858979 34.366941961303496 0 0 0 0 -0.39208872357739599 1.1653580892220035 0 1.1653580892220035 -3.3024345914861177 0 0 0 0 335.91921295770589 135.6518350443796 0 135.6518350443796 210.6334315038016 0 0 0 0 450.29513849675504 233.2274075415408 0 233.2274075415408 -129.73966408238266 0 0 0 0 26.908250762118769 519.03247400682881 0 519.03247400682881 95.475636781826324 0 0 0 0 396.41749687466654 27.445757503459106 0 27.445757503459106 265.49537675386853 0 0 0 0 -53.26390172104999 4.1746973575814437 0 4.1746973575814437 3.0310321570989287 0 0 0 0 -636.63699772320888 403.10017834161249 0 403.10017834161249 522.77645075993075 0 0 0 0 -814.73435462790258 56.21276029949729 0 56.21276029949729 526.71575797405603 0 0 0 0 -501.45646418183787 627.50697524512157 0 627.50697524512157 544.58985058418421 0 0 0 0 -1214.4355471868612 -990.24810344385264 0 -990.24810344385264 366.00142714940262 0 0 0 0 232.76161404120876 234.71282050510649 0 234.71282050510649 -134.62692246741534 0 0 0 0 -1387.5933785346715 2093.6943712983266 0 2093.6943712983266 -2115.7980773952149 0 0 0 0 -394.6307465796026 310.39013799267877 0 310.39013799267877 -29.585955206411654 0 0 0 0 -3493.1268061871988 1804.1131414254392 0 1804.1131414254392 -22.570050909259205 0 0 0 0 -25.009758009289108 3.4856551497022492 0 3.4856551497022492 -0.34906258970528325 0 0 0 0 -1247.2689696366642 124.26401585643632 0 124.26401585643632 312.356749070614 0 0 0 0 -3493.864357595302 -293.07260608651848 0 -293.07260608651848 693.54123083641923 0 0 0 0 -1002.5624664314073 -84.392016709012225 0 -84.392016709012225 -174.02387013703068 0 0 0 0 -1687.4032902306913 338.78622047971567 0 338.78622047971567 229.56248074378351 0 0 0 0 -390.40864205914886 -27.978653509304479 0 -27.978653509304479 41.433765633595385 0 0 0 0 -305.4453220032542 15.900335427880691 0 15.900335427880691 -20.287744725947782 0 0 0 0 -336.27296819577532 -53.269888546340212 0 -53.269888546340212 -15.795446853387148 0 0 0 0 -285.11705417008034 -14.526795043304446 0 -14.526795043304446 -55.176382131789751 0 0 0 0 -364.84755851310092 -16.524573433420073 0 -16.524573433420073 -54.331358185697354 0 0 0 0 -397.7188322025072 -48.539041220336799 0 -48.539041220336799 -66.47058990366375 0 0 0 0 -496.55488160398193 -26.744949491427974 0 -26.744949491427974 15.977777528026081 0 0 0 0 -471.39310588899332 25.310085288252537 0 25.310085288252537 123.38061208481622 0 0 0 0 -3.7927338730077418 -0.088520349864240622 0 -0.088520349864240622 0.93830500341144818 0 0 0 0 -552.93118455664296 -421.05021109058032 0 -421.05021109058032 -423.72074059195438 0 0 0 0 -697.30335883499197 -73.982116902157827 0 -73.982116902157827 18.471704656897373 0 0 0 0 -449.57328271379015 59.989162031575233 0 59.989162031575233 -66.208326818988496 0 0 0 0 -387.88026979774253 34.597105932668057 0 34.597105932668057 -3.7490407144946403 0 0 0 0 -217.13236931244765 -104.28974513749506 0 -104.28974513749506 -168.41772624915166 0 0 0 0 -219.42942986360569 -15.752472536311387 0 -15.752472536311387 101.55706747146451 0 0 0 0 -497.96419211180256 -37.235483215047651 0 -37.235483215047651 102.32665364112393 0 0 0 0 -443.4706141730876 55.592901646668111 0 55.592901646668111 156.43372555826554 0 0 0 0 -408.60111069211081 80.798091815937369 0 80.798091815937369 150.93205837952416 0 0 0 0 -352.74383975500155 58.054315429066435 0 58.054315429066435 22.673316235880293 0 0 0 0 -335.85141533041292 7.9000623040046776 0 7.9000623040046776 170.05878019220177 0 0 0 0 -288.37140918587284 73.864044107414941 0 73.864044107414941 162.37469266709343 0 0 0 0 -13.682426810859738 -31.469923389616042 0 -31.469923389616042 181.75872800194838 0 0 0 0 -67.657063050666466 84.479207138327865 0 84.479207138327865 81.730191236307064 0 0 0 0 -212.23990546110872 31.079286241917771 0 31.079286241917771 164.0393021472151 0 0 0 0 -204.46008648727718 39.739026322377526 0 39.739026322377526 64.86130249648636 0 0 0 0 -10.365211233522514 97.986966414893232 0 97.986966414893232 151.63886607053428 0 0 0 0 -81.067199301796109 66.248805460747803 0 66.248805460747803 137.70031363196381 0 0 0 0 -6.6949049538892496 115.78190765439751 0 115.78190765439751 68.812796009370231 0 0 0 0 -21.602592396860587 155.77057621932522 0 155.77057621932522 26.288000866336233 0 0 0 0 -66.75755165161786 148.0429297304579 0 148.0429297304579 54.298777117668124 0 0 0 0 -64.533685100186972 178.4253949860701 0 178.4253949860701 76.071674927968502 0 0 0 0 -102.23788079060779 107.35315371695472 0 107.35315371695472 61.26368795800272 0 0 0 0 -111.34185803784362 132.13655354893251 0 132.13655354893251 66.682025153091104 0 0 0 0 -165.89846192337222 137.28877457106574 0 137.28877457106574 119.25633877936389 0 0 0 0 -220.6517925218559 32.435934044525311 0 32.435934044525311 38.514096635272324 0 0 0 0 -182.74918743176283 37.79752909414168 0 37.79752909414168 21.705221071852293 0 0 0 0 -295.22940702179812 -15.352360089182525 0 -15.352360089182525 67.174029876133318 0 0 0 0 -201.16161018907542 44.137107064634051 0 44.137107064634051 75.219563788319221 0 0 0 0 -243.32682318449764 44.416838459574464 0 44.416838459574464 43.723427586583057 0 0 0 0 -265.51906288637247 -39.833268134472178 0 -39.833268134472178 -40.655173277617678 0 0 0 0 -293.15314239957343 -18.331938460811671 0 -18.331938460811671 22.006420395291013 0 0 0 0 -288.71226943192346 -21.279365077800662 0 -21.279365077800662 -55.253590557033704 0 0 0 0 -283.70427883669913 -53.078206822999505 0 -53.078206822999505 -59.762013594040752 0 0 0 0 -286.9574591834043 -24.562846591381401 0 -24.562846591381401 -128.24539884720275 0 0 0 0 -292.95136783715316 -86.097722097091932 0 -86.097722097091932 -135.06394335064715 0 0 0 0 -292.12658343589101 -66.870992016642276 0 -66.870992016642276 -154.89166204160347 0 0 0 0 -182.32233984721267 183.66992693217907 0 183.66992693217907 218.56824460799442 0 0 0 0 -240.8204491325979 36.605940749731957 0 36.605940749731957 34.841783118694593 0 0 0 0 -262.92911783800764 37.22251639259315 0 37.22251639259315 56.819027761910434 0 0 0 0 -265.97083184707458 -89.804357758965622 0 -89.804357758965622 -142.4486879247271 0 0 0 0 -286.09223021531034 127.22914748344516 0 127.22914748344516 -72.603491833894537 0 0 0 0 -299.52377764713924 -34.546888004870652 0 -34.546888004870652 -206.0257544581554 0 0 0 0 -648.68921861876163 -201.57572618314356 0 -201.57572618314356 -278.23905429772287 0 0 0 0 -234.93771674574828 -210.95688209665803 0 -210.95688209665803 -693.68453644714589 0 0 0 0 -335.57268744168641 209.81838016779122 0 209.81838016779122 -516.83472919454857 0 0 0 0 -11.685219542485372 -1.7339508516015951 0 -1.7339508516015951 -0.76062180112625288 0 0 0 0 -261.12240477995579 -76.552665505332754 0 -76.552665505332754 -276.1719062528523 0 0 0 0 -343.1643381016097 -125.51248165668017 0 -125.51248165668017 -157.69043843402841 0 0 0 0 -288.53337475169633 -134.05911792264118 0 -134.05911792264118 -343.7364946873227 0 0 0 0 -217.74131449537754 -108.62327368507977 0 -108.62327368507977 -105.43319466372711 0 0 0 0 -0.19661202177208903 0.46680881605021574 0 0.46680881605021574 -1.6716879398022462 0 0 0 0 -70.387205612025241 -157.00257319758794 0 -157.00257319758794 -367.81653893937039 0 0 0 0 -105.4714827693839 140.67138053109397 0 140.67138053109397 -184.93263147673451 0 0 0 0 -0.15112571683734299 0.56810848516946511 0 0.56810848516946511 -1.5064081390045283 0 0 0 0 -180.35913788283233 105.55377536632966 0 105.55377536632966 -5.3466401763643034 0 0 0 0 -216.72472507829707 115.09526335494627 0 115.09526335494627 -163.9922447755755 0 0 0 0 -138.36289922060814 119.69241705702689 0 119.69241705702689 -163.75595656248197 0 0 0 0 -227.96621641356501 136.56403785362713 0 136.56403785362713 -123.98707135299287 0 0 0 0 -362.72309943290429 123.08492006281074 0 123.08492006281074 -108.35944069945833 0 0 0 0 -322.88720108617076 59.647216900692058 0 59.647216900692058 -168.0245424586426 0 0 0 0 -226.88466311020272 103.39095076424837 0 103.39095076424837 -152.9381686275492 0 0 0 0 -124.81817572724412 55.886150709417791 0 55.886150709417791 -325.60666321528811 0 0 0 0 -310.19775461346853 -24.864942556677761 0 -24.864942556677761 -132.24548386491685 0 0 0 0 -240.89086100155623 -4.1616304939431643 0 -4.1616304939431643 -132.22984876501368 0 0 0 0 -354.3801513763492 -24.424421441604011 0 -24.424421441604011 -52.692483528003095 0 0 0 0 -299.10104796728581 -55.302075806892049 0 -55.302075806892049 -70.538129115966967 0 0 0 0 -426.64900948592572 66.842193740280095 0 66.842193740280095 -32.095979336606433 0 0 0 0 -393.1665194752984 22.572051603499347 0 22.572051603499347 -49.662281644271616 0 0 0 0 -421.20017809545698 35.558824394534668 0 35.558824394534668 20.93194564560801 0 0 0 0 -339.82964629130447 60.783568166083683 0 60.783568166083683 -87.595482130923756 0 0 0 0 -397.873534961941 61.528593485908345 0 61.528593485908345 -77.341673215115861 0 0 0 0 -475.1141318253699 74.707528111512374 0 74.707528111512374 -50.18303867821021 0 0 0 0 -399.07222145636007 51.519419894405203 0 51.519419894405203 -43.608209742138797 0 0 0 0 -481.73635657021896 25.08444661671615 0 25.08444661671615 -100.05285152859528 0 0 0 0 -380.98980248356247 86.09381130377767 0 86.09381130377767 -84.418821974899288 0 0 0 0 -365.06152413129735 137.36622628678106 0 137.36622628678106 -104.41402539850947 0 0 0 0 -494.03821030712106 91.640855352794802 0 91.640855352794802 -83.199510813876401 0 0 0 0 -567.55471829750013 64.025179657026797 0 64.025179657026797 -93.076212558852717 0 0 0 0 -643.05154711042906 -66.768010630740662 0 -66.768010630740662 -73.164676975319253 0 0 0 0 -669.00182035334478 -39.6027483419644 0 -39.6027483419644 -38.62555587600491 0 0 0 0 -453.68111771078793 63.41297128316819 0 63.41297128316819 -84.891690016086159 0 0 0 0 -530.01123751130444 -43.039556790687925 0 -43.039556790687925 -67.391060919169604 0 0 0 0 -1014.1072036771568 -228.86328487320242 0 -228.86328487320242 -24.452367211455794 0 0 0 0 -787.83590024938576 -206.55906705107566 0 -206.55906705107566 -26.824503412721185 0 0 0 0 -652.57823804699819 -123.18988777252707 0 -123.18988777252707 -47.359142009538232 0 0 0 0 -797.11960435856372 -187.33042424890448 0 -187.33042424890448 -61.462658379177128 0 0 0 0 -821.78078009269893 -164.99597636846647 0 -164.99597636846647 -108.16538645859418 0 0 0 0 -921.52549189979004 -332.8444852271349 0 -332.8444852271349 -128.47843924756603 0 0 0 0 -659.43998372519013 -182.69467471784969 0 -182.69467471784969 -3.1171620223199739 0 0 0 0 -805.03897472543963 -217.46232282209775 0 -217.46232282209775 0.47670718668405243 0 0 0 0 -677.17815406170848 -152.07249490978489 0 -152.07249490978489 36.752969947249085 0 0 0 0 -442.60225908313532 -173.97624724608997 0 -173.97624724608997 15.059445550845339 0 0 0 0 -746.09622063126005 -235.12520108440572 0 -235.12520108440572 124.62352539507401 0 0 0 0 -873.85145208593474 -207.65897787339952 0 -207.65897787339952 120.7417244083091 0 0 0 0 -547.59017333591828 -174.23800741253297 0 -174.23800741253297 -31.908524106735285 0 0 0 0 -536.98312449432478 -19.763159078003582 0 -19.763159078003582 -39.752483296908281 0 0 0 0 -285.32944321300647 -45.613814589309641 0 -45.613814589309641 -51.588448731985864 0 0 0 0 -413.8761439621403 102.3144976215782 0 102.3144976215782 58.369742185249606 0 0 0 0 -4.5971089638810554 326.7520105164507 0 326.7520105164507 293.7229391540925 0 0 0 0 -168.94043887882322 69.401422468931031 0 69.401422468931031 295.61568466283961 0 0 0 0 -482.79889766213228 -122.04546459990252 0 -122.04546459990252 98.151369810196229 0 0 0 0 -225.80096037133313 -169.75162431757707 0 -169.75162431757707 83.626856590749298 0 0 0 0 -745.77520146282836 -300.62761904696339 0 -300.62761904696339 143.41683734593096 0 0 0 0 -629.37435540818296 -313.32187573763099 0 -313.32187573763099 118.96112449278939 0 0 0 0 -901.70169469402708 -270.97055168591203 0 -270.97055168591203 173.31369339335811 0 0 0 0 -746.51929308398962 -288.86891115598536 0 -288.86891115598536 169.39555008918364 0 0 0 0 -867.90080133179481 -338.78247492355518 0 -338.78247492355518 129.32266292390193 0 0 0 0 -328.61972220885139 -325.96539469737655 0 -325.96539469737655 -2.8870943482702387 0 0 0 0 -429.96606288318014 -244.42088862739598 0 -244.42088862739598 50.697028949330218 0 0 0 0 -382.02583317160293 -132.42521095967925 0 -132.42521095967925 95.948212553824419 0 0 0 0 -12.709925455991549 -0.39121015099503498 0 -0.39121015099503498 3.6318382868400256 0 0 0 0 -277.82624419699749 -243.69541022659473 0 -243.69541022659473 -176.85431566127511 0 0 0 0 -760.33176076399991 -501.95414805571568 0 -501.95414805571568 -62.824652553952149 0 0 0 0 -688.23718371208975 -686.58740894836035 0 -686.58740894836035 -567.09675219974758 0 0 0 0 -7.3881021406698064 -0.13937376378009114 0 -0.13937376378009114 1.3662968389650341 0 0 0 0 -1302.8909881742852 -1036.4908203339387 0 -1036.4908203339387 -667.71100994279607 0 0 0 0 -790.40148338793915 780.39714362701363 0 780.39714362701363 120.33048596738314 0 0 0 0 612.20799523674759 -404.13354408111303 0 -404.13354408111303 -283.33609083080478 0 0 0 0 48.552926021991425 -468.72806126465184 0 -468.72806126465184 124.21775772220758 0 0 0 0 209.99370050760444 -489.2383232599833 0 -489.2383232599833 115.82143243833045 0 0 0 0 -29.402908818688957 -316.48814108706057 0 -316.48814108706057 28.819348890964925 0 0 0 0 454.58456141485476 -280.27036212865039 0 -280.27036212865039 -338.88282258843645 0 0 0 0 -69.597770173790423 -386.85097971250411 0 -386.85097971250411 309.97445198679355 0 0 0 0 -300.82982161520613 -104.78158223594164 0 -104.78158223594164 48.576217025917686 0 0 0 0 -170.48046449036212 -101.70202529232236 0 -101.70202529232236 425.82412203384274 0 0 0 0 372.49297550596884 -306.60628743790505 0 -306.60628743790505 103.41383488055054 0 0 0 0 -79.615816549333658 -73.788613806958352 0 -73.788613806958352 -31.681448520477993 0 0 0 0 -224.80259403852097 -104.81775004014719 0 -104.81775004014719 -37.507614868010933 0 0 0 0 -9.0265384690882602 -0.38171156851885746 0 -0.38171156851885746 2.7641624033344434 0 0 0 0 0.81477877246300068 -201.1375893337148 0 -201.1375893337148 -484.42121160136503 0 0 0 0 -921.35046626708254 124.30705142594974 0 124.30705142594974 88.345383494489823 0 0 0 0 -954.72993942212543 -67.365434777802193 0 -67.365434777802193 -71.341661086921761 0 0 0 0 -420.53234344304974 75.973587414718978 0 75.973587414718978 41.50282827180601 0 0 0 0 -86.698552854816626 28.350260334270843 0 28.350260334270843 -41.253173896368139 0 0 0 0 -236.60030316864501 -74.222529832509565 0 -74.222529832509565 -24.021946287349891 0 0 0 0 -423.33246837320848 15.382981273386775 0 15.382981273386775 53.863457355808663 0 0 0 0 -121.27269709989196 108.49893693113464 0 108.49893693113464 -5.974633401001654 0 0 0 0 -11.260244572082229 -8.5602119761588256 0 -8.5602119761588256 33.449873122068311 0 0 0 0 -13.028969321840123 17.17779727625566 0 17.17779727625566 43.292451286705727 0 0 0 0 -13.457849712148333 -11.219181625842902 0 -11.219181625842902 -9.1222030293311001 0 0 0 0 -1430.7797397537329 354.60920167001035 0 354.60920167001035 -89.219354630452926 0 0 0 0 -273.57039457263153 246.55249406044416 0 246.55249406044416 -175.25300419279694 0 0 0 0 -1344.6078469106014 -169.70700213077617 0 -169.70700213077617 -49.664710405311546 0 0 0 0 -1401.580767865933 -400.73414421981789 0 -400.73414421981789 -188.61455230924085 0 0 0 0 -1519.0978308079625 -165.25474475859926 0 -165.25474475859926 -611.39248978752948 0 0 0 0 -1825.3922699532332 -559.21376341293808 0 -559.21376341293808 -150.39304639416139 0 0 0 0 -1411.0302992573206 -332.50527393836023 0 -332.50527393836023 73.467350092343111 0 0 0 0 -1235.1224952060684 -419.41842979734179 0 -419.41842979734179 22.473156665951365 0 0 0 0 -1205.9802585781736 -465.58887556469273 0 -465.58887556469273 -220.45460143568548 0 0 0 0 -1134.1294827174215 -203.30806142900394 0 -203.30806142900394 132.16256200010278 0 0 0 0 -1119.3805955701657 -498.43143902550673 0 -498.43143902550673 48.286781585350155 0 0 0 0 -1149.5598540038181 -142.79675696545982 0 -142.79675696545982 -175.6350679849831 0 0 0 0 -1189.9503702320367 -90.961349848339324 0 -90.961349848339324 110.0215513080563 0 0 0 0 -1035.658780109298 -272.54495883991888 0 -272.54495883991888 177.28529061018037 0 0 0 0 -1042.3686498703146 -83.279529750334277 0 -83.279529750334277 211.71935304774144 0 0 0 0 -736.52833889519115 -110.25349215643556 0 -110.25349215643556 197.02240399654073 0 0 0 0 -965.87739374868397 -376.41463262132868 0 -376.41463262132868 161.66066743139453 0 0 0 0 -990.98128089535578 -222.69475744619734 0 -222.69475744619734 225.75140483428964 0 0 0 0 -903.59305710274907 -230.48876068059997 0 -230.48876068059997 219.03576175111431 0 0 0 0 -910.25080310451006 -242.39363488345668 0 -242.39363488345668 205.98613662890398 0 0 0 0 -927.89222809971261 -152.74251095694189 0 -152.74251095694189 223.192656227258 0 0 0 0 -701.4064464623907 -150.19839842485715 0 -150.19839842485715 187.8801904842386 0 0 0 0 -758.15918147304546 -44.418539814962472 0 -44.418539814962472 193.8179742178375 0 0 0 0 -717.72028183680254 -109.26997199719108 0 -109.26997199719108 173.37049397759085 0 0 0 0 -483.14294875690689 -36.579621910831747 0 -36.579621910831747 155.85693641386752 0 0 0 0 -787.3711039171485 -48.607403960101578 0 -48.607403960101578 99.71074159142168 0 0 0 0 -438.93512734747492 -28.304184564177007 0 -28.304184564177007 114.13648731110806 0 0 0 0 -834.4055408427422 41.449478867021142 0 41.449478867021142 137.39876212466146 0 0 0 0 -130.68561659799025 -100.16385059723839 0 -100.16385059723839 101.3230438895537 0 0 0 0 -111.21744260899504 2.14106826052614 0 2.14106826052614 32.254109061654958 0 0 0 0 -443.088803153703 11.233387041829678 0 11.233387041829678 89.794238849498015 0 0 0 0 -302.06942928014655 19.796131360942184 0 19.796131360942184 165.15210395649189 0 0 0 0 -449.18482143780579 -97.573534196442324 0 -97.573534196442324 153.32306680302531 0 0 0 0 -347.85802300601244 65.760433412585257 0 65.760433412585257 190.76245233469331 0 0 0 0 -247.45481345629776 -16.596999476739995 0 -16.596999476739995 88.397926816219751 0 0 0 0 -446.84383507942289 -96.503969067870855 0 -96.503969067870855 22.069517379299896 0 0 0 0 -527.08468691023677 -48.808570623808521 0 -48.808570623808521 129.11168446278066 0 0 0 0 -231.57471582150652 37.623763470212452 0 37.623763470212452 -0.32050254367004527 0 0 0 0 -396.17511690557444 -250.71770394169084 0 -250.71770394169084 -167.88360661645879 0 0 0 0 -270.99381719368887 75.30186925413409 0 75.30186925413409 -33.045421490433 0 0 0 0 -265.63522431844331 104.50112880649581 0 104.50112880649581 89.443061219083347 0 0 0 0 -854.57840524319192 -250.37017691779448 0 -250.37017691779448 94.79628794026371 0 0 0 0 -867.28390317838944 -200.56715030328985 0 -200.56715030328985 160.55057695017013 0 0 0 0 -616.33747938966667 -204.29254048683379 0 -204.29254048683379 70.899552774561471 0 0 0 0 -867.28997450483837 -200.06410990586969 0 -200.06410990586969 183.39119706431461 0 0 0 0 -857.35055432329227 -268.49199234337493 0 -268.49199234337493 57.594920724803956 0 0 0 0 -979.4383147239505 -370.54044957890414 0 -370.54044957890414 -180.96133395155823 0 0 0 0 -832.73284856076737 -140.37363119813847 0 -140.37363119813847 -14.765346511515077 0 0 0 0 -1575.2019396960607 -325.18031836091893 0 -325.18031836091893 13.229714954049768 0 0 0 0 -1.2289492206039299 -1.6967904092252251 0 -1.6967904092252251 -2.6658851402286361 0 0 0 0 247.02967555095526 -103.57579407080831 0 -103.57579407080831 -135.06478603802225 0 0 0 0 -1.6381098573225861 -5.0367641424067386 0 -5.0367641424067386 -6.943008167446596 0 0 0 0 -762.13158560357942 -193.79966671860814 0 -193.79966671860814 -25.937459340407258 0 0 0 0 -1105.9307456139179 -173.73076899819955 0 -173.73076899819955 -26.57047970972053 0 0 0 0 -151.36612862303218 29.508382531005054 0 29.508382531005054 -51.261912816821564 0 0 0 0 -177.60495642185674 17.585479601205407 0 17.585479601205407 26.943560585403247 0 0 0 0 -71.045229843164975 -96.239996781114769 0 -96.239996781114769 35.71962400701932 0 0 0 0 -256.06796069824998 69.938793101189276 0 69.938793101189276 -21.490432238365884 0 0 0 0 -125.76367821304996 35.712716410205701 0 35.712716410205701 -85.666803892672306 0 0 0 0 -711.0646105705855 5.33435801975088 0 5.33435801975088 23.052940115839647 0 0 0 0 -211.05789963012035 120.83436986965887 0 120.83436986965887 -83.967163637457986 0 0 0 0 -313.47793117383094 -67.446344564341132 0 -67.446344564341132 -199.07956920656989 0 0 0 0 -129.32531257930077 -108.31988464269637 0 -108.31988464269637 -100.42820178422517 0 0 0 0 141.12126975179535 -11.667259784866417 0 -11.667259784866417 -172.53985375958928 0 0 0 0 -0.52312253484498639 -0.53665530057621957 0 -0.53665530057621957 -2.6985805613938965 0 0 0 0 -111.19356212791558 -18.626818819069229 0 -18.626818819069229 -68.005673679081156 0 0 0 0 -110.69619637989854 39.138489878959717 0 39.138489878959717 -309.23825517793512 0 0 0 0 -292.05741384490284 -155.52738007894004 0 -155.52738007894004 -164.61610850195802 0 0 0 0 -419.98775487707462 32.562526327525006 0 32.562526327525006 16.567999508638422 0 0 0 0 -8.229414904530433 5.6060365867042012 0 5.6060365867042012 0.46612407922195587 0 0 0 0 -212.05296358591477 -127.97518927660849 0 -127.97518927660849 -482.09390918408553 0 0 0 0 -381.10605164726439 -123.34748862076526 0 -123.34748862076526 70.314124409615943 0 0 0 0 -399.55303674005154 -242.94318197538496 0 -242.94318197538496 -201.27645167615765 0 0 0 0 -418.31919642969922 74.176991551181928 0 74.176991551181928 -87.222346988021854 0 0 0 0 -160.52941286641908 -72.657487762136498 0 -72.657487762136498 -6.7318506270380567 0 0 0 0 -225.49519100749058 -29.806829738406805 0 -29.806829738406805 70.778466129270782 0 0 0 0 -185.12910594678033 -193.7149690229262 0 -193.7149690229262 79.004334997993283 0 0 0 0 -254.54691848090079 -218.75746521482142 0 -218.75746521482142 228.11932828401586 0 0 0 0 -61.884061081846085 -35.430232790096397 0 -35.430232790096397 -159.81935997507117 0 0 0 0 -62.58724177771137 -39.550271195319738 0 -39.550271195319738 -181.66286250825578 0 0 0 0 -171.44950714920037 41.442245516649848 0 41.442245516649848 -81.578603516141811 0 0 0 0 -99.124151685276956 -80.660653126370107 0 -80.660653126370107 11.165775031396834 0 0 0 0 -135.2857781521011 -49.334259276244779 0 -49.334259276244779 120.01738763326034 0 0 0 0 -137.19077417414883 -35.365729459789236 0 -35.365729459789236 147.11489614073253 0 0 0 0 -136.04667808457725 -107.57315124663114 0 -107.57315124663114 235.32357221145503 0 0 0 0 -14.075784934084368 -103.46491507290261 0 -103.46491507290261 219.73883699902171 0 0 0 0 -92.86811693053005 -132.70727229939052 0 -132.70727229939052 192.74322149035152 0 0 0 0 -72.667480947477543 -51.426177470266794 0 -51.426177470266794 113.22505701312548 0 0 0 0 -191.15148178165146 -201.04252853023667 0 -201.04252853023667 226.9841421700894 0 0 0 0 -152.47423236009263 -356.3560473688886 0 -356.3560473688886 426.94833553379249 0 0 0 0 -126.17007122894938 -166.28055200527228 0 -166.28055200527228 208.1325584295198 0 0 0 0 -100.58883160313962 -178.96022252845273 0 -178.96022252845273 342.97015913400071 0 0 0 0 -47.334640285623607 -120.4568253386887 0 -120.4568253386887 230.35441277523705 0 0 0 0 -44.843594152593141 -330.97281517994179 0 -330.97281517994179 317.53393136756131 0 0 0 0 -52.468691370297165 -352.64414257377962 0 -352.64414257377962 280.84283285899414 0 0 0 0 347.26062680543055 -366.75080913901257 0 -366.75080913901257 270.05481424242294 0 0 0 0 62.785833217074469 -245.7600772882783 0 -245.7600772882783 299.60782898724267 0 0 0 0 75.036095709791425 -182.34820296347959 0 -182.34820296347959 446.52919194665412 0 0 0 0 65.849012714625133 -277.81488068070411 0 -277.81488068070411 428.5973469869914 0 0 0 0 -13.26904769948267 -5.0330369845135472 0 -5.0330369845135472 0.99965994409948866 0 0 0 0 -86.690059762963983 32.763157112692923 0 32.763157112692923 23.530608564590921 0 0 0 0 -120.79487994321062 -139.23276428635722 0 -139.23276428635722 296.06531655095728 0 0 0 0 -20.459280116341688 -111.85248466312299 0 -111.85248466312299 300.7487516077972 0 0 0 0 34.012477425876568 -183.41302441040017 0 -183.41302441040017 528.94211805959446 0 0 0 0 57.670591938644066 -239.186336541363 0 -239.186336541363 360.3986958380948 0 0 0 0 -85.714107149738084 -104.32024819438489 0 -104.32024819438489 292.17434349308837 0 0 0 0 -96.875121564154142 -121.16119763205496 0 -121.16119763205496 270.23290128962987 0 0 0 0 9.5878897325846992 -100.76676036583058 0 -100.76676036583058 156.61837041446395 0 0 0 0 -167.58654583134739 -58.760790881413868 0 -58.760790881413868 256.8432037609727 0 0 0 0 -64.560451426910049 -185.54921600749353 0 -185.54921600749353 391.90297616751803 0 0 0 0 -170.91154329185997 99.965440920236432 0 99.965440920236432 265.38307106617452 0 0 0 0 -19.197359040694209 -24.214277817703191 0 -24.214277817703191 81.042458032572767 0 0 0 0 -305.05089182517179 -1.777707108482673 0 -1.777707108482673 107.45910678593555 0 0 0 0 -76.068585453833293 19.380173143524985 0 19.380173143524985 -18.119296733248149 0 0 0 0 -51.780484313072066 33.171948177569632 0 33.171948177569632 -37.439151815718844 0 0 0 0 2.8970820020258543 -40.852817774520872 0 -40.852817774520872 -55.522976888634844 0 0 0 0 15.174788954958331 -158.74023451435062 0 -158.74023451435062 78.100225926664734 0 0 0 0 19.421870654437953 -204.00473258743727 0 -204.00473258743727 158.39306909837683 0 0 0 0 -54.144501062040945 -194.67327153823408 0 -194.67327153823408 169.77879671180551 0 0 0 0 -59.624022142063041 -165.85565565708612 0 -165.85565565708612 110.60530487210144 0 0 0 0 30.741054125026494 -153.23359546796655 0 -153.23359546796655 84.524538427477637 0 0 0 0 -60.315986961291856 -7.6064070995902 0 -7.6064070995902 -17.760487251979384 0 0 0 0 -129.4366914551938 -28.04753390469682 0 -28.04753390469682 13.165517425172936 0 0 0 0 -333.22020290937144 -1.1655329457346397 0 -1.1655329457346397 62.014791584448233 0 0 0 0 -106.5493329472165 -143.66475244781918 0 -143.66475244781918 151.32370908731036 0 0 0 0 99.132880216526246 -252.59268025771593 0 -252.59268025771593 546.72470716422117 0 0 0 0 -365.54948476470599 156.88021344169718 0 156.88021344169718 -24.620234970197885 0 0 0 0 -2.1862131302894348 1.2085945453480811 0 1.2085945453480811 -2.0511196568230652 0 0 0 0 670.24970609030788 -478.05036066411333 0 -478.05036066411333 413.4801162515879 0 0 0 0 -2.8753037410433002 2.7116758840219557 0 2.7116758840219557 -0.24140365138123077 0 0 0 0 345.72932259543813 -326.42951204608858 0 -326.42951204608858 574.1319489933162 0 0 0 0 392.32211242254198 -200.64154497275854 0 -200.64154497275854 220.37033307751199 0 0 0 0 195.80320463412863 -307.11790033325906 0 -307.11790033325906 188.83636746983166 0 0 0 0 -118.47082909284927 -319.85264981098584 0 -319.85264981098584 276.01430559465007 0 0 0 0 307.6249625266646 -490.07373156253607 0 -490.07373156253607 274.90601351985038 0 0 0 0 170.08391816509902 -258.1830841203664 0 -258.1830841203664 118.7857908723654 0 0 0 0 44.611930781732553 -234.99321450282821 0 -234.99321450282821 121.41013922942875 0 0 0 0 118.58105267400151 -123.75197365252359 0 -123.75197365252359 41.796829848114612 0 0 0 0 354.16011504680318 -189.70396556396167 0 -189.70396556396167 44.20754331153239 0 0 0 0 -66.528181346060052 -8.2686992883263599 0 -8.2686992883263599 7.2252974802434196 0 0 0 0 379.97314482715956 -179.16188143271529 0 -179.16188143271529 -26.012790389299084 0 0 0 0 -79.584480216590237 16.768756947532438 0 16.768756947532438 -62.755675540912762 0 0 0 0 288.96826421912192 -74.32424801725756 0 -74.32424801725756 -72.435154102069191 0 0 0 0 -9.8741635642096881 -0.96373318626196536 0 -0.96373318626196536 6.1186756656489196 0 0 0 0 -228.09530605455512 -179.37508664628717 0 -179.37508664628717 95.554691222090241 0 0 0 0 364.25783117256651 -249.95227609862292 0 -249.95227609862292 217.85212600362638 0 0 0 0 -230.70320112514219 -90.515487224517983 0 -90.515487224517983 -280.65241236787733 0 0 0 0 340.51833462405557 -226.02727038359501 0 -226.02727038359501 215.57429094142981 0 0 0 0 391.08902755497911 -228.61061335585885 0 -228.61061335585885 209.58671330489415 0 0 0 0 360.43669049017262 -309.87895722938765 0 -309.87895722938765 447.5695883328317 0 0 0 0 -261.99677870030064 -175.9429913954325 0 -175.9429913954325 234.87026848665846 0 0 0 0 -17.208515675194004 -7.0080821630633441 0 -7.0080821630633441 8.0512992811861146 0 0 0 0 -23.333367506706679 -552.87482775860872 0 -552.87482775860872 -143.2112141191169 0 0 0 0 -251.59985452894546 -296.46577992607996 0 -296.46577992607996 517.12321304495254 0 0 0 0 -214.94244227261333 -518.42591349217253 0 -518.42591349217253 719.84014434845858 0 0 0 0 -246.54115310004636 -416.07481764466047 0 -416.07481764466047 396.50389025134109 0 0 0 0 326.67214127810348 5.0259791789908945 0 5.0259791789908945 439.54012235693449 0 0 0 0 -188.52890595910139 -748.70218546936758 0 -748.70218546936758 618.70518070335891 0 0 0 0 -87.411899295429976 -670.79721867619378 0 -670.79721867619378 311.21121051894124 0 0 0 0 32.483681218622223 -546.54478884544983 0 -546.54478884544983 438.4208745810779 0 0 0 0 -1.4678982775870395 -2.1438925512428568 0 -2.1438925512428568 -2.2215853753998509 0 0 0 0 -101.15178675162497 -128.2682068868279 0 -128.2682068868279 -39.196189447481402 0 0 0 0 178.45278576054261 -621.74469179536482 0 -621.74469179536482 316.0742378083728 0 0 0 0 -11.558112087455811 502.25061496272247 0 502.25061496272247 220.87441221503445 0 0 0 0 -23.991437698077611 8.3641769861809294 0 8.3641769861809294 28.735383468137577 0 0 0 0 -40.718338534754928 -20.08126015385988 0 -20.08126015385988 -0.57602386662938976 0 0 0 0 -56.302364696104632 48.938417745955121 0 48.938417745955121 -26.059959904245488 0 0 0 0 -73.032852295920748 -14.185344886686835 0 -14.185344886686835 11.580215827007578 0 0 0 0 -126.37169085316054 11.600349781142086 0 11.600349781142086 28.22549239251191 0 0 0 0 -181.15847356578888 58.838251774451464 0 58.838251774451464 12.844840148482035 0 0 0 0 3.0026666971401763 8.4456515584900949 0 8.4456515584900949 -5.0592438506933588 0 0 0 0 -198.97381926225353 46.240236720571772 0 46.240236720571772 3.951740464265896 0 0 0 0 463.93656915937572 -282.62929859477509 0 -282.62929859477509 308.364367360296 0 0 0 0 -193.31631865739109 63.502393139781759 0 63.502393139781759 -47.02962219409028 0 0 0 0 -125.57154132342112 -8.4668426165199406 0 -8.4668426165199406 -29.090049191105805 0 0 0 0 -124.53083906397728 12.649762470607879 0 12.649762470607879 -20.663241346097209 0 0 0 0 -97.895567079143802 23.879230252939635 0 23.879230252939635 -16.093637455570445 0 0 0 0 -224.50721176208572 18.407265089753388 0 18.407265089753388 3.9216923241513086 0 0 0 0 -132.48999438579813 14.145156523602509 0 14.145156523602509 -6.2202391885313091 0 0 0 0 -142.12907522738897 1.1662480644287712 0 1.1662480644287712 26.513293624192329 0 0 0 0 -139.79411400073695 30.439259809019518 0 30.439259809019518 53.33260470615096 0 0 0 0 -134.8429807225275 16.022198604428695 0 16.022198604428695 49.189698715141105 0 0 0 0 -102.97019309453935 49.222036334693684 0 49.222036334693684 -39.365947442545519 0 0 0 0 -159.46493642176119 73.236918135839034 0 73.236918135839034 47.432121532699284 0 0 0 0 -159.16903609999622 -13.810743023671549 0 -13.810743023671549 123.11921625875016 0 0 0 0 -123.54973972348489 -24.549689501057173 0 -24.549689501057173 93.35487311133943 0 0 0 0 -111.18877542552946 -68.544905922927683 0 -68.544905922927683 6.5420242678223985 0 0 0 0 -116.70005204027635 -22.970963540410338 0 -22.970963540410338 21.720454972955881 0 0 0 0 -72.809379581529356 -44.630336382031601 0 -44.630336382031601 -52.72186437475284 0 0 0 0 -100.12288045333116 -13.217441365177365 0 -13.217441365177365 -2.6604104398247728 0 0 0 0 -150.6129594240565 45.441030346595994 0 45.441030346595994 117.99719524655734 0 0 0 0 -109.39197280674637 -20.08870665463914 0 -20.08870665463914 24.395924177989059 0 0 0 0 -118.11996396501718 42.537847642594642 0 42.537847642594642 69.797710391784221 0 0 0 0 -157.18317608160214 13.961201056114419 0 13.961201056114419 88.397022049103725 0 0 0 0 -74.265007510812211 -5.1874725505451238 0 -5.1874725505451238 5.0716505185100687 0 0 0 0 -65.34446671524239 -9.3533427397113122 0 -9.3533427397113122 -2.022446193195421 0 0 0 0 -82.926664350870851 -46.145105945908654 0 -46.145105945908654 -3.5386226732625801 0 0 0 0 -173.76728422873384 14.162593782440581 0 14.162593782440581 20.856720745734492 0 0 0 0 -18.480672222769478 -9.0599899490003821 0 -9.0599899490003821 -13.839922746807041 0 0 0 0 -72.575456890575879 -7.2994520660440685 0 -7.2994520660440685 39.899524070463485 0 0 0 0 51.889514999205858 -85.816394941631188 0 -85.816394941631188 -54.055254993874769 0 0 0 0 -83.493052540703502 -268.20250953947925 0 -268.20250953947925 -203.82221030878827 0 0 0 0 -117.97324060255778 -170.23783905398795 0 -170.23783905398795 117.64041506967396 0 0 0 0 -70.336877121655561 -18.42258147856046 0 -18.42258147856046 51.587935179762098 0 0 0 0 -85.12952036736533 -37.815821166392197 0 -37.815821166392197 31.580485034548474 0 0 0 0 -87.167882080906566 -58.355552342081864 0 -58.355552342081864 40.987671172011687 0 0 0 0 -97.225708182355447 -73.765960712315746 0 -73.765960712315746 101.87585864696484 0 0 0 0 -93.967689253033313 -71.07796507549574 0 -71.07796507549574 101.15385848340929 0 0 0 0 -181.15875389368011 -45.004483707664804 0 -45.004483707664804 135.37966173645145 0 0 0 0 -139.87798003260832 -50.898859632580752 0 -50.898859632580752 40.107730025586534 0 0 0 0 -38.141194342036087 -32.17543509986271 0 -32.17543509986271 -20.612824510952237 0 0 0 0 -13.127768207645449 -4.2911868920497191 0 -4.2911868920497191 6.2730371185300395 0 0 0 0 -33.17875163442568 -43.550203336827735 0 -43.550203336827735 -19.276302746009605 0 0 0 0 -75.767587820361769 -75.882392666812393 0 -75.882392666812393 7.1539205052735326 0 0 0 0 40.190573350283103 -55.437076908904572 0 -55.437076908904572 -12.677378939960406 0 0 0 0 -84.028069607367797 14.192645964469691 0 14.192645964469691 -26.759819741840204 0 0 0 0 -52.552472082396889 -49.534213545992998 0 -49.534213545992998 15.732628549714406 0 0 0 0 -110.0071980366738 -37.727867327739943 0 -37.727867327739943 52.065849645892229 0 0 0 0 253.64504197358156 -165.98909442782724 0 -165.98909442782724 92.347329629627751 0 0 0 0 -145.37914558330817 -180.40215395746361 0 -180.40215395746361 328.39213958614749 0 0 0 0 -0.1801201759874379 1.2619971996718009 0 1.2619971996718009 1.971526101283944 0 0 0 0 -58.133960244604168 -46.626387210033727 0 -46.626387210033727 95.926568858826386 0 0 0 0 -227.10796792135636 39.339094572268721 0 39.339094572268721 172.19508985320203 0 0 0 0 -56.333080579768648 0.90826303068286052 0 0.90826303068286052 -1.1469390522609046 0 0 0 0 -163.76066624611485 -86.699150011726232 0 -86.699150011726232 391.95996462958078 0 0 0 0 -40.393477585995484 -26.185432242609803 0 -26.185432242609803 -16.31820568142582 0 0 0 0 -43.991357549481108 -36.424009436043434 0 -36.424009436043434 -4.9764690356696519 0 0 0 0 -33.050504256703789 -136.446396336416 0 -136.446396336416 289.5804592322113 0 0 0 0 75.116010690622261 -101.18146919779741 0 -101.18146919779741 19.710985007568354 0 0 0 0 -5.371707155034315 -10.529929154574287 0 -10.529929154574287 -2.1114356187695167 0 0 0 0 -47.292106991862966 -30.282226382926638 0 -30.282226382926638 -5.6626247485155545 0 0 0 0 -40.12090645252465 -29.399665493340763 0 -29.399665493340763 -7.026201270711681 0 0 0 0 -44.031143371957597 -25.408333875010435 0 -25.408333875010435 -9.9489803548721287 0 0 0 0 -48.841972156281841 -34.826546269608279 0 -34.826546269608279 -17.279033587308394 0 0 0 0 -133.36597821768737 -88.051384426157483 0 -88.051384426157483 32.604341853248116 0 0 0 0 -49.900959279508243 -36.30066752123912 0 -36.30066752123912 -4.3118856743753895 0 0 0 0 -29.256350917426971 -35.34662183376895 0 -35.34662183376895 -26.619969178434985 0 0 0 0 -39.967190283113865 -35.328458630077193 0 -35.328458630077193 -18.586057206579923 0 0 0 0 -42.50674984539728 -29.938581851340587 0 -29.938581851340587 -23.535655686006521 0 0 0 0 38.007321577340917 -108.83435166906293 0 -108.83435166906293 -135.80660300686213 0 0 0 0 37.183411189158051 -120.95945683028185 0 -120.95945683028185 -7.327103822846766 0 0 0 0 -220.40361694884632 79.813870393290927 0 79.813870393290927 -60.782661270321114 0 0 0 0 -749.33473683918419 -48.484624038787842 0 -48.484624038787842 119.81093144789702 0 0 0 0 1.8762754743619183 -0.24963242450365897 0 -0.24963242450365897 -6.7878120423446973 0 0 0 0 -74.338965124035894 -31.404239729206893 0 -31.404239729206893 -56.41921501771867 0 0 0 0 -487.09267439599716 -456.84301348510508 0 -456.84301348510508 -38.015213763072097 0 0 0 0 110.82825177945779 82.567486756509425 0 82.567486756509425 -175.72279695152247 0 0 0 0 623.04468304597685 -793.92980361368609 0 -793.92980361368609 -351.53628672315244 0 0 0 0 6.547555707098482 -15.522630121683044 0 -15.522630121683044 0.26452448445323284 0 0 0 0 28.993501592289249 44.43768333272601 0 44.43768333272601 6.0692395515452517 0 0 0 0 25.589116495808412 -46.127699442071389 0 -46.127699442071389 165.16941801962594 0 0 0 0 -15.277726494561648 -2.5559535189240705 0 -2.5559535189240705 120.18898768968211 0 0 0 0 -7.6144715205700777 -27.32186892601203 0 -27.32186892601203 -12.934379602607805 0 0 0 0 -44.496189740630143 55.05451928158891 0 55.05451928158891 6.6260897866959567 0 0 0 0 -119.63267670301138 -229.16375925556713 0 -229.16375925556713 5.0394171379011823 0 0 0 0 -7.8040227223113376 -26.235902904259483 0 -26.235902904259483 -28.356080708793314 0 0 0 0 -7.6144715205809916 -27.321868926042953 0 -27.321868926042953 -12.934379602625995 0 0 0 0 -20.909152491764189 -25.580769251045393 0 -25.580769251045393 -13.089893348347029 0 0 0 0 -7.6144715205591638 -27.321868926034767 0 -27.321868926034767 -12.934379602622357 0 0 0 0 -46.189390871417345 -39.861650633753015 0 -39.861650633753015 -18.395793707248231 0 0 0 0 -35.311967302423 -39.691502736604889 0 -39.691502736604889 -22.504018739580715 0 0 0 0 -41.674327160795656 -43.911100166189499 0 -43.911100166189499 -24.75080023064038 0 0 0 0 -42.444696637179732 -37.191647578235461 0 -37.191647578235461 -17.302838492307274 0 0 0 0 -17.856237099352484 -24.031233188833081 0 -24.031233188833081 72.387045605270146 0 0 0 0 -15.64664890259246 -47.862163192429648 0 -47.862163192429648 -5.2450484079826936 0 0 0 0 -14.068852548934956 -69.867081748089447 0 -69.867081748089447 9.6849915408714295 0 0 0 0 -15.220761804690508 -16.421936973809487 0 -16.421936973809487 -9.1333750202293267 0 0 0 0 -17.838142240117257 -21.780571188455422 0 -21.780571188455422 -11.196948836321452 0 0 0 0 8.3516836738381244 -33.810950172412049 0 -33.810950172412049 -30.204127321263513 0 0 0 0 -8.5557827358041152 -17.430764216983025 0 -17.430764216983025 -11.089939625092097 0 0 0 0 -15.743125087611929 -20.029991212673508 0 -20.029991212673508 -4.5637451790962587 0 0 0 0 -4.1223035866810509 -5.8363973015334487 0 -5.8363973015334487 -0.88995953724773558 0 0 0 0 45.859279808601059 4.7749846967117264 0 4.7749846967117264 -14.410041448195443 0 0 0 0 -10.73685037927644 -21.606157815461401 0 -21.606157815461401 -18.983251404727255 0 0 0 0 -11.645541911239434 -23.273459478299898 0 -23.273459478299898 -7.469992496924533 0 0 0 0 18.909885129858594 -22.868339258119704 0 -22.868339258119704 -21.641094891464491 0 0 0 0 8.0083460684327292 -0.33628851557523376 0 -0.33628851557523376 19.158277296046435 0 0 0 0 22.798601932458951 25.701287485836929 0 25.701287485836929 -9.4592315373065503 0 0 0 0 13.498574402061422 29.894432968534829 0 29.894432968534829 -10.509960997906546 0 0 0 0 6.7624648120108759 9.5106243104992245 0 9.5106243104992245 17.013474520230602 0 0 0 0 -10.9505131867827 25.910144619197354 0 25.910144619197354 5.9522745142658096 0 0 0 0 57.533925869454833 80.512697656815931 0 80.512697656815931 -156.52020364498003 0 0 0 0 -14.539290524488806 -38.013622688047576 0 -38.013622688047576 -40.474706959987209 0 0 0 0 208.46310397842171 -36.482769086648091 0 -36.482769086648091 -184.38997467877584 0 0 0 0 106.85943679355478 -26.473369608358553 0 -26.473369608358553 -6.4058205173459726 0 0 0 0 24.412838748568902 -279.12797634356019 0 -279.12797634356019 -157.24985302765884 0 0 0 0 22.628107706945229 57.079580156328433 0 57.079580156328433 82.124755174730353 0 0 0 0 -118.42183231255149 -120.64314594752429 0 -120.64314594752429 -90.983835097606232 0 0 0 0 92.826598712796113 -240.04962759204227 0 -240.04962759204227 125.39295654171747 0 0 0 0 548.55246869150869 -306.64519455969912 0 -306.64519455969912 130.69747785159097 0 0 0 0 129.02359223166877 54.540119964653286 0 54.540119964653286 -106.02420381117918 0 0 0 0 53.904720604699833 -286.83940295707725 0 -286.83940295707725 52.147574583657843 0 0 0 0 16.507760631000565 -234.59302355265936 0 -234.59302355265936 148.3979701992339 0 0 0 0 12.065889570724643 0.40231706717143823 0 0.40231706717143823 -8.2363788241743237 0 0 0 0 65.975599476718344 -154.68145398675915 0 -154.68145398675915 -114.44343440546618 0 0 0 0 59.845522360468749 -183.78862503718847 0 -183.78862503718847 166.31329471010031 0 0 0 0 54.666920073432266 -122.86040735097049 0 -122.86040735097049 74.843432440832657 0 0 0 0 54.154147868232485 -132.51169582295108 0 -132.51169582295108 270.82128350987477 0 0 0 0 75.9362113908428 -70.99466350874718 0 -70.99466350874718 157.08408942664482 0 0 0 0 5.8584164339990821 -237.75490379069743 0 -237.75490379069743 262.92545888377913 0 0 0 0 38.307731564163987 -277.16454281631559 0 -277.16454281631559 309.25770106634809 0 0 0 0 59.107206838340062 -272.39072081864197 0 -272.39072081864197 120.34098823480599 0 0 0 0 27.652458365875646 -267.53573389488884 0 -267.53573389488884 175.16385364070197 0 0 0 0 -189.20215713604557 176.22036204283177 0 176.22036204283177 976.44842534091003 0 0 0 0 -616.00092132184363 -65.366259848367918 0 -65.366259848367918 -270.57642850598427 0 0 0 0 176.43362644526132 102.76556775499921 0 102.76556775499921 457.49664989563826 0 0 0 0 -109.86183340886782 -161.01578661133681 0 -161.01578661133681 555.28314065571431 0 0 0 0 10.319420769439603 -205.12826544665222 0 -205.12826544665222 370.56682782798453 0 0 0 0 -85.708501984270697 -182.80231453137731 0 -182.80231453137731 498.24740627009851 0 0 0 0 -213.19398261223978 -226.0435944372075 0 -226.0435944372075 535.85108038335238 0 0 0 0 -155.67794012853483 -388.72530394512137 0 -388.72530394512137 372.46359333202417 0 0 0 0 -234.91897955129389 -301.28676457716574 0 -301.28676457716574 417.23867809011426 0 0 0 0 176.0425707845352 -352.35625188438644 0 -352.35625188438644 171.35900032305818 0 0 0 0 72.696608940779697 -449.94677809982568 0 -449.94677809982568 315.10466980801903 0 0 0 0 -42.450210395691101 -364.98857772678457 0 -364.98857772678457 256.73893547285479 0 0 0 0 -39.626547260369989 -316.46611935279543 0 -316.46611935279543 410.11003866026294 0 0 0 0 -80.072951459093019 -397.72489679269984 0 -397.72489679269984 361.45072827279637 0 0 0 0 -115.19176355546369 -472.69917753190111 0 -472.69917753190111 332.19803319882612 0 0 0 0 -277.47793614098191 -310.06045183841798 0 -310.06045183841798 284.34169054916538 0 0 0 0 110.16598377218907 -593.99179139299849 0 -593.99179139299849 313.67207923847309 0 0 0 0 -87.754631669276932 -690.99700544012717 0 -690.99700544012717 348.82471606213312 0 0 0 0 -460.47448667848948 -166.18481759848237 0 -166.18481759848237 380.952928205028 0 0 0 0 -324.58919709749171 -446.3888730057688 0 -446.3888730057688 394.41489332113997 0 0 0 0 -565.7333818959487 -125.14774138501116 0 -125.14774138501116 116.17234218321028 0 0 0 0 -712.57358621340973 -371.58926776551971 0 -371.58926776551971 310.12538152629736 0 0 0 0 450.98184532248706 -487.66448895943086 0 -487.66448895943086 407.16589738711218 0 0 0 0 -755.4131504226134 -222.23936656947717 0 -222.23936656947717 -86.073850607181157 0 0 0 0 2.0612744451289444 1.3823236380941069 0 1.3823236380941069 -2.3866273176606505 0 0 0 0 454.63125902153115 -317.26423690842057 0 -317.26423690842057 491.14721122802541 0 0 0 0 414.4439924475264 -419.18198570695017 0 -419.18198570695017 306.24431854540535 0 0 0 0 694.6920712387182 -575.33868816602194 0 -575.33868816602194 403.41325898141531 0 0 0 0 533.30303563566849 -652.1660876789274 0 -652.1660876789274 488.05064623772523 0 0 0 0 -21.227163131127412 -37.63458298559253 0 -37.63458298559253 -39.740917395565937 0 0 0 0 -125.80406564944406 -102.14121919047557 0 -102.14121919047557 158.06672839884232 0 0 0 0 -6.9278853314549629 -1.4468232380681627 0 -1.4468232380681627 5.3174384193497914 0 0 0 0 367.29161904325883 -581.80011838741666 0 -581.80011838741666 561.3858993110091 0 0 0 0 891.67790994178949 -548.0984996894515 0 -548.0984996894515 170.36368884477997 0 0 0 0 309.12812497239065 -423.03422849474919 0 -423.03422849474919 349.85387415039986 0 0 0 0 -41.887668370545725 118.40078304639883 0 118.40078304639883 159.86138731564643 0 0 0 0 -166.14584989954619 103.67616131843454 0 103.67616131843454 286.60887826386534 0 0 0 0 -94.34233338273043 -38.293037639781687 0 -38.293037639781687 92.427824856194093 0 0 0 0 -154.5870908312645 41.991737074366029 0 41.991737074366029 344.82486248469286 0 0 0 0 -88.92026603860586 42.626803998514333 0 42.626803998514333 303.61500991286084 0 0 0 0 0.17045448019052856 358.25582576116994 0 358.25582576116994 616.53091565676186 0 0 0 0 -810.82717838964163 198.78088563060919 0 198.78088563060919 503.73682973734617 0 0 0 0 -219.37018021656695 109.98167327036845 0 109.98167327036845 498.37696851813416 0 0 0 0 -135.07710546754788 -72.961101093360867 0 -72.961101093360867 403.83197083865889 0 0 0 0 -139.9298882931871 84.186846939753423 0 84.186846939753423 458.53177629962011 0 0 0 0 -339.45223413083295 -96.517562734132298 0 -96.517562734132298 979.14899132227811 0 0 0 0 0.68149950282747795 -3.0445223981268064 0 -3.0445223981268064 4.395871539830857 0 0 0 0 -346.51625526645512 -68.465740403986274 0 -68.465740403986274 519.11851825949998 0 0 0 0 -285.73755256188451 -287.4155077350797 0 -287.4155077350797 670.09909950190377 0 0 0 0 -561.81334741151659 -247.72223004692023 0 -247.72223004692023 371.99313650101885 0 0 0 0 -343.2627454528083 -141.16786591029904 0 -141.16786591029904 190.00035138476778 0 0 0 0 -773.68557132665228 -53.420277326592441 0 -53.420277326592441 275.49348168346296 0 0 0 0 -749.18029518685216 90.885107943425965 0 90.885107943425965 69.777852317333895 0 0 0 0 -663.89495273381544 -38.446021344913106 0 -38.446021344913106 -46.335011240463245 0 0 0 0 -1188.0734335945308 -121.14694140885604 0 -121.14694140885604 390.89508940037467 0 0 0 0 -2.1054292637957488 4.5532694191262379 0 4.5532694191262379 3.3993892154479859 0 0 0 0 177.6867072656969 228.79934418670769 0 228.79934418670769 85.969003612923643 0 0 0 0 460.75008990761125 479.60315187373135 0 479.60315187373135 198.63954290352967 0 0 0 0 -274.12634529233037 207.09914443231685 0 207.09914443231685 111.22115666520855 0 0 0 0 -3.429719859518638 7.3516905252172364 0 7.3516905252172364 6.0228172864552807 0 0 0 0 -71.327095318345528 181.9254131910709 0 181.9254131910709 33.169039019613137 0 0 0 0 -22.593387098757375 332.76951809296065 0 332.76951809296065 289.42515163892517 0 0 0 0 -251.40022926268284 283.1518912778356 0 283.1518912778356 132.08087495325071 0 0 0 0 39.783411759075534 245.60740908684505 0 245.60740908684505 135.14590768896866 0 0 0 0 17.71550412833767 346.28111575006824 0 346.28111575006824 17.051309577155507 0 0 0 0 -892.80230065186333 -50.223829232586127 0 -50.223829232586127 284.06958006746027 0 0 0 0 -3.1494386224518287 6.1570185186282345 0 6.1570185186282345 4.6486020052265982 0 0 0 0 -85.345744644633669 130.0534770005105 0 130.0534770005105 -139.059878502125 0 0 0 0 -654.55108700454093 158.0047901933325 0 158.0047901933325 13.744901715436299 0 0 0 0 -553.91131251808838 -67.926182861476263 0 -67.926182861476263 65.647117575854736 0 0 0 0 -996.96215829593348 259.39371469688467 0 259.39371469688467 2.096739550683111 0 0 0 0 -983.89280726350262 -240.6692988382199 0 -240.6692988382199 -113.45392115954493 0 0 0 0 -686.50475771398487 156.72648824137846 0 156.72648824137846 -250.07454915756054 0 0 0 0 -1447.1008790081069 -83.191953214713067 0 -83.191953214713067 275.32340538156996 0 0 0 0 -1178.2967969617312 127.90315286590845 0 127.90315286590845 243.69464285319259 0 0 0 0 -889.33469368222359 187.36319751807605 0 187.36319751807605 -223.16808019413247 0 0 0 0 -624.86737182332217 -126.34664005480499 0 -126.34664005480499 86.423276357704935 0 0 0 0 -576.42642582105691 141.93891036567487 0 141.93891036567487 144.8665366040957 0 0 0 0 114.96668720434172 243.81634386840665 0 243.81634386840665 -214.18911008330269 0 0 0 0 -1.7234449504862788 2.6474536020547816 0 2.6474536020547816 1.7848329117355544 0 0 0 0 -133.05554205485714 169.37638346966349 0 169.37638346966349 -352.91789845403991 0 0 0 0 -480.82016633929743 304.44269434757121 0 304.44269434757121 -99.453620459679087 0 0 0 0 -1094.7225802209232 -306.63911159251995 0 -306.63911159251995 -7.7601036946425666 0 0 0 0 -3.5314077120522072 -0.90331907145108659 0 -0.90331907145108659 -1.5559060033061081 0 0 0 0 35.067583100784759 -119.04595402946234 0 -119.04595402946234 268.21408656432232 0 0 0 0 233.73564060844365 -304.62060989013708 0 -304.62060989013708 223.36837309223017 0 0 0 0 313.89599186568375 -166.02006813197204 0 -166.02006813197204 112.56894237787469 0 0 0 0 61.394778579269769 -292.91398762049909 0 -292.91398762049909 464.75617095627945 0 0 0 0 -14.358041257914948 -16.537798560707522 0 -16.537798560707522 -5.359561616817385 0 0 0 0 455.51901775814622 -517.76865432475006 0 -517.76865432475006 427.38058536190925 0 0 0 0 258.52000142676479 -254.15646655232945 0 -254.15646655232945 298.15934143498794 0 0 0 0 390.09149331433582 -465.84851157081243 0 -465.84851157081243 386.82384428945056 0 0 0 0 484.23525722099839 -454.16517397035022 0 -454.16517397035022 348.06945502774397 0 0 0 0 353.50959984414158 -189.89502725750151 0 -189.89502725750151 149.08284986085755 0 0 0 0 -170.54099982310436 12.563973388107627 0 12.563973388107627 1.4692779865326884 0 0 0 0 -1254.6268081441394 -231.38204043665905 0 -231.38204043665905 158.69816588627691 0 0 0 0 -561.96191210010511 -606.05493293143434 0 -606.05493293143434 -379.37705715687019 0 0 0 0 -6.138855053397549 -4.2452438537257944 0 -4.2452438537257944 -1.5419197562220974 0 0 0 0 -1191.5286853323269 402.18122596302976 0 402.18122596302976 536.63135678973003 0 0 0 0 -13.732766689636293 -9.7840778032366771 0 -9.7840778032366771 -1.8327205966464297 0 0 0 0 -103.83520154031066 -41.677420421964939 0 -41.677420421964939 -3.1489507805488302 0 0 0 0 -370.19157135402929 -349.65413672910108 0 -349.65413672910108 586.98714905498935 0 0 0 0 -1045.6858399502162 -62.663722986554376 0 -62.663722986554376 3.5173475791676765 0 0 0 0 -190.30925623764506 182.0520551499738 0 182.0520551499738 41.779701642954706 0 0 0 0 -947.267802765331 125.99665293588464 0 125.99665293588464 -239.03799346985375 0 0 0 0 -563.25643376991138 -582.44204364289726 0 -582.44204364289726 -945.58230640021702 0 0 0 0 1170.3540926382739 -400.6920541476984 0 -400.6920541476984 -1667.8489216569897 0 0 0 0 3.0815834636193316 2.0646611875677578 0 2.0646611875677578 -5.1506024041133536 0 0 0 0 -441.61979327441077 -85.067821675133246 0 -85.067821675133246 88.361351030117703 0 0 0 0 -39.112464132935202 -3.9635399028896643 0 -3.9635399028896643 59.912425569270113 0 0 0 0 349.41294410310002 -523.87726748361592 0 -523.87726748361592 116.77637468551234 0 0 0 0 -4.0418328352844384 0.56523239371612277 0 0.56523239371612277 1.5367852494081138 0 0 0 0 -174.65787960279158 -816.65596343285267 0 -816.65596343285267 -1500.7047206400475 0 0 0 0 -615.65926279471023 107.1516228041969 0 107.1516228041969 176.41592266688349 0 0 0 0 -1152.8290136389405 -1018.9766688191612 0 -1018.9766688191612 -929.40353023715306 0 0 0 0 -1207.5024915993909 -1403.7785422001778 0 -1403.7785422001778 -1106.3819480108396 0 0 0 0 -1101.5932439079552 -684.97313869539357 0 -684.97313869539357 -2203.4534754828746 0 0 0 0 -804.2189242898894 -1556.7296038658583 0 -1556.7296038658583 -1544.2110413819391 0 0 0 0 -44.034866123110987 261.15816431114354 0 261.15816431114354 449.93542419583321 0 0 0 0 -76.134739839181421 11.729024127569879 0 11.729024127569879 8.2533446186704396 0 0 0 0 -75.358698632033338 62.632610741933036 0 62.632610741933036 281.7416637049555 0 0 0 0 66.744315428339178 280.72058059136089 0 280.72058059136089 253.04056442856756 0 0 0 0 -230.42884534456243 69.899040000680088 0 69.899040000680088 170.74342674785476 0 0 0 0 168.94131098945036 -6.4427629606161645 0 -6.4427629606161645 118.56799863729066 0 0 0 0 -240.57885122933658 -38.654052026071895 0 -38.654052026071895 254.03493697662134 0 0 0 0 -423.09336634043393 -293.14032905239662 0 -293.14032905239662 -940.94169370627696 0 0 0 0 -586.00041852291679 -1619.8304131273176 0 -1619.8304131273176 -1767.9421840226642 0 0 0 0 -2580.2139845695528 -507.85429893308151 0 -507.85429893308151 -223.32135415360517 0 0 0 0 281.99441858302816 -674.86344233019418 0 -674.86344233019418 942.87297819953051 0 0 0 0 -652.79808557026263 -1406.0760047623335 0 -1406.0760047623335 -1556.7759921130305 0 0 0 0 -3.9165332489604197 -10.477683607432388 0 -10.477683607432388 -5.1336868739150425 0 0 0 0 -339.73544043196307 -1334.7634780182398 0 -1334.7634780182398 -2218.3400359541042 0 0 0 0 -382.82680989411529 -1150.4422033660771 0 -1150.4422033660771 -1933.9273624390262 0 0 0 0 1132.0165518555987 -1184.4907786177375 0 -1184.4907786177375 410.87566682092734 0 0 0 0 -7.8060953362965932 -8.8099260485565516 0 -8.8099260485565516 -8.8488865771620517 0 0 0 0 -871.72256223045588 -1756.3663448755824 0 -1756.3663448755824 247.75258993623652 0 0 0 0 -3246.0189440529239 580.36903233992859 0 580.36903233992859 69.603069091452639 0 0 0 0 -1329.7849509611442 146.34703353228184 0 146.34703353228184 20.362302856276926 0 0 0 0 688.27048022045165 -402.93908160720343 0 -402.93908160720343 429.7397058672309 0 0 0 0 499.41523914385994 -578.3295195916586 0 -578.3295195916586 546.01428364178491 0 0 0 0 -967.21052062229865 113.59406581844745 0 113.59406581844745 -3.2398788802394733 0 0 0 0 -275.95898321439199 -134.0419513730767 0 -134.0419513730767 -236.98464427533565 0 0 0 0 -540.63422166642886 329.54005764922965 0 329.54005764922965 104.12684839996109 0 0 0 0 -798.02472326298812 -315.96118931051751 0 -315.96118931051751 -281.17988352963488 0 0 0 0 -1220.9074519568912 -477.71991676262547 0 -477.71991676262547 -192.96418808640891 0 0 0 0 -1398.8138955437116 -231.93688174918407 0 -231.93688174918407 -85.561799811902887 0 0 0 0 -1027.5709270265097 -679.09800919350732 0 -679.09800919350732 -206.92861839259922 0 0 0 0 -354.8826525310742 -109.94115746318113 0 -109.94115746318113 -137.29772832228241 0 0 0 0 -2573.5740612383183 -1186.4745474435194 0 -1186.4745474435194 183.00920554163463 0 0 0 0 -1201.3448712581994 -846.23712869932297 0 -846.23712869932297 -1195.8514248755951 0 0 0 0 -295.50231759399685 -1162.076793274347 0 -1162.076793274347 -207.41461585685693 0 0 0 0 -1271.007891681933 -1106.0710186915558 0 -1106.0710186915558 112.07774938584726 0 0 0 0 651.93294644603156 -193.90849244469837 0 -193.90849244469837 -463.86202763569418 0 0 0 0 -153.29073721706982 305.08940330111608 0 305.08940330111608 1156.1798020642036 0 0 0 0 54.027278484336193 779.96499649799694 0 779.96499649799694 275.44952293715505 0 0 0 0 -106.92466954235768 23.28067312776955 0 23.28067312776955 4.996591031435079 0 0 0 0 -1006.6592219561353 79.139680848133821 0 79.139680848133821 379.74081776462401 0 0 0 0 -231.18651406999561 -150.2643982383388 0 -150.2643982383388 -117.76549013931856 0 0 0 0 -41.03683512182198 2.9685246580894002 0 2.9685246580894002 -4.6127137922002328 0 0 0 0 -436.08343825134943 -172.83851060486313 0 -172.83851060486313 73.866814090531989 0 0 0 0 -213.59992118603259 -128.27369813990231 0 -128.27369813990231 -74.953840963135008 0 0 0 0 -229.57263707011225 -157.71372935215823 0 -157.71372935215823 -107.12116087193681 0 0 0 0 4.0360207024867112 -32.351159345371329 0 -32.351159345371329 -14.74200720568677 0 0 0 0 -225.02122159507417 -164.64016908380745 0 -164.64016908380745 -123.22214271267876 0 0 0 0 -239.61843474411216 -151.53533873789274 0 -151.53533873789274 -73.666157129253406 0 0 0 0 -100.21297379802024 21.109905741106015 0 21.109905741106015 7.1677875393460901 0 0 0 0 -397.23008470460263 161.83948305076294 0 161.83948305076294 155.82212595883266 0 0 0 0 -376.5657715612324 114.34867397666812 0 114.34867397666812 247.98009314657384 0 0 0 0 -1558.1735923492233 -13.605076261083923 0 -13.605076261083923 -20.932910544196147 0 0 0 0 -332.18758662806067 121.56089214530039 0 121.56089214530039 24.725601423401258 0 0 0 0 -218.72616369547131 -120.94344431671327 0 -120.94344431671327 -100.91990083557903 0 0 0 0 -257.43096824830718 -126.93079395591303 0 -126.93079395591303 -15.057185741610738 0 0 0 0 -330.04523651599084 -111.22909118517691 0 -111.22909118517691 -18.401845995281292 0 0 0 0 -293.79631624114336 -204.63539012983165 0 -204.63539012983165 75.090135939055017 0 0 0 0 -322.5693779190583 -160.15244128265306 0 -160.15244128265306 15.479469650215833 0 0 0 0 -299.56958963876605 -195.79366136185217 0 -195.79366136185217 16.22849275022152 0 0 0 0 -211.90566201190086 -126.95146094070674 0 -126.95146094070674 2.7987740482076333 0 0 0 0 -335.05908683590224 -29.423940959160063 0 -29.423940959160063 123.12384080800075 0 0 0 0 -486.77293273427858 -227.88686450492241 0 -227.88686450492241 -31.489281015899905 0 0 0 0 -342.10967120946952 -132.85618205195988 0 -132.85618205195988 30.465351370229655 0 0 0 0 -343.10637384613074 -267.50588766052851 0 -267.50588766052851 -167.50949222880172 0 0 0 0 -290.65307997519449 -196.14301687555508 0 -196.14301687555508 -77.233103228296386 0 0 0 0 -257.97144971291709 -198.11167613281486 0 -198.11167613281486 -142.69739532686626 0 0 0 0 -245.05366732199036 -171.79891614868666 0 -171.79891614868666 -92.196266886208832 0 0 0 0 -307.14857230837515 -172.53965525504782 0 -172.53965525504782 -55.078385159742538 0 0 0 0 -289.60532481958671 -217.75691330841209 0 -217.75691330841209 -75.778461314785091 0 0 0 0 -306.15898036415427 111.46248215303677 0 111.46248215303677 88.560252854342252 0 0 0 0 -203.63679035938912 44.93110345356763 0 44.93110345356763 128.36063525474583 0 0 0 0 -292.2313166142485 -61.344844977355024 0 -61.344844977355024 32.278916811090312 0 0 0 0 -468.15268319862844 -14.791446381785136 0 -14.791446381785136 27.531638949966236 0 0 0 0 -221.89094115647822 120.44437469819741 0 120.44437469819741 15.440746927356486 0 0 0 0 -258.43204739966677 11.043790557876491 0 11.043790557876491 6.6485777784853326 0 0 0 0 -217.13226993575154 34.974257486575311 0 34.974257486575311 -134.22653511190424 0 0 0 0 -444.63084013112348 128.24044780146664 0 128.24044780146664 -60.674210001456686 0 0 0 0 -225.51041115616863 -2.0309857424799702 0 -2.0309857424799702 -235.36676159473791 0 0 0 0 -457.87622783283695 -85.70291365075559 0 -85.70291365075559 -75.14128008382977 0 0 0 0 -920.15635224225207 -4.322277544820281 0 -4.322277544820281 -64.263357830785935 0 0 0 0 -521.94449881269793 232.19260721596311 0 232.19260721596311 -392.29804142407147 0 0 0 0 -253.66157800967449 -196.02755273527805 0 -196.02755273527805 -201.34708679959476 0 0 0 0 -226.91791881106838 -152.2865304182103 0 -152.2865304182103 -141.23142437526275 0 0 0 0 -676.12335920016631 -482.14915827921527 0 -482.14915827921527 -380.25219676282268 0 0 0 0 838.87282634275925 386.06788032390858 0 386.06788032390858 -261.71958973253027 0 0 0 0 -12.398287539384384 5.1733514750063545 0 5.1733514750063545 -1.7108044603937964 0 0 0 0 -1242.7405838952486 -187.51270119758686 0 -187.51270119758686 -25.510524755167893 0 0 0 0 789.32186333884601 514.80176064732314 0 514.80176064732314 230.46637148048922 0 0 0 0 -3.007096967288188 3.4926351412495897 0 3.4926351412495897 -1.0324133455919515 0 0 0 0 -855.39929124944092 -246.40470124063717 0 -246.40470124063717 -25.593110268786674 0 0 0 0 -617.65131124479376 493.08620811687325 0 493.08620811687325 396.56674576907278 0 0 0 0 -6.5916744227593238 8.2349918742867256 0 8.2349918742867256 0.83693589890987763 0 0 0 0 444.44583096658152 561.53945636295919 0 561.53945636295919 205.97550224200975 0 0 0 0 -204.8662664228259 96.782355771445907 0 96.782355771445907 264.90520472010439 0 0 0 0 -539.4055279736458 -16.221543837405363 0 -16.221543837405363 -33.372486015080995 0 0 0 0 -842.52320055868859 -35.905712175359895 0 -35.905712175359895 70.750672818716396 0 0 0 0 -159.08893856568466 -240.29790539893466 0 -240.29790539893466 -108.54944145588644 0 0 0 0 -656.6281155922461 -287.61525025998816 0 -287.61525025998816 206.46384856819381 0 0 0 0 -145.96845572938491 -172.7511432201843 0 -172.7511432201843 -584.10056956485892 0 0 0 0 -129.88466098005301 4.8832833040033847 0 4.8832833040033847 199.0747883290409 0 0 0 0 -157.03971524555664 9.0727331650999758 0 9.0727331650999758 261.03618315308881 0 0 0 0 -66.732734200632876 -5.2526373149394203 0 -5.2526373149394203 259.03710138138149 0 0 0 0 358.40072661220483 -299.72859709473954 0 -299.72859709473954 229.49592654955327 0 0 0 0 -24.259212828995427 -12.544831981793033 0 -12.544831981793033 -4.3933156987058384 0 0 0 0 -18.641952233786128 -244.65294276634287 0 -244.65294276634287 227.42280969903291 0 0 0 0 -7.0235541100017267 -2.7637497499774732 0 -2.7637497499774732 1.7257353361328116 0 0 0 0 66.608515924475569 -86.889545627022727 0 -86.889545627022727 174.61245528623965 0 0 0 0 -297.58675054988117 -59.825837477104827 0 -59.825837477104827 234.43745348192112 0 0 0 0 -889.32967389192163 -39.294736015575438 0 -39.294736015575438 76.190605068450623 0 0 0 0 -446.30650930378624 -143.95803198761953 0 -143.95803198761953 -0.32070159590080038 0 0 0 0 15.514068231343117 112.28096732867175 0 112.28096732867175 251.54790376740345 0 0 0 0 -196.98222255912742 129.52039076567848 0 129.52039076567848 -70.100917563863163 0 0 0 0 -11.195507465719903 5.1944114703477204 0 5.1944114703477204 5.9054352561678822 0 0 0 0 -494.53622542420999 86.621979960721319 0 86.621979960721319 -7.8115695694971237 0 0 0 0 -5.9130129946244914 -2.3024789637303118 0 -2.3024789637303118 -0.59073856462211216 0 0 0 0 149.47375223671406 -15.616099255822519 0 -15.616099255822519 -240.22259761266758 0 0 0 0 -171.1637920261287 48.679084889920205 0 48.679084889920205 272.80069598846472 0 0 0 0 -563.15163608465809 -37.720367629530671 0 -37.720367629530671 48.143680713946651 0 0 0 0 -938.67278351979894 147.29948307708031 0 147.29948307708031 443.29685678833499 0 0 0 0 -1253.3436675061514 -421.99739249502596 0 -421.99739249502596 -554.04255896415327 0 0 0 0 -1377.6114776166851 -231.21754090516413 0 -231.21754090516413 137.42339149427278 0 0 0 0 -1176.9377360425724 14.46642770434309 0 14.46642770434309 51.31765836736561 0 0 0 0 -1223.2966527761564 -198.89524150821785 0 -198.89524150821785 -0.065039022750511322 0 0 0 0 -917.76364593075414 40.944979266507346 0 40.944979266507346 18.607007507699677 0 0 0 0 -1245.2901053401247 -147.49311158113446 0 -147.49311158113446 -77.158193478409032 0 0 0 0 -1245.0256686160603 -216.21589160717602 0 -216.21589160717602 -685.4555192744358 0 0 0 0 -6.025667299141908 -4.0533728827246041 0 -4.0533728827246041 -3.6358647661103074 0 0 0 0 -135.92863199883141 -329.02834534604125 0 -329.02834534604125 -569.45203297028684 0 0 0 0 -1619.5389183848774 -443.28782496182743 0 -443.28782496182743 -317.7682439857241 0 0 0 0 -39.293798124863542 76.261558884340701 0 76.261558884340701 -166.22726450534401 0 0 0 0 -71.38380902292738 49.762406446067189 0 49.762406446067189 25.972338651993823 0 0 0 0 -103.52311789331907 -259.00753160074254 0 -259.00753160074254 -378.44573784576681 0 0 0 0 -574.40896929565497 -144.74543152776317 0 -144.74543152776317 -70.6296184424682 0 0 0 0 -430.24726940016262 -264.89365682784347 0 -264.89365682784347 -92.271328111430932 0 0 0 0 -1611.7170520042018 -76.718865082176805 0 -76.718865082176805 89.119368030906941 0 0 0 0 -1261.4626165825221 -240.01478220397831 0 -240.01478220397831 139.78112385545961 0 0 0 0 -786.109606342201 -690.05473765382715 0 -690.05473765382715 -282.12255369789096 0 0 0 0 -971.48934250722152 -119.43545528439356 0 -119.43545528439356 142.30843146592233 0 0 0 0 -5.5309348507234972 -13.143062594798423 0 -13.143062594798423 -169.15607882048315 0 0 0 0 -524.93047407418635 128.63763223551479 0 128.63763223551479 105.01953493221407 0 0 0 0 -971.78972016663033 -109.74456591525353 0 -109.74456591525353 178.79561597284507 0 0 0 0 -910.95457616017279 -27.142651063938011 0 -27.142651063938011 95.534266309362636 0 0 0 0 516.65190285597055 -625.20559404524647 0 -625.20559404524647 494.54815620837144 0 0 0 0 -23.034440072799612 -26.038274584885002 0 -26.038274584885002 -22.159194020365554 0 0 0 0 -899.66577709697799 -67.872955580487897 0 -67.872955580487897 -6.2129231483276328 0 0 0 0 -1307.2683429307526 -148.20963584103498 0 -148.20963584103498 178.78328967829239 0 0 0 0 -1609.4852162090847 -283.12179886980704 0 -283.12179886980704 155.02725396520967 0 0 0 0 -1148.0540340034765 -284.93768416205381 0 -284.93768416205381 -63.234994945027267 0 0 0 0 -1282.5611363584467 -172.88492491355686 0 -172.88492491355686 171.45610935568982 0 0 0 0 -1117.0481173830176 -220.61026811723903 0 -220.61026811723903 -29.3859563348352 0 0 0 0 -1034.8710974940968 -90.653999987175325 0 -90.653999987175325 48.149040071230502 0 0 0 0 -926.58335773807585 -179.42850316809302 0 -179.42850316809302 62.638824741711971 0 0 0 0 -1355.88329860567 -136.09646649844035 0 -136.09646649844035 198.73005475877002 0 0 0 0 -1298.3430420178856 -185.58503469257005 0 -185.58503469257005 188.78601411678105 0 0 0 0 
</DataArray>
<DataArray type="Float64" Name="cross_section_updated" format="ascii">
1 1 1 0.0080262304289697058 1 1 1 1 1 1 1 1 0.0067898063441721446 1 1 0.0099334720485310182 1 1 0.0050782697945407004 0.010087245294664347 1 1 0.0099083141823885241 1 1 1 0.010417689286938751 1 1 1 1 1 1 1 1 0.010002355865468023 1 1 1 1 1 1 1 0.010003607578850418 1 1 1 1 0.010012829205336159 1 1 1 1 1 1 1 1 1 1 1 1 0.0099981783581875872 1 1 1 1 0.0067910050862448473 0.0099954136839871324 1 1 0.0086138944788507199 0.0074235643894095711 1 1 1 1 0.010009211169193915 1 1 1 0.0073754707142663564 1 1 1 1 0.0058718899123905155 0.0063260902556096787 1 1 1 1 1 0.0072500303983758507 0.0077131988182964489 1 1 1 1 0.0097032471160328065 1 1 1 1 1 1 1 1 0.009720083587409948 1 1 1 0.007295295845545894 1 1 1 1 1 1 1 1 1 1 0.0089908028192407438 1 0.0099952931307139489 1 0.0078104861757081548 1 1 1 1 1 1 0.009377311396621308 1 1 0.0097243430301991503 1 1 1 0.0097571425296493104 1 0.0087870396130304493 1 1 1 1 1 1 1 0.010047054927014709 1 1 1 1 1 1 1 1 0.0094067107243520007 1 1 1 1 1 1 1 0.010581624766146869 1 1 0.0101115817931451 1 1 1 1 1 1 1 1 1 1 1 1 1 1 1 1 1 1 1 1 1 1 1 1 1 1 1 1 0.0026110867146321758 0.005439974848080488 0.0081220871412475346 0.0042978392462405812 1 0.012110374978910911 1 1 0.0013631796885067958 1 1 0.0025559921939149362 1 1 0.0020491969635426481 1 1 1 0.011328926167248655 1 1 1 1 1 1 1 1 1 1 1 1 1 1 0.0099482562863032406 1 1 1 1 1 1 1 1 1 1 1 1 1 1 1 1 1 1 1 1 0.015347189088791813 1 1 1 1 1 0.010052300868140145 1 1 1 1 1 1 0.0098375806202911191 0.0066532732139010838 1 0.012903007695207179 0.012702703420382419 1 0.0080911613928532494 1 1 0.0057224809422549497 0.010070611408525722 1 1 0.011010299168202243 1 1 0.0075072900336177507 0.011361171587025751 1 1 1 1 1 1 0.0040389882100255493 0.0048576954128114434 1 0.0077000658250094035 0.0092883265859131751 1 0.0011611979282026511 1 1 1 1 0.001793233232919602 1 0.0098295505139899091 1 1 1 1 1 1 1 1 1 1 1 1 1 1 1 1 1 1 1 1 1 0.0011170044775481083 1 1 1 1 1 0.0095941409380051485 1 1 1 0.0047246942300803816 1 1 1 1 1 0.0042552342127145752 1 1 1 1 1 1 1 1 1 1 0.0054760864135795003 1 1 1 1 1 1 1 1 1 1 1 0.0087920762746644555 1 1 1 1 1 1 1 1 1 1 1 1 1 1 1 1 1 1 1 1 1 1 1 1 1 1 1 1 1 1 1 1 1 1 1 1 1 1 1 1 1 1 1 1 1 1 0.010115430160384655 1 0.01000867252897371 1 0.013085165596174553 1 1 1 1 1 1 1 1 1 1 1 1 1 1 1 1 1 1 1 1 1 1 1 1 1 1 1 0.0036255521810480973 1 1 1 0.0020301870415458355 1 1 1 0.010015562165145722 1 1 0.00086545109757225555 1 1 1 1 1 1 1 0.0082308663108818375 1 1 1 1 1 1 1 1 1 1 1 1 1 1 1 1 1 0.0056442105097069817 1 1 1 1 1 0.0094373868259890088 1 1 1 1 1 1 1 0.0046632358902967581 1 1 0.013126296499432579 1 1 0.0080996113984963865 1 1 1 1 1 1 1 1 1 1 1 1 0.010646162803957731 1 1 0.0088808394617244067 0.0093055637901624209 1 1 1 1 1 0.0080937888310783392 1 1 1 1 1 0.007188654066925205 1 1 1 0.0099946355709743633 1 1 0.0098800905505181998 1 1 0.0090259128535341814 1 1 1 1 1 1 0.013485517094414465 1 1 0.0032215840209411789 1 1 1 1 1 1 1 1 0.0099983898675180243 1 1 0.0099298302851205805 0.011092425789980459 1 1 1 1 1 1 1 1 1 1 1 1 1 1 1 1 1 1 1 1 0.0073435786882611424 1 1 1 1 1 1 1 1 0.0092091841158780038 1 1 1 1 1 1 1 1 1 1 0.0096049008607808628 1 1 1 1 1 1 1 1 1 1 1 1 1 1 1 1 1 1 1 1 1 1 1 0.0096141871140327517 1 1 1 1 1 1 1 1 0.010204754016870328 1 1 0.010693819013384637 1 1 1 1 1 1 1 1 1 1 1 1 1 1 1 1 1 1 1 0.0088254711868283649 1 1 1 1 0.01002771632613594 1 1 1 1 1 0.0098273243540673936 0.01001893758337255 1 1 1 1 1 1 1 0.010026745454407005 1 1 1 1 0.0075931365014235853 1 1 1 1 1 1 1 0.010441172355559353 0.0099993433372460583 0.0089742618280200439 0.0097060931861766078 1 0.0093025456193748975 1 0.0092835912545025795 0.009331142725973544 1 1 1 1 1 0.0070209130042691104 1 0.0077638392530922015 0.0080087299712796548 0.0080728550754991038 1 0.0092979384605451233 1 1 1 1 1 1 1 1 1 1 1 1 1 1 0.0085067092240950406 1 1 1 0.0096247508955389065 1 1 1 0.009359091636751098 1 1 1 1 1 1 1 1 1 1 1 1 1 0.0097287485474591463 1 1 1 1 1 1 1 1 1 1 1 1 1 1 1 1 1 1 1 1 1 1 1 1 1 1 1 1 1 1 1 0.0097281762059272005 1 1 1 0.010662720915216719 1 1 1 1 1 1 1 1 1 1 1 1 1 1 1 1 1 1 1 1 1 1 1 1 1 1 0.0088861585548161599 1 1 1 1 1 1 1 1 1 1 1 1 0.010118979527339625 1 1 0.0092616285246426636 1 1 1 1 0.0097415812023385739 1 1 0.0020059582269046777 1 1 1 0.011151089947836267 1 1 1 0.0093783939801782845 1 1 1 1 0.0044341570233836173 1 1 1 0.010407226542288896 0.0007952963408842384 1 1 0.0079659997365932149 1 1 1 1 1 1 1 0.0045068806170754927 0.01014826608713618 1 1 1 1 1 1 1 1 0.010479900987349501 1 0.0052946374357875957 0.0085051520986631109 1 1 1 1 1 1 1 1 1 0.0086264998356786558 1 1 1 1 1 1 1 1 1 1 1 0.0099143541325115471 1 1 1 1 1 1 0.0093097849016567508 1 1 1 1 0.010563235071677819 1 1 1 0.010060376808578946 1 1 1 1 1 1 1 1 1 1 0.0096146149122951063 1 1 1 1 1 1 0.0096984009334902151 1 1 0.009559597572175161 1 1 1 1 0.0097263448528980209 1 0.0099864170490473868 1 1 1 1 1 1 1 1 1 1 0.0099370813810073927 1 1 0.0088763599412896611 1 1 1 1 1 1 1 1 1 0.010233283188923359 1 1 1 1 0.0060792829625966275 1 1 1 1 1 1 0.0075811849234356157 1 1 1 1 1 1 1 1 1 1 1 1 1 1 0.010204149050519723 1 1 1 1 1 1 1 1 1 1 1 0.0091801092753327311 1 1 1 1 1 1 1 1 1 1 1 1 1 1 1 1 1 1 1 1 1 1 1 1 1 1 1 0.0089803174547947069 1 1 1 1 1 1 1 0.0075015164639028256 1 1 1 1 1 1 1 1 1 0.0072164614627051411 1 1 0.0086931286005908839 1 1 1 1 1 0.0086176328031492833 1 1 0.0071938933886538919 1 1 0.011721215805775146 1 1 0.011240971214851545 1 1 1 1 1 1 1 1 1 1 1 0.0034913428412686048 0.008470600108620524 0.0089279246079329803 1 1 1 1 1 0.010311123665736933 1 1 1 1 1 1 1 1 1 1 1 1 1 1 0.0045058724819378466 0.010313514550393796 1 0.0099956395968674155 1 0.010052416762229517 1 0.010978752831182373 1 0.0095520342984334334 1 1 1 1 1 1 1 1 1 1 1 1 1 1 1 1 1 1 0.0055728884174196429 1 1 1 1 1 1 1 1 1 1 1 1 1 1 1 1 1 1 1 1 1 1 1 1 1 1 1 1 1 1 1 1 1 1 1 1 1 1 1 0.0086934459082473135 1 0.0095747407400103915 1 0.0097701815317431696 1 1 1 1 1 1 1 1 1 1 1 -5.4313801720051735e-11 1 1 1 1 1 1 1 1 1 0.0088042633058094573 1 1 1 1 0.0095775394013535506 1 1 0.010906766303552525 1 1 1 1 1 1 1 1 1 1 1 0.010019646243037991 0.0099895056276422169 1 0.010078860450697193 1 1 1 1 0.0068389292010175365 1 0.010002369139683805 0.0072352615504233785 1 1 1 0.011072245037856933 1 0.0099174565799886732 1 1 1 0.010492213977581204 0.0081013390789442669 1 1 0.006589949247930613 1 1 1 1 1 1 1 1 1 1 0.010638592775039904 1 0.006007977615003479 1 1 1 1 1 1 0.006304971399875397 1 1 0.0065683854421093139 1 1 1 1 1 0.0070199616573724827 1 0.0059335435880590445 1 1 1 1 1 1 1 1 1 1 1 0.0066050123256209351 1 0.0029631061400180276 1 1 1 1 1 1 1 1 1 1 1 1 1 1 1 1 1 1 1 1 0.010304266502879149 1 1 1 1 1 1 1 1 1 0.0098328595988368805 1 1 0.0022687043355053074 1 1 0.0031252348616677031 1 1 1 1 1 1 1 0.010098822578119091 1 1 1 1 1 0.0078065795663495117 1 1 1 0.0099701795713709931 1 1 1 0.0086227118681287372 1 1 0.0098354983305011471 1 1 0.0092759251303211436 1 1 1 1 1 1 1 1 1 1 1 1 1 1 1 1 0.008912430604470549 1 1 1 1 1 1 1 1 1 1 1 1 1 0.009240467575273404 1 1 1 1 1 1 1 1 0.010007606928630839 1 1 1 0.010102015300676529 1 1 1 1 1 1 1 0.0089263091511006878 1 1 1 0.0074600980972534658 0.0087677642764040064 0.0090017803595706727 1 1 1 1 1 0.0079058577220875378 1 1 1 1 1 1 1 1 1 1 1 1 1 1 1 1 1 1 1 1 1 1 1 1 1 1 1 1 1 1 1 1 1 1 1 1 1 1 1 1 1 0.0068269046500816439 1 1 1 1 1 1 1 1 1 1 1 1 1 1 1 1 1 0.0054063865100099336 1 1 1 1 1 1 1 1 1 0.0082004048144029874 1 1 1 1 0.010618458922595976 1 1 1 1 1 0.00039749095735880363 1 1 1 1 0.010009148848726683 1 0.0080153736815039966 0.0057797059512272944 1 0.004911238162296416 1 1 1 1 0.01004939255491975 1 1 1 1 1 1 1 0.0035797114105504107 1 1 1 1 1 1 1 1 0.0042035490097684916 1 1 1 1 0.010203816000649044 1 1 1 1 1 1 1 1 1 1 1 1 1 1 1 1 1 1 1 1 1 1 1 1 1 1 1 1 1 1 1 1 1 1 0.0081048831195226385 1 1 1 1 1 1 1 1 1 1 1 1 1 1 1 1 1 1 1 1 1 1 1 1 1 0.0096300355215702405 1 1 0.010772245264856364 1 1 1 1 0.0099012869741110961 1 1 1 1 1 1 1 1 0.010028722374421182 1 1 0.0083620032184140818 0.0099955051459117445 1 1 0.0049440295859509795 1 1 0.0060531633052362324 0.0062282419241787897 1 1 1 1 0.006035287840005274 0.011143529161787518 1 1 1 0.010003899827100487 1 0.0028954294449557091 1 1 1 1 1 1 1 1 1 1 1 1 1 1 1 1 1 1 1 1 0.0059625476895788301 1 1 0.0039787184564784514 1 1 1 1 1 1 1 1 1 0.010029958090329204 1 1 1 1 1 1 0.0085102641360568273 1 1 1 1 1 1 1 1 0.0095815882226835871 1 -7.8645385169495707e-10 1 1 1 1 1 1 1 1 1 1 1 1 1 1 1 1 1 1 1 1 1 1 1 1 1 1 1 1 1 1 1 1 0.010307368605236527 1 1 1 1 1 0.010075266203718802 1 1 1 1 1 1 1 0.010159240533127004 1 1 1 1 1 0.010312989969211137 1 1 1 1 1 1 1 1 0.0085337302076909979 1 1 1 1 1 1 1 1 1 1 1 1 1 0.0069022859862061473 1 1 0.0094227674268615308 1 1 -2.1767228297608909e-10 1 0.0019604211696485118 1 1 1 1 1 1 1 1 1 1 1 1 1 7.6433107753532542e-05 0.006010729223941802 1 1 1 1 1 0.010148362955305582 1 1 1 1 1 1 1 1 1 1 1 1 1 1 1 1 1 1 1 1 1 1 1 1 1 1 1 1 1 1 1 1 1 1 1 1 1 1 1 1 1 1 1 1 1 1 1 1 1 1 1 1 1 1 1 1 1 1 1 0.0077752834790251052 1 1 1 1 1 1 1 1 1 1 1 1 1 1 1 1 1 1 1 1 1 1 1 1 1 1 0.0080097103381241812 1 1 1 1 1 1 1 1 1 1 0.010064334537479257 1 0.0088416502212017335 1 1 1 1 1 1 1 1 1 1 0.006449999171471054 1 1 1 1 1 1 1 1 1 1 1 1 1 1 1 1 1 1 1 1 1 1 1 1 1 1 1 1 1 1 1 1 1 1 1 1 1 1 1 1 1 1 1 1 1 1 1 1 1 1 1 1 1 1 1 1 1 1 1 -6.6388372577108612e-10 1 1 0.0088442753459178503 1 1 1 1 0.0093423086404575174 1 0.009637641430502256 1 1 1 1 1 1 1 1 1 1 1 1 1 1 1 8.2909887288984407e-10 1 1 0.0046408328507507139 1 1 1 1 1 1 1 1 1 1 1 1 1 1 1 1 1 0.0077825974738043834 0.0064549887139998437 1 1 1 1 1 1 1 1 1 1 1 1 1 1 1 1 1 1 1 1 1 1 1 1 1 1 1 1 1 1 1 1 1 1 0.0099685959544844084 1 1 1 1 1 1 1 1 1 1 1 1 1 1 1 0.0097651532043339581 1 1 1 1 1 1 1 1 1 1 1 1 1 0.0094663974737850022 1 1 1 1 1 1 1 1 1 1 1 1 1 1 1 1 1 1 1 1 1 1 1 1 1 1 1 1 0.0083723869791560712 1 1 1 0.0092815726059332533 1 1 1 1 1 1 0.0032502715296908666 1 1 1 0.00769447620036268 1 1 1 0.0092968957566818763 1 1 1 1 1 1 1 0.007497818664427839 1 1 1 1 0.0090728918757708409 1 0.008116716751640175 1 1 1 1 1 1 1 1 1 1 0.0093379922844040626 1 1 1 0.003692212248337743 1 0.0069323363591976758 1 1 1 1 1 1 1 1 0.00014306300701683559 1 1 1 0.0092049457125448122 3.0836478821794078e-09 1 1 1 1 1 1 1 1 1 1 1 1 1 1 1 1 1 1 1 1 0.0098880249635581469 1 1 1 1 1 1 1 1 1 1 0.0099736365537745394 1 1 1 1 1 0.0097001303630224085 1 1 1 1 1 0.0042272978949913845 1 1 0.0099321571509626838 1 1 0.0098943901713584408 1 1 0.009351485677693944 1 1 1 0.0096684184264030325 1 1 1 1 1 0.0098862412219568128 1 0.0075683133831366545 0.0098846842226715439 1 1 1 1 1 1 1 1 0.0090334882788808968 1 1 1 0.0072482501584916169 1 1 0.0098089868330150654 1 1 1 1 0.0024078720375468703 1 1 1 0.0030705610129941226 1 1 1 1 1 1 1 0.0082472524498154835 1 1 1 1 1 1 1 0.0096842281106370477 0.0094967208599779553 0.0097989529757618113 0.010322980530505061 1 1 1 1 1 1 1 1 1 1 1 1 0.0097992926653928392 1 1 0.0076017204609212458 1 1 1 1 1 0.0087752436316634701 1 1 1 1 0.01010237013229031 1 1 1 0.0099945777263306078 1 1 1 1 0.0099089661361142119 1 0.0095125420018687158 1 1 1 1 1 1 1 0.010007248650311634 1 1 1 0.0087263237280903738 1 1 1 1 0.0099896611739367525 0.010069910903000008 1 1 1 1 1 1 0.0083982479079594829 1 1 1 1 0.0093074672852559125 1 1 1 1 1 0.0099927229910338408 1 1 1 1 1 0.0096558854827716364 1 1 1 1 1 0.0099355625898022715 1 1 1 1 1 1 1 1 0.010234678208828632 1 1 1 1 1 1 1 0.0029502752124214854 1 1 1 1 1 1 1 1 1 1 1 0.0097560855408787769 1 1 1 1 1 1 0.011592818310273978 0.0023219652454037655 0.010041678664818716 1 1 0.01000036811688006 1 0.008134431872807598 1 0.0063264360378363603 1 1 1 1 1 1 0.0099827886823857757 1 1 1 1 1 1 0.0078540067838645256 1 0.0088281189762731953 0.0097023889622125867 1 1 1 1 1 1 1 1 1 1 1 1 1 1 1 1 1 1 1 1 1 1 0.0094286334030044949 1 0.0091408563787156068 1 1 1 1 1 1 1 0.0095401910869839426 0.0094501015345726108 1 1 1 1 0.0098283046315914488 1 1 1 1 1 1 1 1 1 1 1 1 1 0.010140142321035238 1 1 0.0097438837071577803 1 1 1 1 1 1 1 1 1 1 1 1 1 0.009904185662366994 1 1 1 1 1 0.010186416205870637 1 0.0096647500544574955 1 1 1 1 1 0.01007400289858856 1 1 1 1 0.0048370136756146834 1 1 1 1 1 1 1 1 1 1 1 1 1 1 1 0.0040992109729493659 1 1 1 1 0.0038250337963935607 1 1 1 1 1 1 1 1 1 1 1 1 1 1 1 1 0.0097332258406421027 1 1 0.0080395339253462109 1 1 1 1 1 1 1 0.0077214951065057817 1 1 1 1 1 1 0.0061374940065698595 1 1 0.0058827637392414589 1 1 1 1 0.0091121229459247138 1 1 1 1 1 1 1 0.010007633067660053 1 1 0.010001205476110893 1 1 0.010059087514560743 1 1 1 0.0099172688848173859 1 1 1 1 1 1 1 1 1 0.0099880509356876871 1 1 0.0099698994489009485 1 1 1 1 0.0099665289917478979 1 1 0.004634348469497146 1 1 1 0.0045981320301343442 1 1 1 1 1 1 1 1 0.0099949704549171618 1 1 1 1 1 1 1 1 1 1 1 1 1 1 1 1 1 1 1 1 1 1 1 1 1 0.0083833905847787368 1 1 0.0060964047320917931 1 1 1 1 1 1 1 1 1 1 1 1 1 1 1 1 1 1 1 1 1 0.0059477782682660664 1 1 1 1 1 0.010004686582195183 1 1 0.010446328905693185 0.0094677749717940948 1 0.009744528250473776 1 1 0.0089237301588320633 1 1 1 1 1 1 1 1 1 1 0.0099819972051075623 1 1 1 1 1 1 1 1 1 1 1 1 1 1 1 1 1 1 1 1 1 1 1 1 1 1 1 1 1 1 1 1 1 1 1 1 1 1 1 1 1 1 1 1 1 1 1 1 1 1 1 1 1 1 1 1 1 1 1 0.0075023632831057469 1 1 0.010021150326177227 1 1 1 1 1 1 1 1 1 1 1 1 1 1 1 1 0.0071687236979665041 1 1 1 1 1 1 1 1 1 1 1 1 1 0.0069845560240425208 1 1 0.0069106383988681176 0.0099522938496511941 1 1 1 1 1 0.0099686243872042363 1 1 1 1 1 1 1 1 0.0099796027432093627 1 1 1 1 0.010019975719568495 1 0.0075313369792435695 1 1 0.0083551808714677333 1 1 1 1 1 1 1 1 0.0099029490217468416 0.0094058043077152285 1 1 1 1 1 1 0.009882533610783558 1 1 1 0.0091923571285382893 1 1 1 1 1 1 1 1 1 0.01004518969421582 1 1 0.0090678266147662338 1 1 1 1 1 1 1 1 0.0086447809499494745 1 1 0.008099448419776065 1 1 1 1 1 1 0.0085801865424941157 1 1 1 0.01002082929219953 1 1 1 1 1 1 1 1 1 1 1 1 1 1 1 1 0.0031488421636163451 1 1 0.0085559012948110535 1 1 1 1 0.0099521340102445809 1 1 0.0025650747366850989 1 1 1 0.0083562862555296713 1 1 1 1 0.0025455172383626427 1 1 1 0.0070261016788625962 1 1 1 1 1 1 1 0.0089298542093291661 1 1 1 1 1 0.010076776837344526 1 1 1 1 1 1 1 1 1 1 1 1 1 1 1 1 1 1 1 0.0092379089654354065 1 1 1 1 0.0079876925563941385 0.0093198782834189257 1 1 1 1 0.0033404800219621836 1 1 1 1 1 1 0.0071365278030179457 1 1 0.010238216944882488 1 1 0.0083529912022957484 1 1 1 0.0099899890326820198 1 1 1 1 1 1 1 1 1 0.0057341019751059215 1 1 0.008516257477251498 1 1 1 1 1 0.010710435651430355 0.0094909615838919808 1 1 0.0082857452166452111 1 0.0042923748670327666 0.011137697062633296 1 1 1 0.0025429579559471151 1 1 1 1 0.0088675678116460835 1 1 1 1 1 1 1 1 0.010015955172188149 1 0.0030901633706864225 1 1 1 0.0099954361967391839 1 0.004517071223729241 1 1 0.0089695775932353977 1 1 1 0.0054824482564836113 1 1 1 1 1 1 1 1 1 0.011905445456520293 0.0099575928838042498 1 1 1 0.010019536643465513 1 1 1 1 1 1 1 1 1 1 1 1 0.0098702760957643885 1 1 1 1 0.0096500482515910185 1 1 1 1 0.011031084713386801 1 1 0.0076194880279119599 1 1 0.0054892196209582016 1 1 1 1 1 1 0.010434472266575253 1 1 0.0079752603119422668 1 1 1 1 1 0.0087371094873524568 1 0.009436597899288671 1 1 1 1 1 1 1 1 1 1 1 1 1 1 1 1 1 1 1 1 1 1 1 1 1 1 1 1 1 1 1 1 1 1 1 1 0.008576605335574734 1 1 1 1 1 0.0093836312379583803 1 1 1 1 1 0.0083792961211304091 1 1 1 1 1 1 0.0095147245911052399 1 1 1 1 0.0082181761130179689 1 1 0.0099003466025547032 1 1 1 1 0.010000510136446747 0.0076155578301464813 1 1 1 1 1 1 0.010016967918448303 1 1 1 1 1 1 0.010250252527512736 0.0093551813112262121 1 1 1 1 1 1 1 0.0097020896211066823 0.0070143200082425396 1 1 1 0.0087253592764758373 1 0.010024671206424219 1 1 0.0095505178014165786 0.010090064857163334 1 1 1 1 1 0.010071339465384339 1 1 1 1 1 1 1 1 1 1 1 1 1 0.010568425201488782 1 1 0.0080570229282950784 0.0093735725496425313 1 0.013210996666573742 1 1 1 0.0095384447990665248 1 1 1 1 1 0.01382915938861836 1 1 1 1 1 1 1 1 0.0098023231465839567 1 1 1 1 1 0.0086632658005037499 1 1 1 1 1 1 1 1 1 1 1 1 1 1 1 1 0.010014165796611933 1 1 1 1 1 1 1 1 1 1 1 1 1 1 1 1 1 1 1 0.0097968663229102883 1 0.0094116424858197711 1 0.010095633115754022 1 1 1 1 1 1 1 1 1 1 1 1 1 0.0083923014686200833 1 1 1 1 1 1 1 1 1 1 1 0.0097741217138965289 1 1 1 1 1 1 1 1 1 1 1 1 0.010939772312469991 0.0099936838039593103 1 1 1 1 1 1 1 1 1 0.010662973160573606 1 1 1 1 1 0.0064633576193760152 1 1 0.0053473634408240586 1 0.0096810133932806273 0.0099329458741822252 1 1 1 0.0070198294219402033 1 0.003400377494881892 1 1 1 1 1 0.0076256761364658105 1 1 1 1 0.002123829520828277 1 1 1 0.0095539868388000264 1 1 0.0019983837553921649 1 1 1 1 1 1 0.0094350447676819701 1 1 1 1 1 1 0.0099938229538373419 1 1 1 0.0097466126011298039 1 1 1 1 1 1 1 1 1 1 1 1 1 1 1 1 1 1 1 1 1 1 1 1 1 1 1 1 1 1 1 1 1 1 1 1 1 1 1 1 1 1 1 1 1 1 1 1 1 1 1 1 1 0.0099948009383959129 1 1 1 1 1 1 1 1 1 1 1 1 1 1 1 1 0.0088109785970466818 1 1 1 0.0069137908146276079 1 1 1 0.0095591010055225481 1 1 1 1 1 0.010321302339175669 1 1 0.0021185981955940958 1 0.0095017802144992183 0.0014314581538735598 1 1 1 1 1 1 1 1 1 0.0019328042756792813 1 1 0.0082108380823675969 1 1 1 1 1 1 1 1 1 1 1 1 1 1 1 1 1 1 1 1 1 0.0087558628170390645 1 1 1 1 1 1 1 1 1 1 1 1 1 1 1 1 1 1 0.0086456334120425925 1 1 0.010090949220863833 1 1 1 1 1 1 1 0.006747040729224843 1 1 1 1 1 1 1 0.01010127518919865 1 1 0.008599080196982533 0.0091554784567821918 1 1 0.0064530560848585702 0.0085362156165147834 1 1 1 1 0.010165584393010754 1 0.010912773317483946 1 1 1 1 1 1 1 1 1 0.010243033947609299 1 1 1 1 0.0079206192484510326 1 1 1 1 1 1 0.0045965147078133543 1 1 1 1 0.0077621371998272612 1 1 1 1 1 0.0092150201293222395 1 1 1 1 1 1 1 1 0.0086730130343407822 1 0.01010695590463327 1 1 1 1 0.0063145006061941476 1 0.0070158195284093366 1 1 1 1 1 1 1 1 1 1 1 0.0082254382789474674 1 1 1 1 1 1 1 1 1 1 1 1 0.010151886062554672 1 1 0.010762440571703103 1 1 1 1 1 1 1 1 1 0.0062427141287627989 0.0095177987603051704 1 1 1 1 1 1 1 0.0098902109805863291 1 1 0.0085667907354202814 1 1 1 1 1 0.0056786420070832483 1 1 1 1 1 1 0.00062423531883899416 1 1 1 1 1 1 1 1 1 1 1 1 1 1 1 1 0.010334014885387188 1 1 0.0084201483739202478 1 0.011152927742310921 1 1 1 1 0.0097502403431368578 1 1 1 1 6.3563457275428448e-10 1 1 1 1 1 1 1 1 0.0096275877797188363 1 0.010028965345592262 1 0.0036694021167807504 1 1 1 1 1 1 1 1 1 0.012563993556613307 1 1 1 1 1 0.0078162941020787774 0.0084891202533087899 1 1 1 1 0.010011383501269639 1 1 0.0078798883766970085 1 1 1 1 0.011269266403461759 1 1 0.010612082996576854 1 1 1 1 1 1 1 1 1 1 0.0041808919234410172 0.012140726175863582 1 1 1 1 1 1 1 1 1 1 1 1 0.009957946360813319 1 1 1 1 1 1 1 1 1 1 0.005591313610818641 1 1 1 1 0.0035411945560971415 1 1 0.0059180003861942932 1 1 0.0066682939988695206 0.0064555014844409741 1 0.0099905833746612369 1 0.011032595735102083 0.0098398026822962004 1 1 0.011793622727075549 1 1 1 1 1 1 1 1 1 1 1 1 1 1 1 1 0.0098163013966462813 1 1 1 1 0.0040134620939869057 0.0093187084306225257 1 1 1 0.0066457466906645318 1 1 1 0.0099917025332941136 1 1 1 0.010214090603623802 1 1 1 1 1 1 1 1 1 1 1 1 1 1 1 1 1 0.010318169323685249 1 1 0.010521695013972661 1 1 1 1 0.0086458013983840877 1 1 1 1 0.0093452898103203088 1 1 1 1 1 1 1 1 1 1 1 1 1 1 1 1 1 1 1 1 1 1 1 1 1 1 1 1 0.0096947600535359103 1 1 1 1 1 1 1 1 1 0.0097673763487046671 1 1 1 1 1 1 1 1 1 1 1 0.0093661501334485874 0.0086176854489086446 1 1 0.009537185041984482 0.0074118635056355086 1 1 1 1 0.0086388551988157355 1 1 1 1 1 1 1 1 1 0.010056987788612195 1 1 1 1 1 1 1 1 1 1 1 1 1 1 1 1 1 1 1 1 1 1 1 1 1 0.008412973323763456 1 1 1 1 1 1 1 1 1 1 1 1 1 1 1 1 1 1 0.0089595903440155798 1 1 1 1 1 1 1 1 1 1 1 1 1 1 1 1 1 1 1 1 1 1 1 1 1 1 1 1 1 1 1 1 1 1 1 1 0.006065361987502637 1 1 1 1 1 1 0.0082200648531537378 1 1 1 1 1 1 1 1 1 1 0.0078452971343488994 1 1 1 0.0090104181496252263 1 1 1 1 1 1 1 1 1 1 1 1 0.0030160780151407707 1 1 1 1 1 1 1 1 1 0.0070346616432610219 1 1 1 1 1 1 1 1 1 1 1 1 1 0.0083146999716007617 1 1 1 1 1 1 1 1 1 1 1 0.0067427489961349035 1 1 1 0.0099817145705983924 1 1 1 1 1 1 1 1 1 1 1 1 0.010298090396748933 1 1 1 1 1 1 1 1 1 1 1 1 0.0084280490245341438 1 1 1 1 1 1 1 1 1 0.010516375994015906 1 1 1 1 1 1 1 1 1 1 1 1 1 1 0.0082352438224376073 1 1 1 1 1 0.011278243101575287 1 0.0056860641400519191 1 1 1 0.0093930912325920681 1 1 1 1 1 1 0.0023472038561308355 0.0041097113793273354 1 1 1 1 1 1 1 1 0.0077391097388414976 1 1 1 1 1 1 1 1 1 1 1 1 1 1 0.0099983445386026149 1 1 1 1 0.010035406102800787 1 1 1 1 1 1 0.011258469880566245 0.010577058598084636 1 1 0.010076176285661166 1 1 1 1 1 1 1 1 1 1 1 0.010075516965634392 1 1 1 1 1 1 0.010681411282481601 1 1 1 1 0.011162763201744769 1 1 1 1 1 1 1 1 1 0.010646387207728869 1 1 1 1 1 1 1 1 1 1 1 1 1 1 1 1 1 1 1 1 1 1 1 1 1 1 1 1 1 1 1 1 1 1 1 1 0.0099866464310299982 1 1 1 1 1 0.0073666530440167823 1 1 1 1 0.0086662814377295779 1 1 1 1 1 1 1 1 1 1 1 1 1 1 1 1 1 1 1 0.0083524378986873909 1 0.0062631942935587864 1 1 1 1 0.0063237297186348358 1 1 1 1 1 1 1 1 1 0.010205763298980798 1 1 1 1 0.010181231701121006 0.0099754684021402043 1 1 1 1 1 1 1 1 1 1 1 1 1 1 1 1 1 0.0094829246005640969 1 1 1 1 1 0.0096700833553854428 1 1 1 0.0092306179188193661 1 1 1 1 1 1 0.009560534563433927 1 1 1 0.0097128210880522512 1 1 1 1 1 1 1 1 1 1 1 1 1 1 0.0096925345775208793 1 1 1 1 1 1 1 1 1 1 1 1 1 1 1 0.0095873782274010968 1 1 1 1 1 0.0091087140241427212 1 1 1 1 1 1 1 1 1 0.0092062832212184871 1 1 0.008273260643201925 1 1 1 1 1 1 1 1 1 1 1 1 1 1 0.0082692565788344032 1 1 1 1 0.0086548841606757729 0.0069281448038776942 1 1 1 1 1 1 1 1 1 1 1 1 1 1 1 0.010282204800566375 1 1 0.009990985590918787 1 1 1 1 1 1 1 1 1 1 1 1 1 1 1 1 0.0089655197269733408 1 1 1 1 0.0079868553077916942 1 1 0.0090213355808183501 1 1 1 1 1 1 1 1 1 1 1 0.0087003716062872029 1 1 1 1 1 1 1 1 1 1 1 1 1 1 1 1 1 1 1 1 1 1 1 1 1 1 1 1 1 1 1 1 1 1 1 1 1 1 1 1 1 1 1 1 1 1 1 1 1 1 0.009192929511092917 1 1 1 1 1 1 1 1 1 1 1 0.0095266516320287684 1 1 1 1 1 1 1 1 0.0095258892894271585 1 1 1 1 0.0091372854280436268 1 0.008330214939136547 1 1 1 1 1 1 1 1 1 1 1 0.009949584866831819 1 1 1 1 1 1 1 1 1 1 1 1 1 1 1 1 1 1 1 1 0.010004839325901205 1 1 1 1 1 1 1 1 1 1 1 1 1 1 1 1 1 1 1 1 1 1 1 1 1 1 1 1 1 1 1 0.0074246783604588144 1 1 0.0084941465199893339 1 1 1 1 0.0098176634794625052 1 1 1 1 1 0.0096721763016498156 1 1 1 1 1 1 1 0.01021301225605744 1 1 1 1 1 1 0.0090784752518021216 1 1 1 0.0098364024268149507 1 1 0.010108273124491411 0.0096052643387180385 1 1 1 1 1 1 1 0.0098590313124701772 1 1 1 1 1 1 1 1 1 1 1 0.0098263497422007764 0.0097086473175009898 1 1 1 0.0064154707603393708 1 1 0.0094780685606325674 1 1 0.0085578292873789066 1 1 0.01003671258347889 1 0.010017158219700981 1 1 1 1 1 1 1 1 0.0063145288317324917 1 1 1 1 0.0060970384929935686 1 1 1 0.010021060941315517 1 0.0097909476186652973 1 0.0097459817983321477 1 1 1 1 1 1 1 0.0098396475247106274 1 1 1 1 0.0095086165784995912 1 1 1 0.0094461396819739557 1 1 1 1 0.0092763969627977037 1 1 1 1 1 1 1 1 1 1 1 1 1 1 1 1 1 1 1 1 1 1 1 1 0.0061673284685563184 1 1 1 0.0074134458744206828 0.0075951608473114954 1 1 1 1 1 1 1 1 0.009183008340231915 1 1 0.0098671378436876681 1 1 1 1 1 1 1 1 1 1 1 1 1 1 1 1 1 1 1 1 1 1 1 1 1 1 1 1 1 1 1 1 1 1 1 1 1 1 1 1 1 1 1 1 1 1 1 1 1 1 1 1 1 0.010224866428336499 1 1 0.0092220394969910208 1 0.010098380167703671 1 1 1 1 1 1 1 1 1 1 1 1 1 1 1 1 1 1 1 1 1 1 1 1 0.0099301108108049967 1 1 1 1 0.0099391218475811446 1 1 1 1 1 1 1 1 0.0094023374982241982 1 1 1 0.0097640099277049499 1 1 0.0099544220344865205 1 1 1 1 1 1 1 1 1 1 1 0.0098695355323312178 1 1 1 1 1 1 1 1 1 1 0.0099921214305294277 1 1 1 0.0093511486585714978 1 1 1 1 0.0083120864691239894 1 1 1 1 1 1 1 1 1 0.009393496422636009 1 1 1 1 1 1 0.010393623214336675 1 1 1 1 1 1 1 1 1 1 1 1 1 1 1 1 1 1 1 1 1 1 1 1 1 1 1 1 1 0.0058254468071049208 1 0.010000480866551493 1 1 1 1 1 1 1 0.011222196041732505 1 1 0.0049531679076324749 1 1 1 1 0.0054394087669860638 1 1 1 1 1 0.0060649875208737426 1 1 1 0.009553684307326062 0.0065790923074891157 1 1 0.0054036817753090874 1 0.001766772470405277 1 0.009984395378967512 0.010747404781257536 1 1 0.0069564929701184204 1 1 1 1 0.0091247504266872663 1 0.010035323746430029 1 0.0093445274341572553 1 1 0.0094086218732141111 1 1 1 1 0.0097397694608446356 1 1 1 1 1 0.0096924411752845573 1 0.0077322828763150553 1 0.0095477898837972204 1 1 1 0.0099993283711229536 0.010000633724147952 1 1 0.0074819883887082984 1 0.0087951842130628601 1 0.008632599117527005 1 1 1 0.0095142572344468993 1 1 0.0087586034660027609 0.0084336896290660521 1 1 1 1 1 0.0088765293475712905 1 0.0093418602971564371 1 1 1 1 1 1 1 1 1 1 1 0.0080125113989658915 1 1 1 0.009061393872463068 1 1 1 1 0.007600987073950247 1 0.0099907314827016071 1 0.0082557981185275367 1 1 0.0096071722640967069 1 1 1 1 1 1 0.0085914935250375937 1 1 1 0.0093125420729015373 1 1 1 1 0.0067868245576944352 1 0.0057550020641764579 1 1 1 1 0.009746734946774839 0.0087820652337750969 1 1 0.0074425484818131495 0.0043128431415320875 1 1 0.0051233076255247211 1 1 1 0.010170137170548457 1 0.01068186105139118 1 1 0.0099939215493276105 1 6.6990720509434512e-05 1 1 0.0048255420690421404 1 1 0.0032003580670316271 1 1 1 1 1 1 1 0.0099517562364561316 1 1 1 1 1 0.0098656721632309815 1 1 1 0.0067406283042489388 0.0058149421388141399 1 0.0065191031920278659 1 1 1 1 1 1 1 0.0099583735721999328 1 0.0093325478561608437 1 1 1 1 1 1 1 1 1 1 1 1 0.0099155633015374882 1 1 1 1 1 1 1 1 1 1 1 1 1 1 0.010392815572189813 0.010102544138535402 1 0.010161946122001712 1 1 1 0.0088690297431109275 1 0.0070597616947113062 1 1 1 1 1 1 1 0.0094602852622488846 1 1 0.0099115585233680997 1 1 1 0.0082011723842877592 1 1 1 1 -1.2902059975949953e-09 1 1 1 1 1 1 1 1 1 1 1.1075609708879885e-09 1 1 1 -7.6300133745876852e-11 1 1 1 1 1 1 1 1 1 1 1 1 1 0.0063916705760215901 1 1 0.0053691592420537643 1 1 1 1 1 0.0099742009240022054 1 0.0050833383440534816 1 1 1 1 1 0.0048717131609930572 1 1 0.009955890652657895 0.0094679930881151064 0.0099908136054249752 1 1 1 1 1 1 1 1 1 1 1 0.0097363675416653576 1 1 1 1 1 1 1 1 0.0083373822816576303 0.0099187040622028492 1 1 1 1 0.009965211105057244 1 1 1 1 1 0.0097755632431632961 0.0082220072323353315 1 1 1 1 1 1 1 1 0.0099167624018611199 1 1 0.0020817018950331041 1 1 1 1 0.0089206628185619693 1 1 1 0.0025275001131708484 1 1 1 1 1 1 1 1 1 1 1 1 1 1 1 1 1 1 0.0091031361169491391 1 1 1 1 1 1 1 1 1 1 1 1 1 1 1 1 1 1 1 1 1 1 5.9382655721104335e-05 1 1 0.010201883252421455 1 1 1 1 1 0.0098763591662608206 1 1 1 1 1 1 9.9470848015019257e-05 1 0.00094591352415301054 1 1 1 0.010878231653030838 1 1 1 1 1 1 0.015915796706947344 -3.2727554798162029e-09 1 1 1 1 1 0.0086132511037199082 1 1 1 0.0079491057453120895 0.010206886542327239 1 1 1 1 1 1 0.0094533112135944761 0.0018176055642373026 1 1 1 1 1 1 1 1 1 1 0.0099251287623546586 0.01001435686469334 1 1 1 0.010072311214644266 1 1 1 1 1 1 1 1 1 1 1 1 1 1 1 1 1 1 1 1 1 1 1 1 1 1 1 1 1 0.010611937816735527 1 1 1 0.011067097300447061 1 0.010090307992232313 1 1 1 1 1 1 1 1 0.0099949926994842703 1 1 1 1 1 0.0068210394936152278 1 0.010254226410602403 0.0075119554694279625 1 1 1 1 1 0.0047158359196778701 1 8.3093736362102599e-10 1 1 0.0043822232920339051 1 1 1 1 1 0.0067571511872061884 1 1 1 1 1 1 1 1 1 1 1 0.00030383318904016535 1 1 1 1 1 1 1 1 1 1 1 0.0062543265151309337 1 0.00081713179597566084 1 0.011325605234106795 1 1 1 1 0.0099745698794571729 1 1 1 0.010728668391989004 1 1 1 1 1 1 1 1 1 1 1 1 1 0.0092260460312437384 1 1 1 1 1 1 1 1 1 1 1 0.0080558327151380813 1 0.010184193987496686 1 1 1 1 0.0079191671705752722 1 1 1 1 1 1 1 1 1 1 1 1 1 0.0045750629086209992 1 1 1 1 1 1 1 1 1 1 1 1 1 1 1 1 1 1 1 1 1 1 1 1 1 1 1 1 1 1 1 1 1 1 1 1 1 1 1 1 1 1 1 1 1 1 1 1 1 0.010216882804823966 1 1 1 1 1 1 1 1 1 1 1 1 1 1 1 1 1 1 1 0.0094795911277141404 1 1 1 1 1 1 1 1 1 1 1 1 1 1 1 1 1 1 1 1 1 1 1 1 1 1 1 1 1 1 1 1 1 1 1 1 1 1 1 1 0.0078732311855797179 1 1 1 0.0091316553837439002 1 1 1 1 1 1 1 1 0.0074353051339867016 1 0.0091844814196691514 1 1 1 1 0.0065774456964934544 1 1 1 1 1 1 1 0.00734240514622609 1 1 1 1 1 1 0.0081795330556868277 1 1 1 1 1 1 1 1 0.006429104314493098 1 1 1 1 1 1 0.0085610989697239275 1 0.0064281507662022827 1 1 1 1 1 1 1 1 1 1 1 1 1 1 0.0093861786658001687 1 1 1 1 1 1 1 1 1 1 1 1 1 1 1 1 1 1 1 0.010178521431109823 1 1 0.010112752939133581 0.0092737802181314302 1 1 1 1 1 0.0089394213215151751 1 1 0.01029709772386728 1 1 1 1 1 1 1 1 1 1 1 1 1 1 1 1 1 1 0.010884379794723122 1 1 1 1 1 1 1 1 1 1 1 0.012602111763946962 1 1 1 1 0.014150220834411625 1 1 1 1 1 1 0.015264866019903567 1 1 1 1 1 1 1 0.010273837653927958 1 1 0.0099242861353961796 1 1 1 1 0.010080912989810165 1 1 1 1 1 1 1 1 1 1 1 1 0.010041408733896027 1 1 1 1 0.0096502557662184515 1 1 1 1 1 1 1 1 0.0061521555114813151 1 1 1 0.0089598692571863196 1 1 1 1 0.0090919710806271464 0.0097743584995705606 1 1 1 1 1 1 0.0096454879643579731 1 1 1 0.0079045820826165493 1 1 1 1 1 1 1 1 1 1 1 0.0093254587163266924 1 1 0.0093271065385221209 1 1 1 1 1 1 1 1 1 1 1 1 0.0045781415705743959 1 0.0024919271843525498 1 1 1 1 1 1 1 1 1 0.0093606424432881134 1 1 1 0.010195527788112549 1 1 0.0081007585378779778 1 1 1 1 1 1 1 0.0010997813018849521 0.0067123973471310871 1 1 1 0.0071114776800579307 0.00580878768228 0.010032773152874623 1 1 1 1 1 1 1 1 1 1 0.01001863931931765 1 1 1 1 1 1 1 1 1 1 1 1 1 1 1 1 1 1 1 1 1 1 1 1 1 1 1 0.0058750670391550458 1 1 0.0024526587106139938 1 1 0.011636075697283799 0.0099830843370211503 1 1 1 1 1 1 1 1 1 1 1 1 1 1 1 1 1 1 1 1 1 1 1 1 0.0097556361354977882 1 1 1 1 1 1 1 1 1 0.0059205190440402896 1 0.0093692882093887684 1 1 1 1 1 0.010272286458384218 1 1 1 1 1 1 1 0.0072964729198010314 1 1 1 1 0.0070897005196151608 1 0.0092158209880987621 1 1 0.0048207748389096361 1 1 1 0.0090591094817832878 0.010135058388117502 1 1 1 0.01118919711296871 1 1 1 0.0072966203762743643 1 1 -3.98574642127697e-09 1 1 1 1 0.0062551675747126792 1 0.0048758591038568708 1 1 0.010325114057624459 1 1 1 1 1 1 1 1 1 1 1 1 1 0.0092095207555949379 0.0079541505876964767 1 1 1 1 0.0050977820239137299 1 1 0.0043122288554467165 0.0051268744608415654 1 1 1 1 1 1 4.9661738688380752e-09 1 1 1 1 1 1 1 1 1 1 1 1 0.0035231427287035723 1 1 1 1 1 1 1 1 0.009155491692612313 1 1 0.0049040653986806779 1 1 1 0.0018212051592513432 1 0.010596094435348176 1 1 1 1 1 1 1 0.0099646096877236637 1 1 1 1 1 1 1 1 1 1 1 1 1 1 1 1 1 1 1 1 1 1 1 1 0.0068728136479191213 1 1 1 1 1 1 1 1 1 1 1 1 1 1 1 0.0087411033152911977 1 1 1 1 1 1 1 1 1 1 1 1 1 1 1 1 1 1 1 1 1 1 1 0.0097779434702041784 1 1 1 1 0.0058863535699419699 0.0098868758916593365 1 1 1 1 0.0094930267274830823 1 1 1 1 1 1 1 1 1 1 1 1 1 1 1 1 1 1 1 1 0.0098747908670916915 1 1 1 1 0.0096078960179621364 1 0.0099917406204968525 0.009057625243943301 1 1 1 1 1 1 1 1 1 1 1 1 1 1 1 0.008609408034537528 1 1 0.0093226719714417962 1 1 1 1 1 1 1 0.0092589887669111814 1 1 1 1 1 1 0.0074077246763961293 1 0.0098812189185823462 1 1 1 0.0090625176561394787 1 1 1 1 1 1 0.0063196023360781381 1 1 0.0060739494156898128 1 1 0.0098586497488310984 0.010344609628740856 1 1 0.0078898572658711915 1 1 1 1 1 1 1 1 1 1 1 1 1 1 1 1 1 1 1 1 1 1 1 1 1 1 1 0.011391607822742386 0.0093444977996106522 1 1 1 0.007619467196134452 1 1 0.012029247889773106 1 1 1 1 1 1 1 0.010013308407777616 1 0.010369842611131667 1 1 1 0.0099783840932989656 1 1 1 1 1 1 1 1 1 1 1 1 1 1 1 1 1 1 1 0.008298955973239321 1 1 1 1 1 1 1 1 1 0.010007083958770093 1 1 1 1 1 0.0097931015791584107 1 1 1 1 1 0.0086844264542732322 1 1 1 1 1 1 1 0.0080754987751759724 1 1 0.0084654482976938526 1 1 1 1 0.0099578815667333478 1 1 0.0067618994964714525 1 1 1 0.0051347104766357567 1 1 0.0039923160767043487 1 0.0097907088382890618 1 1 1 1 1 0.0076175525655742989 1 1 0.010055173824548388 1 1 1 1 1 1 0.0099790021696765686 1 1 1 1 1 0.0056693179824100787 1 1 0.0053661691711368569 1 0.010017810744333201 1 1 1 1 0.0070866336255400036 1 1 1 1 1 1 0.0079677278430998685 1 1 1 1 0.0084187720602622081 1 1 0.0082701222439631565 1 1 1 1 1 1 1 0.0093534856661994376 1 1 1 1 1 1 1 1 0.0090069639523713517 1 1 1 1 1 1 1 1 0.0011979911323889668 1 0.0095537021510997133 1 1 1 1 1 0.011529247691592505 0.0099896587351738213 1 0.0084139849207620944 0.0051191890878516146 1 0.010000904816454916 0.01008675860376405 0.00059980159898260707 1 1 0.010620122565739167 1 1 1 0.011344824198934582 1 1 0.010029438281614513 1 1 0.009228778112282671 1 1 1 1 1 1 1 1 0.011172363387011728 1 0.0097898668968912968 0.010030076950113197 1 1 0.0093084769352458612 0.010882617812824036 1 1 1 1 1 1 1 1 1 1 1 0.010058552885602942 1 1 1 1 0.00071669543240383479 1 0.0098092412180800469 1 0.0028846808053264623 1 1 1 1 1 0.0079891432219225868 1 1 1 1 1 1 1 0.0049413475865089131 1 1 1 1 1 1 0.0090384232652213903 1 1 1 1 0.0035551642255691202 1 1 0.011774359297963607 0.0099367072886843155 1 0.0090561057937330672 1 0.0047731560319448502 1 1 1 0.0085678301838634681 1 1 0.0096446360137991231 0.0088092684402812614 1 1 0.0087133778339740717 1 1 1 1 0.00734542028798847 1 1 1 0.009149094182633391 1 1 1 0.00986104256890823 1 1 1 1 1 1 0.011084835309413333 1 1 1 1 1 0.009613558869829536 0.0096451356177359639 1 1 1 1 0.0098396873469890466 1 1 1 1 1 0.0084066070944082555 1 1 1 1 1 1 1 1 1 1 1 1 1 1 1 0.0072041453040075521 1 1 0.0072231341929363067 1 1 1 1 0.0099450229485042018 1 1 1 1 1 1 0.0077340670028425013 1 1 1 1 1 1 0.010353462096997414 1 1 1 1 1 1 1 1 1 1 0.011031935867803114 1 1 1 1 0.01160684806236799 1 1 0.0088930980326490869 1 1 0.010428796266978766 1 1 0.010139978717943636 1 1 1 1 1 1 0.0096429944528708053 1 1 1 1 1 1 1 1 1 1 1 1 0.0097670497857648957 1 1 1 1 1 1 1 1 1 1 1 1 1 1 1 1 1 1 1 1 1 1 1 1 1 1 0.0064129345853771221 1 1 1 1 0.0086575246337801705 1 1 1 1 1 1 1 1 1 1 0.0089029511759867157 1 1 1 1 0.0030013016787388339 1 1 0.0098816288809702967 1 1 1 1 0.010136799293577506 1 1 1 1 1 1 0.0099898527206492352 1 1 1 1 1 1 0.0092855759251790192 1 1 1 1 1 1 1 1 1 1 1 1 1 1 1 1 1 1 1 1 0.010070251858769889 1 1 1 1 1 1 1 0.0099573645061878015 1 1 1 1 1 1 0.010301075322793495 1 1 0.010504489417018035 1 1 1 0.010091389348057714 1 1 1 1 1 1 0.0055582098506353726 0.010647281980766877 1 1 1 0.0094472795771758742 0.0069648175372534812 1 0.0076138608049186804 0.0099788473980623859 1 1 0.0089018634303894215 1 1 1 1 1 0.0093655180029767939 1 1 0.010545954241209028 1 1 0.005974815703528322 0.0084142572507292044 1 1 1 1 0.0048999486209512881 1 0.0095220894896992161 1 1 0.0078489440577480078 1 0.0081005912090636283 1 1 0.0098414550085195972 0.0093059056947645824 1 1 1 1 0.0075648798472972394 1 1 0.0094107571688517438 1 1 0.009977877054582758 1 1 0.007856365016753835 1 0.0091707097171380581 1 0.0097340443284455354 1 0.0089040322347558945 1 1 1 0.0068213134230142997 1 1 1 0.0092464698581470346 1 1 0.0070970027058487664 0.008747653438645555 0.0092636910373422206 1 1 0.010055250017006958 1 1 1 1 1 1 1 1 1 1 0.0082997886566778135 1 1 1 1 1 1 0.010000473958033844 1 1 1 0.0072536312454036609 0.010010150915718961 1 1 1 1 1 1 1 0.0080003197879119029 1 1 1 1 1 1 1 1 1 1 1 0.0077455218498079237 1 1 0.0092223767931739042 1 1 1 1 1 1 1 1 1 1 1 1 1 1 1 1 0.0017962686118249034 1 1 1 1 1 0.010235647389689278 1 1 1 1 1 0.0049510836405693565 1 0.010426261655847254 0.011663350978057003 0.0040916780268744866 1 1 1 1 0.0042221108597362798 1 1 1 1 0.0058473517873393124 0.0096923279125150918 1 1 1 1 1 1 1 1 1 1 1 1 1 1 1 1 1 1 1 1 1 1 1 1 1 0.010146583851208904 1 1 1 1 1 1 1 1 1 1 1 1 1 0.0097780384384453869 1 1 1 1 1 1 0.0096631521015309516 1 1 0.0096201320446784415 1 1 1 1 1 0.00888950596949507 1 1 1 1 1 1 1 1 1 1 0.0080346785759612474 1 1 0.0098420442629729363 1 1 1 1 1 1 1 1 1 1 1 0.0099890583593406791 1 1 0.0099981273787175286 1 1 0.010012378904791785 1 1 0.01000851990939677 1 1 1 0.0087852950131994019 1 1 1 0.008861593410346754 1 1 1 1 1 0.0087837604112878977 1 1 1 1 0.0098975975475297327 1 1 1 1 0.0099581984377781103 1 0.0074867457127401373 1 1 1 1 1 1 1 1 1 1 1 1 1 0.0096955508793650572 1 1 1 1 1 1 1 1 1 1 1 1 1 1 1 0.010151607581730388 0.0099931376401293376 1 0.0078950927179888657 1 1 1 1 1 1 1 0.0084881024402759173 1 0.010416652840809084 1 0.0085249480647402454 1 0.0094279699688242478 0.0053497650295827419 1 1 1 1 0.0078985275328692719 0.009645118395381666 1 1 1 1 1 1 0.0088516847061577419 1 1 1 1 1 1 1 0.0090500515837786885 1 1 1 0.010142093972638412 1 1 1 1 1 1 1 1 1 0.010047504448743805 1 1 1 1 0.0090841020884227172 1 1 1 0.0075277764530684022 0.010159528250468879 1 1 1 1 1 1 1 1 1 1 0.0096288099881473507 1 1 1 0.0094089325381056348 1 1 1 0.0099953516431702267 1 1 1 1 0.0096833623088406484 1 1 1 1 1 1 1 1 1 1 1 0.0099263107821837507 1 1 1 1 1 1 1 1 1 1 1 1 1 1 1 1 1 1 1 1 1 1 0.010064046506019752 1 1 1 0.01021186925737373 1 1 1 1 1 0.0072526941947889875 1 1 0.0064422852012005413 1 1 0.0093493841057189046 1 0.008415713536183176 1 1 1 0.0087945389419229816 1 0.0094250845179236105 1 0.010883569279289268 1 1 1 1 0.0073294695152923382 0.005556228379937531 0.0095982586424658446 1 1 1 1 1 1 1 1 1 1 1 1 1 1 1 0.0089878152523531207 1 1 1 1 0.0096427548120907123 1 1 1 0.0029315289218280489 1 1 1 1 0.0057500493951723013 0.0091108879517238679 1 1 0.0032470525341505903 1 1 0.0099709116678879592 1 0.0098448393235113577 1 1 1 1 0.0061668874147877903 0.0098397251083577886 0.0087896266064605572 1 1 1 1 1 1 1 1 1 0.0080640871480695663 1 1 1 0.0063949573226353557 0.0073060616305477936 1 1 1 1 0.010000187800022466 1 1 1 1 1 1 1 1 1 0.0070899185518813451 0.0098788096207427876 1 1 1 1 1 0.0069856703919873742 1 1 0.0085347757326936537 1 1 1 1 1 1 1 1 1 1 1 1 1 1 0.011100570117560467 0.0057719628580508459 1 1 1 0.0071703498422522761 1 0.0070242626662670345 1 1 1 1 1 1 1 1 1 1 0.0085956772480696997 1 0.0060287204802917851 1 1 1 1 0.00859498424275759 0.0094803351134667233 0.0099062145332818232 0.0095704388349548766 1 1 1 1 1 1 1 0.0063010953237211884 0.0077777790647474976 1 1 1 0.0089539337604296106 1 1 1 1 1 1 1 1 1 1 0.009603689965481596 1 1 1 1 1 1 1 1 0.0089042491995041523 1 1 1 1 1 1 1 1 1 1 0.0098325839874474109 1 1 1 1 1 1 1 1 1 0.0097045918471593343 1 1 1 1 1 1 1 1 1 1 1 0.0092824658465282314 0.0092770236714924837 0.0068545604128091558 0.0070799526025560125 1 1 1 1 1 1 0.009141440661374834 1 1 0.0096394232422303099 1 1 0.010010594716564071 1 1 1 1 1 1 1 1 1 1 1 1 1 0.0076243776621157007 1 0.0089280084479312818 1 1 1 1 0.008772201819480286 1 1 1 1 1 1 1 1 0.0052945179180992792 1 0.0096749577136934425 1 1 0.0099787112553762474 0.0066849144252081327 1 1 1 1 1 0.0092336679530014929 1 1 0.0093593152169322794 1 1 1 1 1 0.0098792496310255995 1 1 1 0.0098039221139369775 1 1 0.009402028881630756 0.0082745794010673571 1 1 1 1 1 1 1 1 1 1 1 0.0093691482314652661 1 1 1 1 1 1 1 1 1 1 0.0093126840910964306 1 1 1 1 1 1 0.0087780570054944232 1 1 1 1 1 1 1 1 1 1 1 1 1 0.0092424798568694361 1 1 1 1 1 1 1 0.011358280964691589 1 1 1 1 1 1 1 1 0.0063763236583312313 1 1 1 1 1 1 0.011038762528608519 1 0.011522031248794189 1 1 1 1 1 1 1 1 1 1 1 0.0063799682220462717 0.0034177186886262013 1 1 1 1 0.0099977029077159916 1 1 0.00084943584209896603 1 1 1 0.0046629348930890026 0.009761464899405355 1 1 0.0090659466930386196 1 1 1 1 1 1 1 1 1 1 1 1 1 1 1 1 1 1 0.0097284917240002353 0.0098711400913831186 1 1 1 0.012121116762575547 1 1 1 1 1 1 1 1 1 0.007615584664196956 1 0.0052794076444430647 1 1 1 0.007367166075079137 1 1 1 1 1 1 1 0.01073646311084956 1 1 1 0.0067626201518637859 1 0.001771427028867692 1 1 1 0.0015591631503048958 1 1 1 1 1 1 1 0.010058991640464702 1 1 1 0.010649567420609735 1 1 1 1 1 1 1 1 1 1 1 1 1 1 1 1 1 1 0.0096487781771695848 1 1 1 1 1 1 1 1 0.0088695612154073532 1 1 1 1 1 1 1 1 1 1 1 1 1 1 1 0.011408782786824742 0.0056876015211675159 1 0.0033141772202361086 1 1 0.0085777864276150202 1 1 1 1 0.009448903897650459 1 1 1 1 1 1 0.0097755048494911016 1 1 1 1 1 1 0.0069453577260180852 1 1 1 1 0.0055603565264924285 1 1 1 1 1 1 0.014176977255098111 1 0.012326984733939755 1 1 1 1 1 1 1 1 1 1 1 1 1 1 1 1 0.0077177714411581916 1 1 1 1 1 1 1 0.0092246421475728896 1 1 1 1 1 0.01067901807419881 1 1 0.0058368252929747108 1 1 1 1 1 1 1 1 1 1 0.0056876793525803826 1 1 1 1 1 1 1 1 1 0.0064186870934213117 1 1 1 1 1 0.0099800085211524565 1 1 1 0.0099981914944955244 1 1 1 1 1 1 1 1 1 1 1 1 1 1 1 1 1 1 1 1 1 1 1 1 1 1 1 1 1 1 1 1 1 1 1 1 1 1 1 1 1 1 1 0.0098014137613977453 1 1 0.0099951877912157639 1 1 1 1 1 1 1 1 1 0.0099526164350803095 1 0.0066003146978143579 0.010000517915733677 1 1 1 1 1 1 1 1 1 1 1 0.0083768025038760911 1 1 1 1 1 0.0079882459567493375 1 1 0.0060256283794481464 0.0099778874841599252 1 0.0050590578678525872 1 1 0.0085605051751719893 0.0098833150712829814 1 1 1 0.0077324911515757652 1 1 1 1 1 0.0096061315909929529 1 1 1 0.0069546980003919734 1 1 1 1 1 1 1 1 1 1 1 0.009582548327892371 1 1 1 1 1 1 1 1 1 1 1 1 0.0094347432173770649 1 1 1 1 1 0.0086682900160798132 1 1 1 1 1 1 1 1 1 1 1 1 1 1 1 0.0093273592389598904 1 1 1 1 1 1 1 1 1 1 1 1 1 0.0097310347421028787 1 1 1 1 0.0097808003896487188 1 1 1 0.0049625853280466578 1 0.0047815098339200265 1 1 1 1 1 1 1 1 1 1 1 1 1 0.0075799860676756398 0.010252513694898806 1 1 1 1 0.0024258116246924921 1 1 0.01184081715898868 1 1 1 1 1 0.0028464720008371872 1 1 1 1 1 1 1 1 1 1 1 1 0.010071828121208454 1 1 1 1 1 0.0090062839337408523 1 1 1 1 1 1 1 1 1 1 0.010225933652096612 1 1 1 1 1 1 1 1 1 1 1 1 1 1 1 1 1 1 1 1 1 1 1 1 1 1 1 1 1 1 0.0098947365717685642 1 1 1 1 1 1 1 0.010978767371624081 1 1 1 1 0.0032848077648031694 1 1 0.0099429480137433121 1 1 1 0.0048382793834540472 1 1 3.1792611598913112e-10 1 1 1 2.5013265070317203e-10 1 1 1 1 1 1 0.0099990661529797253 0.013377694218201204 0.0099289810752864679 1 1 1 1 0.0021037924069261839 0.0030308813206872225 1 1 0.010325467028663654 1 1 1 1 0.010886274879017742 1 0.01249507015876492 1 1 1 1 1 1 1 1 1 1 1 1 1 1 0.01078300360695241 1 1 1 1 0.0048202068990498351 1 1 0.0092989228653250506 1 0.0080555304630936103 1 1 0.0091233589999102048 1 1 1 1 1 1 1 1 1 1 1 1 1 1 0.0052346831986832335 1 -1.4629108341379649e-10 1 1 1 1 1 1 1 -7.964100559587628e-11 1 1 1 1 0.0022484624103641035 1 1 1 1 1 1 1 1 1 1 1 1 1 1 1 1 1 1 1 1 1 1 1 1 1 1 1 1 1 1 1 1 1 1 1 1 1 1 1 1 1 1 1 1 1 1 1 1 1 1 1 1 1 1 1 1 1 1 1 1 1 1 1 1 1 1 1 0.0064107744052420076 1 1 1 1 1 1 1 0.0088094312574022345 1 1 1 1 1 1 1 1 1 1 1 0.0093005592340225617 1 1 1 1 1 1 1 1 1 1 1 0.01035098763044931 1 1 0.00043602775667935315 1 1 1 1 1 1 1 1 1 1 1 1 0.0001399225944759639 1 1 1 3.2221658050841928e-05 1 1 1 1 1 1 0.010120768960678475 1 0.0099163295416706803 1 1 1 1 0.0094318682266100583 1 1 1 1 1 1 1 1 1 1 1 1 1 1 1 1 1 1 1 1 1 1 1 1 1 1 1 1 0.0097091539739638626 1 1 0.008267411835260861 1 1 1 1 0.0011846350524936378 0.0094505610236167055 1 1 1 1 1 1 0.0013973329074878083 0.011993023528858558 1 1 1 1 1 1 1 1 1 1 0.006826054892534579 1 1 1 1 0.005971011091729421 1 1 1 1 1 1 1 1 1 1 1 0.0084127387382352432 1 1 1 1 1 0.0097800289527852115 1 1 1 1 1 1 1 1 1 1 1 0.010600674431299644 1 1 1 1 1 1 1 1 1 0.008917372831021099 1 1 1 1 1 1 1 1 1 1 1 1 1 1 1 1 1 0.010530996544946018 1 1 1 1 1 1 1 1 1 1 1 1 1 0.0089442672006162429 0.0098195332320030956 1 0.014950718053903998 1 1 1 1 0.0099716361298049314 1 1 1 0.0090445029961040736 5.7170655709537499e-10 1 1 5.5615818894683144e-10 1 0.0099187881605783974 1 1 1 1 1 1 1 1 1 1 1 1 0.0098751678799901786 1 1 1 0.0079396478725941161 1 1 1 1 1 1 3.315690742800026e-10 1 0.00020105704222357634 1 1 1 1 1 1 0.0087834676613886848 1 1 1 1 1 1 1 1 1 1 0.0065075301044862956 1 1 1 1 1 0.0086875407551629119 1 1 1 1 1 1 1 1 0.0099348706138720627 1 1 1 0.0098870502852115502 1 1 1 1 1 1 0.010071412805966126 1 0.0097640019240088985 1 0.010235412501031337 1 1 1 1 1 1 1 1 1 1 1 1 1 1 1 1 1 1 1 1 1 0.0098898114819642516 1 1 1 1 1 1 1 1 1 1 1 1 1 1 1 1 1 1 1 1 -4.0323798640440334e-09 1 1 1 1 0.0041431616660692859 1 1 1 0.010023681093402802 1 0.0077447347330833714 1 1 1 0.0075692371645722616 1 1 1 1 1 1 0.010032190231578718 1 1 0.010008791964926815 0.010111406986854775 1 1 1 1 1 0.0054875035367839796 1 1 1 0.010002190271061808 0.0099612004041580784 1 1 1 0.0055202056042647635 1 1 0.0080658487569552906 0.0080519295296818116 1 0.010225508735092946 1 0.0014293707545976128 1 1 0.010075787501691722 1 0.0059590872460041251 1 0.0054891402891941686 1 1 1 1 1 1 1 0.0044924392700300061 1 1 1 1 1 1 0.009374638664891053 1 1 1 1 1 1 0.0091269211437893186 1 1 1 0.011064148319509923 0.0048967401139429489 1 1 1 1 1 1 1 0.0082140570768506806 1 1 1 0.0083785488563517807 0.010605101555889073 0.0077570044516100823 1 1 0.0099355619611276105 1 1 1 0.0091040960920346914 0.011762111066426724 1 1 1 1 1 1 1 1 1 0.010766353869612815 1 1 1 1 0.010687689043929614 0.010444829893695258 1 1 1 0.0096483892863736386 1 1 1 1 1 1 1 1 1 1 1 1 1 1 0.0097841051196027994 1 1 1 1 1 1 1 1 1 1 1 1 1 0.00070675226059785726 1 1 1 1 1 1 1 1 1 1 1 1 1 1 1 1 1 1 1 0.010349944943486856 0.0089444418744103679 1 0.0085387264412447351 1 1 1 1 1 0.01003113303056934 1 1 1 0.010368961893827813 1 1 1 1 1 1 1 1 1 1 1 1 0.0096151841037424197 1 1 1 1 1 1 1 1 1 0.002073259385839344 1 0.0022353239058216651 1 0.0099975414834088464 1 1 0.013349564996247808 1 1 1 0.009998865237146326 1 1 0.0099674624233798692 1 1 1 1 1 1 1 1 1 1 1 1 1 1 0.0067998147306653767 1 1 0.0099947788561938686 1 1 1 1 1 0.0063371666659710578 1 1 0.0063273263168147111 0.0074294001883937547 1 0.0094941774765427336 1 1 1 1 1 1 1 1 1 0.0060364756734476357 0.010101434102468825 1 1 1 1 1 1 1 1 1 1 1 1 1 1 1 1 1 1 1 0.0096484121461932488 1 1 1 1 1 1 1 1 0.0088514987032667462 0.010243799731242294 1 1 1 1 1 1 1 1 1 1 1 1 0.0071827856905896346 0.010488391693899772 1 1 1 1 1 1 1 1 1 1 1 1 1 1 1 1 1 1 1 1 1 0.0074230831894928941 1 1 1 1 1 1 1 1 1 0.0019121219103456523 1 1 1 1 0.0099791979813396523 1 1 0.0064111577035478214 1 1 1 1 1 0.0090593463151276768 1 1 1 1 1 1 1 1 1 1 1 1 1 1 1 1 1 1 1 1 1 1 1 1 1 1 1 1 1 1 1 1 1 1 1 1 1 1 1 1 0.0073505112999025166 1 1 1 1 1 1 1 1 1 1 1 1 1 1 0.009097867325095715 1 0.0086829153592675457 1 0.010227093004147435 0.0093159289514780051 1 0.0049483449637926086 1 1 0.009618786482221503 1 1 1 1 0.0083045280750818282 1 1 1 1 1 1 1 1 1 1 1 1 1 1 1 1 1 1 1 1 1 1 1 1 1 1 1 1 1 0.0062465175473970895 1 1 1 1 1 1 1 1 1 1 1 1 0.009647470315623758 1 1 1 1 1 1 1 0.0096913831205460953 1 1 1 1 1 1 1 1 1 1 1 0.0062197220419665956 1 0.010159822066351673 1 1 1 1 1 1 0.0099354870737779523 1 1 1 1 0.0097203727006156676 1 1 1 1 1 1 1 1 1 0.010184262001505545 1 1 1 1 1 0.0081859777378528349 1 1 1 0.007976047868705826 1 1 1 1 0.0099731177547725623 1 1 0.0098150900925308565 1 1 1 1 1 1 1 1 1 1 1 1 1 1 1 1 1 1 1 1 1 1 1 1 1 1 1 1 1 1 0.0096783803523225465 1 1 1 1 1 1 1 1 1 1 1 1 1 1 1 1 1 0.010042279005150753 1 0.0087938685818967233 0.012440231215140646 1 1 1 1 0.0096763200993514129 1 1 1 1 1 1 1 0.009184997425862259 1 0.0084773035074681251 1 1 1 1 0.0077037638614420399 1 1 0.010162781227240928 1 1 1 1 1 1 1 1 1 1 1 0.0094852081419686887 0.01001906905200772 1 1 1 0.0087913294191336172 0.0098888113187635147 1 1 1 1 1 1 1 1 1 1 1 0.0097952934131536901 1 1 0.009645163626841962 1 1 0.0098498702136882669 1 1 1 1 1 1 1 1 1 1 1 1 0.0040440918869370165 1 1 1 1 1 1 1 0.010005453490770432 0.0099967036009487621 1 1 0.0080441632147461636 1 1 1 1 1 1 1 1 0.0095012933790721964 1 1 1 1 1 1 1 1 1 0.0097171882594693886 1 1 1 1 0.010180845629667123 1 1 1 1 1 1 0.0086501523720489935 1 1 1 1 1 1 1 1 1 1 1 1 1 1 1 1 0.0094692859529560899 1 1 1 1 1 0.003362449842189974 1 1 1 1 1 0.0094750260054828218 1 1 1 1 1 0.0037093659873583817 1 1 1 0.0098922413677632205 1 1 1 1 1 0.0083047632662647617 1 1 1 1 1 1 1 1 1 1 1 1 1 1 1 1 1 1 1 1 1 1 1 1 1 1 1 1 1 1 1 1 1 1 1 0.0034851959051587483 1 1 1 1 1 1 1 1 1 1 1 1 1 1 1 1 1 1 1 1 1 1 1 1 1 1 1 1 -9.907795430440236e-10 1 1 1 1 1 1 1 1 1 1 1 1 1 1 1 1 1 1 1 1 1 1 1 1 0.0012118685342972838 1 1 1 1 0.0094252787457846689 1 1 0.00034111346086557713 1 1 1 1 1 1 1 1 1 1 1 1 1 1 1 1 1 1 1 1 1 1 1 1 1 1 1 0.0098721638536116672 1 1 1 1 1 1 1 0.0085334709540105524 1 1 1 0.0096728660924748806 1 1 1 0.0085255728209712341 1 0.0022579020382255317 1 1 1 1 1 1 1 1 1 1 1 1 1 0.0094331768788240011 1 1 1 0.0032442313497343641 1 1 1 1 1 1 1 0.010225456974131044 1 1 1 1 1 1 0.010036760304309153 1 1 1 1 1 1 0.0076937338799620307 1 0.0090916925940968119 1 1 1 1 1 1 1 1 1 1 1 1 1 1 1 1 1 1 1 1 1 1 1 1 1 1 1 1 1 1 1 1 1 1 0.0092035197561809931 1 0.0080403263967382208 1 1 1 1 0.010180598351900286 1 0.0096673717387099449 1 0.0099913247620950323 1 1 0.003785879286748452 1 1 1 1 1 1 1 1 1 1 1 1 1 1 1 1 1 1 1 1 1 1 1 1 1 0.0091030980926573718 1 1 1 1 1 1 1 1 1 1 1 1 1 1 1 0.010290061037692307 1 1 1 1 0.0083081564968376931 1 1 0.0096581458478643082 1 0.0057520211871598514 0.0085478209129249312 1 1 1 1 1 1 0.0049880489218410099 1 0.0069973117456168825 1 1 1 0.0076902908873609259 1 0.0090717898772480106 1 1 0.0066517203887989599 1 1 1 1 0.0094613835845533539 1 1 0.0083818703020864058 1 1 1 1 1 0.0042605466604477924 0.0073641385618374456 1 1 1 0.010504311016011365 1 0.011822323675202471 1 0.010007313562641524 1 1 1 1 1 1 1 1 0.0059165350637491072 1 0.0068819733379165979 1 1 0.0061021163096111539 1 0.0070999512608403703 0.0072738210011722704 1 1 0.0090064661838078399 1 1 0.01001026890820292 1 1 1 1 0.0090061254314852436 1 0.0059655143535276125 1 0.0088511576797943008 0.0079176544637609043 1 0.0069678041357641024 1 0.010070149628848436 1 0.0087458045995793647 1 1 1 1 1 0.0079873855057155819 1 1 1 1 1 1 0.0030157695943499718 0.0099944991447597463 1 1 1 0.0041268309849599259 1 1 1 1 1 1 1 1 1 1 1 1 1 0.0079775995742443068 1 1 1 0.010054798342148272 1 1 1 1 1 1 1 1 1 1 1 1 1 1 1 1 1 1 1 1 1 1 0.00741535935809263 1 1 1 1 1 1 1 0.0056144100663107852 1 1 0.0082307917894169462 1 1 1 1 1 1 1 1 1 1 1 1 0.0098373999143063079 0.0072647417382193172 1 1 1 1 0.0098805435263875502 1 1 1 1 0.010265693878619031 1 0.0061424988577362056 1 1 1 0.0069926982986389264 0.0089380380183644928 1 1 1 1 1 1 0.010613427520167692 1 1 1 0.011670006453510684 1 0.0096538272370190713 1 1 0.0093260726087413485 1 0.0086375473896517681 0.011467728253859211 1 0.010512549844556431 1 1 1 0.0094828071245826595 1 0.0076864036646451294 1 1 1 1 1 1 1 1 0.009885119256052094 1 1 1 1 1 1 1 1 1 1 1 1 1 1 1 1 1 1 1 0.0065878783001243604 1 1 1 0.0050411973094727537 1 1 1 1 1 1 0.009104366546086656 1 1 1 0.009643560387924242 1 1 1 1 0.004912863069126373 1 1 1 1 1 1 1 1 0.0076515189477419209 1 1 1 1 1 1 1 1 1 1 1 1 0.0097384734536881297 1 1 1 1 1 1 1 1 1 1 1 1 1 1 1 1 1 1 1 1 1 1 1 1 1 1 1 1 1 1 1 1 1 1 1 1 1 1 1 1 1 1 1 1 1 1 0.0088046855248737829 1 1 1 1 0.0099623774969544391 1 1 0.0098620484110448076 1 1 1 1 1 1 1 1 1 1 1 1 1 1 1 1 1 1 1 1 1 1 1 1 1 1 1 1 1 1 1 1 1 1 1 1 1 1 1 1 1 1 1 1 1 1 1 1 1 1 1 1 1 1 1 1 0.0091429488880713158 1 1 1 0.0094770052901244593 1 1 1 1 1 1 1 1 1 1 1 1 1 0.0094044170516349914 1 1 1 1 1 1 1 1 1 1 0.0077360361412527178 1 1 1 1 1 1 1 1 1 1 1 1 1 1 1 1 1 1 1 1 1 1 1 1 1 1 1 1 1 1 1 1 1 1 1 1 1 1 1 1 1 1 1 1 1 1 1 1 1 0.0096901846956750359 1 0.0091793227828503403 1 1 1 1 1 1 1 1 1 1 1 1 0.0097188627616368872 1 1 1 1 0.0098094430942060259 1 1 1 1 1 1 1 1 1 1 1 1 1 1 1 1 1 1 1 1 1 1 1 1 1 1 1 1 1 0.0088314209082458461 1 1 1 1 1 1 1 1 1 1 1 1 1 1 1 1 1 1 1 1 1 1 1 1 1 1 1 0.0099059045853208249 1 0.010101731316678183 1 1 1 1 1 1 1 1 1 0.0041969703108715225 1 1 1 0.010538151602227819 1 1 1 1 1 1 1 0.0092303964973190818 1 1 1 1 1 1 1 1 0.0096045441026937888 1 1 1 0.012906429638136516 0.0065825523941401261 1 1 1 1 0.010015699564489243 1 1 1 1 1 1 1 1 1 1 1 1 1 1 1 1 0.00060379698894432766 1 1 1 0.0011463539656112599 1 1 1 0.0044444401902626971 1 1 0.0080883702643403024 1 1 1 1 1 1 1 1 1 1 1 0.0037883533086855666 0.010578149612099489 1 1 1 1 1 1 1 1 0.010209534549750697 1 1 1 1 0.004463388957323693 1 1 1 0.010046448495558108 1 1 0.0072049120865672533 0.0038055881846865008 1 1 1 0.0039907592606823767 1 1 1 1 1 0.0093767285345483578 1 1 1 1 0.011623139878076054 1 1 1 1 1 1 0.0053843362896436511 1 0.0097451483975047291 1 1 1 1 1 1 1 1 0.0071219731363888848 0.0086550534571606334 1 0.010291602627477591 1 0.010025820622404374 1 0.0081788456204486271 1 1 1 1 1 1 1 1 0.0051371576821279104 1 1 1 1 1 1 1 1 1 1 0.0097013743133237164 1 1 1 1 1 1 1 1 1 1 1 1 1 1 1 1 1 1 1 1 1 1 1 1 1 1 1 1 1 1 1 1 1 0.0099244688570256194 1 1 1 1 0.0032511942482531114 1 0.01051366544360359 1 1 1 1 1 1 1 1 1 1 1 1 1 1 0.010323463922863228 1 1 1 1 1 1 1 1 0.010177062235507656 1 1 1 0.010337770335879395 1 1 1 1 1 1 0.010243653995986004 1 1 1 1 1 1 1 1 1 1 1 1 0.010082945895614261 1 1 1 0.0097514742279077183 1 1 1 1 0.0078579130582896155 1 1 1 1 1 1 1 1 0.009217461524600061 1 0.0082452464829526617 1 1 1 1 1 1 1 0.0097519169027791459 1 1 1 0.010111796148451181 1 1 1 1 1 1 1 0.0034057189598382127 1 1 1 1 1 1 1 1 1 1 0.0091226099585219912 1 1 1 0.0083860511654435393 1 1 1 1 1 1 1 1 1 1 1 1 1 1 1 1 1 1 1 1 6.2641911276195561e-10 1 1 0.0065149366155228825 1 1 1 0.0099190197598061081 1 1 0.000747733122290495 1 1 1 1 1 1 1 1 1 1 1 1 1 1 1 1 1 1 1 1 1 1 1 1 1 1 1 1 1 1 1 1 1 1 1 1 0.0085745140066519499 1 1 0.0096040784157425483 1 1 0.0093475836835588168 1 1 1 1 1 1 1 1 1 1 1 0.0069738845178581614 1 0.010233006501442474 1 1 1 1 1 1 0.0099201451464022948 1 0.0093365082012254238 1 1 1 1 1 1 1 1 1 1 1 0.0091038034278946196 1 1 1 1 1 1 1 1 1 1 1 1 1 1 1 1 0.0055336781317909247 1 1 1 1 1 1 1 1 1 1 
</DataArray>
</CellData>
</Piece>
</UnstructuredGrid>
</VTKFile>
